<?xml version="1.0"?>
<VTKFile type="UnstructuredGrid" version="0.1" byte_order="LittleEndian">
<UnstructuredGrid>
<Piece NumberOfPoints="27927" NumberOfCells="9754">
<Points>
<DataArray type="Float64" NumberOfComponents="3" format="ascii">
-0.5 -0.5 0 -0.48335695638425957 -0.47516790077666782 0 -0.5 -0.45073792250622119 0 -0.48335695638425957 -0.47516790077666782 0 -0.46931589116145422 -0.49999999999999672 0 -0.46734030062654031 -0.47040852092327368 0 -0.5 -0.5 0 -0.48335695638425957 -0.47516790077666782 0 -0.46931589116145422 -0.49999999999999672 0 -0.46931589116145422 -0.49999999999999672 0 -0.46734030062654031 -0.47040852092327368 0 -0.46931589116145422 -0.49999999999999672 0 -0.46734030062654031 -0.47040852092327368 0 -0.44151123930832797 -0.48180473692359271 0 -0.46734030062654031 -0.47040852092327368 0 -0.44151123930832797 -0.48180473692359271 0 -0.44343136890379159 -0.46546975173801841 0 -0.44151123930832797 -0.48180473692359271 0 -0.44343136890379159 -0.46546975173801841 0 -0.43287382338990738 -0.4690730124016016 0 -0.46931589116145422 -0.49999999999999672 0 -0.44151123930832797 -0.48180473692359271 0 -0.44114584062494538 -0.5 0 -0.44854033576539032 -0.44990502101748481 0 -0.44729150785537469 -0.43382852050337001 0 -0.43406826831532219 -0.43994051948471141 0 -0.44854033576539032 -0.44990502101748481 0 -0.44343136890379159 -0.46546975173801841 0 -0.43086315702756961 -0.45789654348009617 0 -0.46734030062654031 -0.47040852092327368 0 -0.44854033576539032 -0.44990502101748481 0 -0.44343136890379159 -0.46546975173801841 0 -0.46734030062654031 -0.47040852092327368 0 -0.46536471009162611 -0.44081704184655079 0 -0.46734030062654031 -0.47040852092327368 0 -0.44854033576539032 -0.44990502101748481 0 -0.46536471009162611 -0.44081704184655079 0 -0.44854033576539032 -0.44990502101748481 0 -0.46536471009162611 -0.44081704184655079 0 -0.44729150785537469 -0.43382852050337001 0 -0.46536471009162611 -0.44081704184655079 0 -0.47910740248295181 -0.45282373767928752 0 -0.47743267001163048 -0.42324865679461071 0 -0.46734030062654031 -0.47040852092327368 0 -0.46536471009162611 -0.44081704184655079 0 -0.47910740248295181 -0.45282373767928752 0 -0.48335695638425957 -0.47516790077666782 0 -0.46734030062654031 -0.47040852092327368 0 -0.47910740248295181 -0.45282373767928752 0 -0.48335695638425957 -0.47516790077666782 0 -0.47910740248295181 -0.45282373767928752 0 -0.5 -0.45073792250622119 0 -0.47910740248295181 -0.45282373767928752 0 -0.5 -0.45073792250622119 0 -0.47743267001163048 -0.42324865679461071 0 -0.5 -0.45073792250622119 0 -0.47743267001163048 -0.42324865679461071 0 -0.49999999999999861 -0.38523967692199151 0 -0.47743267001163048 -0.42324865679461071 0 -0.47176368126739948 -0.39734396123012822 0 -0.45871334940499309 -0.41712305769021618 0 -0.47743267001163048 -0.42324865679461071 0 -0.49999999999999861 -0.38523967692199151 0 -0.47176368126739948 -0.39734396123012822 0 -0.49999999999999861 -0.38523967692199151 0 -0.48090811028139357 -0.37130876753034658 0 -0.47176368126739948 -0.39734396123012822 0 -0.46005522269310217 -0.38692287095269068 0 -0.48090811028139357 -0.37130876753034658 0 -0.49999999999999861 -0.38523967692199151 0 -0.47176368126739948 -0.39734396123012822 0 -0.48090811028139357 -0.37130876753034658 0 -0.46005522269310217 -0.38692287095269068 0 -0.45085593012893482 -0.36537402464480451 0 -0.46005522269310217 -0.38692287095269068 0 -0.48090811028139357 -0.37130876753034658 0 -0.46386732763955107 -0.37127821521501148 0 -0.47176368126739948 -0.39734396123012822 0 -0.46005522269310217 -0.38692287095269068 0 -0.45212330639585502 -0.40322246918245352 0 -0.47176368126739948 -0.39734396123012822 0 -0.45212330639585502 -0.40322246918245352 0 -0.45871334940499309 -0.41712305769021618 0 -0.45212330639585502 -0.40322246918245352 0 -0.44031340291423787 -0.39336549356134548 0 -0.42977087569954192 -0.42135696247788668 0 -0.46005522269310217 -0.38692287095269068 0 -0.45212330639585502 -0.40322246918245352 0 -0.44031340291423787 -0.39336549356134548 0 -0.44031340291423787 -0.39336549356134548 0 -0.43469370445862809 -0.38213730172421051 0 -0.45085593012893482 -0.36537402464480451 0 -0.44031340291423787 -0.39336549356134548 0 -0.45085593012893482 -0.36537402464480451 0 -0.46005522269310217 -0.38692287095269068 0 -0.44031340291423787 -0.39336549356134548 0 -0.45085593012893482 -0.36537402464480451 0 -0.46536471009162611 -0.44081704184655079 0 -0.45871334940499309 -0.41712305769021618 0 -0.44729150785537469 -0.43382852050337001 0 -0.46536471009162611 -0.44081704184655079 0 -0.47743267001163048 -0.42324865679461071 0 -0.45871334940499309 -0.41712305769021618 0 -0.45212330639585502 -0.40322246918245352 0 -0.45871334940499309 -0.41712305769021618 0 -0.42977087569954192 -0.42135696247788668 0 -0.45871334940499309 -0.41712305769021618 0 -0.44729150785537469 -0.43382852050337001 0 -0.42977087569954192 -0.42135696247788668 0 -0.42977087569954192 -0.42135696247788668 0 -0.41922834848484442 -0.44934843139442737 0 -0.44729150785537469 -0.43382852050337001 0 -0.42977087569954192 -0.42135696247788668 0 -0.43406826831532219 -0.43994051948471141 0 -0.42977087569954192 -0.42135696247788668 0 -0.43406826831532219 -0.43994051948471141 0 -0.41922834848484442 -0.44934843139442737 0 -0.44031340291423787 -0.39336549356134548 0 -0.42977087569954192 -0.42135696247788668 0 -0.41547030410042018 -0.40035849742507618 0 -0.40496814321414881 -0.42461836475728743 0 -0.3997283941375816 -0.40804277243342019 0 -0.41547030410042018 -0.40035849742507618 0 -0.40496814321414881 -0.42461836475728743 0 -0.42977087569954192 -0.42135696247788668 0 -0.41547030410042018 -0.40035849742507618 0 -0.40496814321414881 -0.42461836475728743 0 -0.42977087569954192 -0.42135696247788668 0 -0.40496814321414881 -0.42461836475728743 0 -0.41922834848484442 -0.44934843139442737 0 -0.4259724649866915 -0.37609863009286482 0 -0.43469370445862809 -0.38213730172421051 0 -0.41547030410042018 -0.40035849742507618 0 -0.4259724649866915 -0.37609863009286482 0 -0.43469370445862809 -0.38213730172421051 0 -0.43095553882326859 -0.37245180954684931 0 -0.44031340291423787 -0.39336549356134548 0 -0.42977087569954192 -0.42135696247788668 0 -0.41547030410042018 -0.40035849742507618 0 -0.44031340291423787 -0.39336549356134548 0 -0.43469370445862809 -0.38213730172421051 0 -0.41547030410042018 -0.40035849742507618 0 -0.41547030410042018 -0.40035849742507618 0 -0.40484970631585521 -0.39155714281725917 0 -0.3997283941375816 -0.40804277243342019 0 -0.4259724649866915 -0.37609863009286482 0 -0.40484970631585521 -0.39155714281725917 0 -0.41111828990261923 -0.37158638338599059 0 -0.4259724649866915 -0.37609863009286482 0 -0.41547030410042018 -0.40035849742507618 0 -0.40484970631585521 -0.39155714281725917 0 -0.4259724649866915 -0.37609863009286482 0 -0.40484970631585521 -0.39155714281725917 0 -0.4259724649866915 -0.37609863009286482 0 -0.41547030410042018 -0.40035849742507618 0 -0.40484970631585521 -0.39155714281725917 0 -0.41111828990261923 -0.37158638338599059 0 -0.39260236157712802 -0.36588875755825129 0 -0.40484970631585521 -0.39155714281725917 0 -0.3997283941375816 -0.40804277243342019 0 -0.38372694764501902 -0.40701565554165359 0 -0.40484970631585521 -0.39155714281725917 0 -0.38372694764501902 -0.40701565554165359 0 -0.40484970631585521 -0.39155714281725917 0 -0.38372694764501902 -0.40701565554165359 0 -0.37431098846497091 -0.38546540042127903 0 -0.40484970631585521 -0.39155714281725917 0 -0.39260236157712802 -0.36588875755825129 0 -0.37431098846497091 -0.38546540042127903 0 -0.40496814321414881 -0.42461836475728743 0 -0.38552524171378588 -0.421946441048902 0 -0.38888210116230609 -0.43395199885338731 0 -0.40496814321414881 -0.42461836475728743 0 -0.38888210116230609 -0.43395199885338731 0 -0.39446598232787933 -0.44887823208949951 0 -0.40496814321414881 -0.42461836475728743 0 -0.39446598232787933 -0.44887823208949951 0 -0.40496814321414881 -0.42461836475728743 0 -0.3997283941375816 -0.40804277243342019 0 -0.38552524171378588 -0.421946441048902 0 -0.38372694764501902 -0.40701565554165359 0 -0.38552524171378588 -0.421946441048902 0 -0.36260418897418289 -0.42247416826604822 0 -0.3997283941375816 -0.40804277243342019 0 -0.38372694764501902 -0.40701565554165359 0 -0.38552524171378588 -0.421946441048902 0 -0.38552524171378588 -0.421946441048902 0 -0.38888210116230609 -0.43395199885338731 0 -0.37324167514947693 -0.43557568644161559 0 -0.38888210116230609 -0.43395199885338731 0 -0.38387916132476829 -0.4486772046171853 0 -0.37324167514947693 -0.43557568644161559 0 -0.38387916132476829 -0.4486772046171853 0 -0.37324167514947693 -0.43557568644161559 0 -0.38387916132476829 -0.4486772046171853 0 -0.39446598232787933 -0.44887823208949951 0 -0.38387916132476829 -0.4486772046171853 0 -0.39446598232787933 -0.44887823208949951 0 -0.39241401592281749 -0.45361825019586571 0 -0.38888210116230609 -0.43395199885338731 0 -0.38387916132476829 -0.4486772046171853 0 -0.39446598232787933 -0.44887823208949951 0 -0.40496814321414881 -0.42461836475728743 0 -0.39446598232787933 -0.44887823208949951 0 -0.41922834848484442 -0.44934843139442737 0 -0.39446598232787933 -0.44887823208949951 0 -0.40439789014030619 -0.45483519472048051 0 -0.41922834848484442 -0.44934843139442737 0 -0.39446598232787933 -0.44887823208949951 0 -0.39792027761805437 -0.45681412413119821 0 -0.39241401592281749 -0.45361825019586571 0 -0.39446598232787933 -0.44887823208949951 0 -0.39241401592281749 -0.45361825019586571 0 -0.40292375363875671 -0.46062763786987287 0 -0.39713267826216908 -0.46500072224006311 0 -0.41698541521393179 -0.46018106537442871 0 -0.39446598232787933 -0.44887823208949951 0 -0.40439789014030619 -0.45483519472048051 0 -0.39792027761805437 -0.45681412413119821 0 -0.40292375363875671 -0.46062763786987287 0 -0.40439789014030619 -0.45483519472048051 0 -0.40745108863199658 -0.45850754811740418 0 -0.40292375363875671 -0.46062763786987287 0 -0.39792027761805437 -0.45681412413119821 0 -0.39713267826216908 -0.46500072224006311 0 -0.40292375363875671 -0.46062763786987287 0 -0.40439789014030619 -0.45483519472048051 0 -0.39792027761805437 -0.45681412413119821 0 -0.39792027761805437 -0.45681412413119821 0 -0.39340259542245343 -0.46040661538854027 0 -0.39792027761805437 -0.45681412413119821 0 -0.39340259542245343 -0.46040661538854027 0 -0.39713267826216908 -0.46500072224006311 0 -0.39792027761805437 -0.45681412413119821 0 -0.39241401592281749 -0.45361825019586571 0 -0.39340259542245343 -0.46040661538854027 0 -0.39340259542245343 -0.46040661538854027 0 -0.39713267826216908 -0.46500072224006311 0 -0.38344731134441001 -0.46832312422343569 0 -0.39340259542245343 -0.46040661538854027 0 -0.39713267826216908 -0.46500072224006311 0 -0.39340259542245343 -0.46040661538854027 0 -0.38344731134441001 -0.46832312422343569 0 -0.37563372717819132 -0.45869979377648251 0 -0.38387916132476829 -0.4486772046171853 0 -0.39340259542245343 -0.46040661538854027 0 -0.37563372717819132 -0.45869979377648251 0 -0.39713267826216908 -0.46500072224006311 0 -0.38344731134441001 -0.46832312422343569 0 -0.39340259542245343 -0.46040661538854027 0 -0.38344731134441001 -0.46832312422343569 0 -0.38387916132476829 -0.4486772046171853 0 -0.39241401592281749 -0.45361825019586571 0 -0.39340259542245343 -0.46040661538854027 0 -0.38387916132476829 -0.4486772046171853 0 -0.39340259542245343 -0.46040661538854027 0 -0.38344731134441001 -0.46832312422343569 0 -0.37563372717819132 -0.45869979377648251 0 -0.37062782904524949 -0.47143531505269559 0 -0.38344731134441001 -0.46832312422343569 0 -0.37314815040525467 -0.47651308625040018 0 -0.38344731134441001 -0.46832312422343569 0 -0.37062782904524949 -0.47143531505269559 0 -0.38344731134441001 -0.46832312422343569 0 -0.38659426676638509 -0.48167361363281502 0 -0.37314815040525467 -0.47651308625040018 0 -0.38344731134441001 -0.46832312422343569 0 -0.37314815040525467 -0.47651308625040018 0 -0.37062782904524949 -0.47143531505269559 0 -0.38344731134441001 -0.46832312422343569 0 -0.38659426676638509 -0.48167361363281502 0 -0.39457565919975002 -0.47647952724688758 0 -0.38659426676638509 -0.48167361363281502 0 -0.38480573955192771 -0.49999999999999861 0 -0.37314815040525467 -0.47651308625040018 0 -0.38659426676638509 -0.48167361363281502 0 -0.38480573955192771 -0.49999999999999861 0 -0.39699447333058369 -0.48705233044335239 0 -0.37779976871777188 -0.50000000000000011 0 -0.38480573955192771 -0.49999999999999861 0 -0.37314815040525467 -0.47651308625040018 0 -0.38480573955192771 -0.49999999999999861 0 -0.37314815040525467 -0.47651308625040018 0 -0.38480573955192771 -0.49999999999999861 0 -0.39699447333058369 -0.48705233044335239 0 -0.41297579008843671 -0.5 0 -0.39699447333058369 -0.48705233044335239 0 -0.39457565919975002 -0.47647952724688758 0 -0.41214880968537132 -0.48349514051952258 0 -0.39713267826216908 -0.46500072224006311 0 -0.39457565919975002 -0.47647952724688758 0 -0.41214880968537132 -0.48349514051952258 0 -0.39713267826216908 -0.46500072224006311 0 -0.41214880968537132 -0.48349514051952258 0 -0.39713267826216908 -0.46500072224006311 0 -0.40902486703005297 -0.47068834021050682 0 -0.41214880968537132 -0.48349514051952258 0 -0.39713267826216908 -0.46500072224006311 0 -0.38344731134441001 -0.46832312422343569 0 -0.39457565919975002 -0.47647952724688758 0 -0.38659426676638509 -0.48167361363281502 0 -0.39699447333058369 -0.48705233044335239 0 -0.39457565919975002 -0.47647952724688758 0 -0.40902486703005297 -0.47068834021050682 0 -0.41757607069422709 -0.4708124795990013 0 -0.41264938738490298 -0.46630340541445542 0 -0.40902486703005297 -0.47068834021050682 0 -0.41214880968537132 -0.48349514051952258 0 -0.41757607069422709 -0.4708124795990013 0 -0.41214880968537132 -0.48349514051952258 0 -0.4263460126698484 -0.48833221650884789 0 -0.42603544598571419 -0.47535961021802259 0 -0.41214880968537132 -0.48349514051952258 0 -0.41757607069422709 -0.4708124795990013 0 -0.42603544598571419 -0.47535961021802259 0 -0.41214880968537132 -0.48349514051952258 0 -0.41297579008843671 -0.5 0 -0.4263460126698484 -0.48833221650884789 0 -0.39699447333058369 -0.48705233044335239 0 -0.41214880968537132 -0.48349514051952258 0 -0.41297579008843671 -0.5 0 -0.44151123930832797 -0.48180473692359271 0 -0.44114584062494538 -0.5 0 -0.4263460126698484 -0.48833221650884789 0 -0.44114584062494538 -0.5 0 -0.41297579008843671 -0.5 0 -0.4263460126698484 -0.48833221650884789 0 -0.42603544598571419 -0.47535961021802259 0 -0.43287382338990738 -0.4690730124016016 0 -0.4225279057241339 -0.46483441964827787 0 -0.41757607069422709 -0.4708124795990013 0 -0.42603544598571419 -0.47535961021802259 0 -0.4225279057241339 -0.46483441964827787 0 -0.44151123930832797 -0.48180473692359271 0 -0.4263460126698484 -0.48833221650884789 0 -0.42603544598571419 -0.47535961021802259 0 -0.44151123930832797 -0.48180473692359271 0 -0.42603544598571419 -0.47535961021802259 0 -0.43287382338990738 -0.4690730124016016 0 -0.44343136890379159 -0.46546975173801841 0 -0.43287382338990738 -0.4690730124016016 0 -0.43086315702756961 -0.45789654348009617 0 -0.43287382338990738 -0.4690730124016016 0 -0.4225279057241339 -0.46483441964827787 0 -0.43086315702756961 -0.45789654348009617 0 -0.4225279057241339 -0.46483441964827787 0 -0.42188234629422677 -0.45755229176588641 0 -0.43086315702756961 -0.45789654348009617 0 -0.42188234629422677 -0.45755229176588641 0 -0.43086315702756961 -0.45789654348009617 0 -0.41922834848484442 -0.44934843139442737 0 -0.44854033576539032 -0.44990502101748481 0 -0.41922834848484442 -0.44934843139442737 0 -0.44854033576539032 -0.44990502101748481 0 -0.43406826831532219 -0.43994051948471141 0 -0.41922834848484442 -0.44934843139442737 0 -0.44854033576539032 -0.44990502101748481 0 -0.43086315702756961 -0.45789654348009617 0 -0.41922834848484442 -0.44934843139442737 0 -0.39446598232787933 -0.44887823208949951 0 -0.41922834848484442 -0.44934843139442737 0 -0.41922834848484442 -0.44934843139442737 0 -0.41676799832981531 -0.45588090823663568 0 -0.39713267826216908 -0.46500072224006311 0 -0.41264938738490298 -0.46630340541445542 0 -0.41698541521393179 -0.46018106537442871 0 -0.40439789014030619 -0.45483519472048051 0 -0.41922834848484442 -0.44934843139442737 0 -0.40745108863199658 -0.45850754811740418 0 -0.41311171966950871 -0.45766404790254872 0 -0.40745108863199658 -0.45850754811740418 0 -0.41698541521393179 -0.46018106537442871 0 -0.41922834848484442 -0.44934843139442737 0 -0.41311171966950871 -0.45766404790254872 0 -0.40745108863199658 -0.45850754811740418 0 -0.39713267826216908 -0.46500072224006311 0 -0.41698541521393179 -0.46018106537442871 0 -0.40292375363875671 -0.46062763786987287 0 -0.40745108863199658 -0.45850754811740418 0 -0.41698541521393179 -0.46018106537442871 0 -0.39713267826216908 -0.46500072224006311 0 -0.40902486703005297 -0.47068834021050682 0 -0.41264938738490298 -0.46630340541445542 0 -0.4225279057241339 -0.46483441964827787 0 -0.41264938738490298 -0.46630340541445542 0 -0.41698541521393179 -0.46018106537442871 0 -0.41757607069422709 -0.4708124795990013 0 -0.4225279057241339 -0.46483441964827787 0 -0.41264938738490298 -0.46630340541445542 0 -0.4225279057241339 -0.46483441964827787 0 -0.42188234629422677 -0.45755229176588641 0 -0.41698541521393179 -0.46018106537442871 0 -0.41922834848484442 -0.44934843139442737 0 -0.41311171966950871 -0.45766404790254872 0 -0.41676799832981531 -0.45588090823663568 0 -0.42188234629422677 -0.45755229176588641 0 -0.41922834848484442 -0.44934843139442737 0 -0.41676799832981531 -0.45588090823663568 0 -0.42188234629422677 -0.45755229176588641 0 -0.41676799832981531 -0.45588090823663568 0 -0.41698541521393179 -0.46018106537442871 0 -0.41311171966950871 -0.45766404790254872 0 -0.41676799832981531 -0.45588090823663568 0 -0.41698541521393179 -0.46018106537442871 0 -0.45264831842648329 -0.2622733408885301 0 -0.43720718441906181 -0.25881525404993999 0 -0.44677499405567389 -0.24712879453222 0 -0.43720718441906181 -0.25881525404993999 0 -0.43250485100393199 -0.2476413254954328 0 -0.44677499405567389 -0.24712879453222 0 -0.45264831842648329 -0.2622733408885301 0 -0.42942973025084902 -0.27977041866533292 0 -0.43720718441906181 -0.25881525404993999 0 -0.45264831842648329 -0.2622733408885301 0 -0.45450327678598962 -0.28444379321127239 0 -0.42942973025084902 -0.27977041866533292 0 -0.45264831842648329 -0.2622733408885301 0 -0.46628056396917988 -0.26845409956734689 0 -0.45450327678598962 -0.28444379321127239 0 -0.46628056396917988 -0.26845409956734689 0 -0.47172730830662568 -0.27955870041577102 0 -0.45450327678598962 -0.28444379321127239 0 -0.46628056396917988 -0.26845409956734689 0 -0.47771492469285221 -0.25189451237979799 0 -0.46210946183872947 -0.2493779631956265 0 -0.45264831842648329 -0.2622733408885301 0 -0.46628056396917988 -0.26845409956734689 0 -0.46210946183872947 -0.2493779631956265 0 -0.45264831842648329 -0.2622733408885301 0 -0.46210946183872947 -0.2493779631956265 0 -0.44677499405567389 -0.24712879453222 0 -0.46628056396917988 -0.26845409956734689 0 -0.47771492469285221 -0.25189451237979799 0 -0.48638572866691637 -0.26308961986347879 0 -0.48638572866691637 -0.26308961986347879 0 -0.5 -0.26702962014409271 0 -0.5 -0.24113546488157481 0 -0.47771492469285221 -0.25189451237979799 0 -0.48638572866691637 -0.26308961986347879 0 -0.5 -0.24113546488157481 0 -0.5 -0.26702962014409271 0 -0.48393213699762522 -0.27755337238682942 0 -0.49999999999999639 -0.29292377540661052 0 -0.48638572866691637 -0.26308961986347879 0 -0.5 -0.26702962014409271 0 -0.48393213699762522 -0.27755337238682942 0 -0.46628056396917988 -0.26845409956734689 0 -0.48393213699762522 -0.27755337238682942 0 -0.47172730830662568 -0.27955870041577102 0 -0.46628056396917988 -0.26845409956734689 0 -0.48638572866691637 -0.26308961986347879 0 -0.48393213699762522 -0.27755337238682942 0 -0.48393213699762522 -0.27755337238682942 0 -0.47172730830662568 -0.27955870041577102 0 -0.47957682332113089 -0.2891171677572083 0 -0.48393213699762522 -0.27755337238682942 0 -0.47957682332113089 -0.2891171677572083 0 -0.47957682332113089 -0.2891171677572083 0 -0.49999999999999639 -0.29292377540661052 0 -0.48699391748252691 -0.30632991512061769 0 -0.47957682332113089 -0.2891171677572083 0 -0.49999999999999639 -0.29292377540661052 0 -0.48393213699762522 -0.27755337238682942 0 -0.47957682332113089 -0.2891171677572083 0 -0.49999999999999639 -0.29292377540661052 0 -0.49999999999999639 -0.29292377540661052 0 -0.48699391748252691 -0.30632991512061769 0 -0.5 -0.3160027507854557 0 -0.47957682332113089 -0.2891171677572083 0 -0.45860352699134038 -0.30117845602900578 0 -0.47000319225706488 -0.31453612005307341 0 -0.47957682332113089 -0.2891171677572083 0 -0.48699391748252691 -0.30632991512061769 0 -0.47000319225706488 -0.31453612005307341 0 -0.47957682332113089 -0.2891171677572083 0 -0.47000319225706488 -0.31453612005307341 0 -0.45860352699134038 -0.30117845602900578 0 -0.44945185099618262 -0.31993535264674478 0 -0.47000319225706488 -0.31453612005307341 0 -0.47172730830662568 -0.27955870041577102 0 -0.47957682332113089 -0.2891171677572083 0 -0.45450327678598962 -0.28444379321127239 0 -0.47957682332113089 -0.2891171677572083 0 -0.45450327678598962 -0.28444379321127239 0 -0.47957682332113089 -0.2891171677572083 0 -0.45860352699134038 -0.30117845602900578 0 -0.45450327678598962 -0.28444379321127239 0 -0.45450327678598962 -0.28444379321127239 0 -0.43948249159633412 -0.29785984647673069 0 -0.42942973025084902 -0.27977041866533292 0 -0.45450327678598962 -0.28444379321127239 0 -0.42942973025084902 -0.27977041866533292 0 -0.45860352699134038 -0.30117845602900578 0 -0.45450327678598962 -0.28444379321127239 0 -0.43948249159633412 -0.29785984647673069 0 -0.45860352699134038 -0.30117845602900578 0 -0.43948249159633412 -0.29785984647673069 0 -0.44945185099618262 -0.31993535264674478 0 -0.43948249159633412 -0.29785984647673069 0 -0.44945185099618262 -0.31993535264674478 0 -0.43019210392579021 -0.31697012707566302 0 -0.44945185099618262 -0.31993535264674478 0 -0.44052401702736299 -0.34117207586023351 0 -0.43019210392579021 -0.31697012707566302 0 -0.44945185099618262 -0.31993535264674478 0 -0.44052401702736299 -0.34117207586023351 0 -0.46042956119299938 -0.33995507234893879 0 -0.46042956119299938 -0.33995507234893879 0 -0.47000319225706488 -0.31453612005307341 0 -0.44945185099618262 -0.31993535264674478 0 -0.46042956119299938 -0.33995507234893879 0 -0.47000319225706488 -0.31453612005307341 0 -0.46042956119299938 -0.33995507234893879 0 -0.4840026733133434 -0.32802969131874737 0 -0.47000319225706488 -0.31453612005307341 0 -0.48699391748252691 -0.30632991512061769 0 -0.4840026733133434 -0.32802969131874737 0 -0.47000319225706488 -0.31453612005307341 0 -0.48699391748252691 -0.30632991512061769 0 -0.4840026733133434 -0.32802969131874737 0 -0.5 -0.3160027507854557 0 -0.4840026733133434 -0.32802969131874737 0 -0.5 -0.3160027507854557 0 -0.5 -0.33908172616430099 0 -0.4840026733133434 -0.32802969131874737 0 -0.5 -0.33908172616430099 0 -0.48067800888144252 -0.34805148644885431 0 -0.46042956119299938 -0.33995507234893879 0 -0.4840026733133434 -0.32802969131874737 0 -0.48067800888144252 -0.34805148644885431 0 -0.48067800888144252 -0.34805148644885431 0 -0.48090811028139357 -0.37130876753034658 0 -0.46181622056278898 -0.35737785813870121 0 -0.5 -0.33908172616430099 0 -0.48067800888144252 -0.34805148644885431 0 -0.5 -0.36216070154314622 0 -0.49999999999999861 -0.38523967692199151 0 -0.5 -0.36216070154314622 0 -0.48090811028139357 -0.37130876753034658 0 -0.48067800888144252 -0.34805148644885431 0 -0.5 -0.36216070154314622 0 -0.48090811028139357 -0.37130876753034658 0 -0.48090811028139357 -0.37130876753034658 0 -0.46386732763955107 -0.37127821521501148 0 -0.46181622056278898 -0.35737785813870121 0 -0.48090811028139357 -0.37130876753034658 0 -0.46181622056278898 -0.35737785813870121 0 -0.46005522269310217 -0.38692287095269068 0 -0.46386732763955107 -0.37127821521501148 0 -0.45085593012893482 -0.36537402464480451 0 -0.46386732763955107 -0.37127821521501148 0 -0.46181622056278898 -0.35737785813870121 0 -0.45085593012893482 -0.36537402464480451 0 -0.46042956119299938 -0.33995507234893879 0 -0.48067800888144252 -0.34805148644885431 0 -0.46181622056278898 -0.35737785813870121 0 -0.46042956119299938 -0.33995507234893879 0 -0.45085593012893482 -0.36537402464480451 0 -0.46042956119299938 -0.33995507234893879 0 -0.46181622056278898 -0.35737785813870121 0 -0.45085593012893482 -0.36537402464480451 0 -0.44052401702736299 -0.34117207586023351 0 -0.4389276895617707 -0.3461722146766561 0 -0.45085593012893482 -0.36537402464480451 0 -0.44052401702736299 -0.34117207586023351 0 -0.45085593012893482 -0.36537402464480451 0 -0.44052401702736299 -0.34117207586023351 0 -0.46042956119299938 -0.33995507234893879 0 -0.45085593012893482 -0.36537402464480451 0 -0.43469370445862809 -0.38213730172421051 0 -0.43949987806199198 -0.36712679732574732 0 -0.45085593012893482 -0.36537402464480451 0 -0.4389276895617707 -0.3461722146766561 0 -0.43949987806199198 -0.36712679732574732 0 -0.45085593012893482 -0.36537402464480451 0 -0.4259724649866915 -0.37609863009286482 0 -0.43245007727423118 -0.36113542238476048 0 -0.4217339141442803 -0.3653800585754029 0 -0.4259724649866915 -0.37609863009286482 0 -0.43245007727423118 -0.36113542238476048 0 -0.4259724649866915 -0.37609863009286482 0 -0.43095553882326859 -0.37245180954684931 0 -0.43469370445862809 -0.38213730172421051 0 -0.43949987806199198 -0.36712679732574732 0 -0.43095553882326859 -0.37245180954684931 0 -0.4259724649866915 -0.37609863009286482 0 -0.43095553882326859 -0.37245180954684931 0 -0.43245007727423118 -0.36113542238476048 0 -0.43949987806199198 -0.36712679732574732 0 -0.43095553882326859 -0.37245180954684931 0 -0.43245007727423118 -0.36113542238476048 0 -0.4389276895617707 -0.3461722146766561 0 -0.43949987806199198 -0.36712679732574732 0 -0.43245007727423118 -0.36113542238476048 0 -0.4389276895617707 -0.3461722146766561 0 -0.43245007727423118 -0.36113542238476048 0 -0.43245007727423118 -0.36113542238476048 0 -0.42505558616202122 -0.34973594566059979 0 -0.4217339141442803 -0.3653800585754029 0 -0.4389276895617707 -0.3461722146766561 0 -0.43245007727423118 -0.36113542238476048 0 -0.42505558616202122 -0.34973594566059979 0 -0.4389276895617707 -0.3461722146766561 0 -0.42505558616202122 -0.34973594566059979 0 -0.43124718409510221 -0.33754341392067527 0 -0.42505558616202122 -0.34973594566059979 0 -0.41043300248914077 -0.35900732788617529 0 -0.40506184440789239 -0.34039529214432562 0 -0.42505558616202122 -0.34973594566059979 0 -0.41043300248914077 -0.35900732788617529 0 -0.4217339141442803 -0.3653800585754029 0 -0.41043300248914077 -0.35900732788617529 0 -0.4217339141442803 -0.3653800585754029 0 -0.41111828990261923 -0.37158638338599059 0 -0.4259724649866915 -0.37609863009286482 0 -0.4217339141442803 -0.3653800585754029 0 -0.41111828990261923 -0.37158638338599059 0 -0.41043300248914077 -0.35900732788617529 0 -0.41111828990261923 -0.37158638338599059 0 -0.39260236157712802 -0.36588875755825129 0 -0.39260236157712802 -0.36588875755825129 0 -0.3653228076249872 -0.36639420699613268 0 -0.37431098846497091 -0.38546540042127903 0 -0.39260236157712802 -0.36588875755825129 0 -0.37810518099300883 -0.34178610569980372 0 -0.3653228076249872 -0.36639420699613268 0 -0.41043300248914077 -0.35900732788617529 0 -0.39260236157712802 -0.36588875755825129 0 -0.40506184440789239 -0.34039529214432562 0 -0.39260236157712802 -0.36588875755825129 0 -0.40506184440789239 -0.34039529214432562 0 -0.37810518099300883 -0.34178610569980372 0 -0.40506184440789239 -0.34039529214432562 0 -0.37810518099300883 -0.34178610569980372 0 -0.38779410423015248 -0.3203427775745542 0 -0.38779410423015248 -0.3203427775745542 0 -0.3779602473167859 -0.30773300516077468 0 -0.36456309331435532 -0.31811968140550889 0 -0.37810518099300883 -0.34178610569980372 0 -0.38779410423015248 -0.3203427775745542 0 -0.36456309331435532 -0.31811968140550889 0 -0.38779410423015248 -0.3203427775745542 0 -0.40982855390658002 -0.31733075323122029 0 -0.39452655625286198 -0.29984143797146268 0 -0.40506184440789239 -0.34039529214432562 0 -0.38779410423015248 -0.3203427775745542 0 -0.40982855390658002 -0.31733075323122029 0 -0.40982855390658002 -0.31733075323122029 0 -0.42153652379856582 -0.33366670633022399 0 -0.43019210392579021 -0.31697012707566302 0 -0.42505558616202122 -0.34973594566059979 0 -0.40506184440789239 -0.34039529214432562 0 -0.42153652379856582 -0.33366670633022399 0 -0.40506184440789239 -0.34039529214432562 0 -0.40982855390658002 -0.31733075323122029 0 -0.42153652379856582 -0.33366670633022399 0 -0.42153652379856582 -0.33366670633022399 0 -0.43124718409510221 -0.33754341392067527 0 -0.43019210392579021 -0.31697012707566302 0 -0.42505558616202122 -0.34973594566059979 0 -0.42153652379856582 -0.33366670633022399 0 -0.43124718409510221 -0.33754341392067527 0 -0.44052401702736299 -0.34117207586023351 0 -0.43124718409510221 -0.33754341392067527 0 -0.43019210392579021 -0.31697012707566302 0 -0.44052401702736299 -0.34117207586023351 0 -0.43019210392579021 -0.31697012707566302 0 -0.44052401702736299 -0.34117207586023351 0 -0.4389276895617707 -0.3461722146766561 0 -0.43124718409510221 -0.33754341392067527 0 -0.43948249159633412 -0.29785984647673069 0 -0.43019210392579021 -0.31697012707566302 0 -0.41986019082421733 -0.29276817829109242 0 -0.43019210392579021 -0.31697012707566302 0 -0.41986019082421733 -0.29276817829109242 0 -0.43948249159633412 -0.29785984647673069 0 -0.41986019082421733 -0.29276817829109242 0 -0.42942973025084902 -0.27977041866533292 0 -0.41986019082421733 -0.29276817829109242 0 -0.40435618371570858 -0.27509704411939201 0 -0.42942973025084902 -0.27977041866533292 0 -0.40982855390658002 -0.31733075323122029 0 -0.43019210392579021 -0.31697012707566302 0 -0.41986019082421733 -0.29276817829109242 0 -0.40982855390658002 -0.31733075323122029 0 -0.41986019082421733 -0.29276817829109242 0 -0.39452655625286198 -0.29984143797146268 0 -0.39452655625286198 -0.29984143797146268 0 -0.3779602473167859 -0.30773300516077468 0 -0.36495723546977382 -0.29262812369157287 0 -0.38779410423015248 -0.3203427775745542 0 -0.39452655625286198 -0.29984143797146268 0 -0.3779602473167859 -0.30773300516077468 0 -0.39452655625286198 -0.29984143797146268 0 -0.37652732663951999 -0.2699101164496211 0 -0.36495723546977382 -0.29262812369157287 0 -0.41986019082421733 -0.29276817829109242 0 -0.39452655625286198 -0.29984143797146268 0 -0.40435618371570858 -0.27509704411939201 0 -0.39452655625286198 -0.29984143797146268 0 -0.40435618371570858 -0.27509704411939201 0 -0.37652732663951999 -0.2699101164496211 0 -0.39452655625286198 -0.29984143797146268 0 -0.40435618371570858 -0.27509704411939201 0 -0.40435618371570858 -0.27509704411939201 0 -0.37652732663951999 -0.2699101164496211 0 -0.39523355390471132 -0.25475421399986481 0 -0.40435618371570858 -0.27509704411939201 0 -0.37652732663951999 -0.2699101164496211 0 -0.37652732663951999 -0.2699101164496211 0 -0.39523355390471132 -0.25475421399986481 0 -0.37960814320156072 -0.2418861910958299 0 -0.40435618371570858 -0.27509704411939201 0 -0.39523355390471132 -0.25475421399986481 0 -0.41105447658868399 -0.25823524568278777 0 -0.39523355390471132 -0.25475421399986481 0 -0.41105447658868399 -0.25823524568278777 0 -0.40472509977870358 -0.24397221773524561 0 -0.40435618371570858 -0.27509704411939201 0 -0.41105447658868399 -0.25823524568278777 0 -0.42257608489924398 -0.26084539838998833 0 -0.41105447658868399 -0.25823524568278777 0 -0.42257608489924398 -0.26084539838998833 0 -0.42090408341722951 -0.2455131023270429 0 -0.40435618371570858 -0.27509704411939201 0 -0.42942973025084902 -0.27977041866533292 0 -0.40435618371570858 -0.27509704411939201 0 -0.42942973025084902 -0.27977041866533292 0 -0.42257608489924398 -0.26084539838998833 0 -0.40435618371570858 -0.27509704411939201 0 -0.41105447658868399 -0.25823524568278777 0 -0.42942973025084902 -0.27977041866533292 0 -0.43720718441906181 -0.25881525404993999 0 -0.42257608489924398 -0.26084539838998833 0 -0.43720718441906181 -0.25881525404993999 0 -0.42257608489924398 -0.26084539838998833 0 -0.43250485100393199 -0.2476413254954328 0 -0.42257608489924398 -0.26084539838998833 0 -0.43250485100393199 -0.2476413254954328 0 -0.42090408341722951 -0.2455131023270429 0 -0.32790036647739762 -0.26084669985039871 0 -0.32029269909534391 -0.26859082266708267 0 -0.31092966182034032 -0.26377887371112319 0 -0.32790036647739762 -0.26084669985039871 0 -0.31350341631438661 -0.25816330042236629 0 -0.31092966182034032 -0.26377887371112319 0 -0.32790036647739762 -0.26084669985039871 0 -0.31092966182034032 -0.26377887371112319 0 -0.32790036647739762 -0.26084669985039871 0 -0.31350341631438661 -0.25816330042236629 0 -0.33047081334837819 -0.25193238763543391 0 -0.32790036647739762 -0.26084669985039871 0 -0.31350341631438661 -0.25816330042236629 0 -0.32029269909534391 -0.26859082266708267 0 -0.31570247475950219 -0.27417397223178408 0 -0.32263755070878181 -0.2767621262789714 0 -0.32029269909534391 -0.26859082266708267 0 -0.31154663325457682 -0.26987501004631592 0 -0.31092966182034032 -0.26377887371112319 0 -0.32029269909534391 -0.26859082266708267 0 -0.31570247475950219 -0.27417397223178408 0 -0.31154663325457682 -0.26987501004631592 0 -0.31570247475950219 -0.27417397223178408 0 -0.32263755070878181 -0.2767621262789714 0 -0.31358263445475659 -0.28616687569672172 0 -0.32029269909534391 -0.26859082266708267 0 -0.32263755070878181 -0.2767621262789714 0 -0.33077780337284179 -0.27068636859875189 0 -0.32790036647739762 -0.26084669985039871 0 -0.32029269909534391 -0.26859082266708267 0 -0.33077780337284179 -0.27068636859875189 0 -0.33077780337284179 -0.27068636859875189 0 -0.34869846956333173 -0.26472318877984968 0 -0.33435993101935341 -0.28250900541746082 0 -0.34869846956333173 -0.26472318877984968 0 -0.33435993101935341 -0.28250900541746082 0 -0.32263755070878181 -0.2767621262789714 0 -0.33077780337284179 -0.27068636859875189 0 -0.33435993101935341 -0.28250900541746082 0 -0.32790036647739762 -0.26084669985039871 0 -0.34869846956333173 -0.26472318877984968 0 -0.33244399197055219 -0.26006165879446791 0 -0.34869846956333173 -0.26472318877984968 0 -0.34380484447820958 -0.25252541284911428 0 -0.32790036647739762 -0.26084669985039871 0 -0.33244399197055219 -0.26006165879446791 0 -0.34869846956333173 -0.26472318877984968 0 -0.32790036647739762 -0.26084669985039871 0 -0.33077780337284179 -0.27068636859875189 0 -0.34869846956333173 -0.26472318877984968 0 -0.32790036647739762 -0.26084669985039871 0 -0.33244399197055219 -0.26006165879446791 0 -0.33244399197055219 -0.26006165879446791 0 -0.33047081334837819 -0.25193238763543391 0 -0.34380484447820958 -0.25252541284911428 0 -0.32790036647739762 -0.26084669985039871 0 -0.33244399197055219 -0.26006165879446791 0 -0.33047081334837819 -0.25193238763543391 0 -0.34869846956333173 -0.26472318877984968 0 -0.36403445691448949 -0.2457001162297571 0 -0.34869846956333173 -0.26472318877984968 0 -0.34380484447820958 -0.25252541284911428 0 -0.36403445691448949 -0.2457001162297571 0 -0.37652732663951999 -0.2699101164496211 0 -0.36403445691448949 -0.2457001162297571 0 -0.37960814320156072 -0.2418861910958299 0 -0.37652732663951999 -0.2699101164496211 0 -0.34869846956333173 -0.26472318877984968 0 -0.36403445691448949 -0.2457001162297571 0 -0.37652732663951999 -0.2699101164496211 0 -0.34869846956333173 -0.26472318877984968 0 -0.37652732663951999 -0.2699101164496211 0 -0.34869846956333173 -0.26472318877984968 0 -0.35217716091530149 -0.28195323226525448 0 -0.34869846956333173 -0.26472318877984968 0 -0.35217716091530149 -0.28195323226525448 0 -0.33435993101935341 -0.28250900541746082 0 -0.35217716091530149 -0.28195323226525448 0 -0.36495723546977382 -0.29262812369157287 0 -0.34467921229529952 -0.3032066800925014 0 -0.37652732663951999 -0.2699101164496211 0 -0.35217716091530149 -0.28195323226525448 0 -0.36495723546977382 -0.29262812369157287 0 -0.3779602473167859 -0.30773300516077468 0 -0.36495723546977382 -0.29262812369157287 0 -0.36456309331435532 -0.31811968140550889 0 -0.36495723546977382 -0.29262812369157287 0 -0.34467921229529952 -0.3032066800925014 0 -0.36456309331435532 -0.31811968140550889 0 -0.34467921229529952 -0.3032066800925014 0 -0.3200213924753742 -0.30029482205507108 0 -0.32961266091895253 -0.32134001829408382 0 -0.34467921229529952 -0.3032066800925014 0 -0.33435993101935341 -0.28250900541746082 0 -0.3200213924753742 -0.30029482205507108 0 -0.35217716091530149 -0.28195323226525448 0 -0.34467921229529952 -0.3032066800925014 0 -0.33435993101935341 -0.28250900541746082 0 -0.33435993101935341 -0.28250900541746082 0 -0.3200213924753742 -0.30029482205507108 0 -0.33435993101935341 -0.28250900541746082 0 -0.31358263445475659 -0.28616687569672172 0 -0.3200213924753742 -0.30029482205507108 0 -0.32263755070878181 -0.2767621262789714 0 -0.33435993101935341 -0.28250900541746082 0 -0.31358263445475659 -0.28616687569672172 0 -0.31358263445475659 -0.28616687569672172 0 -0.3200213924753742 -0.30029482205507108 0 -0.3200213924753742 -0.30029482205507108 0 -0.32961266091895253 -0.32134001829408382 0 -0.3200213924753742 -0.30029482205507108 0 -0.31534443628812669 -0.32019478331007539 0 -0.31064341316072408 -0.31192745951042378 0 -0.3200213924753742 -0.30029482205507108 0 -0.31064341316072408 -0.31192745951042378 0 -0.3200213924753742 -0.30029482205507108 0 -0.31534443628812669 -0.32019478331007539 0 -0.32961266091895253 -0.32134001829408382 0 -0.31534443628812669 -0.32019478331007539 0 -0.32156241730070062 -0.33218127428897398 0 -0.32961266091895253 -0.32134001829408382 0 -0.31534443628812669 -0.32019478331007539 0 -0.31064341316072408 -0.31192745951042378 0 -0.32156241730070062 -0.33218127428897398 0 -0.33920392936253108 -0.34238521453309639 0 -0.31729675968047538 -0.34601935999761568 0 -0.31534443628812669 -0.32019478331007539 0 -0.32156241730070062 -0.33218127428897398 0 -0.31045729872850852 -0.33455311197754117 0 -0.32156241730070062 -0.33218127428897398 0 -0.31729675968047538 -0.34601935999761568 0 -0.31045729872850852 -0.33455311197754117 0 -0.32156241730070062 -0.33218127428897398 0 -0.33920392936253108 -0.34238521453309639 0 -0.32961266091895253 -0.32134001829408382 0 -0.33920392936253108 -0.34238521453309639 0 -0.32961266091895253 -0.32134001829408382 0 -0.33920392936253108 -0.34238521453309639 0 -0.32961266091895253 -0.32134001829408382 0 -0.34730877280548128 -0.32536784355502751 0 -0.34467921229529952 -0.3032066800925014 0 -0.32961266091895253 -0.32134001829408382 0 -0.34730877280548128 -0.32536784355502751 0 -0.34467921229529952 -0.3032066800925014 0 -0.34730877280548128 -0.32536784355502751 0 -0.36456309331435532 -0.31811968140550889 0 -0.37810518099300883 -0.34178610569980372 0 -0.36456309331435532 -0.31811968140550889 0 -0.3584849681362679 -0.34178762344994668 0 -0.34730877280548128 -0.32536784355502751 0 -0.36456309331435532 -0.31811968140550889 0 -0.3584849681362679 -0.34178762344994668 0 -0.33920392936253108 -0.34238521453309639 0 -0.34730877280548128 -0.32536784355502751 0 -0.3584849681362679 -0.34178762344994668 0 -0.3584849681362679 -0.34178762344994668 0 -0.34809356830146049 -0.35676644817984859 0 -0.3653228076249872 -0.36639420699613268 0 -0.33920392936253108 -0.34238521453309639 0 -0.3584849681362679 -0.34178762344994668 0 -0.34809356830146049 -0.35676644817984859 0 -0.37810518099300883 -0.34178610569980372 0 -0.3584849681362679 -0.34178762344994668 0 -0.3653228076249872 -0.36639420699613268 0 -0.34809356830146049 -0.35676644817984859 0 -0.3653228076249872 -0.36639420699613268 0 -0.346449288449454 -0.37244793201518422 0 -0.346449288449454 -0.37244793201518422 0 -0.32865965208778181 -0.36289969964123331 0 -0.33001310582029381 -0.38960754694847433 0 -0.34809356830146049 -0.35676644817984859 0 -0.346449288449454 -0.37244793201518422 0 -0.32865965208778181 -0.36289969964123331 0 -0.33920392936253108 -0.34238521453309639 0 -0.32865965208778181 -0.36289969964123331 0 -0.31729675968047538 -0.34601935999761568 0 -0.33920392936253108 -0.34238521453309639 0 -0.34809356830146049 -0.35676644817984859 0 -0.32865965208778181 -0.36289969964123331 0 -0.32865965208778181 -0.36289969964123331 0 -0.31729675968047538 -0.34601935999761568 0 -0.3051484172659546 -0.35915236316361993 0 -0.32865965208778181 -0.36289969964123331 0 -0.3051484172659546 -0.35915236316361993 0 -0.31323216153822042 -0.37548773985469902 0 -0.3051484172659546 -0.35915236316361993 0 -0.29430667763280871 -0.37433716354908519 0 -0.31323216153822042 -0.37548773985469902 0 -0.31729675968047538 -0.34601935999761568 0 -0.3051484172659546 -0.35915236316361993 0 -0.30169900498240532 -0.34254184735261228 0 -0.3051484172659546 -0.35915236316361993 0 -0.28780890007252657 -0.35136977924581009 0 -0.30169900498240532 -0.34254184735261228 0 -0.28780890007252657 -0.35136977924581009 0 -0.29430667763280871 -0.37433716354908519 0 -0.3051484172659546 -0.35915236316361993 0 -0.28780890007252657 -0.35136977924581009 0 -0.29430667763280871 -0.37433716354908519 0 -0.28780890007252657 -0.35136977924581009 0 -0.29430667763280871 -0.37433716354908519 0 -0.28011988705385488 -0.37065750348104298 0 -0.28011988705385488 -0.37065750348104298 0 -0.27483122145123229 -0.35698874562631971 0 -0.26639492943861143 -0.37579856014355972 0 -0.28780890007252657 -0.35136977924581009 0 -0.28011988705385488 -0.37065750348104298 0 -0.27483122145123229 -0.35698874562631971 0 -0.2513156845449489 -0.35766797819330148 0 -0.26639492943861143 -0.37579856014355972 0 -0.2513156845449489 -0.35766797819330148 0 -0.26639492943861143 -0.37579856014355972 0 -0.24733858121431221 -0.37991130172012599 0 -0.2513156845449489 -0.35766797819330148 0 -0.27483122145123229 -0.35698874562631971 0 -0.26639492943861143 -0.37579856014355972 0 -0.26289316201652158 -0.34743340758492169 0 -0.2513156845449489 -0.35766797819330148 0 -0.25487435873285752 -0.3377648641156934 0 -0.2513156845449489 -0.35766797819330148 0 -0.25487435873285752 -0.3377648641156934 0 -0.26289316201652158 -0.34743340758492169 0 -0.2513156845449489 -0.35766797819330148 0 -0.27483122145123229 -0.35698874562631971 0 -0.27483122145123229 -0.35698874562631971 0 -0.27055138333704493 -0.33731204240437168 0 -0.27483122145123229 -0.35698874562631971 0 -0.2802971079495673 -0.34296970407398292 0 -0.27055138333704493 -0.33731204240437168 0 -0.26289316201652158 -0.34743340758492169 0 -0.27483122145123229 -0.35698874562631971 0 -0.27055138333704493 -0.33731204240437168 0 -0.28780890007252657 -0.35136977924581009 0 -0.27483122145123229 -0.35698874562631971 0 -0.2802971079495673 -0.34296970407398292 0 -0.2802971079495673 -0.34296970407398292 0 -0.27645811277563809 -0.33613996914702898 0 -0.27055138333704493 -0.33731204240437168 0 -0.2802971079495673 -0.34296970407398292 0 -0.27645811277563809 -0.33613996914702898 0 -0.27979423956852673 -0.33171202193322841 0 -0.2802971079495673 -0.34296970407398292 0 -0.27979423956852673 -0.33171202193322841 0 -0.28131112251224488 -0.32840239494253509 0 -0.27979423956852673 -0.33171202193322841 0 -0.27626434521647092 -0.3280917593142994 0 -0.28131112251224488 -0.32840239494253509 0 -0.27979423956852673 -0.33171202193322841 0 -0.28131112251224488 -0.32840239494253509 0 -0.27645811277563809 -0.33613996914702898 0 -0.27518972024741362 -0.33256610817653293 0 -0.27055138333704493 -0.33731204240437168 0 -0.27645811277563809 -0.33613996914702898 0 -0.27979423956852673 -0.33171202193322841 0 -0.27518972024741362 -0.33256610817653293 0 -0.27979423956852673 -0.33171202193322841 0 -0.27518972024741362 -0.33256610817653293 0 -0.27626434521647092 -0.3280917593142994 0 -0.27518972024741362 -0.33256610817653293 0 -0.27211425391506838 -0.32671405637277973 0 -0.27626434521647092 -0.3280917593142994 0 -0.27518972024741362 -0.33256610817653293 0 -0.27055138333704493 -0.33731204240437168 0 -0.27211425391506838 -0.32671405637277973 0 -0.26289316201652158 -0.34743340758492169 0 -0.27055138333704493 -0.33731204240437168 0 -0.25487435873285752 -0.3377648641156934 0 -0.27055138333704493 -0.33731204240437168 0 -0.25487435873285752 -0.3377648641156934 0 -0.26266927008929702 -0.32872266331074601 0 -0.25487435873285752 -0.3377648641156934 0 -0.25843303292076342 -0.31786175003808481 0 -0.25487435873285752 -0.3377648641156934 0 -0.26266927008929702 -0.32872266331074601 0 -0.25843303292076342 -0.31786175003808481 0 -0.25487435873285752 -0.3377648641156934 0 -0.25843303292076342 -0.31786175003808481 0 -0.24020454541713651 -0.32619712241641308 0 -0.26266927008929702 -0.32872266331074601 0 -0.25843303292076342 -0.31786175003808481 0 -0.2662715452228574 -0.31763533918242381 0 -0.27055138333704493 -0.33731204240437168 0 -0.2662715452228574 -0.31763533918242381 0 -0.28131112251224488 -0.32840239494253509 0 -0.27649659769840612 -0.31138472380633259 0 -0.27432231598034701 -0.32135385471521871 0 -0.28131112251224488 -0.32840239494253509 0 -0.27649659769840612 -0.31138472380633259 0 -0.2662715452228574 -0.31763533918242381 0 -0.27432231598034701 -0.32135385471521871 0 -0.27649659769840612 -0.31138472380633259 0 -0.27055138333704493 -0.33731204240437168 0 -0.2662715452228574 -0.31763533918242381 0 -0.27211425391506838 -0.32671405637277973 0 -0.27055138333704493 -0.33731204240437168 0 -0.26266927008929702 -0.32872266331074601 0 -0.2662715452228574 -0.31763533918242381 0 -0.2662715452228574 -0.31763533918242381 0 -0.27211425391506838 -0.32671405637277973 0 -0.27432231598034701 -0.32135385471521871 0 -0.27626434521647092 -0.3280917593142994 0 -0.27432231598034701 -0.32135385471521871 0 -0.28131112251224488 -0.32840239494253509 0 -0.27211425391506838 -0.32671405637277973 0 -0.27626434521647092 -0.3280917593142994 0 -0.27432231598034701 -0.32135385471521871 0 -0.28131112251224488 -0.32840239494253509 0 -0.28994703826219481 -0.30956003141426203 0 -0.27649659769840612 -0.31138472380633259 0 -0.29176809361360001 -0.32205947617083602 0 -0.28131112251224488 -0.32840239494253509 0 -0.28994703826219481 -0.30956003141426203 0 -0.28131112251224488 -0.32840239494253509 0 -0.28994703826219481 -0.30956003141426203 0 -0.29176809361360001 -0.32205947617083602 0 -0.29972890907155281 -0.31569456171301641 0 -0.28994703826219481 -0.30956003141426203 0 -0.29176809361360001 -0.32205947617083602 0 -0.28999226696796099 -0.3290139997717928 0 -0.29808924238870382 -0.3274999098479206 0 -0.29176809361360001 -0.32205947617083602 0 -0.29972890907155281 -0.31569456171301641 0 -0.29808924238870382 -0.3274999098479206 0 -0.29176809361360001 -0.32205947617083602 0 -0.28131112251224488 -0.32840239494253509 0 -0.28999226696796099 -0.3290139997717928 0 -0.28131112251224488 -0.32840239494253509 0 -0.291393411758263 -0.3366565598831664 0 -0.28999226696796099 -0.3290139997717928 0 -0.28780890007252657 -0.35136977924581009 0 -0.28131112251224488 -0.32840239494253509 0 -0.28780890007252657 -0.35136977924581009 0 -0.28131112251224488 -0.32840239494253509 0 -0.291393411758263 -0.3366565598831664 0 -0.28780890007252657 -0.35136977924581009 0 -0.2802971079495673 -0.34296970407398292 0 -0.28131112251224488 -0.32840239494253509 0 -0.28780890007252657 -0.35136977924581009 0 -0.291393411758263 -0.3366565598831664 0 -0.30169900498240532 -0.34254184735261228 0 -0.291393411758263 -0.3366565598831664 0 -0.28999226696796099 -0.3290139997717928 0 -0.29808924238870382 -0.3274999098479206 0 -0.30169900498240532 -0.34254184735261228 0 -0.31045729872850852 -0.33455311197754117 0 -0.29808924238870382 -0.3274999098479206 0 -0.291393411758263 -0.3366565598831664 0 -0.30169900498240532 -0.34254184735261228 0 -0.29808924238870382 -0.3274999098479206 0 -0.31729675968047538 -0.34601935999761568 0 -0.30169900498240532 -0.34254184735261228 0 -0.31045729872850852 -0.33455311197754117 0 -0.31534443628812669 -0.32019478331007539 0 -0.31045729872850852 -0.33455311197754117 0 -0.29808924238870382 -0.3274999098479206 0 -0.31534443628812669 -0.32019478331007539 0 -0.29808924238870382 -0.3274999098479206 0 -0.31064341316072408 -0.31192745951042378 0 -0.29808924238870382 -0.3274999098479206 0 -0.31064341316072408 -0.31192745951042378 0 -0.29972890907155281 -0.31569456171301641 0 -0.29808924238870382 -0.3274999098479206 0 -0.31064341316072408 -0.31192745951042378 0 -0.29972890907155281 -0.31569456171301641 0 -0.31064341316072408 -0.31192745951042378 0 -0.29858295401214352 -0.29071766788598852 0 -0.31064341316072408 -0.31192745951042378 0 -0.29858295401214352 -0.29071766788598852 0 -0.3200213924753742 -0.30029482205507108 0 -0.31064341316072408 -0.31192745951042378 0 -0.29858295401214352 -0.29071766788598852 0 -0.29858295401214352 -0.29071766788598852 0 -0.30714387643413871 -0.27203892933837248 0 -0.31358263445475659 -0.28616687569672172 0 -0.29858295401214352 -0.29071766788598852 0 -0.30714387643413871 -0.27203892933837248 0 -0.31358263445475659 -0.28616687569672172 0 -0.3200213924753742 -0.30029482205507108 0 -0.29858295401214352 -0.29071766788598852 0 -0.29858295401214352 -0.29071766788598852 0 -0.28059225046954311 -0.29135228160283427 0 -0.28004141477711741 -0.28196203723839097 0 -0.29858295401214352 -0.29071766788598852 0 -0.28189181486589943 -0.30066846330800318 0 -0.28059225046954311 -0.29135228160283427 0 -0.29858295401214352 -0.29071766788598852 0 -0.28994703826219481 -0.30956003141426203 0 -0.29858295401214352 -0.29071766788598852 0 -0.28189181486589943 -0.30066846330800318 0 -0.28994703826219481 -0.30956003141426203 0 -0.29972890907155281 -0.31569456171301641 0 -0.29858295401214352 -0.29071766788598852 0 -0.28994703826219481 -0.30956003141426203 0 -0.28189181486589943 -0.30066846330800318 0 -0.28994703826219481 -0.30956003141426203 0 -0.27649659769840612 -0.31138472380633259 0 -0.2662715452228574 -0.31763533918242381 0 -0.27649659769840612 -0.31138472380633259 0 -0.2619917071086697 -0.29795863596047611 0 -0.27649659769840612 -0.31138472380633259 0 -0.2619917071086697 -0.29795863596047611 0 -0.27168207288456769 -0.29436705267013002 0 -0.28189181486589943 -0.30066846330800318 0 -0.27649659769840612 -0.31138472380633259 0 -0.27168207288456769 -0.29436705267013002 0 -0.27649659769840612 -0.31138472380633259 0 -0.27168207288456769 -0.29436705267013002 0 -0.25843303292076342 -0.31786175003808481 0 -0.2662715452228574 -0.31763533918242381 0 -0.2619917071086697 -0.29795863596047611 0 -0.25843303292076342 -0.31786175003808481 0 -0.2619917071086697 -0.29795863596047611 0 -0.25843303292076342 -0.31786175003808481 0 -0.2619917071086697 -0.29795863596047611 0 -0.24676855392639049 -0.30043918008398213 0 -0.2662715452228574 -0.31763533918242381 0 -0.2619917071086697 -0.29795863596047611 0 -0.2619917071086697 -0.29795863596047611 0 -0.26539898613840202 -0.2789022515762356 0 -0.25659911904309268 -0.27316602648937499 0 -0.2619917071086697 -0.29795863596047611 0 -0.25659911904309268 -0.27316602648937499 0 -0.2619917071086697 -0.29795863596047611 0 -0.26539898613840202 -0.2789022515762356 0 -0.2619917071086697 -0.29795863596047611 0 -0.25659911904309268 -0.27316602648937499 0 -0.24701072582853861 -0.28801660099350751 0 -0.2619917071086697 -0.29795863596047611 0 -0.24701072582853861 -0.28801660099350751 0 -0.24676855392639049 -0.30043918008398213 0 -0.2619917071086697 -0.29795863596047611 0 -0.27175659999671109 -0.28627956587684023 0 -0.26539898613840202 -0.2789022515762356 0 -0.27175659999671109 -0.28627956587684023 0 -0.28004141477711741 -0.28196203723839097 0 -0.26539898613840202 -0.2789022515762356 0 -0.2619917071086697 -0.29795863596047611 0 -0.27175659999671109 -0.28627956587684023 0 -0.27168207288456769 -0.29436705267013002 0 -0.28189181486589943 -0.30066846330800318 0 -0.27168207288456769 -0.29436705267013002 0 -0.28059225046954311 -0.29135228160283427 0 -0.27175659999671109 -0.28627956587684023 0 -0.27168207288456769 -0.29436705267013002 0 -0.28059225046954311 -0.29135228160283427 0 -0.27175659999671109 -0.28627956587684023 0 -0.28059225046954311 -0.29135228160283427 0 -0.28004141477711741 -0.28196203723839097 0 -0.25659911904309268 -0.27316602648937499 0 -0.26493515854016603 -0.25961679966286222 0 -0.28573966021260322 -0.26813116583796248 0 -0.25659911904309268 -0.27316602648937499 0 -0.28573966021260322 -0.26813116583796248 0 -0.26539898613840202 -0.2789022515762356 0 -0.25659911904309268 -0.27316602648937499 0 -0.28573966021260322 -0.26813116583796248 0 -0.28004141477711741 -0.28196203723839097 0 -0.26539898613840202 -0.2789022515762356 0 -0.28573966021260322 -0.26813116583796248 0 -0.25659911904309268 -0.27316602648937499 0 -0.25127422555496121 -0.24868464517097449 0 -0.25659911904309268 -0.27316602648937499 0 -0.26493515854016603 -0.25961679966286222 0 -0.25127422555496121 -0.24868464517097449 0 -0.25659911904309268 -0.27316602648937499 0 -0.2450497348041098 -0.26600117332740048 0 -0.25127422555496121 -0.24868464517097449 0 -0.26493515854016603 -0.25961679966286222 0 -0.25127422555496121 -0.24868464517097449 0 -0.25738773104086299 -0.24770408537603711 0 -0.26493515854016603 -0.25961679966286222 0 -0.276108368723049 -0.25119336247152468 0 -0.28573966021260322 -0.26813116583796248 0 -0.276108368723049 -0.25119336247152468 0 -0.28573966021260322 -0.26813116583796248 0 -0.26493515854016603 -0.25961679966286222 0 -0.276108368723049 -0.25119336247152468 0 -0.25738773104086299 -0.24770408537603711 0 -0.276108368723049 -0.25119336247152468 0 -0.29925791627839948 -0.25550812927738697 0 -0.276108368723049 -0.25119336247152468 0 -0.29925791627839948 -0.25550812927738697 0 -0.28173801187466568 -0.24513199956249379 0 -0.276108368723049 -0.25119336247152468 0 -0.28573966021260322 -0.26813116583796248 0 -0.29925791627839948 -0.25550812927738697 0 -0.29858295401214352 -0.29071766788598852 0 -0.28004141477711741 -0.28196203723839097 0 -0.28573966021260322 -0.26813116583796248 0 -0.28573966021260322 -0.26813116583796248 0 -0.30692424591755318 -0.26447092369071162 0 -0.29858295401214352 -0.29071766788598852 0 -0.28573966021260322 -0.26813116583796248 0 -0.28573966021260322 -0.26813116583796248 0 -0.30518646484360112 -0.26774396967941561 0 -0.30692424591755318 -0.26447092369071162 0 -0.29858295401214352 -0.29071766788598852 0 -0.28573966021260322 -0.26813116583796248 0 -0.30714387643413871 -0.27203892933837248 0 -0.28573966021260322 -0.26813116583796248 0 -0.30518646484360112 -0.26774396967941561 0 -0.30714387643413871 -0.27203892933837248 0 -0.31570247475950219 -0.27417397223178408 0 -0.31358263445475659 -0.28616687569672172 0 -0.30714387643413871 -0.27203892933837248 0 -0.31358263445475659 -0.28616687569672172 0 -0.30714387643413871 -0.27203892933837248 0 -0.31570247475950219 -0.27417397223178408 0 -0.30714387643413871 -0.27203892933837248 0 -0.31154663325457682 -0.26987501004631592 0 -0.30518646484360112 -0.26774396967941561 0 -0.30932570098604689 -0.26727849251240421 0 -0.30692424591755318 -0.26447092369071162 0 -0.30518646484360112 -0.26774396967941561 0 -0.30714387643413871 -0.27203892933837248 0 -0.30932570098604689 -0.26727849251240421 0 -0.30932570098604689 -0.26727849251240421 0 -0.30692424591755318 -0.26447092369071162 0 -0.30518646484360112 -0.26774396967941561 0 -0.30714387643413871 -0.27203892933837248 0 -0.30714387643413871 -0.27203892933837248 0 -0.30932570098604689 -0.26727849251240421 0 -0.30714387643413871 -0.27203892933837248 0 -0.31154663325457682 -0.26987501004631592 0 -0.30932570098604689 -0.26727849251240421 0 -0.31154663325457682 -0.26987501004631592 0 -0.30932570098604689 -0.26727849251240421 0 -0.31092966182034032 -0.26377887371112319 0 -0.31154663325457682 -0.26987501004631592 0 -0.30932570098604689 -0.26727849251240421 0 -0.30932570098604689 -0.26727849251240421 0 -0.31092966182034032 -0.26377887371112319 0 -0.30692424591755318 -0.26447092369071162 0 -0.28573966021260322 -0.26813116583796248 0 -0.30692424591755318 -0.26447092369071162 0 -0.29925791627839948 -0.25550812927738697 0 -0.31350341631438661 -0.25816330042236629 0 -0.30692424591755318 -0.26447092369071162 0 -0.29925791627839948 -0.25550812927738697 0 -0.31092966182034032 -0.26377887371112319 0 -0.30692424591755318 -0.26447092369071162 0 -0.31350341631438661 -0.25816330042236629 0 -0.31092966182034032 -0.26377887371112319 0 -0.30692424591755318 -0.26447092369071162 0 -0.30932570098604689 -0.26727849251240421 0 -0.31092966182034032 -0.26377887371112319 0 -0.31350341631438661 -0.25816330042236629 0 -0.31092966182034032 -0.26377887371112319 0 -0.31350341631438661 -0.25816330042236629 0 -0.29925791627839948 -0.25550812927738697 0 -0.31350341631438661 -0.25816330042236629 0 -0.29925791627839948 -0.25550812927738697 0 -0.30842486067350899 -0.24586822180226139 0 -0.30692424591755318 -0.26447092369071162 0 -0.29925791627839948 -0.25550812927738697 0 -0.33910022099808762 -0.45948334764306942 0 -0.32547383860934598 -0.46809638551918992 0 -0.34224958021135771 -0.47832471383731728 0 -0.33910022099808762 -0.45948334764306942 0 -0.3229504578013469 -0.45069377888305689 0 -0.32547383860934598 -0.46809638551918992 0 -0.33910022099808762 -0.45948334764306942 0 -0.33544377955434451 -0.44721927797508448 0 -0.3229504578013469 -0.45069377888305689 0 -0.34257108505844103 -0.44072483679291652 0 -0.33544377955434451 -0.44721927797508448 0 -0.34433107504247279 -0.45015114194023781 0 -0.33910022099808762 -0.45948334764306942 0 -0.33544377955434451 -0.44721927797508448 0 -0.34433107504247279 -0.45015114194023781 0 -0.34257108505844103 -0.44072483679291652 0 -0.33544377955434451 -0.44721927797508448 0 -0.33204999057372742 -0.43564663058982439 0 -0.33544377955434451 -0.44721927797508448 0 -0.3229504578013469 -0.45069377888305689 0 -0.33204999057372742 -0.43564663058982439 0 -0.3229504578013469 -0.45069377888305689 0 -0.31186244418416342 -0.45884433684780818 0 -0.30710795097671689 -0.44616988668342772 0 -0.3229504578013469 -0.45069377888305689 0 -0.33204999057372742 -0.43564663058982439 0 -0.31163266411960289 -0.43019030599433039 0 -0.3229504578013469 -0.45069377888305689 0 -0.31163266411960289 -0.43019030599433039 0 -0.30710795097671689 -0.44616988668342772 0 -0.3229504578013469 -0.45069377888305689 0 -0.32547383860934598 -0.46809638551918992 0 -0.31186244418416342 -0.45884433684780818 0 -0.32547383860934598 -0.46809638551918992 0 -0.31186244418416342 -0.45884433684780818 0 -0.30733251453869082 -0.47204649170422402 0 -0.32547383860934598 -0.46809638551918992 0 -0.32056831926336071 -0.48358828220260403 0 -0.30733251453869082 -0.47204649170422402 0 -0.32056831926336071 -0.48358828220260403 0 -0.31548559509943791 -0.5 0 -0.33047900934534991 -0.49047824900997999 0 -0.31548559509943791 -0.5 0 -0.33047900934534991 -0.49047824900997999 0 -0.34361254280724229 -0.49999999999999961 0 -0.33047900934534991 -0.49047824900997999 0 -0.34361254280724229 -0.49999999999999961 0 -0.34224958021135771 -0.47832471383731728 0 -0.32056831926336071 -0.48358828220260403 0 -0.34224958021135771 -0.47832471383731728 0 -0.32056831926336071 -0.48358828220260403 0 -0.33047900934534991 -0.49047824900997999 0 -0.34224958021135771 -0.47832471383731728 0 -0.32547383860934598 -0.46809638551918992 0 -0.34224958021135771 -0.47832471383731728 0 -0.32547383860934598 -0.46809638551918992 0 -0.32056831926336071 -0.48358828220260403 0 -0.34224958021135771 -0.47832471383731728 0 -0.34224958021135771 -0.47832471383731728 0 -0.35844921082386672 -0.48820178183633661 0 -0.34224958021135771 -0.47832471383731728 0 -0.37062782904524949 -0.47143531505269559 0 -0.34224958021135771 -0.47832471383731728 0 -0.37062782904524949 -0.47143531505269559 0 -0.3545466060380485 -0.46527166159407118 0 -0.34224958021135771 -0.47832471383731728 0 -0.35844921082386672 -0.48820178183633661 0 -0.37062782904524949 -0.47143531505269559 0 -0.34361254280724229 -0.49999999999999961 0 -0.34224958021135771 -0.47832471383731728 0 -0.35844921082386672 -0.48820178183633661 0 -0.34361254280724229 -0.49999999999999961 0 -0.35844921082386672 -0.48820178183633661 0 -0.36070615576250709 -0.5 0 -0.34361254280724229 -0.49999999999999961 0 -0.35844921082386672 -0.48820178183633661 0 -0.37779976871777188 -0.50000000000000011 0 -0.35844921082386672 -0.48820178183633661 0 -0.37314815040525467 -0.47651308625040018 0 -0.37779976871777188 -0.50000000000000011 0 -0.35844921082386672 -0.48820178183633661 0 -0.36070615576250709 -0.5 0 -0.37779976871777188 -0.50000000000000011 0 -0.35844921082386672 -0.48820178183633661 0 -0.35844921082386672 -0.48820178183633661 0 -0.37314815040525467 -0.47651308625040018 0 -0.37062782904524949 -0.47143531505269559 0 -0.35844921082386672 -0.48820178183633661 0 -0.37314815040525467 -0.47651308625040018 0 -0.37314815040525467 -0.47651308625040018 0 -0.37062782904524949 -0.47143531505269559 0 -0.37062782904524949 -0.47143531505269559 0 -0.3545466060380485 -0.46527166159407118 0 -0.35909842330024733 -0.44820665645870988 0 -0.37062782904524949 -0.47143531505269559 0 -0.35909842330024733 -0.44820665645870988 0 -0.37563372717819132 -0.45869979377648251 0 -0.37062782904524949 -0.47143531505269559 0 -0.35909842330024733 -0.44820665645870988 0 -0.3545466060380485 -0.46527166159407118 0 -0.3502220498003758 -0.45500932948578537 0 -0.35909842330024733 -0.44820665645870988 0 -0.33910022099808762 -0.45948334764306942 0 -0.34224958021135771 -0.47832471383731728 0 -0.3545466060380485 -0.46527166159407118 0 -0.33910022099808762 -0.45948334764306942 0 -0.3545466060380485 -0.46527166159407118 0 -0.3502220498003758 -0.45500932948578537 0 -0.33910022099808762 -0.45948334764306942 0 -0.3502220498003758 -0.45500932948578537 0 -0.34433107504247279 -0.45015114194023781 0 -0.35909842330024733 -0.44820665645870988 0 -0.35069315926936828 -0.4312723050373326 0 -0.35909842330024733 -0.44820665645870988 0 -0.35069315926936828 -0.4312723050373326 0 -0.35814240569403771 -0.43636988465262089 0 -0.34993240492918842 -0.44141569248237161 0 -0.35909842330024733 -0.44820665645870988 0 -0.35069315926936828 -0.4312723050373326 0 -0.34993240492918842 -0.44141569248237161 0 -0.34752905927303268 -0.44509696912530022 0 -0.35328167206202871 -0.44809620528567512 0 -0.34257108505844103 -0.44072483679291652 0 -0.34993240492918842 -0.44141569248237161 0 -0.34622148817221138 -0.43598189207398041 0 -0.34257108505844103 -0.44072483679291652 0 -0.34993240492918842 -0.44141569248237161 0 -0.34752905927303268 -0.44509696912530022 0 -0.3502220498003758 -0.45500932948578537 0 -0.34433107504247279 -0.45015114194023781 0 -0.35328167206202871 -0.44809620528567512 0 -0.34752905927303268 -0.44509696912530022 0 -0.34433107504247279 -0.45015114194023781 0 -0.35328167206202871 -0.44809620528567512 0 -0.34257108505844103 -0.44072483679291652 0 -0.34752905927303268 -0.44509696912530022 0 -0.34433107504247279 -0.45015114194023781 0 -0.34993240492918842 -0.44141569248237161 0 -0.35328167206202871 -0.44809620528567512 0 -0.35909842330024733 -0.44820665645870988 0 -0.3502220498003758 -0.45500932948578537 0 -0.35328167206202871 -0.44809620528567512 0 -0.35909842330024733 -0.44820665645870988 0 -0.35328167206202871 -0.44809620528567512 0 -0.35909842330024733 -0.44820665645870988 0 -0.35909842330024733 -0.44820665645870988 0 -0.36741674862170148 -0.44041113799098591 0 -0.35814240569403771 -0.43636988465262089 0 -0.38387916132476829 -0.4486772046171853 0 -0.35909842330024733 -0.44820665645870988 0 -0.36741674862170148 -0.44041113799098591 0 -0.38387916132476829 -0.4486772046171853 0 -0.36741674862170148 -0.44041113799098591 0 -0.37324167514947693 -0.43557568644161559 0 -0.38387916132476829 -0.4486772046171853 0 -0.37563372717819132 -0.45869979377648251 0 -0.35909842330024733 -0.44820665645870988 0 -0.38387916132476829 -0.4486772046171853 0 -0.35909842330024733 -0.44820665645870988 0 -0.36741674862170148 -0.44041113799098591 0 -0.37324167514947693 -0.43557568644161559 0 -0.36272207763997732 -0.4332262577847974 0 -0.38552524171378588 -0.421946441048902 0 -0.37324167514947693 -0.43557568644161559 0 -0.36260418897418289 -0.42247416826604822 0 -0.37324167514947693 -0.43557568644161559 0 -0.36272207763997732 -0.4332262577847974 0 -0.36260418897418289 -0.42247416826604822 0 -0.36741674862170148 -0.44041113799098591 0 -0.36272207763997732 -0.4332262577847974 0 -0.35814240569403771 -0.43636988465262089 0 -0.36272207763997732 -0.4332262577847974 0 -0.36260418897418289 -0.42247416826604822 0 -0.3531019293851223 -0.42942831677747362 0 -0.37324167514947693 -0.43557568644161559 0 -0.36260418897418289 -0.42247416826604822 0 -0.38372694764501902 -0.40701565554165359 0 -0.36260418897418289 -0.42247416826604822 0 -0.36516002308475909 -0.40333387546744659 0 -0.38372694764501902 -0.40701565554165359 0 -0.36260418897418289 -0.42247416826604822 0 -0.36260418897418289 -0.42247416826604822 0 -0.34723409566619218 -0.40404317254374122 0 -0.36260418897418289 -0.42247416826604822 0 -0.35131721125652388 -0.42037506364394711 0 -0.34723409566619218 -0.40404317254374122 0 -0.35131721125652388 -0.42037506364394711 0 -0.34723409566619218 -0.40404317254374122 0 -0.34228789523849013 -0.41433795361595482 0 -0.36260418897418289 -0.42247416826604822 0 -0.36516002308475909 -0.40333387546744659 0 -0.34723409566619218 -0.40404317254374122 0 -0.34723409566619218 -0.40404317254374122 0 -0.34228789523849013 -0.41433795361595482 0 -0.35131721125652388 -0.42037506364394711 0 -0.35069315926936828 -0.4312723050373326 0 -0.34228789523849013 -0.41433795361595482 0 -0.35069315926936828 -0.4312723050373326 0 -0.34228789523849013 -0.41433795361595482 0 -0.35069315926936828 -0.4312723050373326 0 -0.34219199704663428 -0.43148614158181742 0 -0.34228789523849013 -0.41433795361595482 0 -0.34622148817221138 -0.43598189207398041 0 -0.35069315926936828 -0.4312723050373326 0 -0.34219199704663428 -0.43148614158181742 0 -0.34993240492918842 -0.44141569248237161 0 -0.34622148817221138 -0.43598189207398041 0 -0.35069315926936828 -0.4312723050373326 0 -0.36272207763997732 -0.4332262577847974 0 -0.35814240569403771 -0.43636988465262089 0 -0.3531019293851223 -0.42942831677747362 0 -0.35069315926936828 -0.4312723050373326 0 -0.35814240569403771 -0.43636988465262089 0 -0.3531019293851223 -0.42942831677747362 0 -0.35131721125652388 -0.42037506364394711 0 -0.35069315926936828 -0.4312723050373326 0 -0.3531019293851223 -0.42942831677747362 0 -0.36260418897418289 -0.42247416826604822 0 -0.3531019293851223 -0.42942831677747362 0 -0.36260418897418289 -0.42247416826604822 0 -0.35131721125652388 -0.42037506364394711 0 -0.3531019293851223 -0.42942831677747362 0 -0.3653228076249872 -0.36639420699613268 0 -0.35380535143173852 -0.39036608030604369 0 -0.3653228076249872 -0.36639420699613268 0 -0.37431098846497091 -0.38546540042127903 0 -0.35380535143173852 -0.39036608030604369 0 -0.37431098846497091 -0.38546540042127903 0 -0.36516002308475909 -0.40333387546744659 0 -0.35380535143173852 -0.39036608030604369 0 -0.38372694764501902 -0.40701565554165359 0 -0.37431098846497091 -0.38546540042127903 0 -0.36516002308475909 -0.40333387546744659 0 -0.36516002308475909 -0.40333387546744659 0 -0.34723409566619218 -0.40404317254374122 0 -0.35380535143173852 -0.39036608030604369 0 -0.34723409566619218 -0.40404317254374122 0 -0.35380535143173852 -0.39036608030604369 0 -0.3653228076249872 -0.36639420699613268 0 -0.346449288449454 -0.37244793201518422 0 -0.35380535143173852 -0.39036608030604369 0 -0.346449288449454 -0.37244793201518422 0 -0.35380535143173852 -0.39036608030604369 0 -0.33001310582029381 -0.38960754694847433 0 -0.33001310582029381 -0.38960754694847433 0 -0.34228789523849013 -0.41433795361595482 0 -0.32048745838856207 -0.40974700755635141 0 -0.34723409566619218 -0.40404317254374122 0 -0.35380535143173852 -0.39036608030604369 0 -0.33001310582029381 -0.38960754694847433 0 -0.34723409566619218 -0.40404317254374122 0 -0.33001310582029381 -0.38960754694847433 0 -0.34228789523849013 -0.41433795361595482 0 -0.33001310582029381 -0.38960754694847433 0 -0.34228789523849013 -0.41433795361595482 0 -0.33001310582029381 -0.38960754694847433 0 -0.32048745838856207 -0.40974700755635141 0 -0.30674451745319892 -0.39252455825364568 0 -0.32865965208778181 -0.36289969964123331 0 -0.33001310582029381 -0.38960754694847433 0 -0.31323216153822042 -0.37548773985469902 0 -0.33001310582029381 -0.38960754694847433 0 -0.31323216153822042 -0.37548773985469902 0 -0.30674451745319892 -0.39252455825364568 0 -0.33204999057372742 -0.43564663058982439 0 -0.34228789523849013 -0.41433795361595482 0 -0.33204999057372742 -0.43564663058982439 0 -0.34228789523849013 -0.41433795361595482 0 -0.32661450208009563 -0.42248047443911529 0 -0.33204999057372742 -0.43564663058982439 0 -0.34219199704663428 -0.43148614158181742 0 -0.34228789523849013 -0.41433795361595482 0 -0.34257108505844103 -0.44072483679291652 0 -0.33204999057372742 -0.43564663058982439 0 -0.34219199704663428 -0.43148614158181742 0 -0.34257108505844103 -0.44072483679291652 0 -0.34622148817221138 -0.43598189207398041 0 -0.34219199704663428 -0.43148614158181742 0 -0.34228789523849013 -0.41433795361595482 0 -0.32048745838856207 -0.40974700755635141 0 -0.32661450208009563 -0.42248047443911529 0 -0.32048745838856207 -0.40974700755635141 0 -0.32661450208009563 -0.42248047443911529 0 -0.31163266411960289 -0.43019030599433039 0 -0.33204999057372742 -0.43564663058982439 0 -0.32661450208009563 -0.42248047443911529 0 -0.31163266411960289 -0.43019030599433039 0 -0.31163266411960289 -0.43019030599433039 0 -0.29655341922593909 -0.41205972404407348 0 -0.28434831061614652 -0.43572564551624199 0 -0.31163266411960289 -0.43019030599433039 0 -0.28434831061614652 -0.43572564551624199 0 -0.30710795097671689 -0.44616988668342772 0 -0.32048745838856207 -0.40974700755635141 0 -0.31163266411960289 -0.43019030599433039 0 -0.29655341922593909 -0.41205972404407348 0 -0.31163266411960289 -0.43019030599433039 0 -0.29655341922593909 -0.41205972404407348 0 -0.29655341922593909 -0.41205972404407348 0 -0.28434831061614652 -0.43572564551624199 0 -0.2696411974303683 -0.4104529493627323 0 -0.29430667763280871 -0.37433716354908519 0 -0.31323216153822042 -0.37548773985469902 0 -0.30674451745319892 -0.39252455825364568 0 -0.32048745838856207 -0.40974700755635141 0 -0.29655341922593909 -0.41205972404407348 0 -0.30674451745319892 -0.39252455825364568 0 -0.29655341922593909 -0.41205972404407348 0 -0.30674451745319892 -0.39252455825364568 0 -0.28147417433227528 -0.39392914209381658 0 -0.29655341922593909 -0.41205972404407348 0 -0.28147417433227528 -0.39392914209381658 0 -0.29655341922593909 -0.41205972404407348 0 -0.28147417433227528 -0.39392914209381658 0 -0.2696411974303683 -0.4104529493627323 0 -0.29430667763280871 -0.37433716354908519 0 -0.28011988705385488 -0.37065750348104298 0 -0.28147417433227528 -0.39392914209381658 0 -0.29430667763280871 -0.37433716354908519 0 -0.30674451745319892 -0.39252455825364568 0 -0.28147417433227528 -0.39392914209381658 0 -0.28147417433227528 -0.39392914209381658 0 -0.26639492943861143 -0.37579856014355972 0 -0.26164207205984807 -0.39244931571343689 0 -0.28147417433227528 -0.39392914209381658 0 -0.26639492943861143 -0.37579856014355972 0 -0.28011988705385488 -0.37065750348104298 0 -0.28147417433227528 -0.39392914209381658 0 -0.26639492943861143 -0.37579856014355972 0 -0.28147417433227528 -0.39392914209381658 0 -0.26164207205984807 -0.39244931571343689 0 -0.2696411974303683 -0.4104529493627323 0 -0.26164207205984807 -0.39244931571343689 0 -0.2696411974303683 -0.4104529493627323 0 -0.24336147788367321 -0.40215462524695011 0 -0.26164207205984807 -0.39244931571343689 0 -0.24336147788367321 -0.40215462524695011 0 -0.24733858121431221 -0.37991130172012599 0 -0.26639492943861143 -0.37579856014355972 0 -0.26164207205984807 -0.39244931571343689 0 -0.24733858121431221 -0.37991130172012599 0 -0.28434831061614652 -0.43572564551624199 0 -0.2696411974303683 -0.4104529493627323 0 -0.251822557754596 -0.42514482366850592 0 -0.28434831061614652 -0.43572564551624199 0 -0.251822557754596 -0.42514482366850592 0 -0.26028363762551882 -0.4481350220900619 0 -0.2696411974303683 -0.4104529493627323 0 -0.251822557754596 -0.42514482366850592 0 -0.24336147788367321 -0.40215462524695011 0 -0.251822557754596 -0.42514482366850592 0 -0.26028363762551882 -0.4481350220900619 0 -0.24045837218685309 -0.43733520556520072 0 -0.251822557754596 -0.42514482366850592 0 -0.26028363762551882 -0.4481350220900619 0 -0.26028363762551882 -0.4481350220900619 0 -0.26874471749644158 -0.47112522051161793 0 -0.26028363762551882 -0.4481350220900619 0 -0.26874471749644158 -0.47112522051161793 0 -0.24050495668158631 -0.45945422630770327 0 -0.26028363762551882 -0.4481350220900619 0 -0.27875999149405162 -0.45433363422303008 0 -0.26874471749644158 -0.47112522051161793 0 -0.27875999149405162 -0.45433363422303008 0 -0.28744243316925178 -0.47382196225559692 0 -0.26874471749644158 -0.47112522051161793 0 -0.28434831061614652 -0.43572564551624199 0 -0.26028363762551882 -0.4481350220900619 0 -0.27875999149405162 -0.45433363422303008 0 -0.28434831061614652 -0.43572564551624199 0 -0.2964474589947162 -0.45721514144914222 0 -0.30710795097671689 -0.44616988668342772 0 -0.28434831061614652 -0.43572564551624199 0 -0.27875999149405162 -0.45433363422303008 0 -0.2964474589947162 -0.45721514144914222 0 -0.27875999149405162 -0.45433363422303008 0 -0.2964474589947162 -0.45721514144914222 0 -0.28744243316925178 -0.47382196225559692 0 -0.2964474589947162 -0.45721514144914222 0 -0.30733251453869082 -0.47204649170422402 0 -0.28744243316925178 -0.47382196225559692 0 -0.2964474589947162 -0.45721514144914222 0 -0.31186244418416342 -0.45884433684780818 0 -0.30733251453869082 -0.47204649170422402 0 -0.2964474589947162 -0.45721514144914222 0 -0.31186244418416342 -0.45884433684780818 0 -0.30710795097671689 -0.44616988668342772 0 -0.32056831926336071 -0.48358828220260403 0 -0.29888705831536339 -0.48885185056788849 0 -0.31548559509943791 -0.5 0 -0.29888705831536339 -0.48885185056788849 0 -0.28735864739163341 -0.5 0 -0.32056831926336071 -0.48358828220260403 0 -0.31548559509943791 -0.5 0 -0.29888705831536339 -0.48885185056788849 0 -0.32056831926336071 -0.48358828220260403 0 -0.29888705831536339 -0.48885185056788849 0 -0.30733251453869082 -0.47204649170422402 0 -0.29888705831536339 -0.48885185056788849 0 -0.30733251453869082 -0.47204649170422402 0 -0.28744243316925178 -0.47382196225559692 0 -0.29888705831536339 -0.48885185056788849 0 -0.27720579736736611 -0.49411541893317318 0 -0.29888705831536339 -0.48885185056788849 0 -0.28735864739163341 -0.5 0 -0.27720579736736611 -0.49411541893317318 0 -0.29888705831536339 -0.48885185056788849 0 -0.28744243316925178 -0.47382196225559692 0 -0.27720579736736611 -0.49411541893317318 0 -0.27808612473430522 -0.49650741867205428 0 -0.27720579736736611 -0.49411541893317318 0 -0.26159372400600289 -0.49790556820809151 0 -0.27720579736736611 -0.49411541893317318 0 -0.26787699592128872 -0.48973804530934822 0 -0.26874471749644158 -0.47112522051161793 0 -0.28735864739163341 -0.5 0 -0.27808612473430522 -0.49650741867205428 0 -0.25923169968382892 -0.5 0 -0.27808612473430522 -0.49650741867205428 0 -0.26159372400600289 -0.49790556820809151 0 -0.25923169968382892 -0.5 0 -0.28735864739163341 -0.5 0 -0.27808612473430522 -0.49650741867205428 0 -0.27720579736736611 -0.49411541893317318 0 -0.27808612473430522 -0.49650741867205428 0 -0.27720579736736611 -0.49411541893317318 0 -0.27720579736736611 -0.49411541893317318 0 -0.26787699592128872 -0.48973804530934822 0 -0.26159372400600289 -0.49790556820809151 0 -0.27720579736736611 -0.49411541893317318 0 -0.26159372400600289 -0.49790556820809151 0 -0.28744243316925178 -0.47382196225559692 0 -0.27720579736736611 -0.49411541893317318 0 -0.26874471749644158 -0.47112522051161793 0 -0.27720579736736611 -0.49411541893317318 0 -0.26874471749644158 -0.47112522051161793 0 -0.26787699592128872 -0.48973804530934822 0 -0.26874471749644158 -0.47112522051161793 0 -0.26052307258749779 -0.48810588778110359 0 -0.26874471749644158 -0.47112522051161793 0 -0.26052307258749779 -0.48810588778110359 0 -0.24516822582992659 -0.48176060487646027 0 -0.26874471749644158 -0.47112522051161793 0 -0.24516822582992659 -0.48176060487646027 0 -0.24050495668158631 -0.45945422630770327 0 -0.25923169968382892 -0.5 0 -0.26052307258749779 -0.48810588778110359 0 -0.24516822582992659 -0.48176060487646027 0 -0.26159372400600289 -0.49790556820809151 0 -0.25923169968382892 -0.5 0 -0.26052307258749779 -0.48810588778110359 0 -0.26787699592128872 -0.48973804530934822 0 -0.26159372400600289 -0.49790556820809151 0 -0.26052307258749779 -0.48810588778110359 0 -0.25923169968382892 -0.5 0 -0.24516822582992659 -0.48176060487646027 0 -0.2311047519760244 -0.5 0 -0.24516822582992659 -0.48176060487646027 0 -0.22675694923240849 -0.47396895177029708 0 -0.24050495668158631 -0.45945422630770327 0 -0.22675694923240849 -0.47396895177029708 0 -0.2311047519760244 -0.5 0 -0.21331788635522961 -0.48567154194935092 0 -0.24516822582992659 -0.48176060487646027 0 -0.22675694923240849 -0.47396895177029708 0 -0.2311047519760244 -0.5 0 -0.26028363762551882 -0.4481350220900619 0 -0.24050495668158631 -0.45945422630770327 0 -0.24045837218685309 -0.43733520556520072 0 -0.22675694923240849 -0.47396895177029708 0 -0.24050495668158631 -0.45945422630770327 0 -0.22067959269631959 -0.44974643675718912 0 -0.24050495668158631 -0.45945422630770327 0 -0.22067959269631959 -0.44974643675718912 0 -0.24045837218685309 -0.43733520556520072 0 -0.22067959269631959 -0.44974643675718912 0 -0.19805635501531549 -0.44964375864351219 0 -0.20195165765642939 -0.42703056241305642 0 -0.22067959269631959 -0.44974643675718912 0 -0.20704584802005449 -0.46854570953643881 0 -0.19805635501531549 -0.44964375864351219 0 -0.22675694923240849 -0.47396895177029708 0 -0.22067959269631959 -0.44974643675718912 0 -0.20704584802005449 -0.46854570953643881 0 -0.20704584802005449 -0.46854570953643881 0 -0.19805635501531549 -0.44964375864351219 0 -0.18154449473161349 -0.46352044667187381 0 -0.19805635501531549 -0.44964375864351219 0 -0.17906018197216059 -0.43937563783900307 0 -0.20195165765642939 -0.42703056241305642 0 -0.21331788635522961 -0.48567154194935092 0 -0.19778296817323679 -0.48108059073248172 0 -0.20297780426822001 -0.5 0 -0.2311047519760244 -0.5 0 -0.21331788635522961 -0.48567154194935092 0 -0.20297780426822001 -0.5 0 -0.20704584802005449 -0.46854570953643881 0 -0.21331788635522961 -0.48567154194935092 0 -0.19778296817323679 -0.48108059073248172 0 -0.22675694923240849 -0.47396895177029708 0 -0.20704584802005449 -0.46854570953643881 0 -0.21331788635522961 -0.48567154194935092 0 -0.20704584802005449 -0.46854570953643881 0 -0.19778296817323679 -0.48108059073248172 0 -0.18154449473161349 -0.46352044667187381 0 -0.19778296817323679 -0.48108059073248172 0 -0.1840288074910664 -0.48766525550474449 0 -0.18154449473161349 -0.46352044667187381 0 -0.19778296817323679 -0.48108059073248172 0 -0.20297780426822001 -0.5 0 -0.1840288074910664 -0.48766525550474449 0 -0.20297780426822001 -0.5 0 -0.1840288074910664 -0.48766525550474449 0 -0.1748508565604158 -0.5 0 -0.1840288074910664 -0.48766525550474449 0 -0.1748508565604158 -0.5 0 -0.1703538174654714 -0.48643923273363099 0 -0.1703538174654714 -0.48643923273363099 0 -0.16084443705644971 -0.47693493519511271 0 -0.14672390885261141 -0.5 0 -0.1748508565604158 -0.5 0 -0.1703538174654714 -0.48643923273363099 0 -0.14672390885261141 -0.5 0 -0.1703538174654714 -0.48643923273363099 0 -0.16084443705644971 -0.47693493519511271 0 -0.18154449473161349 -0.46352044667187381 0 -0.1840288074910664 -0.48766525550474449 0 -0.18154449473161349 -0.46352044667187381 0 -0.1840288074910664 -0.48766525550474449 0 -0.1703538174654714 -0.48643923273363099 0 -0.18154449473161349 -0.46352044667187381 0 -0.18154449473161349 -0.46352044667187381 0 -0.17906018197216059 -0.43937563783900307 0 -0.19805635501531549 -0.44964375864351219 0 -0.18154449473161349 -0.46352044667187381 0 -0.17906018197216059 -0.43937563783900307 0 -0.18154449473161349 -0.46352044667187381 0 -0.17906018197216059 -0.43937563783900307 0 -0.16499397513708949 -0.45626106590800802 0 -0.17906018197216059 -0.43937563783900307 0 -0.16499397513708949 -0.45626106590800802 0 -0.15423598303164859 -0.44177224902436429 0 -0.16084443705644971 -0.47693493519511271 0 -0.16499397513708949 -0.45626106590800802 0 -0.1490186093513905 -0.46403916671450202 0 -0.16084443705644971 -0.47693493519511271 0 -0.18154449473161349 -0.46352044667187381 0 -0.16499397513708949 -0.45626106590800802 0 -0.16499397513708949 -0.45626106590800802 0 -0.1490186093513905 -0.46403916671450202 0 -0.15423598303164859 -0.44177224902436429 0 -0.15423598303164859 -0.44177224902436429 0 -0.1361391037301698 -0.45251733635132968 0 -0.1412000163098715 -0.4325167749937695 0 -0.1490186093513905 -0.46403916671450202 0 -0.15423598303164859 -0.44177224902436429 0 -0.1361391037301698 -0.45251733635132968 0 -0.1361391037301698 -0.45251733635132968 0 -0.1282210616165152 -0.43902588427365469 0 -0.1412000163098715 -0.4325167749937695 0 -0.1361391037301698 -0.45251733635132968 0 -0.1282210616165152 -0.43902588427365469 0 -0.1173569251761325 -0.45657324108962188 0 -0.1490186093513905 -0.46403916671450202 0 -0.1361391037301698 -0.45251733635132968 0 -0.13115209732285341 -0.47633672774691738 0 -0.1361391037301698 -0.45251733635132968 0 -0.13115209732285341 -0.47633672774691738 0 -0.1173569251761325 -0.45657324108962188 0 -0.13115209732285341 -0.47633672774691738 0 -0.14672390885261141 -0.5 0 -0.11859696114480719 -0.5 0 -0.16084443705644971 -0.47693493519511271 0 -0.14672390885261141 -0.5 0 -0.1463812376590907 -0.48000287685082432 0 -0.13115209732285341 -0.47633672774691738 0 -0.14672390885261141 -0.5 0 -0.1463812376590907 -0.48000287685082432 0 -0.16084443705644971 -0.47693493519511271 0 -0.1490186093513905 -0.46403916671450202 0 -0.1463812376590907 -0.48000287685082432 0 -0.1490186093513905 -0.46403916671450202 0 -0.13115209732285341 -0.47633672774691738 0 -0.1463812376590907 -0.48000287685082432 0 -0.13040313931844749 -0.3898558018850794 0 -0.1396158011234688 -0.41533739224804911 0 -0.15660768072732931 -0.40317271300136431 0 -0.13040313931844749 -0.3898558018850794 0 -0.15660768072732931 -0.40317271300136431 0 -0.16037601293293011 -0.38029703013552291 0 -0.13040313931844749 -0.3898558018850794 0 -0.16037601293293011 -0.38029703013552291 0 -0.14901376568019509 -0.36705249248938138 0 -0.13040313931844749 -0.3898558018850794 0 -0.14901376568019509 -0.36705249248938138 0 -0.13040313931844749 -0.3898558018850794 0 -0.14901376568019509 -0.36705249248938138 0 -0.12274258464922121 -0.36902856288828562 0 -0.13040313931844749 -0.3898558018850794 0 -0.1396158011234688 -0.41533739224804911 0 -0.12351850595423861 -0.4158810425449655 0 -0.1396158011234688 -0.41533739224804911 0 -0.13024314370163631 -0.42603171383519522 0 -0.12351850595423861 -0.4158810425449655 0 -0.1396158011234688 -0.41533739224804911 0 -0.13024314370163631 -0.42603171383519522 0 -0.1412000163098715 -0.4325167749937695 0 -0.1282210616165152 -0.43902588427365469 0 -0.13024314370163631 -0.42603171383519522 0 -0.1189239751935894 -0.42854196854109661 0 -0.1282210616165152 -0.43902588427365469 0 -0.13024314370163631 -0.42603171383519522 0 -0.1412000163098715 -0.4325167749937695 0 -0.15423598303164859 -0.44177224902436429 0 -0.1412000163098715 -0.4325167749937695 0 -0.1593777447105944 -0.42316285845136659 0 -0.1396158011234688 -0.41533739224804911 0 -0.1412000163098715 -0.4325167749937695 0 -0.1593777447105944 -0.42316285845136659 0 -0.1396158011234688 -0.41533739224804911 0 -0.1593777447105944 -0.42316285845136659 0 -0.15660768072732931 -0.40317271300136431 0 -0.1593777447105944 -0.42316285845136659 0 -0.1765758692127076 -0.4152308290061324 0 -0.15660768072732931 -0.40317271300136431 0 -0.17906018197216059 -0.43937563783900307 0 -0.1593777447105944 -0.42316285845136659 0 -0.1765758692127076 -0.4152308290061324 0 -0.17906018197216059 -0.43937563783900307 0 -0.15423598303164859 -0.44177224902436429 0 -0.1593777447105944 -0.42316285845136659 0 -0.17906018197216059 -0.43937563783900307 0 -0.1765758692127076 -0.4152308290061324 0 -0.20195165765642939 -0.42703056241305642 0 -0.17906018197216059 -0.43937563783900307 0 -0.1765758692127076 -0.4152308290061324 0 -0.1765758692127076 -0.4152308290061324 0 -0.17409155645325469 -0.39108602017326172 0 -0.1765758692127076 -0.4152308290061324 0 -0.17409155645325469 -0.39108602017326172 0 -0.1927278577852192 -0.40091899318860758 0 -0.17409155645325469 -0.39108602017326172 0 -0.18590307239684059 -0.38147371246455919 0 -0.1927278577852192 -0.40091899318860758 0 -0.1765758692127076 -0.4152308290061324 0 -0.17409155645325469 -0.39108602017326172 0 -0.15660768072732931 -0.40317271300136431 0 -0.17409155645325469 -0.39108602017326172 0 -0.15660768072732931 -0.40317271300136431 0 -0.16037601293293011 -0.38029703013552291 0 -0.17409155645325469 -0.39108602017326172 0 -0.16037601293293011 -0.38029703013552291 0 -0.17160724369380179 -0.36694121134039109 0 -0.17409155645325469 -0.39108602017326172 0 -0.17160724369380179 -0.36694121134039109 0 -0.17409155645325469 -0.39108602017326172 0 -0.18590307239684059 -0.38147371246455919 0 -0.17160724369380179 -0.36694121134039109 0 -0.18590307239684059 -0.38147371246455919 0 -0.2013549036583123 -0.38549185763977922 0 -0.1927278577852192 -0.40091899318860758 0 -0.2013549036583123 -0.38549185763977922 0 -0.1865812508893108 -0.36548929567762889 0 -0.18590307239684059 -0.38147371246455919 0 -0.2013549036583123 -0.38549185763977922 0 -0.1865812508893108 -0.36548929567762889 0 -0.2013549036583123 -0.38549185763977922 0 -0.21612855642731371 -0.40549441960192961 0 -0.2155215296047461 -0.38669373492773662 0 -0.2013549036583123 -0.38549185763977922 0 -0.1927278577852192 -0.40091899318860758 0 -0.21612855642731371 -0.40549441960192961 0 -0.2013549036583123 -0.38549185763977922 0 -0.21612855642731371 -0.40549441960192961 0 -0.2013549036583123 -0.38549185763977922 0 -0.20041330595725379 -0.36867681468524421 0 -0.21105740697315051 -0.37379052273772018 0 -0.2155215296047461 -0.38669373492773662 0 -0.2253810871373487 -0.37891154795916099 0 -0.21105740697315051 -0.37379052273772018 0 -0.2013549036583123 -0.38549185763977922 0 -0.2155215296047461 -0.38669373492773662 0 -0.21105740697315051 -0.37379052273772018 0 -0.1765758692127076 -0.4152308290061324 0 -0.1927278577852192 -0.40091899318860758 0 -0.20195165765642939 -0.42703056241305642 0 -0.1927278577852192 -0.40091899318860758 0 -0.21612855642731371 -0.40549441960192961 0 -0.20195165765642939 -0.42703056241305642 0 -0.21612855642731371 -0.40549441960192961 0 -0.20195165765642939 -0.42703056241305642 0 -0.2278496309317769 -0.42401677435839941 0 -0.22067959269631959 -0.44974643675718912 0 -0.20195165765642939 -0.42703056241305642 0 -0.2278496309317769 -0.42401677435839941 0 -0.22067959269631959 -0.44974643675718912 0 -0.2278496309317769 -0.42401677435839941 0 -0.24045837218685309 -0.43733520556520072 0 -0.21612855642731371 -0.40549441960192961 0 -0.2278496309317769 -0.42401677435839941 0 -0.23193480278480261 -0.41085130691984562 0 -0.2278496309317769 -0.42401677435839941 0 -0.23193480278480261 -0.41085130691984562 0 -0.23941443618323899 -0.42033505353640022 0 -0.251822557754596 -0.42514482366850592 0 -0.24336147788367321 -0.40215462524695011 0 -0.251822557754596 -0.42514482366850592 0 -0.24288329905762321 -0.40482900542952233 0 -0.24336147788367321 -0.40215462524695011 0 -0.251822557754596 -0.42514482366850592 0 -0.23941443618323899 -0.42033505353640022 0 -0.24288329905762321 -0.40482900542952233 0 -0.23193480278480261 -0.41085130691984562 0 -0.23941443618323899 -0.42033505353640022 0 -0.24288329905762321 -0.40482900542952233 0 -0.2278496309317769 -0.42401677435839941 0 -0.23941443618323899 -0.42033505353640022 0 -0.24045837218685309 -0.43733520556520072 0 -0.251822557754596 -0.42514482366850592 0 -0.23941443618323899 -0.42033505353640022 0 -0.24045837218685309 -0.43733520556520072 0 -0.2369090831027115 -0.38462236712251002 0 -0.23045668832174979 -0.36709010899806988 0 -0.2253810871373487 -0.37891154795916099 0 -0.2369090831027115 -0.38462236712251002 0 -0.23045668832174979 -0.36709010899806988 0 -0.2253810871373487 -0.37891154795916099 0 -0.22577024206471649 -0.39070255234500118 0 -0.2369090831027115 -0.38462236712251002 0 -0.2155215296047461 -0.38669373492773662 0 -0.2253810871373487 -0.37891154795916099 0 -0.22577024206471649 -0.39070255234500118 0 -0.21612855642731371 -0.40549441960192961 0 -0.23193480278480261 -0.41085130691984562 0 -0.23339809132406039 -0.39958128167297641 0 -0.21612855642731371 -0.40549441960192961 0 -0.2155215296047461 -0.38669373492773662 0 -0.22577024206471649 -0.39070255234500118 0 -0.21612855642731371 -0.40549441960192961 0 -0.22577024206471649 -0.39070255234500118 0 -0.23339809132406039 -0.39958128167297641 0 -0.22577024206471649 -0.39070255234500118 0 -0.23339809132406039 -0.39958128167297641 0 -0.2369090831027115 -0.38462236712251002 0 -0.23339809132406039 -0.39958128167297641 0 -0.24336147788367321 -0.40215462524695011 0 -0.2369090831027115 -0.38462236712251002 0 -0.24336147788367321 -0.40215462524695011 0 -0.24733858121431221 -0.37991130172012599 0 -0.24336147788367321 -0.40215462524695011 0 -0.2369090831027115 -0.38462236712251002 0 -0.23193480278480261 -0.41085130691984562 0 -0.23339809132406039 -0.39958128167297641 0 -0.24288329905762321 -0.40482900542952233 0 -0.23339809132406039 -0.39958128167297641 0 -0.24288329905762321 -0.40482900542952233 0 -0.24336147788367321 -0.40215462524695011 0 -0.24288329905762321 -0.40482900542952233 0 -0.24336147788367321 -0.40215462524695011 0 -0.24336147788367321 -0.40215462524695011 0 -0.2369090831027115 -0.38462236712251002 0 -0.24733858121431221 -0.37991130172012599 0 -0.2369090831027115 -0.38462236712251002 0 -0.24733858121431221 -0.37991130172012599 0 -0.2406505067441741 -0.36906023568979568 0 -0.2369090831027115 -0.38462236712251002 0 -0.2406505067441741 -0.36906023568979568 0 -0.23045668832174979 -0.36709010899806988 0 -0.2513156845449489 -0.35766797819330148 0 -0.24733858121431221 -0.37991130172012599 0 -0.2406505067441741 -0.36906023568979568 0 -0.2513156845449489 -0.35766797819330148 0 -0.24733858121431221 -0.37991130172012599 0 -0.2513156845449489 -0.35766797819330148 0 -0.2406505067441741 -0.36906023568979568 0 -0.2387430335359931 -0.35800504450054937 0 -0.2406505067441741 -0.36906023568979568 0 -0.23374574137134399 -0.36199715914747238 0 -0.23045668832174979 -0.36709010899806988 0 -0.2406505067441741 -0.36906023568979568 0 -0.23374574137134399 -0.36199715914747238 0 -0.2387430335359931 -0.35800504450054937 0 -0.23374574137134399 -0.36199715914747238 0 -0.2275543086771851 -0.36197871977124102 0 -0.23045668832174979 -0.36709010899806988 0 -0.23374574137134399 -0.36199715914747238 0 -0.2275543086771851 -0.36197871977124102 0 -0.23052450723573431 -0.35681762630263392 0 -0.2275543086771851 -0.36197871977124102 0 -0.23045668832174979 -0.36709010899806988 0 -0.21949962977897569 -0.36729998411559289 0 -0.2253810871373487 -0.37891154795916099 0 -0.23045668832174979 -0.36709010899806988 0 -0.21949962977897569 -0.36729998411559289 0 -0.22195606532456091 -0.35340562136407522 0 -0.23058255390062651 -0.35025342807861037 0 -0.2180617920719472 -0.34357261183711307 0 -0.23058255390062651 -0.35025342807861037 0 -0.2270153030601561 -0.34216787828203438 0 -0.2180617920719472 -0.34357261183711307 0 -0.23052450723573431 -0.35681762630263392 0 -0.23058255390062651 -0.35025342807861037 0 -0.2387430335359931 -0.35800504450054937 0 -0.2275543086771851 -0.36197871977124102 0 -0.22195606532456091 -0.35340562136407522 0 -0.23052450723573431 -0.35681762630263392 0 -0.22195606532456091 -0.35340562136407522 0 -0.23052450723573431 -0.35681762630263392 0 -0.23058255390062651 -0.35025342807861037 0 -0.23374574137134399 -0.36199715914747238 0 -0.23052450723573431 -0.35681762630263392 0 -0.2387430335359931 -0.35800504450054937 0 -0.23058255390062651 -0.35025342807861037 0 -0.2362466242986869 -0.33954964178887242 0 -0.2270153030601561 -0.34216787828203438 0 -0.23058255390062651 -0.35025342807861037 0 -0.2387430335359931 -0.35800504450054937 0 -0.2362466242986869 -0.33954964178887242 0 -0.2513156845449489 -0.35766797819330148 0 -0.2362466242986869 -0.33954964178887242 0 -0.2513156845449489 -0.35766797819330148 0 -0.2387430335359931 -0.35800504450054937 0 -0.2362466242986869 -0.33954964178887242 0 -0.2513156845449489 -0.35766797819330148 0 -0.25487435873285752 -0.3377648641156934 0 -0.2362466242986869 -0.33954964178887242 0 -0.25487435873285752 -0.3377648641156934 0 -0.2362466242986869 -0.33954964178887242 0 -0.24020454541713651 -0.32619712241641308 0 -0.24020454541713651 -0.32619712241641308 0 -0.22417499414069561 -0.31285126715586331 0 -0.2388608921210745 -0.31212276506908249 0 -0.25843303292076342 -0.31786175003808481 0 -0.24020454541713651 -0.32619712241641308 0 -0.2388608921210745 -0.31212276506908249 0 -0.24020454541713651 -0.32619712241641308 0 -0.22417499414069561 -0.31285126715586331 0 -0.24020454541713651 -0.32619712241641308 0 -0.22117756405242611 -0.32143130538444209 0 -0.22417499414069561 -0.31285126715586331 0 -0.2362466242986869 -0.33954964178887242 0 -0.24020454541713651 -0.32619712241641308 0 -0.22117756405242611 -0.32143130538444209 0 -0.2362466242986869 -0.33954964178887242 0 -0.22117756405242611 -0.32143130538444209 0 -0.22317024196936369 -0.33529583142354158 0 -0.2362466242986869 -0.33954964178887242 0 -0.22117756405242611 -0.32143130538444209 0 -0.2362466242986869 -0.33954964178887242 0 -0.2270153030601561 -0.34216787828203438 0 -0.22317024196936369 -0.33529583142354158 0 -0.22117756405242611 -0.32143130538444209 0 -0.22317024196936369 -0.33529583142354158 0 -0.21264915276048421 -0.33003951721290398 0 -0.2270153030601561 -0.34216787828203438 0 -0.22317024196936369 -0.33529583142354158 0 -0.2180617920719472 -0.34357261183711307 0 -0.2180617920719472 -0.34357261183711307 0 -0.21264915276048421 -0.33003951721290398 0 -0.20560187691988771 -0.33925008917457461 0 -0.22317024196936369 -0.33529583142354158 0 -0.2180617920719472 -0.34357261183711307 0 -0.21264915276048421 -0.33003951721290398 0 -0.21264915276048421 -0.33003951721290398 0 -0.20560187691988771 -0.33925008917457461 0 -0.20057013087044209 -0.32655309544759548 0 -0.22117756405242611 -0.32143130538444209 0 -0.22417499414069561 -0.31285126715586331 0 -0.20610850380616591 -0.30331296898001142 0 -0.22117756405242611 -0.32143130538444209 0 -0.20863066087637699 -0.32038351746172311 0 -0.20763246226457971 -0.31179544365051909 0 -0.22117756405242611 -0.32143130538444209 0 -0.21264915276048421 -0.33003951721290398 0 -0.20863066087637699 -0.32038351746172311 0 -0.21264915276048421 -0.33003951721290398 0 -0.20863066087637699 -0.32038351746172311 0 -0.20057013087044209 -0.32655309544759548 0 -0.20863066087637699 -0.32038351746172311 0 -0.20171309516835409 -0.31420568472220561 0 -0.20057013087044209 -0.32655309544759548 0 -0.20863066087637699 -0.32038351746172311 0 -0.20171309516835409 -0.31420568472220561 0 -0.20763246226457971 -0.31179544365051909 0 -0.20171309516835409 -0.31420568472220561 0 -0.20057013087044209 -0.32655309544759548 0 -0.19140841148787291 -0.31521680398720159 0 -0.20057013087044209 -0.32655309544759548 0 -0.19140841148787291 -0.31521680398720159 0 -0.18961681962384849 -0.32977621932646101 0 -0.20560187691988771 -0.33925008917457461 0 -0.20057013087044209 -0.32655309544759548 0 -0.1936796511111209 -0.34135620026348712 0 -0.20057013087044209 -0.32655309544759548 0 -0.18961681962384849 -0.32977621932646101 0 -0.1936796511111209 -0.34135620026348712 0 -0.18961681962384849 -0.32977621932646101 0 -0.1936796511111209 -0.34135620026348712 0 -0.185330660358306 -0.33566676683292268 0 -0.20304865778544429 -0.35472902111177279 0 -0.17854300689370339 -0.34747932245230528 0 -0.20304865778544429 -0.35472902111177279 0 -0.1865812508893108 -0.36548929567762889 0 -0.17844877217207089 -0.34982717931177387 0 -0.1936796511111209 -0.34135620026348712 0 -0.20304865778544429 -0.35472902111177279 0 -0.17854300689370339 -0.34747932245230528 0 -0.20560187691988771 -0.33925008917457461 0 -0.1936796511111209 -0.34135620026348712 0 -0.20304865778544429 -0.35472902111177279 0 -0.20304865778544429 -0.35472902111177279 0 -0.20041330595725379 -0.36867681468524421 0 -0.1865812508893108 -0.36548929567762889 0 -0.2013549036583123 -0.38549185763977922 0 -0.20041330595725379 -0.36867681468524421 0 -0.1865812508893108 -0.36548929567762889 0 -0.20304865778544429 -0.35472902111177279 0 -0.20041330595725379 -0.36867681468524421 0 -0.21105740697315051 -0.37379052273772018 0 -0.2275543086771851 -0.36197871977124102 0 -0.21949962977897569 -0.36729998411559289 0 -0.20304865778544429 -0.35472902111177279 0 -0.21949962977897569 -0.36729998411559289 0 -0.20304865778544429 -0.35472902111177279 0 -0.21105740697315051 -0.37379052273772018 0 -0.2253810871373487 -0.37891154795916099 0 -0.21949962977897569 -0.36729998411559289 0 -0.21105740697315051 -0.37379052273772018 0 -0.22195606532456091 -0.35340562136407522 0 -0.2180617920719472 -0.34357261183711307 0 -0.20304865778544429 -0.35472902111177279 0 -0.2275543086771851 -0.36197871977124102 0 -0.22195606532456091 -0.35340562136407522 0 -0.20304865778544429 -0.35472902111177279 0 -0.2275543086771851 -0.36197871977124102 0 -0.20304865778544429 -0.35472902111177279 0 -0.2180617920719472 -0.34357261183711307 0 -0.20560187691988771 -0.33925008917457461 0 -0.20304865778544429 -0.35472902111177279 0 -0.22887035679048739 -0.26076527750774792 0 -0.24124313271001141 -0.25611716584336802 0 -0.23866709335867681 -0.2442148082805505 0 -0.24124313271001141 -0.25611716584336802 0 -0.2450497348041098 -0.26600117332740048 0 -0.25127422555496121 -0.24868464517097449 0 -0.22887035679048739 -0.26076527750774792 0 -0.24124313271001141 -0.25611716584336802 0 -0.2450497348041098 -0.26600117332740048 0 -0.22887035679048739 -0.26076527750774792 0 -0.23805176025818439 -0.2763706123750847 0 -0.2450497348041098 -0.26600117332740048 0 -0.25659911904309268 -0.27316602648937499 0 -0.23805176025818439 -0.2763706123750847 0 -0.24701072582853861 -0.28801660099350751 0 -0.25659911904309268 -0.27316602648937499 0 -0.23805176025818439 -0.2763706123750847 0 -0.2450497348041098 -0.26600117332740048 0 -0.25659911904309268 -0.27316602648937499 0 -0.23805176025818439 -0.2763706123750847 0 -0.22887035679048739 -0.26076527750774792 0 -0.2165164236863211 -0.28385792003325538 0 -0.22887035679048739 -0.26076527750774792 0 -0.2165164236863211 -0.28385792003325538 0 -0.2112974443224557 -0.26622953261611459 0 -0.22887035679048739 -0.26076527750774792 0 -0.23805176025818439 -0.2763706123750847 0 -0.2165164236863211 -0.28385792003325538 0 -0.23805176025818439 -0.2763706123750847 0 -0.2316424888063553 -0.29214855005861973 0 -0.2165164236863211 -0.28385792003325538 0 -0.2316424888063553 -0.29214855005861973 0 -0.2165164236863211 -0.28385792003325538 0 -0.2316424888063553 -0.29214855005861973 0 -0.22196954451422829 -0.29901911652437457 0 -0.2165164236863211 -0.28385792003325538 0 -0.23805176025818439 -0.2763706123750847 0 -0.2316424888063553 -0.29214855005861973 0 -0.24701072582853861 -0.28801660099350751 0 -0.2316424888063553 -0.29214855005861973 0 -0.24701072582853861 -0.28801660099350751 0 -0.24676855392639049 -0.30043918008398213 0 -0.2316424888063553 -0.29214855005861973 0 -0.24676855392639049 -0.30043918008398213 0 -0.25843303292076342 -0.31786175003808481 0 -0.24676855392639049 -0.30043918008398213 0 -0.2388608921210745 -0.31212276506908249 0 -0.2316424888063553 -0.29214855005861973 0 -0.24676855392639049 -0.30043918008398213 0 -0.23151795791706381 -0.30412561196793769 0 -0.24676855392639049 -0.30043918008398213 0 -0.2388608921210745 -0.31212276506908249 0 -0.23151795791706381 -0.30412561196793769 0 -0.22417499414069561 -0.31285126715586331 0 -0.2388608921210745 -0.31212276506908249 0 -0.23151795791706381 -0.30412561196793769 0 -0.2316424888063553 -0.29214855005861973 0 -0.23151795791706381 -0.30412561196793769 0 -0.22196954451422829 -0.29901911652437457 0 -0.22417499414069561 -0.31285126715586331 0 -0.23151795791706381 -0.30412561196793769 0 -0.22196954451422829 -0.29901911652437457 0 -0.22117756405242611 -0.32143130538444209 0 -0.20610850380616591 -0.30331296898001142 0 -0.22417499414069561 -0.31285126715586331 0 -0.20814544286425521 -0.29950541189531271 0 -0.20610850380616591 -0.30331296898001142 0 -0.22117756405242611 -0.32143130538444209 0 -0.20610850380616591 -0.30331296898001142 0 -0.20763246226457971 -0.31179544365051909 0 -0.22417499414069561 -0.31285126715586331 0 -0.22196954451422829 -0.29901911652437457 0 -0.20814544286425521 -0.29950541189531271 0 -0.22417499414069561 -0.31285126715586331 0 -0.20814544286425521 -0.29950541189531271 0 -0.20814544286425521 -0.29950541189531271 0 -0.20610850380616591 -0.30331296898001142 0 -0.19843665645136321 -0.29408869693210898 0 -0.20814544286425521 -0.29950541189531271 0 -0.20610850380616591 -0.30331296898001142 0 -0.20610850380616591 -0.30331296898001142 0 -0.20480705647221031 -0.3057457049998234 0 -0.20075494932878971 -0.30226059900925722 0 -0.20610850380616591 -0.30331296898001142 0 -0.20480705647221031 -0.3057457049998234 0 -0.20610850380616591 -0.30331296898001142 0 -0.20480705647221031 -0.3057457049998234 0 -0.20763246226457971 -0.31179544365051909 0 -0.20171309516835409 -0.31420568472220561 0 -0.20763246226457971 -0.31179544365051909 0 -0.20351929106987671 -0.30983014344151683 0 -0.20480705647221031 -0.3057457049998234 0 -0.20763246226457971 -0.31179544365051909 0 -0.20351929106987671 -0.30983014344151683 0 -0.20171309516835409 -0.31420568472220561 0 -0.20351929106987671 -0.30983014344151683 0 -0.19852870650699581 -0.30744440967208653 0 -0.20171309516835409 -0.31420568472220561 0 -0.19140841148787291 -0.31521680398720159 0 -0.19852870650699581 -0.30744440967208653 0 -0.20480705647221031 -0.3057457049998234 0 -0.19852870650699581 -0.30744440967208653 0 -0.20075494932878971 -0.30226059900925722 0 -0.20480705647221031 -0.3057457049998234 0 -0.20351929106987671 -0.30983014344151683 0 -0.19852870650699581 -0.30744440967208653 0 -0.19140841148787291 -0.31521680398720159 0 -0.19131244258693039 -0.30385303512448081 0 -0.18042332071540129 -0.30063132812657001 0 -0.19140841148787291 -0.31521680398720159 0 -0.19852870650699581 -0.30744440967208653 0 -0.19131244258693039 -0.30385303512448081 0 -0.19131244258693039 -0.30385303512448081 0 -0.1958938234072137 -0.30071121446225552 0 -0.19030795081716839 -0.29526141937429012 0 -0.19852870650699581 -0.30744440967208653 0 -0.19131244258693039 -0.30385303512448081 0 -0.1958938234072137 -0.30071121446225552 0 -0.20610850380616591 -0.30331296898001142 0 -0.20075494932878971 -0.30226059900925722 0 -0.19843665645136321 -0.29408869693210898 0 -0.1958938234072137 -0.30071121446225552 0 -0.20075494932878971 -0.30226059900925722 0 -0.19843665645136321 -0.29408869693210898 0 -0.20610850380616591 -0.30331296898001142 0 -0.19843665645136321 -0.29408869693210898 0 -0.19852870650699581 -0.30744440967208653 0 -0.1958938234072137 -0.30071121446225552 0 -0.20075494932878971 -0.30226059900925722 0 -0.19030795081716839 -0.29526141937429012 0 -0.19475446024525231 -0.28835637142950798 0 -0.18136347762625041 -0.2772073309637022 0 -0.20814544286425521 -0.29950541189531271 0 -0.19843665645136321 -0.29408869693210898 0 -0.19475446024525231 -0.28835637142950798 0 -0.20814544286425521 -0.29950541189531271 0 -0.19475446024525231 -0.28835637142950798 0 -0.1958938234072137 -0.30071121446225552 0 -0.19843665645136321 -0.29408869693210898 0 -0.19030795081716839 -0.29526141937429012 0 -0.19843665645136321 -0.29408869693210898 0 -0.19030795081716839 -0.29526141937429012 0 -0.19475446024525231 -0.28835637142950798 0 -0.19475446024525231 -0.28835637142950798 0 -0.18136347762625041 -0.2772073309637022 0 -0.22196954451422829 -0.29901911652437457 0 -0.20814544286425521 -0.29950541189531271 0 -0.2165164236863211 -0.28385792003325538 0 -0.19475446024525231 -0.28835637142950798 0 -0.2165164236863211 -0.28385792003325538 0 -0.19918769787527649 -0.27436000677093658 0 -0.20814544286425521 -0.29950541189531271 0 -0.19475446024525231 -0.28835637142950798 0 -0.2165164236863211 -0.28385792003325538 0 -0.20814544286425521 -0.29950541189531271 0 -0.2165164236863211 -0.28385792003325538 0 -0.2165164236863211 -0.28385792003325538 0 -0.19918769787527649 -0.27436000677093658 0 -0.2165164236863211 -0.28385792003325538 0 -0.2112974443224557 -0.26622953261611459 0 -0.19918769787527649 -0.27436000677093658 0 -0.2112974443224557 -0.26622953261611459 0 -0.19918769787527649 -0.27436000677093658 0 -0.1975951534684377 -0.25759655953010302 0 -0.19918769787527649 -0.27436000677093658 0 -0.1818589720642326 -0.2648620935086165 0 -0.19475446024525231 -0.28835637142950798 0 -0.19918769787527649 -0.27436000677093658 0 -0.18136347762625041 -0.2772073309637022 0 -0.1975951534684377 -0.25759655953010302 0 -0.1818589720642326 -0.2648620935086165 0 -0.18650951462440329 -0.24825408421953471 0 -0.19918769787527649 -0.27436000677093658 0 -0.1975951534684377 -0.25759655953010302 0 -0.1818589720642326 -0.2648620935086165 0 -0.2112974443224557 -0.26622953261611459 0 -0.1975951534684377 -0.25759655953010302 0 -0.2095913101210784 -0.2500040741313308 0 -0.22887035679048739 -0.26076527750774792 0 -0.2112974443224557 -0.26622953261611459 0 -0.2095913101210784 -0.2500040741313308 0 -0.16602924539693359 -0.25618578501994232 0 -0.17068395905932501 -0.26984986437824188 0 -0.1539320783587656 -0.2627434411438479 0 -0.16602924539693359 -0.25618578501994232 0 -0.1539320783587656 -0.2627434411438479 0 -0.15019951872963441 -0.24750947653126881 0 -0.16602924539693359 -0.25618578501994232 0 -0.15019951872963441 -0.24750947653126881 0 -0.1818589720642326 -0.2648620935086165 0 -0.18295054034434891 -0.2376656840566844 0 -0.18650951462440329 -0.24825408421953471 0 -0.1818589720642326 -0.2648620935086165 0 -0.18295054034434891 -0.2376656840566844 0 -0.16602924539693359 -0.25618578501994232 0 -0.1818589720642326 -0.2648620935086165 0 -0.16602924539693359 -0.25618578501994232 0 -0.1818589720642326 -0.2648620935086165 0 -0.17068395905932501 -0.26984986437824188 0 -0.16602924539693359 -0.25618578501994232 0 -0.1818589720642326 -0.2648620935086165 0 -0.17008543968184009 -0.24291600084324499 0 -0.19918769787527649 -0.27436000677093658 0 -0.1818589720642326 -0.2648620935086165 0 -0.18136347762625041 -0.2772073309637022 0 -0.1818589720642326 -0.2648620935086165 0 -0.1764169346065611 -0.27243106185906912 0 -0.17068395905932501 -0.26984986437824188 0 -0.1818589720642326 -0.2648620935086165 0 -0.18136347762625041 -0.2772073309637022 0 -0.1818589720642326 -0.2648620935086165 0 -0.1764169346065611 -0.27243106185906912 0 -0.18136347762625041 -0.2772073309637022 0 -0.1764169346065611 -0.27243106185906912 0 -0.18136347762625041 -0.2772073309637022 0 -0.172325582188642 -0.27827474293765508 0 -0.1764169346065611 -0.27243106185906912 0 -0.172325582188642 -0.27827474293765508 0 -0.17068395905932501 -0.26984986437824188 0 -0.17068395905932501 -0.26984986437824188 0 -0.1587788283173617 -0.27767455692807691 0 -0.1539320783587656 -0.2627434411438479 0 -0.172325582188642 -0.27827474293765508 0 -0.17068395905932501 -0.26984986437824188 0 -0.1587788283173617 -0.27767455692807691 0 -0.1587788283173617 -0.27767455692807691 0 -0.1575017031943543 -0.29014178243177702 0 -0.1707713760510926 -0.28836560258425947 0 -0.1575017031943543 -0.29014178243177702 0 -0.1707713760510926 -0.28836560258425947 0 -0.16280528673338501 -0.30204826661879669 0 -0.172325582188642 -0.27827474293765508 0 -0.1587788283173617 -0.27767455692807691 0 -0.1707713760510926 -0.28836560258425947 0 -0.18136347762625041 -0.2772073309637022 0 -0.1707713760510926 -0.28836560258425947 0 -0.18042332071540129 -0.30063132812657001 0 -0.19030795081716839 -0.29526141937429012 0 -0.18136347762625041 -0.2772073309637022 0 -0.18042332071540129 -0.30063132812657001 0 -0.18136347762625041 -0.2772073309637022 0 -0.18042332071540129 -0.30063132812657001 0 -0.18136347762625041 -0.2772073309637022 0 -0.172325582188642 -0.27827474293765508 0 -0.1707713760510926 -0.28836560258425947 0 -0.18042332071540129 -0.30063132812657001 0 -0.17948316380455129 -0.32405532528943748 0 -0.19131244258693039 -0.30385303512448081 0 -0.19030795081716839 -0.29526141937429012 0 -0.18042332071540129 -0.30063132812657001 0 -0.1707713760510926 -0.28836560258425947 0 -0.18042332071540129 -0.30063132812657001 0 -0.16280528673338501 -0.30204826661879669 0 -0.18042332071540129 -0.30063132812657001 0 -0.16280528673338501 -0.30204826661879669 0 -0.16512839772917279 -0.31886996535048578 0 -0.16280528673338501 -0.30204826661879669 0 -0.16512839772917279 -0.31886996535048578 0 -0.15045305213153551 -0.31261504591323369 0 -0.1575017031943543 -0.29014178243177702 0 -0.16280528673338501 -0.30204826661879669 0 -0.15069922797120849 -0.29969991350259811 0 -0.15069922797120849 -0.29969991350259811 0 -0.13434902640330471 -0.30400802978109448 0 -0.15045305213153551 -0.31261504591323369 0 -0.16280528673338501 -0.30204826661879669 0 -0.15069922797120849 -0.29969991350259811 0 -0.15045305213153551 -0.31261504591323369 0 -0.13434902640330471 -0.30400802978109448 0 -0.12759305183856989 -0.28107073422808349 0 -0.11845964057366 -0.29501093084248597 0 -0.13434902640330471 -0.30400802978109448 0 -0.14523352932712899 -0.28605557000249332 0 -0.12759305183856989 -0.28107073422808349 0 -0.15069922797120849 -0.29969991350259811 0 -0.13434902640330471 -0.30400802978109448 0 -0.14523352932712899 -0.28605557000249332 0 -0.1575017031943543 -0.29014178243177702 0 -0.15069922797120849 -0.29969991350259811 0 -0.14523352932712899 -0.28605557000249332 0 -0.1587788283173617 -0.27767455692807691 0 -0.1575017031943543 -0.29014178243177702 0 -0.14523352932712899 -0.28605557000249332 0 -0.1587788283173617 -0.27767455692807691 0 -0.14523352932712899 -0.28605557000249332 0 -0.1401717937417678 -0.26855392214362639 0 -0.1587788283173617 -0.27767455692807691 0 -0.1401717937417678 -0.26855392214362639 0 -0.1539320783587656 -0.2627434411438479 0 -0.1401717937417678 -0.26855392214362639 0 -0.12759305183856989 -0.28107073422808349 0 -0.115995247393261 -0.26258155232793567 0 -0.14523352932712899 -0.28605557000249332 0 -0.1401717937417678 -0.26855392214362639 0 -0.12759305183856989 -0.28107073422808349 0 -0.13752416990192209 -0.25270373144511749 0 -0.115995247393261 -0.26258155232793567 0 -0.1268453784909149 -0.2408573386526435 0 -0.1401717937417678 -0.26855392214362639 0 -0.13752416990192209 -0.25270373144511749 0 -0.115995247393261 -0.26258155232793567 0 -0.13752416990192209 -0.25270373144511749 0 -0.1539320783587656 -0.2627434411438479 0 -0.15019951872963441 -0.24750947653126881 0 -0.1401717937417678 -0.26855392214362639 0 -0.13752416990192209 -0.25270373144511749 0 -0.1539320783587656 -0.2627434411438479 0 -0.16762439204194249 -0.34424918309368302 0 -0.14901376568019509 -0.36705249248938138 0 -0.16637414911142659 -0.35616416732499839 0 -0.16762439204194249 -0.34424918309368302 0 -0.14901376568019509 -0.36705249248938138 0 -0.16637414911142659 -0.35616416732499839 0 -0.16940246477862461 -0.3509796805561145 0 -0.16762439204194249 -0.34424918309368302 0 -0.17180759812030871 -0.34548673371547911 0 -0.16762439204194249 -0.34424918309368302 0 -0.16934050737856149 -0.34214645381316428 0 -0.16940246477862461 -0.3509796805561145 0 -0.17180759812030871 -0.34548673371547911 0 -0.16762439204194249 -0.34424918309368302 0 -0.17180759812030871 -0.34548673371547911 0 -0.16762439204194249 -0.34424918309368302 0 -0.17180759812030871 -0.34548673371547911 0 -0.16934050737856149 -0.34214645381316428 0 -0.16637414911142659 -0.35616416732499839 0 -0.16184279285458841 -0.36761372532257341 0 -0.14901376568019509 -0.36705249248938138 0 -0.16037601293293011 -0.38029703013552291 0 -0.16184279285458841 -0.36761372532257341 0 -0.14901376568019509 -0.36705249248938138 0 -0.16037601293293011 -0.38029703013552291 0 -0.16184279285458841 -0.36761372532257341 0 -0.17160724369380179 -0.36694121134039109 0 -0.16637414911142659 -0.35616416732499839 0 -0.16184279285458841 -0.36761372532257341 0 -0.17160724369380179 -0.36694121134039109 0 -0.18590307239684059 -0.38147371246455919 0 -0.17160724369380179 -0.36694121134039109 0 -0.1865812508893108 -0.36548929567762889 0 -0.16637414911142659 -0.35616416732499839 0 -0.17160724369380179 -0.36694121134039109 0 -0.1865812508893108 -0.36548929567762889 0 -0.17180759812030871 -0.34548673371547911 0 -0.1865812508893108 -0.36548929567762889 0 -0.17180759812030871 -0.34548673371547911 0 -0.1865812508893108 -0.36548929567762889 0 -0.17844877217207089 -0.34982717931177387 0 -0.16637414911142659 -0.35616416732499839 0 -0.16940246477862461 -0.3509796805561145 0 -0.1865812508893108 -0.36548929567762889 0 -0.16940246477862461 -0.3509796805561145 0 -0.17180759812030871 -0.34548673371547911 0 -0.1865812508893108 -0.36548929567762889 0 -0.20304865778544429 -0.35472902111177279 0 -0.17844877217207089 -0.34982717931177387 0 -0.17854300689370339 -0.34747932245230528 0 -0.17180759812030871 -0.34548673371547911 0 -0.17854300689370339 -0.34747932245230528 0 -0.16934050737856149 -0.34214645381316428 0 -0.17180759812030871 -0.34548673371547911 0 -0.17854300689370339 -0.34747932245230528 0 -0.17844877217207089 -0.34982717931177387 0 -0.17854300689370339 -0.34747932245230528 0 -0.17180759812030871 -0.34548673371547911 0 -0.17844877217207089 -0.34982717931177387 0 -0.17854300689370339 -0.34747932245230528 0 -0.17854300689370339 -0.34747932245230528 0 -0.17225276860486469 -0.33211626967333252 0 -0.17948316380455129 -0.32405532528943748 0 -0.17854300689370339 -0.34747932245230528 0 -0.185330660358306 -0.33566676683292268 0 -0.17948316380455129 -0.32405532528943748 0 -0.1936796511111209 -0.34135620026348712 0 -0.17854300689370339 -0.34747932245230528 0 -0.185330660358306 -0.33566676683292268 0 -0.17854300689370339 -0.34747932245230528 0 -0.17948316380455129 -0.32405532528943748 0 -0.18961681962384849 -0.32977621932646101 0 -0.185330660358306 -0.33566676683292268 0 -0.17948316380455129 -0.32405532528943748 0 -0.17854300689370339 -0.34747932245230528 0 -0.17225276860486469 -0.33211626967333252 0 -0.16934050737856149 -0.34214645381316428 0 -0.19140841148787291 -0.31521680398720159 0 -0.18042332071540129 -0.30063132812657001 0 -0.17948316380455129 -0.32405532528943748 0 -0.18042332071540129 -0.30063132812657001 0 -0.17948316380455129 -0.32405532528943748 0 -0.16512839772917279 -0.31886996535048578 0 -0.19140841148787291 -0.31521680398720159 0 -0.18961681962384849 -0.32977621932646101 0 -0.17948316380455129 -0.32405532528943748 0 -0.17225276860486469 -0.33211626967333252 0 -0.17948316380455129 -0.32405532528943748 0 -0.16512839772917279 -0.31886996535048578 0 -0.16512839772917279 -0.31886996535048578 0 -0.16366841989245531 -0.33446681742468581 0 -0.15295445382476899 -0.32501913292398749 0 -0.16762439204194249 -0.34424918309368302 0 -0.145090472600509 -0.3375827971940053 0 -0.16762439204194249 -0.34424918309368302 0 -0.16366841989245531 -0.33446681742468581 0 -0.145090472600509 -0.3375827971940053 0 -0.16762439204194249 -0.34424918309368302 0 -0.16934050737856149 -0.34214645381316428 0 -0.16366841989245531 -0.33446681742468581 0 -0.17225276860486469 -0.33211626967333252 0 -0.16934050737856149 -0.34214645381316428 0 -0.1689287829343378 -0.33737808521533708 0 -0.16934050737856149 -0.34214645381316428 0 -0.1689287829343378 -0.33737808521533708 0 -0.16366841989245531 -0.33446681742468581 0 -0.16934050737856149 -0.34214645381316428 0 -0.16366841989245531 -0.33446681742468581 0 -0.16762439204194249 -0.34424918309368302 0 -0.16934050737856149 -0.34214645381316428 0 -0.17225276860486469 -0.33211626967333252 0 -0.16512839772917279 -0.31886996535048578 0 -0.16366841989245531 -0.33446681742468581 0 -0.17225276860486469 -0.33211626967333252 0 -0.1689287829343378 -0.33737808521533708 0 -0.16366841989245531 -0.33446681742468581 0 -0.16366841989245531 -0.33446681742468581 0 -0.145090472600509 -0.3375827971940053 0 -0.15295445382476899 -0.32501913292398749 0 -0.13434902640330471 -0.30400802978109448 0 -0.15045305213153551 -0.31261504591323369 0 -0.14043192677017219 -0.32156103873752673 0 -0.145090472600509 -0.3375827971940053 0 -0.15295445382476899 -0.32501913292398749 0 -0.14043192677017219 -0.32156103873752673 0 -0.16512839772917279 -0.31886996535048578 0 -0.15045305213153551 -0.31261504591323369 0 -0.15295445382476899 -0.32501913292398749 0 -0.15045305213153551 -0.31261504591323369 0 -0.15295445382476899 -0.32501913292398749 0 -0.14043192677017219 -0.32156103873752673 0 -0.14043192677017219 -0.32156103873752673 0 -0.12727402577986291 -0.32426721364866529 0 -0.13015791928857939 -0.33820077872074161 0 -0.13434902640330471 -0.30400802978109448 0 -0.14043192677017219 -0.32156103873752673 0 -0.12727402577986291 -0.32426721364866529 0 -0.145090472600509 -0.3375827971940053 0 -0.14043192677017219 -0.32156103873752673 0 -0.13015791928857939 -0.33820077872074161 0 -0.145090472600509 -0.3375827971940053 0 -0.13015791928857939 -0.33820077872074161 0 -0.13523100964086601 -0.35268525393100719 0 -0.13015791928857939 -0.33820077872074161 0 -0.13523100964086601 -0.35268525393100719 0 -0.11789064226248661 -0.35429227359655879 0 -0.13523100964086601 -0.35268525393100719 0 -0.12274258464922121 -0.36902856288828562 0 -0.11789064226248661 -0.35429227359655879 0 -0.145090472600509 -0.3375827971940053 0 -0.13523100964086601 -0.35268525393100719 0 -0.14923990999087811 -0.35039243167701922 0 -0.13523100964086601 -0.35268525393100719 0 -0.14923990999087811 -0.35039243167701922 0 -0.14901376568019509 -0.36705249248938138 0 -0.16762439204194249 -0.34424918309368302 0 -0.14923990999087811 -0.35039243167701922 0 -0.14901376568019509 -0.36705249248938138 0 -0.16762439204194249 -0.34424918309368302 0 -0.145090472600509 -0.3375827971940053 0 -0.14923990999087811 -0.35039243167701922 0 -0.13523100964086601 -0.35268525393100719 0 -0.14901376568019509 -0.36705249248938138 0 -0.12274258464922121 -0.36902856288828562 0 -0.12274258464922121 -0.36902856288828562 0 -0.103683536931562 -0.3652030942948894 0 -0.11789064226248661 -0.35429227359655879 0 -0.103683536931562 -0.3652030942948894 0 -0.082008846719573356 -0.36397945615076149 0 -0.1012239598508798 -0.38395801425249532 0 -0.12274258464922121 -0.36902856288828562 0 -0.103683536931562 -0.3652030942948894 0 -0.1012239598508798 -0.38395801425249532 0 -0.103683536931562 -0.3652030942948894 0 -0.099306270963376422 -0.34935981956089612 0 -0.082008846719573356 -0.36397945615076149 0 -0.103683536931562 -0.3652030942948894 0 -0.099306270963376422 -0.34935981956089612 0 -0.11789064226248661 -0.35429227359655879 0 -0.13015791928857939 -0.33820077872074161 0 -0.11789064226248661 -0.35429227359655879 0 -0.11502943867757991 -0.33881609521668621 0 -0.099306270963376422 -0.34935981956089612 0 -0.11789064226248661 -0.35429227359655879 0 -0.11502943867757991 -0.33881609521668621 0 -0.12727402577986291 -0.32426721364866529 0 -0.11502943867757991 -0.33881609521668621 0 -0.1003265340612884 -0.32743215436018869 0 -0.12727402577986291 -0.32426721364866529 0 -0.13015791928857939 -0.33820077872074161 0 -0.11502943867757991 -0.33881609521668621 0 -0.12727402577986291 -0.32426721364866529 0 -0.1003265340612884 -0.32743215436018869 0 -0.12727402577986291 -0.32426721364866529 0 -0.1003265340612884 -0.32743215436018869 0 -0.1133435057196655 -0.31060059456487482 0 -0.13434902640330471 -0.30400802978109448 0 -0.12727402577986291 -0.32426721364866529 0 -0.1133435057196655 -0.31060059456487482 0 -0.1003265340612884 -0.32743215436018869 0 -0.1133435057196655 -0.31060059456487482 0 -0.095897891848924083 -0.30751069368634171 0 -0.099306270963376422 -0.34935981956089612 0 -0.11502943867757991 -0.33881609521668621 0 -0.1003265340612884 -0.32743215436018869 0 -0.099306270963376422 -0.34935981956089612 0 -0.1003265340612884 -0.32743215436018869 0 -0.083897266915479246 -0.344214503452835 0 -0.1003265340612884 -0.32743215436018869 0 -0.073379042342714071 -0.33059709507171198 0 -0.083897266915479246 -0.344214503452835 0 -0.1003265340612884 -0.32743215436018869 0 -0.073379042342714071 -0.33059709507171198 0 -0.1003265340612884 -0.32743215436018869 0 -0.083452678564731944 -0.31528936252087147 0 -0.073379042342714071 -0.33059709507171198 0 -0.1003265340612884 -0.32743215436018869 0 -0.083452678564731944 -0.31528936252087147 0 -0.095897891848924083 -0.30751069368634171 0 -0.083452678564731944 -0.31528936252087147 0 -0.073379042342714071 -0.33059709507171198 0 -0.069175235660262582 -0.31072935350895597 0 -0.073379042342714071 -0.33059709507171198 0 -0.069175235660262582 -0.31072935350895597 0 -0.051033218481674712 -0.31363751671741102 0 -0.073379042342714071 -0.33059709507171198 0 -0.064465640490443996 -0.3497039921206167 0 -0.056129978509602413 -0.34035317958230232 0 -0.073379042342714071 -0.33059709507171198 0 -0.064465640490443996 -0.3497039921206167 0 -0.083897266915479246 -0.344214503452835 0 -0.064465640490443996 -0.3497039921206167 0 -0.082008846719573356 -0.36397945615076149 0 -0.083897266915479246 -0.344214503452835 0 -0.082008846719573356 -0.36397945615076149 0 -0.061036209169593153 -0.36535203002654371 0 -0.076296586058619942 -0.38561253404247359 0 -0.064465640490443996 -0.3497039921206167 0 -0.082008846719573356 -0.36397945615076149 0 -0.061036209169593153 -0.36535203002654371 0 -0.099306270963376422 -0.34935981956089612 0 -0.082008846719573356 -0.36397945615076149 0 -0.083897266915479246 -0.344214503452835 0 -0.093794456505960105 -0.26095817393651588 0 -0.115995247393261 -0.26258155232793567 0 -0.1088131582368151 -0.23587874231656689 0 -0.12759305183856989 -0.28107073422808349 0 -0.115995247393261 -0.26258155232793567 0 -0.1125064031878457 -0.28273369199106452 0 -0.115995247393261 -0.26258155232793567 0 -0.097352048396738944 -0.28006786711205911 0 -0.1125064031878457 -0.28273369199106452 0 -0.093794456505960105 -0.26095817393651588 0 -0.115995247393261 -0.26258155232793567 0 -0.097352048396738944 -0.28006786711205911 0 -0.097352048396738944 -0.28006786711205911 0 -0.1031320277369988 -0.29493737544475829 0 -0.1125064031878457 -0.28273369199106452 0 -0.12759305183856989 -0.28107073422808349 0 -0.1125064031878457 -0.28273369199106452 0 -0.11845964057366 -0.29501093084248597 0 -0.1031320277369988 -0.29493737544475829 0 -0.1125064031878457 -0.28273369199106452 0 -0.11845964057366 -0.29501093084248597 0 -0.13434902640330471 -0.30400802978109448 0 -0.11845964057366 -0.29501093084248597 0 -0.1133435057196655 -0.31060059456487482 0 -0.1031320277369988 -0.29493737544475829 0 -0.11845964057366 -0.29501093084248597 0 -0.1133435057196655 -0.31060059456487482 0 -0.1031320277369988 -0.29493737544475829 0 -0.1133435057196655 -0.31060059456487482 0 -0.095897891848924083 -0.30751069368634171 0 -0.083452678564731944 -0.31528936252087147 0 -0.095897891848924083 -0.30751069368634171 0 -0.078484688910470696 -0.30017751597715953 0 -0.1031320277369988 -0.29493737544475829 0 -0.095897891848924083 -0.30751069368634171 0 -0.078484688910470696 -0.30017751597715953 0 -0.095897891848924083 -0.30751069368634171 0 -0.078484688910470696 -0.30017751597715953 0 -0.078484688910470696 -0.30017751597715953 0 -0.069175235660262582 -0.31072935350895597 0 -0.061071485972017253 -0.29284433826797729 0 -0.083452678564731944 -0.31528936252087147 0 -0.078484688910470696 -0.30017751597715953 0 -0.069175235660262582 -0.31072935350895597 0 -0.078484688910470696 -0.30017751597715953 0 -0.061071485972017253 -0.29284433826797729 0 -0.078484688910470696 -0.30017751597715953 0 -0.079319707190699057 -0.2826139241470253 0 -0.061071485972017253 -0.29284433826797729 0 -0.097352048396738944 -0.28006786711205911 0 -0.1031320277369988 -0.29493737544475829 0 -0.078484688910470696 -0.30017751597715953 0 -0.097352048396738944 -0.28006786711205911 0 -0.078484688910470696 -0.30017751597715953 0 -0.079319707190699057 -0.2826139241470253 0 -0.093794456505960105 -0.26095817393651588 0 -0.079319707190699057 -0.2826139241470253 0 -0.074119354596755491 -0.26581709866116238 0 -0.093794456505960105 -0.26095817393651588 0 -0.097352048396738944 -0.28006786711205911 0 -0.079319707190699057 -0.2826139241470253 0 -0.074119354596755491 -0.26581709866116238 0 -0.055353316836296837 -0.26947895871175442 0 -0.061071485972017253 -0.29284433826797729 0 -0.079319707190699057 -0.2826139241470253 0 -0.074119354596755491 -0.26581709866116238 0 -0.061071485972017253 -0.29284433826797729 0 -0.074119354596755491 -0.26581709866116238 0 -0.061071485972017253 -0.29284433826797729 0 -0.074119354596755491 -0.26581709866116238 0 -0.055353316836296837 -0.26947895871175442 0 -0.058274759306705518 -0.2449880856413644 0 -0.093794456505960105 -0.26095817393651588 0 -0.074119354596755491 -0.26581709866116238 0 -0.087167223221491022 -0.2387898590543461 0 -0.074119354596755491 -0.26581709866116238 0 -0.087167223221491022 -0.2387898590543461 0 -0.041427047830050592 -0.25898554774103189 0 -0.022774349129396781 -0.25799646092639372 0 -0.030620403015976429 -0.23642163539048139 0 -0.041427047830050592 -0.25898554774103189 0 -0.055353316836296837 -0.26947895871175442 0 -0.058274759306705518 -0.2449880856413644 0 -0.041427047830050592 -0.25898554774103189 0 -0.04187393647595538 -0.28475972324723547 0 -0.022676386979893461 -0.27667510822649383 0 -0.041427047830050592 -0.25898554774103189 0 -0.055353316836296837 -0.26947895871175442 0 -0.04187393647595538 -0.28475972324723547 0 -0.04187393647595538 -0.28475972324723547 0 -0.022676386979893461 -0.27667510822649383 0 -0.04187393647595538 -0.28475972324723547 0 -0.042473881719760923 -0.29983865810308091 0 -0.028047830905754498 -0.29096207051087603 0 -0.04187393647595538 -0.28475972324723547 0 -0.061071485972017253 -0.29284433826797729 0 -0.04187393647595538 -0.28475972324723547 0 -0.061071485972017253 -0.29284433826797729 0 -0.042473881719760923 -0.29983865810308091 0 -0.055353316836296837 -0.26947895871175442 0 -0.04187393647595538 -0.28475972324723547 0 -0.061071485972017253 -0.29284433826797729 0 -0.069175235660262582 -0.31072935350895597 0 -0.061071485972017253 -0.29284433826797729 0 -0.051033218481674712 -0.31363751671741102 0 -0.061071485972017253 -0.29284433826797729 0 -0.042473881719760923 -0.29983865810308091 0 -0.051033218481674712 -0.31363751671741102 0 -0.061071485972017253 -0.29284433826797729 0 -0.051033218481674712 -0.31363751671741102 0 -0.042473881719760923 -0.29983865810308091 0 -0.02455957063883427 -0.30471912560100722 0 -0.028047830905754498 -0.29096207051087603 0 -0.042473881719760923 -0.29983865810308091 0 -0.02455957063883427 -0.30471912560100722 0 -0.036242032258953498 -0.31369460589619741 0 -0.042473881719760923 -0.29983865810308091 0 -0.051033218481674712 -0.31363751671741102 0 -0.036242032258953498 -0.31369460589619741 0 -0.02455957063883427 -0.30471912560100722 0 -0.036242032258953498 -0.31369460589619741 0 -0.0255810966973474 -0.31656309926304033 0 -0.02455957063883427 -0.30471912560100722 0 -0.009030513806621893 -0.3081642296184452 0 -0.01398685450857224 -0.2936474917599049 0 -0.02455957063883427 -0.30471912560100722 0 -0.009030513806621893 -0.3081642296184452 0 -0.016398485554645861 -0.31579346276800663 0 -0.02455957063883427 -0.30471912560100722 0 -0.0255810966973474 -0.31656309926304033 0 -0.016398485554645861 -0.31579346276800663 0 -0.009030513806621893 -0.3081642296184452 0 0.0028682081076095919 -0.31713484895558841 0 0.0012398608337699101 -0.29536556010934689 0 -0.009030513806621893 -0.3081642296184452 0 -0.01398685450857224 -0.2936474917599049 0 0.0012398608337699101 -0.29536556010934689 0 -0.01398685450857224 -0.2936474917599049 0 -0.007783638456419566 -0.28213049391135198 0 -0.022676386979893461 -0.27667510822649383 0 -0.01398685450857224 -0.2936474917599049 0 -0.007783638456419566 -0.28213049391135198 0 0.0012398608337699101 -0.29536556010934689 0 -0.007783638456419566 -0.28213049391135198 0 0.0012398608337699101 -0.29536556010934689 0 0.0048673281551053641 -0.28092294130690132 0 -0.04187393647595538 -0.28475972324723547 0 -0.028047830905754498 -0.29096207051087603 0 -0.022676386979893461 -0.27667510822649383 0 -0.01398685450857224 -0.2936474917599049 0 -0.028047830905754498 -0.29096207051087603 0 -0.022676386979893461 -0.27667510822649383 0 -0.02455957063883427 -0.30471912560100722 0 -0.01398685450857224 -0.2936474917599049 0 -0.028047830905754498 -0.29096207051087603 0 -0.022676386979893461 -0.27667510822649383 0 -0.003478837483831564 -0.26859049320575212 0 -0.022774349129396781 -0.25799646092639372 0 -0.007783638456419566 -0.28213049391135198 0 -0.022676386979893461 -0.27667510822649383 0 -0.003478837483831564 -0.26859049320575212 0 -0.022676386979893461 -0.27667510822649383 0 -0.003478837483831564 -0.26859049320575212 0 -0.007783638456419566 -0.28213049391135198 0 -0.003478837483831564 -0.26859049320575212 0 0.0048673281551053641 -0.28092294130690132 0 -0.003478837483831564 -0.26859049320575212 0 -0.022774349129396781 -0.25799646092639372 0 -0.0079811897796556591 -0.2463578395846566 0 -0.003478837483831564 -0.26859049320575212 0 -0.0079811897796556591 -0.2463578395846566 0 0.0054657133803148487 -0.25566004064991182 0 -0.041427047830050592 -0.25898554774103189 0 -0.022676386979893461 -0.27667510822649383 0 -0.022774349129396781 -0.25799646092639372 0 -0.040994950991332893 -0.33443069516684509 0 -0.03042173797334979 -0.35633195504840781 0 -0.040994950991332893 -0.33443069516684509 0 -0.03042173797334979 -0.35633195504840781 0 -0.029892053052636539 -0.34770382687618612 0 -0.044809051286333931 -0.36056287901106188 0 -0.047977740322519197 -0.34730517469077321 0 -0.040994950991332893 -0.33443069516684509 0 -0.044809051286333931 -0.36056287901106188 0 -0.040994950991332893 -0.33443069516684509 0 -0.044809051286333931 -0.36056287901106188 0 -0.040994950991332893 -0.33443069516684509 0 -0.03042173797334979 -0.35633195504840781 0 -0.035026046669759003 -0.37476722652500949 0 -0.044809051286333931 -0.36056287901106188 0 -0.048623151581330293 -0.38669506285527938 0 -0.044809051286333931 -0.36056287901106188 0 -0.048623151581330293 -0.38669506285527938 0 -0.035026046669759003 -0.37476722652500949 0 -0.044809051286333931 -0.36056287901106188 0 -0.03042173797334979 -0.35633195504840781 0 -0.044809051286333931 -0.36056287901106188 0 -0.061036209169593153 -0.36535203002654371 0 -0.054572160317222569 -0.35573101896224879 0 -0.044809051286333931 -0.36056287901106188 0 -0.061036209169593153 -0.36535203002654371 0 -0.048623151581330293 -0.38669506285527938 0 -0.064465640490443996 -0.3497039921206167 0 -0.047977740322519197 -0.34730517469077321 0 -0.056129978509602413 -0.34035317958230232 0 -0.064465640490443996 -0.3497039921206167 0 -0.061036209169593153 -0.36535203002654371 0 -0.054572160317222569 -0.35573101896224879 0 -0.064465640490443996 -0.3497039921206167 0 -0.054572160317222569 -0.35573101896224879 0 -0.047977740322519197 -0.34730517469077321 0 -0.044809051286333931 -0.36056287901106188 0 -0.054572160317222569 -0.35573101896224879 0 -0.047977740322519197 -0.34730517469077321 0 -0.073379042342714071 -0.33059709507171198 0 -0.046431550624139672 -0.33376203578323538 0 -0.073379042342714071 -0.33059709507171198 0 -0.056129978509602413 -0.34035317958230232 0 -0.046431550624139672 -0.33376203578323538 0 -0.056129978509602413 -0.34035317958230232 0 -0.048029944727983283 -0.33937272243132771 0 -0.046431550624139672 -0.33376203578323538 0 -0.047977740322519197 -0.34730517469077321 0 -0.056129978509602413 -0.34035317958230232 0 -0.048029944727983283 -0.33937272243132771 0 -0.073379042342714071 -0.33059709507171198 0 -0.051033218481674712 -0.31363751671741102 0 -0.046431550624139672 -0.33376203578323538 0 -0.051033218481674712 -0.31363751671741102 0 -0.046431550624139672 -0.33376203578323538 0 -0.040994950991332893 -0.33443069516684509 0 -0.051033218481674712 -0.31363751671741102 0 -0.040994950991332893 -0.33443069516684509 0 -0.051033218481674712 -0.31363751671741102 0 -0.039556695945179271 -0.32457653760040889 0 -0.040994950991332893 -0.33443069516684509 0 -0.051033218481674712 -0.31363751671741102 0 -0.039556695945179271 -0.32457653760040889 0 -0.036242032258953498 -0.31369460589619741 0 -0.039556695945179271 -0.32457653760040889 0 -0.03129891758823157 -0.32242030058128041 0 -0.032123165815133359 -0.33058198006949152 0 -0.039556695945179271 -0.32457653760040889 0 -0.03129891758823157 -0.32242030058128041 0 -0.036242032258953498 -0.31369460589619741 0 -0.047977740322519197 -0.34730517469077321 0 -0.048029944727983283 -0.33937272243132771 0 -0.040994950991332893 -0.33443069516684509 0 -0.039556695945179271 -0.32457653760040889 0 -0.040994950991332893 -0.33443069516684509 0 -0.048029944727983283 -0.33937272243132771 0 -0.046431550624139672 -0.33376203578323538 0 -0.040994950991332893 -0.33443069516684509 0 -0.039556695945179271 -0.32457653760040889 0 -0.040994950991332893 -0.33443069516684509 0 -0.032123165815133359 -0.33058198006949152 0 -0.040994950991332893 -0.33443069516684509 0 -0.032123165815133359 -0.33058198006949152 0 -0.032458434352200471 -0.33571648590601372 0 -0.040994950991332893 -0.33443069516684509 0 -0.032458434352200471 -0.33571648590601372 0 -0.031836579549686897 -0.34092131736973302 0 -0.040994950991332893 -0.33443069516684509 0 -0.031836579549686897 -0.34092131736973302 0 -0.029892053052636539 -0.34770382687618612 0 -0.031836579549686897 -0.34092131736973302 0 -0.02487904105264872 -0.33693195101798518 0 -0.02448297954782655 -0.34480265473605609 0 -0.032458434352200471 -0.33571648590601372 0 -0.031836579549686897 -0.34092131736973302 0 -0.02487904105264872 -0.33693195101798518 0 -0.032123165815133359 -0.33058198006949152 0 -0.032458434352200471 -0.33571648590601372 0 -0.02487904105264872 -0.33693195101798518 0 -0.032123165815133359 -0.33058198006949152 0 -0.02487904105264872 -0.33693195101798518 0 -0.02165159021373373 -0.32565936255800582 0 -0.02487904105264872 -0.33693195101798518 0 -0.02165159021373373 -0.32565936255800582 0 -0.012344780107022949 -0.33438506012404778 0 -0.02487904105264872 -0.33693195101798518 0 -0.012344780107022949 -0.33438506012404778 0 -0.015516017563984659 -0.3443988968733987 0 -0.02487904105264872 -0.33693195101798518 0 -0.015516017563984659 -0.3443988968733987 0 -0.02448297954782655 -0.34480265473605609 0 -0.03129891758823157 -0.32242030058128041 0 -0.036242032258953498 -0.31369460589619741 0 -0.0255810966973474 -0.31656309926304033 0 -0.03129891758823157 -0.32242030058128041 0 -0.032123165815133359 -0.33058198006949152 0 -0.02165159021373373 -0.32565936255800582 0 -0.03129891758823157 -0.32242030058128041 0 -0.0255810966973474 -0.31656309926304033 0 -0.02165159021373373 -0.32565936255800582 0 -0.02165159021373373 -0.32565936255800582 0 -0.016398485554645861 -0.31579346276800663 0 -0.0091848101859353173 -0.32224087409497282 0 -0.0255810966973474 -0.31656309926304033 0 -0.02165159021373373 -0.32565936255800582 0 -0.016398485554645861 -0.31579346276800663 0 -0.009030513806621893 -0.3081642296184452 0 -0.016398485554645861 -0.31579346276800663 0 -0.0091848101859353173 -0.32224087409497282 0 -0.02165159021373373 -0.32565936255800582 0 -0.0091848101859353173 -0.32224087409497282 0 -0.012344780107022949 -0.33438506012404778 0 -0.0091848101859353173 -0.32224087409497282 0 0.0011479912793940551 -0.33152561173697231 0 0.0028682081076095919 -0.31713484895558841 0 -0.009030513806621893 -0.3081642296184452 0 -0.0091848101859353173 -0.32224087409497282 0 0.0028682081076095919 -0.31713484895558841 0 -0.012344780107022949 -0.33438506012404778 0 -0.0051298972300335716 -0.34323803833799099 0 -0.015516017563984659 -0.3443988968733987 0 -0.0091848101859353173 -0.32224087409497282 0 -0.012344780107022949 -0.33438506012404778 0 0.0011479912793940551 -0.33152561173697231 0 -0.012344780107022949 -0.33438506012404778 0 -0.0051298972300335716 -0.34323803833799099 0 0.0011479912793940551 -0.33152561173697231 0 -0.0062473682353019712 -0.35472821033747082 0 -0.020012039211074199 -0.35230746668684149 0 -0.0028496729989604991 -0.36828482621217401 0 -0.0062473682353019712 -0.35472821033747082 0 -0.0028496729989604991 -0.36828482621217401 0 0.0082308762827290449 -0.35061035578161392 0 -0.0051298972300335716 -0.34323803833799099 0 -0.0062473682353019712 -0.35472821033747082 0 0.0082308762827290449 -0.35061035578161392 0 -0.0062473682353019712 -0.35472821033747082 0 -0.015516017563984659 -0.3443988968733987 0 -0.020012039211074199 -0.35230746668684149 0 -0.0051298972300335716 -0.34323803833799099 0 -0.0062473682353019712 -0.35472821033747082 0 -0.015516017563984659 -0.3443988968733987 0 -0.015516017563984659 -0.3443988968733987 0 -0.020012039211074199 -0.35230746668684149 0 -0.02448297954782655 -0.34480265473605609 0 -0.020012039211074199 -0.35230746668684149 0 -0.03042173797334979 -0.35633195504840781 0 -0.016038748897046588 -0.36524579682431368 0 -0.020012039211074199 -0.35230746668684149 0 -0.03042173797334979 -0.35633195504840781 0 -0.029892053052636539 -0.34770382687618612 0 -0.020012039211074199 -0.35230746668684149 0 -0.029892053052636539 -0.34770382687618612 0 -0.02448297954782655 -0.34480265473605609 0 -0.031836579549686897 -0.34092131736973302 0 -0.029892053052636539 -0.34770382687618612 0 -0.02448297954782655 -0.34480265473605609 0 -0.03042173797334979 -0.35633195504840781 0 -0.016038748897046588 -0.36524579682431368 0 -0.01984852495537014 -0.37823321492997242 0 -0.03042173797334979 -0.35633195504840781 0 -0.01984852495537014 -0.37823321492997242 0 -0.035026046669759003 -0.37476722652500949 0 -0.03042173797334979 -0.35633195504840781 0 -0.01984852495537014 -0.37823321492997242 0 -0.020012039211074199 -0.35230746668684149 0 -0.016038748897046588 -0.36524579682431368 0 -0.0028496729989604991 -0.36828482621217401 0 -0.016038748897046588 -0.36524579682431368 0 -0.0028496729989604991 -0.36828482621217401 0 -0.01984852495537014 -0.37823321492997242 0 -0.020012039211074199 -0.35230746668684149 0 -0.0028496729989604991 -0.36828482621217401 0 -0.0015042163491961651 -0.38404589083334428 0 -0.0096976316342718607 -0.3967519107930948 0 -0.01984852495537014 -0.37823321492997242 0 -0.0028496729989604991 -0.36828482621217401 0 -0.0015042163491961651 -0.38404589083334428 0 -0.01984852495537014 -0.37823321492997242 0 -0.0096976316342718607 -0.3967519107930948 0 -0.001576154149209408 -0.41613374173251899 0 0.0068835217393118792 -0.39745735090850742 0 -0.0015042163491961651 -0.38404589083334428 0 -0.0096976316342718607 -0.3967519107930948 0 0.0068835217393118792 -0.39745735090850742 0 -0.0096976316342718607 -0.3967519107930948 0 -0.03076500654528851 -0.39551705697525308 0 -0.017987984610715681 -0.40906722773003762 0 -0.035026046669759003 -0.37476722652500949 0 -0.03076500654528851 -0.39551705697525308 0 -0.01984852495537014 -0.37823321492997242 0 -0.0096976316342718607 -0.3967519107930948 0 -0.03076500654528851 -0.39551705697525308 0 -0.01984852495537014 -0.37823321492997242 0 -0.035026046669759003 -0.37476722652500949 0 -0.03076500654528851 -0.39551705697525308 0 -0.048623151581330293 -0.38669506285527938 0 -0.03076500654528851 -0.39551705697525308 0 -0.048623151581330293 -0.38669506285527938 0 -0.052437251876326668 -0.412827246699497 0 -0.048623151581330293 -0.38669506285527938 0 -0.052437251876326668 -0.412827246699497 0 -0.069725924469630565 -0.40321773308172798 0 -0.048623151581330293 -0.38669506285527938 0 -0.052437251876326668 -0.412827246699497 0 -0.061036209169593153 -0.36535203002654371 0 -0.048623151581330293 -0.38669506285527938 0 -0.076296586058619942 -0.38561253404247359 0 -0.052437251876326668 -0.412827246699497 0 -0.032633963279651963 -0.42006506828595352 0 -0.046966512968684468 -0.44495126125019852 0 -0.052437251876326668 -0.412827246699497 0 -0.046966512968684468 -0.44495126125019852 0 -0.06582446683960963 -0.43568001203051943 0 -0.03076500654528851 -0.39551705697525308 0 -0.052437251876326668 -0.412827246699497 0 -0.032633963279651963 -0.42006506828595352 0 -0.032633963279651963 -0.42006506828595352 0 -0.01616473726954229 -0.43066209032464592 0 -0.02433832021553993 -0.4487885462458116 0 -0.03076500654528851 -0.39551705697525308 0 -0.032633963279651963 -0.42006506828595352 0 -0.017987984610715681 -0.40906722773003762 0 -0.032633963279651963 -0.42006506828595352 0 -0.01616473726954229 -0.43066209032464592 0 -0.017987984610715681 -0.40906722773003762 0 -0.0096976316342718607 -0.3967519107930948 0 -0.017987984610715681 -0.40906722773003762 0 -0.001576154149209408 -0.41613374173251899 0 -0.01616473726954229 -0.43066209032464592 0 -0.017987984610715681 -0.40906722773003762 0 -0.001576154149209408 -0.41613374173251899 0 -0.01616473726954229 -0.43066209032464592 0 -0.001576154149209408 -0.41613374173251899 0 -0.00046282614588595051 -0.44175748268750109 0 -0.01616473726954229 -0.43066209032464592 0 -0.00046282614588595051 -0.44175748268750109 0 -0.02433832021553993 -0.4487885462458116 0 -0.00046282614588595051 -0.44175748268750109 0 -0.001946855872599438 -0.46849896138470271 0 -0.02433832021553993 -0.4487885462458116 0 -0.001946855872599438 -0.46849896138470271 0 -0.02433832021553993 -0.4487885462458116 0 -0.030479921990497039 -0.47167384015530622 0 -0.001946855872599438 -0.46849896138470271 0 -0.01267063275771241 -0.5 0 0.01326249413538438 -0.5 0 -0.001946855872599438 -0.46849896138470271 0 -0.01267063275771241 -0.5 0 -0.030479921990497039 -0.47167384015530622 0 -0.001946855872599438 -0.46849896138470271 0 -0.030479921990497039 -0.47167384015530622 0 -0.01267063275771241 -0.5 0 -0.030479921990497039 -0.47167384015530622 0 -0.038603759650809311 -0.5 0 -0.030479921990497039 -0.47167384015530622 0 -0.059012988108394629 -0.4748487189259098 0 -0.030479921990497039 -0.47167384015530622 0 -0.038603759650809311 -0.5 0 -0.059012988108394629 -0.4748487189259098 0 -0.038603759650809311 -0.5 0 -0.059012988108394629 -0.4748487189259098 0 -0.064536886543906047 -0.5 0 -0.032633963279651963 -0.42006506828595352 0 -0.02433832021553993 -0.4487885462458116 0 -0.046966512968684468 -0.44495126125019852 0 -0.02433832021553993 -0.4487885462458116 0 -0.030479921990497039 -0.47167384015530622 0 -0.046966512968684468 -0.44495126125019852 0 -0.030479921990497039 -0.47167384015530622 0 -0.059012988108394629 -0.4748487189259098 0 -0.046966512968684468 -0.44495126125019852 0 -0.059012988108394629 -0.4748487189259098 0 -0.046966512968684468 -0.44495126125019852 0 -0.064062813308124272 -0.45276009757319258 0 -0.046966512968684468 -0.44495126125019852 0 -0.064062813308124272 -0.45276009757319258 0 -0.06582446683960963 -0.43568001203051943 0 -0.077277001549410654 -0.44988071961113402 0 -0.06582446683960963 -0.43568001203051943 0 -0.086045832708457795 -0.43711534569318078 0 -0.077277001549410654 -0.44988071961113402 0 -0.064062813308124272 -0.45276009757319258 0 -0.06582446683960963 -0.43568001203051943 0 -0.059012988108394629 -0.4748487189259098 0 -0.064062813308124272 -0.45276009757319258 0 -0.072980046626924755 -0.46234149256684037 0 -0.077277001549410654 -0.44988071961113402 0 -0.064062813308124272 -0.45276009757319258 0 -0.072980046626924755 -0.46234149256684037 0 -0.077277001549410654 -0.44988071961113402 0 -0.085577246960943973 -0.46226087807190919 0 -0.090503930190609302 -0.45096914475540523 0 -0.077277001549410654 -0.44988071961113402 0 -0.072980046626924755 -0.46234149256684037 0 -0.085577246960943973 -0.46226087807190919 0 -0.072980046626924755 -0.46234149256684037 0 -0.085577246960943973 -0.46226087807190919 0 -0.079843657983951627 -0.47390790691137602 0 -0.085577246960943973 -0.46226087807190919 0 -0.088797457157537452 -0.47062093462435928 0 -0.099749407343199925 -0.46575224504078611 0 -0.085577246960943973 -0.46226087807190919 0 -0.090503930190609302 -0.45096914475540523 0 -0.099749407343199925 -0.46575224504078611 0 -0.090503930190609302 -0.45096914475540523 0 -0.10387016239103419 -0.43983653536001621 0 -0.086045832708457795 -0.43711534569318078 0 -0.077277001549410654 -0.44988071961113402 0 -0.090503930190609302 -0.45096914475540523 0 -0.086045832708457795 -0.43711534569318078 0 -0.059012988108394629 -0.4748487189259098 0 -0.064536886543906047 -0.5 0 -0.080689285618274917 -0.48781422098920679 0 -0.059012988108394629 -0.4748487189259098 0 -0.072980046626924755 -0.46234149256684037 0 -0.079843657983951627 -0.47390790691137602 0 -0.059012988108394629 -0.4748487189259098 0 -0.079843657983951627 -0.47390790691137602 0 -0.080689285618274917 -0.48781422098920679 0 -0.085577246960943973 -0.46226087807190919 0 -0.079843657983951627 -0.47390790691137602 0 -0.088797457157537452 -0.47062093462435928 0 -0.079843657983951627 -0.47390790691137602 0 -0.088797457157537452 -0.47062093462435928 0 -0.090019516342054323 -0.48056270847336618 0 -0.088797457157537452 -0.47062093462435928 0 -0.090019516342054323 -0.48056270847336618 0 -0.099749407343199925 -0.46575224504078611 0 -0.079843657983951627 -0.47390790691137602 0 -0.090019516342054323 -0.48056270847336618 0 -0.080689285618274917 -0.48781422098920679 0 -0.064536886543906047 -0.5 0 -0.080689285618274917 -0.48781422098920679 0 -0.090470013437002839 -0.49999999999999889 0 -0.090019516342054323 -0.48056270847336618 0 -0.080689285618274917 -0.48781422098920679 0 -0.089266996873821072 -0.48953018445365892 0 -0.090019516342054323 -0.48056270847336618 0 -0.089266996873821072 -0.48953018445365892 0 -0.095628652295366462 -0.49166795472155589 0 -0.090470013437002839 -0.49999999999999889 0 -0.095628652295366462 -0.49166795472155589 0 -0.090470013437002839 -0.49999999999999889 0 -0.095053095815498284 -0.4952876686972672 0 -0.095628652295366462 -0.49166795472155589 0 -0.089266996873821072 -0.48953018445365892 0 -0.090470013437002839 -0.49999999999999889 0 -0.095628652295366462 -0.49166795472155589 0 -0.080689285618274917 -0.48781422098920679 0 -0.089266996873821072 -0.48953018445365892 0 -0.090470013437002839 -0.49999999999999889 0 -0.095053095815498284 -0.4952876686972672 0 -0.10667838815765369 -0.4880149887724316 0 -0.11859696114480719 -0.5 0 -0.090470013437002839 -0.49999999999999889 0 -0.095053095815498284 -0.4952876686972672 0 -0.11859696114480719 -0.5 0 -0.095628652295366462 -0.49166795472155589 0 -0.10667838815765369 -0.4880149887724316 0 -0.1064927887357499 -0.47412059790558908 0 -0.095053095815498284 -0.4952876686972672 0 -0.095628652295366462 -0.49166795472155589 0 -0.095053095815498284 -0.4952876686972672 0 -0.095628652295366462 -0.49166795472155589 0 -0.10667838815765369 -0.4880149887724316 0 -0.095628652295366462 -0.49166795472155589 0 -0.1064927887357499 -0.47412059790558908 0 -0.099749407343199925 -0.46575224504078611 0 -0.095628652295366462 -0.49166795472155589 0 -0.099749407343199925 -0.46575224504078611 0 -0.095628652295366462 -0.49166795472155589 0 -0.1064927887357499 -0.47412059790558908 0 -0.090019516342054323 -0.48056270847336618 0 -0.095628652295366462 -0.49166795472155589 0 -0.099749407343199925 -0.46575224504078611 0 -0.13115209732285341 -0.47633672774691738 0 -0.1172130576736148 -0.47900142676649571 0 -0.1173569251761325 -0.45657324108962188 0 -0.1064927887357499 -0.47412059790558908 0 -0.1172130576736148 -0.47900142676649571 0 -0.1173569251761325 -0.45657324108962188 0 -0.10667838815765369 -0.4880149887724316 0 -0.1064927887357499 -0.47412059790558908 0 -0.1172130576736148 -0.47900142676649571 0 -0.13115209732285341 -0.47633672774691738 0 -0.1172130576736148 -0.47900142676649571 0 -0.11859696114480719 -0.5 0 -0.10667838815765369 -0.4880149887724316 0 -0.1172130576736148 -0.47900142676649571 0 -0.11859696114480719 -0.5 0 -0.090503930190609302 -0.45096914475540523 0 -0.10387016239103419 -0.43983653536001621 0 -0.099749407343199925 -0.46575224504078611 0 -0.10387016239103419 -0.43983653536001621 0 -0.099749407343199925 -0.46575224504078611 0 -0.10387016239103419 -0.43983653536001621 0 -0.099749407343199925 -0.46575224504078611 0 -0.1173569251761325 -0.45657324108962188 0 -0.1064927887357499 -0.47412059790558908 0 -0.099749407343199925 -0.46575224504078611 0 -0.1173569251761325 -0.45657324108962188 0 -0.1064927887357499 -0.47412059790558908 0 -0.1173569251761325 -0.45657324108962188 0 -0.1282210616165152 -0.43902588427365469 0 -0.10387016239103419 -0.43983653536001621 0 -0.1173569251761325 -0.45657324108962188 0 -0.1282210616165152 -0.43902588427365469 0 -0.1173569251761325 -0.45657324108962188 0 -0.10387016239103419 -0.43983653536001621 0 -0.1189239751935894 -0.42854196854109661 0 -0.1132192147868861 -0.42216789668122051 0 -0.1282210616165152 -0.43902588427365469 0 -0.10387016239103419 -0.43983653536001621 0 -0.1189239751935894 -0.42854196854109661 0 -0.13024314370163631 -0.42603171383519522 0 -0.1189239751935894 -0.42854196854109661 0 -0.12351850595423861 -0.4158810425449655 0 -0.1189239751935894 -0.42854196854109661 0 -0.1132192147868861 -0.42216789668122051 0 -0.12351850595423861 -0.4158810425449655 0 -0.10387016239103419 -0.43983653536001621 0 -0.096014201987876746 -0.42468003037574831 0 -0.10799091743886841 -0.41392082567924648 0 -0.10387016239103419 -0.43983653536001621 0 -0.10799091743886841 -0.41392082567924648 0 -0.10387016239103419 -0.43983653536001621 0 -0.096014201987876746 -0.42468003037574831 0 -0.086045832708457795 -0.43711534569318078 0 -0.10387016239103419 -0.43983653536001621 0 -0.1132192147868861 -0.42216789668122051 0 -0.10799091743886841 -0.41392082567924648 0 -0.096014201987876746 -0.42468003037574831 0 -0.099522517343677008 -0.41481561011397738 0 -0.091243316234762867 -0.40819359292001001 0 -0.099522517343677008 -0.41481561011397738 0 -0.1030964659512216 -0.40999304588293722 0 -0.091243316234762867 -0.40819359292001001 0 -0.096014201987876746 -0.42468003037574831 0 -0.099522517343677008 -0.41481561011397738 0 -0.10799091743886841 -0.41392082567924648 0 -0.1030964659512216 -0.40999304588293722 0 -0.1117925129566999 -0.41265911128077742 0 -0.10509233593086351 -0.3988292484219445 0 -0.099522517343677008 -0.41481561011397738 0 -0.10799091743886841 -0.41392082567924648 0 -0.1030964659512216 -0.40999304588293722 0 -0.10799091743886841 -0.41392082567924648 0 -0.1030964659512216 -0.40999304588293722 0 -0.1117925129566999 -0.41265911128077742 0 -0.1132192147868861 -0.42216789668122051 0 -0.10799091743886841 -0.41392082567924648 0 -0.1117925129566999 -0.41265911128077742 0 -0.1132192147868861 -0.42216789668122051 0 -0.1117925129566999 -0.41265911128077742 0 -0.12351850595423861 -0.4158810425449655 0 -0.13040313931844749 -0.3898558018850794 0 -0.1012239598508798 -0.38395801425249532 0 -0.10509233593086351 -0.3988292484219445 0 -0.13040313931844749 -0.3898558018850794 0 -0.1117925129566999 -0.41265911128077742 0 -0.10509233593086351 -0.3988292484219445 0 -0.13040313931844749 -0.3898558018850794 0 -0.1117925129566999 -0.41265911128077742 0 -0.12351850595423861 -0.4158810425449655 0 -0.13040313931844749 -0.3898558018850794 0 -0.1117925129566999 -0.41265911128077742 0 -0.13040313931844749 -0.3898558018850794 0 -0.12274258464922121 -0.36902856288828562 0 -0.1012239598508798 -0.38395801425249532 0 -0.1012239598508798 -0.38395801425249532 0 -0.10509233593086351 -0.3988292484219445 0 -0.091243316234762867 -0.40819359292001001 0 -0.1030964659512216 -0.40999304588293722 0 -0.10509233593086351 -0.3988292484219445 0 -0.091243316234762867 -0.40819359292001001 0 -0.1012239598508798 -0.38395801425249532 0 -0.076296586058619942 -0.38561253404247359 0 -0.091243316234762867 -0.40819359292001001 0 -0.076296586058619942 -0.38561253404247359 0 -0.069725924469630565 -0.40321773308172798 0 -0.091243316234762867 -0.40819359292001001 0 -0.082008846719573356 -0.36397945615076149 0 -0.1012239598508798 -0.38395801425249532 0 -0.076296586058619942 -0.38561253404247359 0 -0.048623151581330293 -0.38669506285527938 0 -0.076296586058619942 -0.38561253404247359 0 -0.069725924469630565 -0.40321773308172798 0 -0.052437251876326668 -0.412827246699497 0 -0.069725924469630565 -0.40321773308172798 0 -0.080029316597113057 -0.42276022889137982 0 -0.06582446683960963 -0.43568001203051943 0 -0.080029316597113057 -0.42276022889137982 0 -0.086045832708457795 -0.43711534569318078 0 -0.052437251876326668 -0.412827246699497 0 -0.06582446683960963 -0.43568001203051943 0 -0.080029316597113057 -0.42276022889137982 0 -0.096014201987876746 -0.42468003037574831 0 -0.080029316597113057 -0.42276022889137982 0 -0.086045832708457795 -0.43711534569318078 0 -0.069725924469630565 -0.40321773308172798 0 -0.080029316597113057 -0.42276022889137982 0 -0.091243316234762867 -0.40819359292001001 0 -0.096014201987876746 -0.42468003037574831 0 -0.080029316597113057 -0.42276022889137982 0 -0.091243316234762867 -0.40819359292001001 0 -0.083744571220756375 -0.082905068956435041 0 -0.079051474330676386 -0.064869733501633109 0 -0.1011360185751197 -0.066755645487258652 0 -0.083744571220756375 -0.082905068956435041 0 -0.079051474330676386 -0.064869733501633109 0 -0.063905924092761385 -0.0728888263366336 0 -0.079051474330676386 -0.064869733501633109 0 -0.063905924092761385 -0.0728888263366336 0 -0.062098579104384807 -0.053129272569429807 0 -0.083744571220756375 -0.082905068956435041 0 -0.063905924092761385 -0.0728888263366336 0 -0.05791071721428219 -0.1006979311683414 0 -0.083744571220756375 -0.082905068956435041 0 -0.08108296128507364 -0.10682483869715741 0 -0.05791071721428219 -0.1006979311683414 0 -0.08108296128507364 -0.10682483869715741 0 -0.05791071721428219 -0.1006979311683414 0 -0.074817456956106421 -0.1289616979402835 0 -0.08108296128507364 -0.10682483869715741 0 -0.099208107086912592 -0.1035059152504138 0 -0.095433323807504855 -0.1231012724794185 0 -0.08108296128507364 -0.10682483869715741 0 -0.095433323807504855 -0.1231012724794185 0 -0.074817456956106421 -0.1289616979402835 0 -0.083744571220756375 -0.082905068956435041 0 -0.08108296128507364 -0.10682483869715741 0 -0.099208107086912592 -0.1035059152504138 0 -0.099208107086912592 -0.1035059152504138 0 -0.095433323807504855 -0.1231012724794185 0 -0.121105938240762 -0.11324751204453209 0 -0.095433323807504855 -0.1231012724794185 0 -0.121105938240762 -0.11324751204453209 0 -0.1168311362369107 -0.13831215629776231 0 -0.099208107086912592 -0.1035059152504138 0 -0.121105938240762 -0.11324751204453209 0 -0.1140360953794161 -0.090582644904340273 0 -0.121105938240762 -0.11324751204453209 0 -0.1140360953794161 -0.090582644904340273 0 -0.135336115067483 -0.091268279967290228 0 -0.1140360953794161 -0.090582644904340273 0 -0.1250543087863647 -0.074165001645945236 0 -0.135336115067483 -0.091268279967290228 0 -0.083744571220756375 -0.082905068956435041 0 -0.099208107086912592 -0.1035059152504138 0 -0.1140360953794161 -0.090582644904340273 0 -0.083744571220756375 -0.082905068956435041 0 -0.1140360953794161 -0.090582644904340273 0 -0.1011360185751197 -0.066755645487258652 0 -0.1140360953794161 -0.090582644904340273 0 -0.1011360185751197 -0.066755645487258652 0 -0.1250543087863647 -0.074165001645945236 0 -0.1011360185751197 -0.066755645487258652 0 -0.115073668703395 -0.059560119583074451 0 -0.1250543087863647 -0.074165001645945236 0 -0.115073668703395 -0.059560119583074451 0 -0.1250543087863647 -0.074165001645945236 0 -0.12851953325672399 -0.063326232526877982 0 -0.115073668703395 -0.059560119583074451 0 -0.1066459782163344 -0.044210435747387117 0 -0.1295166463057259 -0.053441779766215253 0 -0.115073668703395 -0.059560119583074451 0 -0.12851953325672399 -0.063326232526877982 0 -0.1295166463057259 -0.053441779766215253 0 -0.1066459782163344 -0.044210435747387117 0 -0.12891967777230959 -0.039751017336367503 0 -0.1295166463057259 -0.053441779766215253 0 -0.1066459782163344 -0.044210435747387117 0 -0.12891967777230959 -0.039751017336367503 0 -0.1066459782163344 -0.044210435747387117 0 -0.1160825427424764 -0.029874245051149599 0 -0.12891967777230959 -0.039751017336367503 0 -0.1066459782163344 -0.044210435747387117 0 -0.1160825427424764 -0.029874245051149599 0 -0.093493810329814284 -0.03249554785258791 0 -0.1066459782163344 -0.044210435747387117 0 -0.084372278660359651 -0.048669854158408472 0 -0.1066459782163344 -0.044210435747387117 0 -0.084372278660359651 -0.048669854158408472 0 -0.093493810329814284 -0.03249554785258791 0 -0.1011360185751197 -0.066755645487258652 0 -0.1066459782163344 -0.044210435747387117 0 -0.084372278660359651 -0.048669854158408472 0 -0.1011360185751197 -0.066755645487258652 0 -0.115073668703395 -0.059560119583074451 0 -0.1066459782163344 -0.044210435747387117 0 -0.11635159352012391 -0.0059891795221502014 0 -0.1280112622338975 -0.018917588725280338 0 -0.12673546701018451 0.01034125548388224 0 -0.11635159352012391 -0.0059891795221502014 0 -0.1041267180105778 -0.018947172180140491 0 -0.1280112622338975 -0.018917588725280338 0 -0.1041267180105778 -0.018947172180140491 0 -0.1280112622338975 -0.018917588725280338 0 -0.1160825427424764 -0.029874245051149599 0 -0.1041267180105778 -0.018947172180140491 0 -0.1280112622338975 -0.018917588725280338 0 -0.1160825427424764 -0.029874245051149599 0 -0.1280112622338975 -0.018917588725280338 0 -0.12891967777230959 -0.039751017336367503 0 -0.1160825427424764 -0.029874245051149599 0 -0.1041267180105778 -0.018947172180140491 0 -0.093493810329814284 -0.03249554785258791 0 -0.11635159352012391 -0.0059891795221502014 0 -0.1041267180105778 -0.018947172180140491 0 -0.1065329268258359 0.0035667873329377829 0 -0.1041267180105778 -0.018947172180140491 0 -0.1065329268258359 0.0035667873329377829 0 -0.08334299909884689 0.001000011329486466 0 -0.1041267180105778 -0.018947172180140491 0 -0.080242173787257995 -0.018976755635000869 0 -0.08334299909884689 0.001000011329486466 0 -0.1041267180105778 -0.018947172180140491 0 -0.080242173787257995 -0.018976755635000869 0 -0.1041267180105778 -0.018947172180140491 0 -0.080242173787257995 -0.018976755635000869 0 -0.093493810329814284 -0.03249554785258791 0 -0.080242173787257995 -0.018976755635000869 0 -0.093493810329814284 -0.03249554785258791 0 -0.071193551413099021 -0.033479221362041227 0 -0.080242173787257995 -0.018976755635000869 0 -0.066330238685194512 -0.01212762325451837 0 -0.071193551413099021 -0.033479221362041227 0 -0.066330238685194512 -0.01212762325451837 0 -0.08334299909884689 0.001000011329486466 0 -0.064125795047066378 0.00492495997940835 0 -0.080242173787257995 -0.018976755635000869 0 -0.066330238685194512 -0.01212762325451837 0 -0.08334299909884689 0.001000011329486466 0 -0.079051474330676386 -0.064869733501633109 0 -0.1011360185751197 -0.066755645487258652 0 -0.084372278660359651 -0.048669854158408472 0 -0.084372278660359651 -0.048669854158408472 0 -0.093493810329814284 -0.03249554785258791 0 -0.071193551413099021 -0.033479221362041227 0 -0.084372278660359651 -0.048669854158408472 0 -0.071193551413099021 -0.033479221362041227 0 -0.062098579104384807 -0.053129272569429807 0 -0.079051474330676386 -0.064869733501633109 0 -0.084372278660359651 -0.048669854158408472 0 -0.062098579104384807 -0.053129272569429807 0 -0.084372278660359651 -0.048669854158408472 0 -0.062098579104384807 -0.053129272569429807 0 -0.047293063951263398 -0.060448854994754241 0 -0.062098579104384807 -0.053129272569429807 0 -0.038808789964730278 -0.044904815818207718 0 -0.063905924092761385 -0.0728888263366336 0 -0.047293063951263398 -0.060448854994754241 0 -0.062098579104384807 -0.053129272569429807 0 -0.071193551413099021 -0.033479221362041227 0 -0.062098579104384807 -0.053129272569429807 0 -0.049848320226355131 -0.027596575197024801 0 -0.062098579104384807 -0.053129272569429807 0 -0.038808789964730278 -0.044904815818207718 0 -0.049848320226355131 -0.027596575197024801 0 -0.038808789964730278 -0.044904815818207718 0 -0.049848320226355131 -0.027596575197024801 0 -0.028058047920528961 -0.02865239105414397 0 -0.047293063951263398 -0.060448854994754241 0 -0.038808789964730278 -0.044904815818207718 0 -0.026851563951244991 -0.058107687607263397 0 -0.066330238685194512 -0.01212762325451837 0 -0.051148780133142453 -0.0032631718930513079 0 -0.064125795047066378 0.00492495997940835 0 -0.066330238685194512 -0.01212762325451837 0 -0.051148780133142453 -0.0032631718930513079 0 -0.049848320226355131 -0.027596575197024801 0 -0.066330238685194512 -0.01212762325451837 0 -0.071193551413099021 -0.033479221362041227 0 -0.049848320226355131 -0.027596575197024801 0 -0.049848320226355131 -0.027596575197024801 0 -0.03257714776022079 -0.011474010031191721 0 -0.028058047920528961 -0.02865239105414397 0 -0.051148780133142453 -0.0032631718930513079 0 -0.049848320226355131 -0.027596575197024801 0 -0.03257714776022079 -0.011474010031191721 0 -0.051148780133142453 -0.0032631718930513079 0 -0.03257714776022079 -0.011474010031191721 0 -0.032234938083946847 0.0063729739465510507 0 -0.03257714776022079 -0.011474010031191721 0 -0.019302571708327099 -0.0022185226390531842 0 -0.032234938083946847 0.0063729739465510507 0 -0.03257714776022079 -0.011474010031191721 0 -0.019302571708327099 -0.0022185226390531842 0 -0.01553201983219047 -0.015639339188458092 0 -0.03257714776022079 -0.011474010031191721 0 -0.028058047920528961 -0.02865239105414397 0 -0.01553201983219047 -0.015639339188458092 0 -0.028058047920528961 -0.02865239105414397 0 -0.01106623055889577 -0.029901787444742211 0 -0.01553201983219047 -0.015639339188458092 0 -0.01106623055889577 -0.029901787444742211 0 -0.01553201983219047 -0.015639339188458092 0 0.0024073025978193158 -0.01802092141476426 0 -0.01106623055889577 -0.029901787444742211 0 0.0024073025978193158 -0.01802092141476426 0 0.0049252473713058444 -0.034193342556342141 0 -0.01553201983219047 -0.015639339188458092 0 -0.0045954236429895266 -0.003568402546853186 0 0.0024073025978193158 -0.01802092141476426 0 -0.019302571708327099 -0.0022185226390531842 0 -0.01553201983219047 -0.015639339188458092 0 -0.0045954236429895266 -0.003568402546853186 0 -0.038808789964730278 -0.044904815818207718 0 -0.026851563951244991 -0.058107687607263397 0 -0.02267439407295159 -0.041080791822777081 0 -0.026851563951244991 -0.058107687607263397 0 -0.02267439407295159 -0.041080791822777081 0 -0.0082915858421831433 -0.046292566887734678 0 -0.028058047920528961 -0.02865239105414397 0 -0.01106623055889577 -0.029901787444742211 0 -0.02267439407295159 -0.041080791822777081 0 -0.038808789964730278 -0.044904815818207718 0 -0.028058047920528961 -0.02865239105414397 0 -0.02267439407295159 -0.041080791822777081 0 -0.01106623055889577 -0.029901787444742211 0 -0.0082915858421831433 -0.046292566887734678 0 0.0049252473713058444 -0.034193342556342141 0 -0.01106623055889577 -0.029901787444742211 0 -0.02267439407295159 -0.041080791822777081 0 -0.0082915858421831433 -0.046292566887734678 0 -0.026851563951244991 -0.058107687607263397 0 -0.0082915858421831433 -0.046292566887734678 0 -0.0051596810736133248 -0.064876235480211542 0 -0.0082915858421831433 -0.046292566887734678 0 -0.0051596810736133248 -0.064876235480211542 0 0.0054568748592972918 -0.050111055680964703 0 -0.0051596810736133248 -0.064876235480211542 0 -0.0097210774590436935 -0.089159667718235552 0 -0.02233170942114255 -0.075708686259051056 0 -0.0051596810736133248 -0.064876235480211542 0 -0.0097210774590436935 -0.089159667718235552 0 0.01004103275008481 -0.085691169111896809 0 -0.0097210774590436935 -0.089159667718235552 0 -0.02233170942114255 -0.075708686259051056 0 -0.030618054589925552 -0.094006347462516793 0 -0.026851563951244991 -0.058107687607263397 0 -0.0051596810736133248 -0.064876235480211542 0 -0.02233170942114255 -0.075708686259051056 0 -0.026851563951244991 -0.058107687607263397 0 -0.02233170942114255 -0.075708686259051056 0 -0.042965218299815873 -0.076208169387371461 0 -0.047293063951263398 -0.060448854994754241 0 -0.026851563951244991 -0.058107687607263397 0 -0.042965218299815873 -0.076208169387371461 0 -0.02233170942114255 -0.075708686259051056 0 -0.042965218299815873 -0.076208169387371461 0 -0.030618054589925552 -0.094006347462516793 0 -0.042965218299815873 -0.076208169387371461 0 -0.05791071721428219 -0.1006979311683414 0 -0.030618054589925552 -0.094006347462516793 0 -0.063905924092761385 -0.0728888263366336 0 -0.042965218299815873 -0.076208169387371461 0 -0.05791071721428219 -0.1006979311683414 0 -0.063905924092761385 -0.0728888263366336 0 -0.047293063951263398 -0.060448854994754241 0 -0.042965218299815873 -0.076208169387371461 0 -0.05791071721428219 -0.1006979311683414 0 -0.050580380118552037 -0.13087946953499541 0 -0.074817456956106421 -0.1289616979402835 0 -0.05791071721428219 -0.1006979311683414 0 -0.03605522597920055 -0.1125417160485687 0 -0.050580380118552037 -0.13087946953499541 0 -0.05791071721428219 -0.1006979311683414 0 -0.03605522597920055 -0.1125417160485687 0 -0.030618054589925552 -0.094006347462516793 0 -0.03605522597920055 -0.1125417160485687 0 -0.01557849795540297 -0.10855216179054469 0 -0.02066749250163703 -0.13342607429305989 0 -0.0097210774590436935 -0.089159667718235552 0 -0.030618054589925552 -0.094006347462516793 0 -0.01557849795540297 -0.10855216179054469 0 -0.03605522597920055 -0.1125417160485687 0 -0.030618054589925552 -0.094006347462516793 0 -0.01557849795540297 -0.10855216179054469 0 -0.0097210774590436935 -0.089159667718235552 0 -0.01557849795540297 -0.10855216179054469 0 0.0032705604413346941 -0.1033160004380215 0 -0.01557849795540297 -0.10855216179054469 0 -0.02066749250163703 -0.13342607429305989 0 0.0062506578449882458 -0.1205294344021634 0 -0.01557849795540297 -0.10855216179054469 0 0.0062506578449882458 -0.1205294344021634 0 0.0032705604413346941 -0.1033160004380215 0 -0.02066749250163703 -0.13342607429305989 0 -0.01468431088272552 -0.14799168023611159 0 0.0020500316756987269 -0.13970986473244459 0 -0.02066749250163703 -0.13342607429305989 0 0.0020500316756987269 -0.13970986473244459 0 0.0062506578449882458 -0.1205294344021634 0 -0.02066749250163703 -0.13342607429305989 0 0.0062506578449882458 -0.1205294344021634 0 -0.02066749250163703 -0.13342607429305989 0 -0.01468431088272552 -0.14799168023611159 0 -0.034765946448586708 -0.14519356136421371 0 -0.01468431088272552 -0.14799168023611159 0 -0.01881829141008572 -0.16485696048340201 0 -0.034765946448586708 -0.14519356136421371 0 -0.01468431088272552 -0.14799168023611159 0 -0.001219855729016883 -0.1567719403074381 0 0.0020500316756987269 -0.13970986473244459 0 -0.001219855729016883 -0.1567719403074381 0 -0.01881829141008572 -0.16485696048340201 0 0.0039468698720700277 -0.1733584267686927 0 -0.01468431088272552 -0.14799168023611159 0 -0.001219855729016883 -0.1567719403074381 0 -0.01881829141008572 -0.16485696048340201 0 -0.011098221670632329 -0.17921226577742169 0 -0.0013719982544945599 -0.19209724884794929 0 0.0039468698720700277 -0.1733584267686927 0 -0.011098221670632329 -0.17921226577742169 0 -0.01881829141008572 -0.16485696048340201 0 0.0039468698720700277 -0.1733584267686927 0 -0.011098221670632329 -0.17921226577742169 0 -0.01881829141008572 -0.16485696048340201 0 -0.030611688606814871 -0.19194409469415999 0 -0.01881829141008572 -0.16485696048340201 0 -0.044809397472424128 -0.16144108501427201 0 -0.034765946448586708 -0.14519356136421371 0 -0.01881829141008572 -0.16485696048340201 0 -0.044809397472424128 -0.16144108501427201 0 -0.030611688606814871 -0.19194409469415999 0 -0.044809397472424128 -0.16144108501427201 0 -0.059588967676378529 -0.17930597195573431 0 -0.030611688606814871 -0.19194409469415999 0 -0.044809397472424128 -0.16144108501427201 0 -0.059588967676378529 -0.17930597195573431 0 -0.07258593729250605 -0.15720683255255441 0 -0.044809397472424128 -0.16144108501427201 0 -0.050580380118552037 -0.13087946953499541 0 -0.07258593729250605 -0.15720683255255441 0 -0.02066749250163703 -0.13342607429305989 0 -0.050580380118552037 -0.13087946953499541 0 -0.034765946448586708 -0.14519356136421371 0 -0.03605522597920055 -0.1125417160485687 0 -0.02066749250163703 -0.13342607429305989 0 -0.050580380118552037 -0.13087946953499541 0 -0.044809397472424128 -0.16144108501427201 0 -0.050580380118552037 -0.13087946953499541 0 -0.034765946448586708 -0.14519356136421371 0 -0.022774349129396781 -0.25799646092639372 0 -0.030620403015976429 -0.23642163539048139 0 -0.0079811897796556591 -0.2463578395846566 0 -0.0079811897796556591 -0.2463578395846566 0 -0.0082537637136078281 -0.21837842329412679 0 0.012014979777079861 -0.236468112716927 0 -0.030620403015976429 -0.23642163539048139 0 -0.0079811897796556591 -0.2463578395846566 0 -0.0082537637136078281 -0.21837842329412679 0 -0.030620403015976429 -0.23642163539048139 0 -0.029462142989647729 -0.21580339780638139 0 -0.0082537637136078281 -0.21837842329412679 0 -0.029462142989647729 -0.21580339780638139 0 -0.0082537637136078281 -0.21837842329412679 0 -0.030611688606814871 -0.19194409469415999 0 -0.0082537637136078281 -0.21837842329412679 0 -0.0013719982544945599 -0.19209724884794929 0 -0.030611688606814871 -0.19194409469415999 0 -0.011098221670632329 -0.17921226577742169 0 -0.0013719982544945599 -0.19209724884794929 0 -0.030611688606814871 -0.19194409469415999 0 -0.0013719982544945599 -0.19209724884794929 0 -0.030611688606814871 -0.19194409469415999 0 -0.030611688606814871 -0.19194409469415999 0 -0.048307934458512621 -0.2174943852157197 0 -0.062624666353964534 -0.200944319187288 0 -0.059588967676378529 -0.17930597195573431 0 -0.030611688606814871 -0.19194409469415999 0 -0.062624666353964534 -0.200944319187288 0 -0.048307934458512621 -0.2174943852157197 0 -0.067698613522924986 -0.22230979768126041 0 -0.062624666353964534 -0.200944319187288 0 -0.029462142989647729 -0.21580339780638139 0 -0.030611688606814871 -0.19194409469415999 0 -0.048307934458512621 -0.2174943852157197 0 -0.030620403015976429 -0.23642163539048139 0 -0.029462142989647729 -0.21580339780638139 0 -0.048307934458512621 -0.2174943852157197 0 -0.030620403015976429 -0.23642163539048139 0 -0.048307934458512621 -0.2174943852157197 0 -0.058274759306705518 -0.2449880856413644 0 -0.048307934458512621 -0.2174943852157197 0 -0.058274759306705518 -0.2449880856413644 0 -0.067698613522924986 -0.22230979768126041 0 -0.041427047830050592 -0.25898554774103189 0 -0.030620403015976429 -0.23642163539048139 0 -0.058274759306705518 -0.2449880856413644 0 -0.058274759306705518 -0.2449880856413644 0 -0.087167223221491022 -0.2387898590543461 0 -0.067698613522924986 -0.22230979768126041 0 -0.074119354596755491 -0.26581709866116238 0 -0.058274759306705518 -0.2449880856413644 0 -0.087167223221491022 -0.2387898590543461 0 -0.087167223221491022 -0.2387898590543461 0 -0.1002150918462244 -0.2117626194475288 0 -0.087167223221491022 -0.2387898590543461 0 -0.067698613522924986 -0.22230979768126041 0 -0.081136223526013254 -0.20809480344417949 0 -0.087167223221491022 -0.2387898590543461 0 -0.081136223526013254 -0.20809480344417949 0 -0.1002150918462244 -0.2117626194475288 0 -0.081136223526013254 -0.20809480344417949 0 -0.1002150918462244 -0.2117626194475288 0 -0.081136223526013254 -0.20809480344417949 0 -0.093058734338373125 -0.1975326682409029 0 -0.1002150918462244 -0.2117626194475288 0 -0.067698613522924986 -0.22230979768126041 0 -0.081136223526013254 -0.20809480344417949 0 -0.062624666353964534 -0.200944319187288 0 -0.081136223526013254 -0.20809480344417949 0 -0.062624666353964534 -0.200944319187288 0 -0.086047144538091605 -0.18354677606050429 0 -0.059588967676378529 -0.17930597195573431 0 -0.062624666353964534 -0.200944319187288 0 -0.086047144538091605 -0.18354677606050429 0 -0.081136223526013254 -0.20809480344417949 0 -0.093058734338373125 -0.1975326682409029 0 -0.086047144538091605 -0.18354677606050429 0 -0.093058734338373125 -0.1975326682409029 0 -0.1002150918462244 -0.2117626194475288 0 -0.1127022360954797 -0.1858968593501574 0 -0.093058734338373125 -0.1975326682409029 0 -0.086047144538091605 -0.18354677606050429 0 -0.1127022360954797 -0.1858968593501574 0 -0.1002150918462244 -0.2117626194475288 0 -0.1127022360954797 -0.1858968593501574 0 -0.1002150918462244 -0.2117626194475288 0 -0.12545201890814561 -0.2166142911189872 0 -0.1002150918462244 -0.2117626194475288 0 -0.1127022360954797 -0.1858968593501574 0 -0.12545201890814561 -0.2166142911189872 0 -0.087167223221491022 -0.2387898590543461 0 -0.1002150918462244 -0.2117626194475288 0 -0.1088131582368151 -0.23587874231656689 0 -0.1088131582368151 -0.23587874231656689 0 -0.1268453784909149 -0.2408573386526435 0 -0.12545201890814561 -0.2166142911189872 0 -0.1002150918462244 -0.2117626194475288 0 -0.1088131582368151 -0.23587874231656689 0 -0.12545201890814561 -0.2166142911189872 0 -0.115995247393261 -0.26258155232793567 0 -0.1088131582368151 -0.23587874231656689 0 -0.1268453784909149 -0.2408573386526435 0 -0.093794456505960105 -0.26095817393651588 0 -0.087167223221491022 -0.2387898590543461 0 -0.1088131582368151 -0.23587874231656689 0 -0.074817456956106421 -0.1289616979402835 0 -0.07258593729250605 -0.15720683255255441 0 -0.097658514335497104 -0.14734802017998491 0 -0.095433323807504855 -0.1231012724794185 0 -0.074817456956106421 -0.1289616979402835 0 -0.097658514335497104 -0.14734802017998491 0 -0.050580380118552037 -0.13087946953499541 0 -0.074817456956106421 -0.1289616979402835 0 -0.07258593729250605 -0.15720683255255441 0 -0.059588967676378529 -0.17930597195573431 0 -0.07258593729250605 -0.15720683255255441 0 -0.086047144538091605 -0.18354677606050429 0 -0.07258593729250605 -0.15720683255255441 0 -0.10021838144185161 -0.16789475634111059 0 -0.097658514335497104 -0.14734802017998491 0 -0.07258593729250605 -0.15720683255255441 0 -0.086047144538091605 -0.18354677606050429 0 -0.10021838144185161 -0.16789475634111059 0 -0.10021838144185161 -0.16789475634111059 0 -0.097658514335497104 -0.14734802017998491 0 -0.1251893803447329 -0.16003109925278489 0 -0.086047144538091605 -0.18354677606050429 0 -0.10021838144185161 -0.16789475634111059 0 -0.1127022360954797 -0.1858968593501574 0 -0.1127022360954797 -0.1858968593501574 0 -0.1251893803447329 -0.16003109925278489 0 -0.10021838144185161 -0.16789475634111059 0 -0.1127022360954797 -0.1858968593501574 0 -0.1251893803447329 -0.16003109925278489 0 -0.097658514335497104 -0.14734802017998491 0 -0.1168311362369107 -0.13831215629776231 0 -0.1251893803447329 -0.16003109925278489 0 -0.095433323807504855 -0.1231012724794185 0 -0.097658514335497104 -0.14734802017998491 0 -0.1168311362369107 -0.13831215629776231 0 -0.121105938240762 -0.11324751204453209 0 -0.1168311362369107 -0.13831215629776231 0 -0.13767652459398599 -0.13416533915541259 0 -0.13767652459398599 -0.13416533915541259 0 -0.1251893803447329 -0.16003109925278489 0 -0.15655131785417081 -0.15073149291976551 0 -0.13767652459398599 -0.13416533915541259 0 -0.15655131785417081 -0.15073149291976551 0 -0.16879646487652131 -0.123200928154277 0 -0.13767652459398599 -0.13416533915541259 0 -0.1251893803447329 -0.16003109925278489 0 -0.1168311362369107 -0.13831215629776231 0 -0.13767652459398599 -0.13416533915541259 0 -0.1251893803447329 -0.16003109925278489 0 -0.1251893803447329 -0.16003109925278489 0 -0.14093024406013219 -0.17404721954876201 0 -0.15655131785417081 -0.15073149291976551 0 -0.1127022360954797 -0.1858968593501574 0 -0.14093024406013219 -0.17404721954876201 0 -0.14121282509285721 -0.1959621228646764 0 -0.1127022360954797 -0.1858968593501574 0 -0.1251893803447329 -0.16003109925278489 0 -0.14093024406013219 -0.17404721954876201 0 -0.14093024406013219 -0.17404721954876201 0 -0.16197240111671499 -0.17525305745833991 0 -0.14121282509285721 -0.1959621228646764 0 -0.14093024406013219 -0.17404721954876201 0 -0.16197240111671499 -0.17525305745833991 0 -0.15655131785417081 -0.15073149291976551 0 -0.16197240111671499 -0.17525305745833991 0 -0.1841063401174321 -0.16895385598183371 0 -0.15655131785417081 -0.15073149291976551 0 -0.16197240111671499 -0.17525305745833991 0 -0.17461410233649541 -0.18427176317373231 0 -0.16998620115710519 -0.19909512963296991 0 -0.16197240111671499 -0.17525305745833991 0 -0.16998620115710519 -0.19909512963296991 0 -0.16197240111671499 -0.17525305745833991 0 -0.17461410233649541 -0.18427176317373231 0 -0.1841063401174321 -0.16895385598183371 0 -0.17461410233649541 -0.18427176317373231 0 -0.1841063401174321 -0.16895385598183371 0 -0.19789838718638611 -0.1905066341678664 0 -0.1841063401174321 -0.16895385598183371 0 -0.15655131785417081 -0.15073149291976551 0 -0.1920097636523829 -0.14544099868976471 0 -0.15655131785417081 -0.15073149291976551 0 -0.1920097636523829 -0.14544099868976471 0 -0.16879646487652131 -0.123200928154277 0 -0.1920097636523829 -0.14544099868976471 0 -0.19245976195362219 -0.1189212968057035 0 -0.16879646487652131 -0.123200928154277 0 -0.13752416990192209 -0.25270373144511749 0 -0.15019951872963441 -0.24750947653126881 0 -0.14351006508183151 -0.23537771564703211 0 -0.14351006508183151 -0.23537771564703211 0 -0.16155997925866231 -0.2306601440747994 0 -0.15839645908534269 -0.2408044863986965 0 -0.15019951872963441 -0.24750947653126881 0 -0.14351006508183151 -0.23537771564703211 0 -0.15839645908534269 -0.2408044863986965 0 -0.13752416990192209 -0.25270373144511749 0 -0.14351006508183151 -0.23537771564703211 0 -0.1268453784909149 -0.2408573386526435 0 -0.15068894597006499 -0.22146596279045469 0 -0.12545201890814561 -0.2166142911189872 0 -0.14351006508183151 -0.23537771564703211 0 -0.15068894597006499 -0.22146596279045469 0 -0.12545201890814561 -0.2166142911189872 0 -0.14351006508183151 -0.23537771564703211 0 -0.1268453784909149 -0.2408573386526435 0 -0.12545201890814561 -0.2166142911189872 0 -0.14351006508183151 -0.23537771564703211 0 -0.15068894597006499 -0.22146596279045469 0 -0.16155997925866231 -0.2306601440747994 0 -0.15068894597006499 -0.22146596279045469 0 -0.14121282509285721 -0.1959621228646764 0 -0.1555311044066055 -0.20249534692135729 0 -0.15068894597006499 -0.22146596279045469 0 -0.12545201890814561 -0.2166142911189872 0 -0.14121282509285721 -0.1959621228646764 0 -0.1127022360954797 -0.1858968593501574 0 -0.12545201890814561 -0.2166142911189872 0 -0.14121282509285721 -0.1959621228646764 0 -0.16197240111671499 -0.17525305745833991 0 -0.14121282509285721 -0.1959621228646764 0 -0.1555311044066055 -0.20249534692135729 0 -0.16197240111671499 -0.17525305745833991 0 -0.1555311044066055 -0.20249534692135729 0 -0.16998620115710519 -0.19909512963296991 0 -0.17461410233649541 -0.18427176317373231 0 -0.18242419002451291 -0.1962485045692775 0 -0.19789838718638611 -0.1905066341678664 0 -0.17461410233649541 -0.18427176317373231 0 -0.16998620115710519 -0.19909512963296991 0 -0.18242419002451291 -0.1962485045692775 0 -0.16998620115710519 -0.19909512963296991 0 -0.18242419002451291 -0.1962485045692775 0 -0.18402063803311761 -0.2110042141079761 0 -0.16998620115710519 -0.19909512963296991 0 -0.183929571523719 -0.2132731350010513 0 -0.17800000119749609 -0.2229372018075996 0 -0.16998620115710519 -0.19909512963296991 0 -0.17800000119749609 -0.2229372018075996 0 -0.16998620115710519 -0.19909512963296991 0 -0.18402063803311761 -0.2110042141079761 0 -0.183929571523719 -0.2132731350010513 0 -0.183929571523719 -0.2132731350010513 0 -0.17800000119749609 -0.2229372018075996 0 -0.18402063803311761 -0.2110042141079761 0 -0.183929571523719 -0.2132731350010513 0 -0.16998620115710519 -0.19909512963296991 0 -0.1660264251526514 -0.21446225512286071 0 -0.17800000119749609 -0.2229372018075996 0 -0.15068894597006499 -0.22146596279045469 0 -0.1555311044066055 -0.20249534692135729 0 -0.1660264251526514 -0.21446225512286071 0 -0.1555311044066055 -0.20249534692135729 0 -0.16998620115710519 -0.19909512963296991 0 -0.1660264251526514 -0.21446225512286071 0 -0.15068894597006499 -0.22146596279045469 0 -0.1660264251526514 -0.21446225512286071 0 -0.17592587303198451 -0.22631763446192171 0 -0.15068894597006499 -0.22146596279045469 0 -0.17592587303198451 -0.22631763446192171 0 -0.15068894597006499 -0.22146596279045469 0 -0.16155997925866231 -0.2306601440747994 0 -0.17592587303198451 -0.22631763446192171 0 -0.16155997925866231 -0.2306601440747994 0 -0.1746555281127318 -0.22838805398502329 0 -0.16795586797899709 -0.23529835374504329 0 -0.16155997925866231 -0.2306601440747994 0 -0.17592587303198451 -0.22631763446192171 0 -0.1746555281127318 -0.22838805398502329 0 -0.1660264251526514 -0.21446225512286071 0 -0.17592587303198451 -0.22631763446192171 0 -0.17800000119749609 -0.2229372018075996 0 -0.17800000119749609 -0.2229372018075996 0 -0.1793580082402943 -0.22697744510851681 0 -0.17592587303198451 -0.22631763446192171 0 -0.17800000119749609 -0.2229372018075996 0 -0.1793580082402943 -0.22697744510851681 0 -0.17592587303198451 -0.22631763446192171 0 -0.17800000119749609 -0.2229372018075996 0 -0.183929571523719 -0.2132731350010513 0 -0.17800000119749609 -0.2229372018075996 0 -0.18334873608537849 -0.22774464236621161 0 -0.183929571523719 -0.2132731350010513 0 -0.18334873608537849 -0.22774464236621161 0 -0.17800000119749609 -0.2229372018075996 0 -0.18334873608537849 -0.22774464236621161 0 -0.1793580082402943 -0.22697744510851681 0 -0.1793580082402943 -0.22697744510851681 0 -0.18295054034434891 -0.2376656840566844 0 -0.18334873608537849 -0.22774464236621161 0 -0.18295054034434891 -0.2376656840566844 0 -0.18334873608537849 -0.22774464236621161 0 -0.1793580082402943 -0.22697744510851681 0 -0.18295054034434891 -0.2376656840566844 0 -0.18334873608537849 -0.22774464236621161 0 -0.1793580082402943 -0.22697744510851681 0 -0.1793580082402943 -0.22697744510851681 0 -0.17508193375640871 -0.23372308342345199 0 -0.18295054034434891 -0.2376656840566844 0 -0.1793580082402943 -0.22697744510851681 0 -0.1746555281127318 -0.22838805398502329 0 -0.17508193375640871 -0.23372308342345199 0 -0.17592587303198451 -0.22631763446192171 0 -0.1793580082402943 -0.22697744510851681 0 -0.1746555281127318 -0.22838805398502329 0 -0.17592587303198451 -0.22631763446192171 0 -0.1793580082402943 -0.22697744510851681 0 -0.17592587303198451 -0.22631763446192171 0 -0.1746555281127318 -0.22838805398502329 0 -0.1746555281127318 -0.22838805398502329 0 -0.17508193375640871 -0.23372308342345199 0 -0.16795586797899709 -0.23529835374504329 0 -0.1818589720642326 -0.2648620935086165 0 -0.18295054034434891 -0.2376656840566844 0 -0.17008543968184009 -0.24291600084324499 0 -0.17508193375640871 -0.23372308342345199 0 -0.18295054034434891 -0.2376656840566844 0 -0.17008543968184009 -0.24291600084324499 0 -0.18334873608537849 -0.22774464236621161 0 -0.18295054034434891 -0.2376656840566844 0 -0.19455238259476759 -0.24025586947847111 0 -0.18295054034434891 -0.2376656840566844 0 -0.18650951462440329 -0.24825408421953471 0 -0.16602924539693359 -0.25618578501994232 0 -0.17008543968184009 -0.24291600084324499 0 -0.15839645908534269 -0.2408044863986965 0 -0.16602924539693359 -0.25618578501994232 0 -0.15019951872963441 -0.24750947653126881 0 -0.15839645908534269 -0.2408044863986965 0 -0.17508193375640871 -0.23372308342345199 0 -0.17008543968184009 -0.24291600084324499 0 -0.16795586797899709 -0.23529835374504329 0 -0.17008543968184009 -0.24291600084324499 0 -0.16795586797899709 -0.23529835374504329 0 -0.15839645908534269 -0.2408044863986965 0 -0.16155997925866231 -0.2306601440747994 0 -0.16795586797899709 -0.23529835374504329 0 -0.15839645908534269 -0.2408044863986965 0 -0.2095913101210784 -0.2500040741313308 0 -0.2037307927977948 -0.23166298975118649 0 -0.22187679798384469 -0.23910178789677841 0 -0.1975951534684377 -0.25759655953010302 0 -0.18650951462440329 -0.24825408421953471 0 -0.19455238259476759 -0.24025586947847111 0 -0.2095913101210784 -0.2500040741313308 0 -0.19455238259476759 -0.24025586947847111 0 -0.2037307927977948 -0.23166298975118649 0 -0.1975951534684377 -0.25759655953010302 0 -0.2095913101210784 -0.2500040741313308 0 -0.19455238259476759 -0.24025586947847111 0 -0.18295054034434891 -0.2376656840566844 0 -0.18650951462440329 -0.24825408421953471 0 -0.19455238259476759 -0.24025586947847111 0 -0.18334873608537849 -0.22774464236621161 0 -0.2037307927977948 -0.23166298975118649 0 -0.19584607638165341 -0.21800680815587201 0 -0.18334873608537849 -0.22774464236621161 0 -0.19455238259476759 -0.24025586947847111 0 -0.2037307927977948 -0.23166298975118649 0 -0.18334873608537849 -0.22774464236621161 0 -0.2037307927977948 -0.23166298975118649 0 -0.183929571523719 -0.2132731350010513 0 -0.18334873608537849 -0.22774464236621161 0 -0.19584607638165341 -0.21800680815587201 0 -0.2037307927977948 -0.23166298975118649 0 -0.21114446553579211 -0.2112288790108815 0 -0.19584607638165341 -0.21800680815587201 0 -0.2037307927977948 -0.23166298975118649 0 -0.2176129099302079 -0.22513761456011799 0 -0.21114446553579211 -0.2112288790108815 0 -0.2037307927977948 -0.23166298975118649 0 -0.2176129099302079 -0.22513761456011799 0 -0.22187679798384469 -0.23910178789677841 0 -0.2176129099302079 -0.22513761456011799 0 -0.21114446553579211 -0.2112288790108815 0 -0.22369522874382311 -0.2088604600591652 0 -0.21114446553579211 -0.2112288790108815 0 -0.20131382331606379 -0.20590252208189391 0 -0.21775061595276801 -0.196497154073798 0 -0.21114446553579211 -0.2112288790108815 0 -0.21775061595276801 -0.196497154073798 0 -0.21114446553579211 -0.2112288790108815 0 -0.21775061595276801 -0.196497154073798 0 -0.22369522874382311 -0.2088604600591652 0 -0.18402063803311761 -0.2110042141079761 0 -0.183929571523719 -0.2132731350010513 0 -0.19789838718638611 -0.1905066341678664 0 -0.183929571523719 -0.2132731350010513 0 -0.19584607638165341 -0.21800680815587201 0 -0.20131382331606379 -0.20590252208189391 0 -0.183929571523719 -0.2132731350010513 0 -0.20131382331606379 -0.20590252208189391 0 -0.19789838718638611 -0.1905066341678664 0 -0.21114446553579211 -0.2112288790108815 0 -0.19584607638165341 -0.21800680815587201 0 -0.20131382331606379 -0.20590252208189391 0 -0.183929571523719 -0.2132731350010513 0 -0.19789838718638611 -0.1905066341678664 0 -0.18242419002451291 -0.1962485045692775 0 -0.18402063803311761 -0.2110042141079761 0 -0.19789838718638611 -0.1905066341678664 0 -0.19789838718638611 -0.1905066341678664 0 -0.21775061595276801 -0.196497154073798 0 -0.22435676636974319 -0.18176542913671431 0 -0.20131382331606379 -0.20590252208189391 0 -0.19789838718638611 -0.1905066341678664 0 -0.21775061595276801 -0.196497154073798 0 -0.23896749468428111 -0.19817271079672411 0 -0.22435676636974319 -0.18176542913671431 0 -0.21775061595276801 -0.196497154073798 0 -0.23896749468428111 -0.19817271079672411 0 -0.22435676636974319 -0.18176542913671431 0 -0.21775061595276801 -0.196497154073798 0 -0.23896749468428111 -0.19817271079672411 0 -0.22369522874382311 -0.2088604600591652 0 -0.21775061595276801 -0.196497154073798 0 -0.22435676636974319 -0.18176542913671431 0 -0.23896749468428111 -0.19817271079672411 0 -0.24247148721271261 -0.17930049873345849 0 -0.25434815389130438 -0.19048087867398239 0 -0.23896749468428111 -0.19817271079672411 0 -0.25434815389130438 -0.19048087867398239 0 -0.25065570017860628 -0.2018435148472334 0 -0.23896749468428111 -0.19817271079672411 0 -0.25357822299882021 -0.2145799924567329 0 -0.25065570017860628 -0.2018435148472334 0 -0.23896749468428111 -0.19817271079672411 0 -0.25357822299882021 -0.2145799924567329 0 -0.23896749468428111 -0.19817271079672411 0 -0.2327891243073644 -0.22058745179335859 0 -0.25357822299882021 -0.2145799924567329 0 -0.23896749468428111 -0.19817271079672411 0 -0.22369522874382311 -0.2088604600591652 0 -0.2327891243073644 -0.22058745179335859 0 -0.2176129099302079 -0.22513761456011799 0 -0.22369522874382311 -0.2088604600591652 0 -0.2327891243073644 -0.22058745179335859 0 -0.2176129099302079 -0.22513761456011799 0 -0.2327891243073644 -0.22058745179335859 0 -0.22187679798384469 -0.23910178789677841 0 -0.2327891243073644 -0.22058745179335859 0 -0.2412242898946538 -0.23767263498224031 0 -0.22187679798384469 -0.23910178789677841 0 -0.2327891243073644 -0.22058745179335859 0 -0.2412242898946538 -0.23767263498224031 0 -0.25357822299882021 -0.2145799924567329 0 -0.2412242898946538 -0.23767263498224031 0 -0.25357822299882021 -0.2145799924567329 0 -0.23866709335867681 -0.2442148082805505 0 -0.25127422555496121 -0.24868464517097449 0 -0.25738773104086299 -0.24770408537603711 0 -0.23866709335867681 -0.2442148082805505 0 -0.25181609248119308 -0.23864392380118471 0 -0.25738773104086299 -0.24770408537603711 0 -0.23866709335867681 -0.2442148082805505 0 -0.25738773104086299 -0.24770408537603711 0 -0.22887035679048739 -0.26076527750774792 0 -0.2412242898946538 -0.23767263498224031 0 -0.23866709335867681 -0.2442148082805505 0 -0.22887035679048739 -0.26076527750774792 0 -0.2412242898946538 -0.23767263498224031 0 -0.2412242898946538 -0.23767263498224031 0 -0.23866709335867681 -0.2442148082805505 0 -0.25181609248119308 -0.23864392380118471 0 -0.24124313271001141 -0.25611716584336802 0 -0.23866709335867681 -0.2442148082805505 0 -0.25127422555496121 -0.24868464517097449 0 -0.22887035679048739 -0.26076527750774792 0 -0.2412242898946538 -0.23767263498224031 0 -0.22187679798384469 -0.23910178789677841 0 -0.22887035679048739 -0.26076527750774792 0 -0.2095913101210784 -0.2500040741313308 0 -0.22187679798384469 -0.23910178789677841 0 -0.20794282868492001 -0.14528166261133091 0 -0.2166730456036165 -0.15506714222514639 0 -0.21447450088321221 -0.16349073565484101 0 -0.20794282868492001 -0.14528166261133091 0 -0.1920097636523829 -0.14544099868976471 0 -0.21186720284905219 -0.16774013333468099 0 -0.20794282868492001 -0.14528166261133091 0 -0.2166730456036165 -0.15506714222514639 0 -0.21631686386578289 -0.14873304311611049 0 -0.2166730456036165 -0.15506714222514639 0 -0.21631686386578289 -0.14873304311611049 0 -0.21939874132402931 -0.15176831311343511 0 -0.20794282868492001 -0.14528166261133091 0 -0.2167352504502775 -0.1440612275985983 0 -0.21746764140338751 -0.13626777103232809 0 -0.20794282868492001 -0.14528166261133091 0 -0.21631686386578289 -0.14873304311611049 0 -0.2167352504502775 -0.1440612275985983 0 -0.21631686386578289 -0.14873304311611049 0 -0.2167352504502775 -0.1440612275985983 0 -0.2209816842838617 -0.14773700224301201 0 -0.20794282868492001 -0.14528166261133091 0 -0.21746764140338751 -0.13626777103232809 0 -0.2131135967127277 -0.130486633569107 0 -0.20794282868492001 -0.14528166261133091 0 -0.2131135967127277 -0.130486633569107 0 -0.20539764250125209 -0.12598895812135 0 -0.2131135967127277 -0.130486633569107 0 -0.20539764250125209 -0.12598895812135 0 -0.21748487913167391 -0.1229677867202718 0 -0.2131135967127277 -0.130486633569107 0 -0.22065589790363191 -0.12957324789010169 0 -0.21748487913167391 -0.1229677867202718 0 -0.21746764140338751 -0.13626777103232809 0 -0.2131135967127277 -0.130486633569107 0 -0.22065589790363191 -0.12957324789010169 0 -0.20539764250125209 -0.12598895812135 0 -0.1920097636523829 -0.14544099868976471 0 -0.19245976195362219 -0.1189212968057035 0 -0.20794282868492001 -0.14528166261133091 0 -0.20539764250125209 -0.12598895812135 0 -0.1920097636523829 -0.14544099868976471 0 -0.1920097636523829 -0.14544099868976471 0 -0.21186720284905219 -0.16774013333468099 0 -0.1841063401174321 -0.16895385598183371 0 -0.1920097636523829 -0.14544099868976471 0 -0.21186720284905219 -0.16774013333468099 0 -0.1841063401174321 -0.16895385598183371 0 -0.19789838718638611 -0.1905066341678664 0 -0.21186720284905219 -0.16774013333468099 0 -0.19789838718638611 -0.1905066341678664 0 -0.21186720284905219 -0.16774013333468099 0 -0.22435676636974319 -0.18176542913671431 0 -0.19789838718638611 -0.1905066341678664 0 -0.21186720284905219 -0.16774013333468099 0 -0.21186720284905219 -0.16774013333468099 0 -0.22435676636974319 -0.18176542913671431 0 -0.20794282868492001 -0.14528166261133091 0 -0.21186720284905219 -0.16774013333468099 0 -0.21447450088321221 -0.16349073565484101 0 -0.21186720284905219 -0.16774013333468099 0 -0.22423154537185699 -0.17002381882907361 0 -0.2190577253076921 -0.16464858513461789 0 -0.21186720284905219 -0.16774013333468099 0 -0.21447450088321221 -0.16349073565484101 0 -0.21186720284905219 -0.16774013333468099 0 -0.21447450088321221 -0.16349073565484101 0 -0.2190577253076921 -0.16464858513461789 0 -0.21447450088321221 -0.16349073565484101 0 -0.219831825263785 -0.16019754653393559 0 -0.2190577253076921 -0.16464858513461789 0 -0.2166730456036165 -0.15506714222514639 0 -0.21447450088321221 -0.16349073565484101 0 -0.219831825263785 -0.16019754653393559 0 -0.22423154537185699 -0.17002381882907361 0 -0.22435676636974319 -0.18176542913671431 0 -0.23600621546888989 -0.1557871408803376 0 -0.22435676636974319 -0.18176542913671431 0 -0.23600621546888989 -0.1557871408803376 0 -0.22435676636974319 -0.18176542913671431 0 -0.23744470000131049 -0.16024567686824021 0 -0.23871908359439081 -0.16962502042417621 0 -0.2166730456036165 -0.15506714222514639 0 -0.219831825263785 -0.16019754653393559 0 -0.22074267176920409 -0.15575834709741471 0 -0.22435676636974319 -0.18176542913671431 0 -0.23744470000131049 -0.16024567686824021 0 -0.23600621546888989 -0.1557871408803376 0 -0.22413112192136031 -0.1572624246897904 0 -0.219831825263785 -0.16019754653393559 0 -0.22074267176920409 -0.15575834709741471 0 -0.22413112192136031 -0.1572624246897904 0 -0.22488355217055331 -0.16179069132055779 0 -0.22875938242628999 -0.15680496121937529 0 -0.22413112192136031 -0.1572624246897904 0 -0.22488355217055331 -0.16179069132055779 0 -0.219831825263785 -0.16019754653393559 0 -0.22488355217055331 -0.16179069132055779 0 -0.219831825263785 -0.16019754653393559 0 -0.2190577253076921 -0.16464858513461789 0 -0.22488355217055331 -0.16179069132055779 0 -0.22423154537185699 -0.17002381882907361 0 -0.2190577253076921 -0.16464858513461789 0 -0.22488355217055331 -0.16179069132055779 0 -0.22423154537185699 -0.17002381882907361 0 -0.23600621546888989 -0.1557871408803376 0 -0.22488355217055331 -0.16179069132055779 0 -0.22875938242628999 -0.15680496121937529 0 -0.23600621546888989 -0.1557871408803376 0 -0.21186720284905219 -0.16774013333468099 0 -0.22423154537185699 -0.17002381882907361 0 -0.22435676636974319 -0.18176542913671431 0 -0.23896749468428111 -0.19817271079672411 0 -0.22435676636974319 -0.18176542913671431 0 -0.24247148721271261 -0.17930049873345849 0 -0.22435676636974319 -0.18176542913671431 0 -0.24247148721271261 -0.17930049873345849 0 -0.23871908359439081 -0.16962502042417621 0 -0.24247148721271261 -0.17930049873345849 0 -0.25434815389130438 -0.19048087867398239 0 -0.25292021470595449 -0.1715803686305428 0 -0.24247148721271261 -0.17930049873345849 0 -0.2462514454544327 -0.1657620422253302 0 -0.25292021470595449 -0.1715803686305428 0 -0.23744470000131049 -0.16024567686824021 0 -0.23871908359439081 -0.16962502042417621 0 -0.24307101893375621 -0.16105145515713681 0 -0.24023930280613581 -0.1577086488459489 0 -0.23744470000131049 -0.16024567686824021 0 -0.24307101893375621 -0.16105145515713681 0 -0.23744470000131049 -0.16024567686824021 0 -0.23600621546888989 -0.1557871408803376 0 -0.24023930280613581 -0.1577086488459489 0 -0.23744470000131049 -0.16024567686824021 0 -0.23600621546888989 -0.1557871408803376 0 -0.2462514454544327 -0.1657620422253302 0 -0.25035242760228532 -0.16059419505029951 0 -0.25292021470595449 -0.1715803686305428 0 -0.23871908359439081 -0.16962502042417621 0 -0.2462514454544327 -0.1657620422253302 0 -0.24307101893375621 -0.16105145515713681 0 -0.24247148721271261 -0.17930049873345849 0 -0.23871908359439081 -0.16962502042417621 0 -0.2462514454544327 -0.1657620422253302 0 -0.2462514454544327 -0.1657620422253302 0 -0.24307101893375621 -0.16105145515713681 0 -0.25035242760228532 -0.16059419505029951 0 -0.24023930280613581 -0.1577086488459489 0 -0.24307101893375621 -0.16105145515713681 0 -0.24443527682058649 -0.1537503224780809 0 -0.24307101893375621 -0.16105145515713681 0 -0.24443527682058649 -0.1537503224780809 0 -0.25035242760228532 -0.16059419505029951 0 -0.23600621546888989 -0.1557871408803376 0 -0.23373441245456411 -0.14021280235612599 0 -0.24363247600140231 -0.13878056891751939 0 -0.24443527682058649 -0.1537503224780809 0 -0.23600621546888989 -0.1557871408803376 0 -0.24363247600140231 -0.13878056891751939 0 -0.23600621546888989 -0.1557871408803376 0 -0.24363247600140231 -0.13878056891751939 0 -0.24443527682058649 -0.1537503224780809 0 -0.25035242760228532 -0.16059419505029951 0 -0.253675320056164 -0.15018434449616591 0 -0.24443527682058649 -0.1537503224780809 0 -0.24363247600140231 -0.13878056891751939 0 -0.253675320056164 -0.15018434449616591 0 -0.24023930280613581 -0.1577086488459489 0 -0.24443527682058649 -0.1537503224780809 0 -0.23600621546888989 -0.1557871408803376 0 -0.23600621546888989 -0.1557871408803376 0 -0.23373441245456411 -0.14021280235612599 0 -0.2282773215857169 -0.13183168585239829 0 -0.23600621546888989 -0.1557871408803376 0 -0.23117882161484429 -0.1521075058736763 0 -0.22802609335417509 -0.14127248179027879 0 -0.23600621546888989 -0.1557871408803376 0 -0.22802609335417509 -0.14127248179027879 0 -0.2282773215857169 -0.13183168585239829 0 -0.23600621546888989 -0.1557871408803376 0 -0.2282773215857169 -0.13183168585239829 0 -0.22875938242628999 -0.15680496121937529 0 -0.23600621546888989 -0.1557871408803376 0 -0.23117882161484429 -0.1521075058736763 0 -0.22875938242628999 -0.15680496121937529 0 -0.22680067568515649 -0.15299851826560559 0 -0.23117882161484429 -0.1521075058736763 0 -0.22413112192136031 -0.1572624246897904 0 -0.22875938242628999 -0.15680496121937529 0 -0.22680067568515649 -0.15299851826560559 0 -0.22680067568515649 -0.15299851826560559 0 -0.22820655536008 -0.1493432809861884 0 -0.23117882161484429 -0.1521075058736763 0 -0.22680067568515649 -0.15299851826560559 0 -0.22820655536008 -0.1493432809861884 0 -0.22500954974847651 -0.14975183590355251 0 -0.22820655536008 -0.1493432809861884 0 -0.23117882161484429 -0.1521075058736763 0 -0.22802609335417509 -0.14127248179027879 0 -0.22820655536008 -0.1493432809861884 0 -0.22802609335417509 -0.14127248179027879 0 -0.22500773731658469 -0.1459848416790033 0 -0.22500773731658469 -0.1459848416790033 0 -0.22228233077951909 -0.14184517204908251 0 -0.2209816842838617 -0.14773700224301201 0 -0.22820655536008 -0.1493432809861884 0 -0.22500773731658469 -0.1459848416790033 0 -0.22500954974847651 -0.14975183590355251 0 -0.22500773731658469 -0.1459848416790033 0 -0.2209816842838617 -0.14773700224301201 0 -0.22500954974847651 -0.14975183590355251 0 -0.22802609335417509 -0.14127248179027879 0 -0.22500773731658469 -0.1459848416790033 0 -0.22228233077951909 -0.14184517204908251 0 -0.2167352504502775 -0.1440612275985983 0 -0.21746764140338751 -0.13626777103232809 0 -0.22228233077951909 -0.14184517204908251 0 -0.2167352504502775 -0.1440612275985983 0 -0.22228233077951909 -0.14184517204908251 0 -0.2209816842838617 -0.14773700224301201 0 -0.21631686386578289 -0.14873304311611049 0 -0.2209816842838617 -0.14773700224301201 0 -0.21939874132402931 -0.15176831311343511 0 -0.2209816842838617 -0.14773700224301201 0 -0.21939874132402931 -0.15176831311343511 0 -0.22298614998307709 -0.1527466654981485 0 -0.22413112192136031 -0.1572624246897904 0 -0.22074267176920409 -0.15575834709741471 0 -0.22298614998307709 -0.1527466654981485 0 -0.21939874132402931 -0.15176831311343511 0 -0.22074267176920409 -0.15575834709741471 0 -0.22298614998307709 -0.1527466654981485 0 -0.2166730456036165 -0.15506714222514639 0 -0.21939874132402931 -0.15176831311343511 0 -0.22074267176920409 -0.15575834709741471 0 -0.22413112192136031 -0.1572624246897904 0 -0.22680067568515649 -0.15299851826560559 0 -0.22298614998307709 -0.1527466654981485 0 -0.22680067568515649 -0.15299851826560559 0 -0.22298614998307709 -0.1527466654981485 0 -0.22500954974847651 -0.14975183590355251 0 -0.2209816842838617 -0.14773700224301201 0 -0.22298614998307709 -0.1527466654981485 0 -0.22500954974847651 -0.14975183590355251 0 -0.22065589790363191 -0.12957324789010169 0 -0.2282773215857169 -0.13183168585239829 0 -0.21748487913167391 -0.1229677867202718 0 -0.22065589790363191 -0.12957324789010169 0 -0.2226023906938468 -0.13358930897043381 0 -0.2282773215857169 -0.13183168585239829 0 -0.21746764140338751 -0.13626777103232809 0 -0.22065589790363191 -0.12957324789010169 0 -0.2226023906938468 -0.13358930897043381 0 -0.21746764140338751 -0.13626777103232809 0 -0.2226023906938468 -0.13358930897043381 0 -0.2240087018826509 -0.13668453110690701 0 -0.21746764140338751 -0.13626777103232809 0 -0.22228233077951909 -0.14184517204908251 0 -0.2240087018826509 -0.13668453110690701 0 -0.22802609335417509 -0.14127248179027879 0 -0.22228233077951909 -0.14184517204908251 0 -0.2240087018826509 -0.13668453110690701 0 -0.2226023906938468 -0.13358930897043381 0 -0.2240087018826509 -0.13668453110690701 0 -0.2282773215857169 -0.13183168585239829 0 -0.23373441245456411 -0.14021280235612599 0 -0.23338776693327029 -0.13379899166106629 0 -0.2282773215857169 -0.13183168585239829 0 -0.22802609335417509 -0.14127248179027879 0 -0.2240087018826509 -0.13668453110690701 0 -0.2282773215857169 -0.13183168585239829 0 -0.23338776693327029 -0.13379899166106629 0 -0.2322963765691862 -0.13031558015026051 0 -0.2282773215857169 -0.13183168585239829 0 -0.2282773215857169 -0.13183168585239829 0 -0.22979202341853949 -0.12682708321724559 0 -0.22744818489581481 -0.1220627493382599 0 -0.2322963765691862 -0.13031558015026051 0 -0.22979202341853949 -0.12682708321724559 0 -0.23126802177799949 -0.1223439671588805 0 -0.2322963765691862 -0.13031558015026051 0 -0.2282773215857169 -0.13183168585239829 0 -0.22979202341853949 -0.12682708321724559 0 -0.24169682659699551 -0.12586556762549889 0 -0.23807866845215181 -0.1328438557648807 0 -0.24363247600140231 -0.13878056891751939 0 -0.24169682659699551 -0.12586556762549889 0 -0.24363247600140231 -0.13878056891751939 0 -0.25125873653391428 -0.12177399695470099 0 -0.2322963765691862 -0.13031558015026051 0 -0.23760149058172181 -0.12584769278308269 0 -0.23692934800034091 -0.12199564382547549 0 -0.2322963765691862 -0.13031558015026051 0 -0.23750732620829271 -0.12851909340101511 0 -0.23760149058172181 -0.12584769278308269 0 -0.24363247600140231 -0.13878056891751939 0 -0.25125873653391428 -0.12177399695470099 0 -0.23338776693327029 -0.13379899166106629 0 -0.2322963765691862 -0.13031558015026051 0 -0.23807866845215181 -0.1328438557648807 0 -0.2322963765691862 -0.13031558015026051 0 -0.23750732620829271 -0.12851909340101511 0 -0.23807866845215181 -0.1328438557648807 0 -0.23750732620829271 -0.12851909340101511 0 -0.24169682659699551 -0.12586556762549889 0 -0.23807866845215181 -0.1328438557648807 0 -0.23750732620829271 -0.12851909340101511 0 -0.23760149058172181 -0.12584769278308269 0 -0.24169682659699551 -0.12586556762549889 0 -0.23373441245456411 -0.14021280235612599 0 -0.23807866845215181 -0.1328438557648807 0 -0.24363247600140231 -0.13878056891751939 0 -0.23373441245456411 -0.14021280235612599 0 -0.23338776693327029 -0.13379899166106629 0 -0.23807866845215181 -0.1328438557648807 0 -0.24209115079993909 -0.1200533512358906 0 -0.23861221255840179 -0.1132849480102933 0 -0.25125873653391428 -0.12177399695470099 0 -0.23861221255840179 -0.1132849480102933 0 -0.25871012250113251 -0.122910423036896 0 -0.23861221255840179 -0.1132849480102933 0 -0.25871012250113251 -0.122910423036896 0 -0.25125873653391428 -0.12177399695470099 0 -0.24169682659699551 -0.12586556762549889 0 -0.24209115079993909 -0.1200533512358906 0 -0.25125873653391428 -0.12177399695470099 0 -0.23861221255840179 -0.1132849480102933 0 -0.25871012250113251 -0.122910423036896 0 -0.25102732107067499 -0.10695415721809361 0 -0.2322963765691862 -0.13031558015026051 0 -0.23692934800034091 -0.12199564382547549 0 -0.23767346916283741 -0.1158162666624845 0 -0.24169682659699551 -0.12586556762549889 0 -0.23957757553379341 -0.1225425789131637 0 -0.24209115079993909 -0.1200533512358906 0 -0.2322963765691862 -0.13031558015026051 0 -0.23767346916283741 -0.1158162666624845 0 -0.23760149058172181 -0.12584769278308269 0 -0.24169682659699551 -0.12586556762549889 0 -0.23957757553379341 -0.1225425789131637 0 -0.23957757553379341 -0.1225425789131637 0 -0.23921311905685391 -0.11974696181553331 0 -0.23692934800034091 -0.12199564382547549 0 -0.24209115079993909 -0.1200533512358906 0 -0.23921311905685391 -0.11974696181553331 0 -0.23767346916283741 -0.1158162666624845 0 -0.23957757553379341 -0.1225425789131637 0 -0.24209115079993909 -0.1200533512358906 0 -0.23921311905685391 -0.11974696181553331 0 -0.23921311905685391 -0.11974696181553331 0 -0.23692934800034091 -0.12199564382547549 0 -0.23767346916283741 -0.1158162666624845 0 -0.23760149058172181 -0.12584769278308269 0 -0.23957757553379341 -0.1225425789131637 0 -0.23692934800034091 -0.12199564382547549 0 -0.23767346916283741 -0.1158162666624845 0 -0.23861221255840179 -0.1132849480102933 0 -0.23126802177799949 -0.1223439671588805 0 -0.23767346916283741 -0.1158162666624845 0 -0.23861221255840179 -0.1132849480102933 0 -0.24209115079993909 -0.1200533512358906 0 -0.23767346916283741 -0.1158162666624845 0 -0.23861221255840179 -0.1132849480102933 0 -0.23861221255840179 -0.1132849480102933 0 -0.23943309295158091 -0.10491771992860061 0 -0.25102732107067499 -0.10695415721809361 0 -0.24334451964021689 -0.090997891399291486 0 -0.25545611389698819 -0.090505063301739158 0 -0.25102732107067499 -0.10695415721809361 0 -0.23943309295158091 -0.10491771992860061 0 -0.24334451964021689 -0.090997891399291486 0 -0.24122963925339649 -0.086605536093419394 0 -0.24334451964021689 -0.090997891399291486 0 -0.25102732107067499 -0.10695415721809361 0 -0.23943309295158091 -0.10491771992860061 0 -0.24122963925339649 -0.086605536093419394 0 -0.2345480484488964 -0.097629340834608169 0 -0.23943309295158091 -0.10491771992860061 0 -0.24122963925339649 -0.086605536093419394 0 -0.23943309295158091 -0.10491771992860061 0 -0.24334451964021689 -0.090997891399291486 0 -0.25102732107067499 -0.10695415721809361 0 -0.23943309295158091 -0.10491771992860061 0 -0.24334451964021689 -0.090997891399291486 0 -0.23861221255840179 -0.1132849480102933 0 -0.23943309295158091 -0.10491771992860061 0 -0.23861221255840179 -0.1132849480102933 0 -0.23943309295158091 -0.10491771992860061 0 -0.23263521330994161 -0.1052502610500842 0 -0.2345480484488964 -0.097629340834608169 0 -0.23943309295158091 -0.10491771992860061 0 -0.23263521330994161 -0.1052502610500842 0 -0.23861221255840179 -0.1132849480102933 0 -0.23263521330994161 -0.1052502610500842 0 -0.22380734545325151 -0.1061944655173938 0 -0.23263521330994161 -0.1052502610500842 0 -0.22872478263025589 -0.098853280538860736 0 -0.22380734545325151 -0.1061944655173938 0 -0.22381858829622781 -0.095030701472181872 0 -0.22054842770254449 -0.1078762308244588 0 -0.2128195338193721 -0.083920775796519187 0 -0.2345480484488964 -0.097629340834608169 0 -0.22872478263025589 -0.098853280538860736 0 -0.2307175140993048 -0.092519906562077148 0 -0.2345480484488964 -0.097629340834608169 0 -0.23263521330994161 -0.1052502610500842 0 -0.22872478263025589 -0.098853280538860736 0 -0.22872478263025589 -0.098853280538860736 0 -0.22381858829622781 -0.095030701472181872 0 -0.2307175140993048 -0.092519906562077148 0 -0.22872478263025589 -0.098853280538860736 0 -0.22381858829622781 -0.095030701472181872 0 -0.22380734545325151 -0.1061944655173938 0 -0.22381858829622781 -0.095030701472181872 0 -0.22380734545325151 -0.1061944655173938 0 -0.22054842770254449 -0.1078762308244588 0 -0.22380734545325151 -0.1061944655173938 0 -0.22054842770254449 -0.1078762308244588 0 -0.22434864875156779 -0.1112418419965629 0 -0.22054842770254449 -0.1078762308244588 0 -0.22644021276271609 -0.1164430399581874 0 -0.22744818489581481 -0.1220627493382599 0 -0.22054842770254449 -0.1078762308244588 0 -0.22434864875156779 -0.1112418419965629 0 -0.22644021276271609 -0.1164430399581874 0 -0.2282773215857169 -0.13183168585239829 0 -0.22054842770254449 -0.1078762308244588 0 -0.22744818489581481 -0.1220627493382599 0 -0.2282773215857169 -0.13183168585239829 0 -0.22054842770254449 -0.1078762308244588 0 -0.21863002813735249 -0.1175100608479443 0 -0.2282773215857169 -0.13183168585239829 0 -0.22054842770254449 -0.1078762308244588 0 -0.22380734545325151 -0.1061944655173938 0 -0.22434864875156779 -0.1112418419965629 0 -0.22939425376301781 -0.1117994158945036 0 -0.22434864875156779 -0.1112418419965629 0 -0.22644021276271609 -0.1164430399581874 0 -0.2275473068183694 -0.1136895494650505 0 -0.2282773215857169 -0.13183168585239829 0 -0.21748487913167391 -0.1229677867202718 0 -0.21863002813735249 -0.1175100608479443 0 -0.22644021276271609 -0.1164430399581874 0 -0.22963773404868029 -0.1191609667552558 0 -0.22744818489581481 -0.1220627493382599 0 -0.23861221255840179 -0.1132849480102933 0 -0.23126802177799949 -0.1223439671588805 0 -0.23231688953488799 -0.1169606396010143 0 -0.2322963765691862 -0.13031558015026051 0 -0.23767346916283741 -0.1158162666624845 0 -0.23126802177799949 -0.1223439671588805 0 -0.22979202341853949 -0.12682708321724559 0 -0.22744818489581481 -0.1220627493382599 0 -0.23126802177799949 -0.1223439671588805 0 -0.22963773404868029 -0.1191609667552558 0 -0.22744818489581481 -0.1220627493382599 0 -0.23126802177799949 -0.1223439671588805 0 -0.22963773404868029 -0.1191609667552558 0 -0.23126802177799949 -0.1223439671588805 0 -0.23231688953488799 -0.1169606396010143 0 -0.23861221255840179 -0.1132849480102933 0 -0.22380734545325151 -0.1061944655173938 0 -0.23861221255840179 -0.1132849480102933 0 -0.23231688953488799 -0.1169606396010143 0 -0.23218495806389819 -0.1141399367393502 0 -0.23861221255840179 -0.1132849480102933 0 -0.22380734545325151 -0.1061944655173938 0 -0.22939425376301781 -0.1117994158945036 0 -0.23861221255840179 -0.1132849480102933 0 -0.23218495806389819 -0.1141399367393502 0 -0.22939425376301781 -0.1117994158945036 0 -0.22963773404868029 -0.1191609667552558 0 -0.23231688953488799 -0.1169606396010143 0 -0.22976524589051059 -0.1151607084843432 0 -0.23231688953488799 -0.1169606396010143 0 -0.23218495806389819 -0.1141399367393502 0 -0.22976524589051059 -0.1151607084843432 0 -0.22434864875156779 -0.1112418419965629 0 -0.22939425376301781 -0.1117994158945036 0 -0.2275473068183694 -0.1136895494650505 0 -0.22644021276271609 -0.1164430399581874 0 -0.2275473068183694 -0.1136895494650505 0 -0.22976524589051059 -0.1151607084843432 0 -0.22644021276271609 -0.1164430399581874 0 -0.22963773404868029 -0.1191609667552558 0 -0.22976524589051059 -0.1151607084843432 0 -0.23218495806389819 -0.1141399367393502 0 -0.22939425376301781 -0.1117994158945036 0 -0.22976524589051059 -0.1151607084843432 0 -0.22939425376301781 -0.1117994158945036 0 -0.2275473068183694 -0.1136895494650505 0 -0.22976524589051059 -0.1151607084843432 0 -0.24122963925339649 -0.086605536093419394 0 -0.2436102949889207 -0.062339528903249043 0 -0.24122963925339649 -0.086605536093419394 0 -0.23090873472955559 -0.065170243568474465 0 -0.2436102949889207 -0.062339528903249043 0 -0.24122963925339649 -0.086605536093419394 0 -0.23090873472955559 -0.065170243568474465 0 -0.24122963925339649 -0.086605536093419394 0 -0.2436102949889207 -0.062339528903249043 0 -0.2502669880958025 -0.066362488112489265 0 -0.24334451964021689 -0.090997891399291486 0 -0.24122963925339649 -0.086605536093419394 0 -0.2502669880958025 -0.066362488112489265 0 -0.24334451964021689 -0.090997891399291486 0 -0.2502669880958025 -0.066362488112489265 0 -0.25565770714726349 -0.080391890735027463 0 -0.24334451964021689 -0.090997891399291486 0 -0.2502669880958025 -0.066362488112489265 0 -0.24334451964021689 -0.090997891399291486 0 -0.24122963925339649 -0.086605536093419394 0 -0.2345480484488964 -0.097629340834608169 0 -0.24122963925339649 -0.086605536093419394 0 -0.2307175140993048 -0.092519906562077148 0 -0.22381858829622781 -0.095030701472181872 0 -0.2307175140993048 -0.092519906562077148 0 -0.2262939260726381 -0.080819549593781612 0 -0.24122963925339649 -0.086605536093419394 0 -0.2307175140993048 -0.092519906562077148 0 -0.2262939260726381 -0.080819549593781612 0 -0.22381858829622781 -0.095030701472181872 0 -0.2262939260726381 -0.080819549593781612 0 -0.2128195338193721 -0.083920775796519187 0 -0.24122963925339649 -0.086605536093419394 0 -0.2262939260726381 -0.080819549593781612 0 -0.23090873472955559 -0.065170243568474465 0 -0.2262939260726381 -0.080819549593781612 0 -0.23090873472955559 -0.065170243568474465 0 -0.215621712464794 -0.065362720508044037 0 -0.215621712464794 -0.065362720508044037 0 -0.2128195338193721 -0.083920775796519187 0 -0.1998359992544452 -0.068337755606248454 0 -0.2262939260726381 -0.080819549593781612 0 -0.215621712464794 -0.065362720508044037 0 -0.2128195338193721 -0.083920775796519187 0 -0.2128195338193721 -0.083920775796519187 0 -0.19936362797198109 -0.092849965670232154 0 -0.1998359992544452 -0.068337755606248454 0 -0.2128195338193721 -0.083920775796519187 0 -0.19936362797198109 -0.092849965670232154 0 -0.2102616626517245 -0.1031098962930757 0 -0.19936362797198109 -0.092849965670232154 0 -0.1998359992544452 -0.068337755606248454 0 -0.18022964018586499 -0.084998146242849223 0 -0.2109405760434567 -0.11453976160544101 0 -0.2009343140881184 -0.10879426999736409 0 -0.20243307364661231 -0.11706107163246469 0 -0.20539764250125209 -0.12598895812135 0 -0.2109405760434567 -0.11453976160544101 0 -0.20243307364661231 -0.11706107163246469 0 -0.20539764250125209 -0.12598895812135 0 -0.21748487913167391 -0.1229677867202718 0 -0.2109405760434567 -0.11453976160544101 0 -0.21748487913167391 -0.1229677867202718 0 -0.21863002813735249 -0.1175100608479443 0 -0.2109405760434567 -0.11453976160544101 0 -0.22054842770254449 -0.1078762308244588 0 -0.21863002813735249 -0.1175100608479443 0 -0.2153248200879414 -0.1106378022054219 0 -0.21863002813735249 -0.1175100608479443 0 -0.2109405760434567 -0.11453976160544101 0 -0.2153248200879414 -0.1106378022054219 0 -0.2109405760434567 -0.11453976160544101 0 -0.2153248200879414 -0.1106378022054219 0 -0.2102616626517245 -0.1031098962930757 0 -0.19936362797198109 -0.092849965670232154 0 -0.2102616626517245 -0.1031098962930757 0 -0.2009343140881184 -0.10879426999736409 0 -0.22054842770254449 -0.1078762308244588 0 -0.2153248200879414 -0.1106378022054219 0 -0.2102616626517245 -0.1031098962930757 0 -0.22054842770254449 -0.1078762308244588 0 -0.2128195338193721 -0.083920775796519187 0 -0.2102616626517245 -0.1031098962930757 0 -0.22054842770254449 -0.1078762308244588 0 -0.2128195338193721 -0.083920775796519187 0 -0.2109405760434567 -0.11453976160544101 0 -0.2102616626517245 -0.1031098962930757 0 -0.2009343140881184 -0.10879426999736409 0 -0.19936362797198109 -0.092849965670232154 0 -0.2009343140881184 -0.10879426999736409 0 -0.1854802470144592 -0.1056775433596943 0 -0.19936362797198109 -0.092849965670232154 0 -0.1854802470144592 -0.1056775433596943 0 -0.18022964018586499 -0.084998146242849223 0 -0.2009343140881184 -0.10879426999736409 0 -0.19245976195362219 -0.1189212968057035 0 -0.1854802470144592 -0.1056775433596943 0 -0.2009343140881184 -0.10879426999736409 0 -0.20243307364661231 -0.11706107163246469 0 -0.19245976195362219 -0.1189212968057035 0 -0.20539764250125209 -0.12598895812135 0 -0.20243307364661231 -0.11706107163246469 0 -0.19245976195362219 -0.1189212968057035 0 -0.19245976195362219 -0.1189212968057035 0 -0.16879646487652131 -0.123200928154277 0 -0.1854802470144592 -0.1056775433596943 0 -0.16879646487652131 -0.123200928154277 0 -0.16763275101146999 -0.1000982777063095 0 -0.1854802470144592 -0.1056775433596943 0 -0.16879646487652131 -0.123200928154277 0 -0.16763275101146999 -0.1000982777063095 0 -0.15016366884323909 -0.1082995790580403 0 -0.16763275101146999 -0.1000982777063095 0 -0.15702186168842719 -0.086970050780922514 0 -0.15016366884323909 -0.1082995790580403 0 -0.16763275101146999 -0.1000982777063095 0 -0.1854802470144592 -0.1056775433596943 0 -0.18022964018586499 -0.084998146242849223 0 -0.1998359992544452 -0.068337755606248454 0 -0.18022964018586499 -0.084998146242849223 0 -0.18181002632751761 -0.067255394761466691 0 -0.18181002632751761 -0.067255394761466691 0 -0.16494884052767331 -0.071837940631117203 0 -0.17061358138154581 -0.056823329372135842 0 -0.18022964018586499 -0.084998146242849223 0 -0.18181002632751761 -0.067255394761466691 0 -0.16494884052767331 -0.071837940631117203 0 -0.16494884052767331 -0.071837940631117203 0 -0.15575910729770581 -0.059385052254179629 0 -0.17061358138154581 -0.056823329372135842 0 -0.16763275101146999 -0.1000982777063095 0 -0.18022964018586499 -0.084998146242849223 0 -0.15702186168842719 -0.086970050780922514 0 -0.18022964018586499 -0.084998146242849223 0 -0.16494884052767331 -0.071837940631117203 0 -0.15702186168842719 -0.086970050780922514 0 -0.15702186168842719 -0.086970050780922514 0 -0.14468557654927389 -0.074907323473566934 0 -0.135336115067483 -0.091268279967290228 0 -0.16494884052767331 -0.071837940631117203 0 -0.14468557654927389 -0.074907323473566934 0 -0.15575910729770581 -0.059385052254179629 0 -0.16494884052767331 -0.071837940631117203 0 -0.15702186168842719 -0.086970050780922514 0 -0.14468557654927389 -0.074907323473566934 0 -0.14468557654927389 -0.074907323473566934 0 -0.14528726200947531 -0.05998926114954431 0 -0.15575910729770581 -0.059385052254179629 0 -0.14468557654927389 -0.074907323473566934 0 -0.13650094050338021 -0.066466580235630277 0 -0.14528726200947531 -0.05998926114954431 0 -0.14468557654927389 -0.074907323473566934 0 -0.13650094050338021 -0.066466580235630277 0 -0.1250543087863647 -0.074165001645945236 0 -0.13650094050338021 -0.066466580235630277 0 -0.1250543087863647 -0.074165001645945236 0 -0.12851953325672399 -0.063326232526877982 0 -0.14468557654927389 -0.074907323473566934 0 -0.1250543087863647 -0.074165001645945236 0 -0.135336115067483 -0.091268279967290228 0 -0.121105938240762 -0.11324751204453209 0 -0.135336115067483 -0.091268279967290228 0 -0.15016366884323909 -0.1082995790580403 0 -0.121105938240762 -0.11324751204453209 0 -0.13767652459398599 -0.13416533915541259 0 -0.15016366884323909 -0.1082995790580403 0 -0.13767652459398599 -0.13416533915541259 0 -0.16879646487652131 -0.123200928154277 0 -0.15016366884323909 -0.1082995790580403 0 -0.13767652459398599 -0.13416533915541259 0 -0.15016366884323909 -0.1082995790580403 0 -0.15702186168842719 -0.086970050780922514 0 -0.135336115067483 -0.091268279967290228 0 -0.15016366884323909 -0.1082995790580403 0 -0.1460540553812473 -0.01889524087758249 0 -0.15233690349450041 -0.026108808136787971 0 -0.1640968485285971 -0.018872893029884479 0 -0.1460540553812473 -0.01889524087758249 0 -0.1640968485285971 -0.018872893029884479 0 -0.1460540553812473 -0.01889524087758249 0 -0.1426213778014534 -0.027528909380109979 0 -0.15233690349450041 -0.026108808136787971 0 -0.1426213778014534 -0.027528909380109979 0 -0.15233690349450041 -0.026108808136787971 0 -0.15778499012531219 -0.033971891824531607 0 -0.1460540553812473 -0.01889524087758249 0 -0.13715303416023239 -0.005951121056745029 0 -0.1478113520156005 0.0036670898920004719 0 -0.1640968485285971 -0.018872893029884479 0 -0.1478113520156005 0.0036670898920004719 0 -0.1460540553812473 -0.01889524087758249 0 -0.1640968485285971 -0.018872893029884479 0 -0.1478113520156005 0.0036670898920004719 0 -0.13715303416023239 -0.005951121056745029 0 -0.1280112622338975 -0.018917588725280338 0 -0.12673546701018451 0.01034125548388224 0 -0.1460540553812473 -0.01889524087758249 0 -0.13715303416023239 -0.005951121056745029 0 -0.1280112622338975 -0.018917588725280338 0 -0.1280112622338975 -0.018917588725280338 0 -0.12673546701018451 0.01034125548388224 0 -0.1280112622338975 -0.018917588725280338 0 -0.12891967777230959 -0.039751017336367503 0 -0.1460540553812473 -0.01889524087758249 0 -0.1280112622338975 -0.018917588725280338 0 -0.1426213778014534 -0.027528909380109979 0 -0.1280112622338975 -0.018917588725280338 0 -0.12891967777230959 -0.039751017336367503 0 -0.1460540553812473 -0.01889524087758249 0 -0.1426213778014534 -0.027528909380109979 0 -0.1280112622338975 -0.018917588725280338 0 -0.12891967777230959 -0.039751017336367503 0 -0.1295166463057259 -0.053441779766215253 0 -0.12891967777230959 -0.039751017336367503 0 -0.13497415527962331 -0.049346084551907879 0 -0.1423792976236023 -0.04458403967817022 0 -0.12851953325672399 -0.063326232526877982 0 -0.1295166463057259 -0.053441779766215253 0 -0.1362893991208545 -0.057058298635072821 0 -0.12891967777230959 -0.039751017336367503 0 -0.1295166463057259 -0.053441779766215253 0 -0.13497415527962331 -0.049346084551907879 0 -0.13497415527962331 -0.049346084551907879 0 -0.1362893991208545 -0.057058298635072821 0 -0.1423792976236023 -0.04458403967817022 0 -0.1295166463057259 -0.053441779766215253 0 -0.13497415527962331 -0.049346084551907879 0 -0.1362893991208545 -0.057058298635072821 0 -0.13650094050338021 -0.066466580235630277 0 -0.12851953325672399 -0.063326232526877982 0 -0.1362893991208545 -0.057058298635072821 0 -0.13650094050338021 -0.066466580235630277 0 -0.1362893991208545 -0.057058298635072821 0 -0.14528726200947531 -0.05998926114954431 0 -0.1362893991208545 -0.057058298635072821 0 -0.14528726200947531 -0.05998926114954431 0 -0.153201286576162 -0.042129051149271873 0 -0.1362893991208545 -0.057058298635072821 0 -0.153201286576162 -0.042129051149271873 0 -0.14528726200947531 -0.05998926114954431 0 -0.15575910729770581 -0.059385052254179629 0 -0.153201286576162 -0.042129051149271873 0 -0.1362893991208545 -0.057058298635072821 0 -0.1423792976236023 -0.04458403967817022 0 -0.153201286576162 -0.042129051149271873 0 -0.1426213778014534 -0.027528909380109979 0 -0.12891967777230959 -0.039751017336367503 0 -0.15778499012531219 -0.033971891824531607 0 -0.12891967777230959 -0.039751017336367503 0 -0.1423792976236023 -0.04458403967817022 0 -0.15778499012531219 -0.033971891824531607 0 -0.12891967777230959 -0.039751017336367503 0 -0.15778499012531219 -0.033971891824531607 0 -0.1423792976236023 -0.04458403967817022 0 -0.153201286576162 -0.042129051149271873 0 -0.15778499012531219 -0.033971891824531607 0 -0.153201286576162 -0.042129051149271873 0 -0.16867480963807099 -0.044454202126391437 0 -0.17011317403146969 -0.02719980366347113 0 -0.153201286576162 -0.042129051149271873 0 -0.15778499012531219 -0.033971891824531607 0 -0.17011317403146969 -0.02719980366347113 0 -0.153201286576162 -0.042129051149271873 0 -0.17011317403146969 -0.02719980366347113 0 -0.153201286576162 -0.042129051149271873 0 -0.16867480963807099 -0.044454202126391437 0 -0.16168786356676329 -0.050647770231156797 0 -0.15575910729770581 -0.059385052254179629 0 -0.153201286576162 -0.042129051149271873 0 -0.16168786356676329 -0.050647770231156797 0 -0.15575910729770581 -0.059385052254179629 0 -0.16168786356676329 -0.050647770231156797 0 -0.17061358138154581 -0.056823329372135842 0 -0.16867480963807099 -0.044454202126391437 0 -0.16168786356676329 -0.050647770231156797 0 -0.17061358138154581 -0.056823329372135842 0 -0.18181002632751761 -0.067255394761466691 0 -0.17061358138154581 -0.056823329372135842 0 -0.18497458664295871 -0.047768779634858927 0 -0.16867480963807099 -0.044454202126391437 0 -0.17061358138154581 -0.056823329372135842 0 -0.18497458664295871 -0.047768779634858927 0 -0.18497458664295871 -0.047768779634858927 0 -0.17011317403146969 -0.02719980366347113 0 -0.16867480963807099 -0.044454202126391437 0 -0.18497458664295871 -0.047768779634858927 0 -0.17011317403146969 -0.02719980366347113 0 -0.18497458664295871 -0.047768779634858927 0 -0.17011317403146969 -0.02719980366347113 0 -0.18873477924047161 -0.031615139470404292 0 -0.17011317403146969 -0.02719980366347113 0 -0.18502959759474699 -0.01403208482855671 0 -0.18873477924047161 -0.031615139470404292 0 -0.17011317403146969 -0.02719980366347113 0 -0.17443687904826749 -0.01366756051430155 0 -0.18502959759474699 -0.01403208482855671 0 -0.17011317403146969 -0.02719980366347113 0 -0.18502959759474699 -0.01403208482855671 0 -0.17011317403146969 -0.02719980366347113 0 -0.1640968485285971 -0.018872893029884479 0 -0.16108297904496979 -0.02653834916366879 0 -0.17011317403146969 -0.02719980366347113 0 -0.1663089035663948 -0.01887015317310772 0 -0.1640968485285971 -0.018872893029884479 0 -0.17011317403146969 -0.02719980366347113 0 -0.1640968485285971 -0.018872893029884479 0 -0.17011317403146969 -0.02719980366347113 0 -0.16947768225951149 -0.016804030672178359 0 -0.1663089035663948 -0.01887015317310772 0 -0.17011317403146969 -0.02719980366347113 0 -0.16947768225951149 -0.016804030672178359 0 -0.17443687904826749 -0.01366756051430155 0 -0.16947768225951149 -0.016804030672178359 0 -0.1663089035663948 -0.01887015317310772 0 -0.1650724865946479 -0.01357231384674169 0 -0.1663089035663948 -0.01887015317310772 0 -0.1640968485285971 -0.018872893029884479 0 -0.1650724865946479 -0.01357231384674169 0 -0.1663089035663948 -0.01887015317310772 0 -0.1640968485285971 -0.018872893029884479 0 -0.15233690349450041 -0.026108808136787971 0 -0.1640968485285971 -0.018872893029884479 0 -0.16108297904496979 -0.02653834916366879 0 -0.15778499012531219 -0.033971891824531607 0 -0.17011317403146969 -0.02719980366347113 0 -0.16108297904496979 -0.02653834916366879 0 -0.15233690349450041 -0.026108808136787971 0 -0.15778499012531219 -0.033971891824531607 0 -0.16108297904496979 -0.02653834916366879 0 -0.1650724865946479 -0.01357231384674169 0 -0.1478113520156005 0.0036670898920004719 0 -0.16238195428484911 0.00099491061349847349 0 -0.1650724865946479 -0.01357231384674169 0 -0.1766678782998824 0.0049135031697342332 0 -0.1650724865946479 -0.01357231384674169 0 -0.16238195428484911 0.00099491061349847349 0 -0.1766678782998824 0.0049135031697342332 0 -0.1640968485285971 -0.018872893029884479 0 -0.1650724865946479 -0.01357231384674169 0 -0.1478113520156005 0.0036670898920004719 0 -0.16947768225951149 -0.016804030672178359 0 -0.1650724865946479 -0.01357231384674169 0 -0.17443687904826749 -0.01366756051430155 0 -0.1650724865946479 -0.01357231384674169 0 -0.17443687904826749 -0.01366756051430155 0 -0.1766678782998824 0.0049135031697342332 0 -0.17443687904826749 -0.01366756051430155 0 -0.18502959759474699 -0.01403208482855671 0 -0.1766678782998824 0.0049135031697342332 0 -0.18502959759474699 -0.01403208482855671 0 -0.1999460211580254 -0.0008643659936434997 0 -0.1766678782998824 0.0049135031697342332 0 -0.18502959759474699 -0.01403208482855671 0 -0.1999460211580254 -0.0008643659936434997 0 -0.21026692568186911 -0.022299658518587031 0 -0.18502959759474699 -0.01403208482855671 0 -0.1999460211580254 -0.0008643659936434997 0 -0.18502959759474699 -0.01403208482855671 0 -0.21026692568186911 -0.022299658518587031 0 -0.18873477924047161 -0.031615139470404292 0 -0.1999460211580254 -0.0008643659936434997 0 -0.21026692568186911 -0.022299658518587031 0 -0.1999460211580254 -0.0008643659936434997 0 -0.21026692568186911 -0.022299658518587031 0 -0.2158633959178336 0.002030983664689207 0 -0.21026692568186911 -0.022299658518587031 0 -0.22322791606248699 -0.0089317895540355161 0 -0.2158633959178336 0.002030983664689207 0 -0.1998359992544452 -0.068337755606248454 0 -0.18497458664295871 -0.047768779634858927 0 -0.1998359992544452 -0.068337755606248454 0 -0.18181002632751761 -0.067255394761466691 0 -0.18497458664295871 -0.047768779634858927 0 -0.1998359992544452 -0.068337755606248454 0 -0.18497458664295871 -0.047768779634858927 0 -0.20333697224837519 -0.046519834130278909 0 -0.21026692568186911 -0.022299658518587031 0 -0.18873477924047161 -0.031615139470404292 0 -0.20333697224837519 -0.046519834130278909 0 -0.18497458664295871 -0.047768779634858927 0 -0.18873477924047161 -0.031615139470404292 0 -0.20333697224837519 -0.046519834130278909 0 -0.21026692568186911 -0.022299658518587031 0 -0.22058783020571229 -0.043734951043530729 0 -0.21026692568186911 -0.022299658518587031 0 -0.20333697224837519 -0.046519834130278909 0 -0.22058783020571229 -0.043734951043530729 0 -0.215621712464794 -0.065362720508044037 0 -0.20333697224837519 -0.046519834130278909 0 -0.22058783020571229 -0.043734951043530729 0 -0.215621712464794 -0.065362720508044037 0 -0.1998359992544452 -0.068337755606248454 0 -0.20333697224837519 -0.046519834130278909 0 -0.23090873472955559 -0.065170243568474465 0 -0.22058783020571229 -0.043734951043530729 0 -0.23090873472955559 -0.065170243568474465 0 -0.215621712464794 -0.065362720508044037 0 -0.22058783020571229 -0.043734951043530729 0 -0.23090873472955559 -0.065170243568474465 0 -0.2326530841986677 -0.054814640526445607 0 -0.22058783020571229 -0.043734951043530729 0 -0.2326530841986677 -0.054814640526445607 0 -0.22058783020571229 -0.043734951043530729 0 -0.23550547687048229 -0.048013838590528213 0 -0.21026692568186911 -0.022299658518587031 0 -0.22058783020571229 -0.043734951043530729 0 -0.2318355919023726 -0.033473568435859573 0 -0.22058783020571229 -0.043734951043530729 0 -0.2318355919023726 -0.033473568435859573 0 -0.23550547687048229 -0.048013838590528213 0 -0.2318355919023726 -0.033473568435859573 0 -0.24599095072444799 -0.038073521713079039 0 -0.23550547687048229 -0.048013838590528213 0 -0.24599095072444799 -0.038073521713079039 0 -0.2436102949889207 -0.062339528903249043 0 -0.24599095072444799 -0.038073521713079039 0 -0.23550547687048229 -0.048013838590528213 0 -0.2436102949889207 -0.062339528903249043 0 -0.24599095072444799 -0.038073521713079039 0 -0.2436102949889207 -0.062339528903249043 0 -0.25718945655138831 -0.041727084825687148 0 -0.23090873472955559 -0.065170243568474465 0 -0.2326530841986677 -0.054814640526445607 0 -0.2436102949889207 -0.062339528903249043 0 -0.2326530841986677 -0.054814640526445607 0 -0.23550547687048229 -0.048013838590528213 0 -0.2436102949889207 -0.062339528903249043 0 -0.23225005416618269 -0.0083062808975522522 0 -0.22322791606248699 -0.0089317895540355161 0 -0.22913813401094399 -0.018843261653906561 0 -0.23225005416618269 -0.0083062808975522522 0 -0.22793668930812819 -0.0047197613802529934 0 -0.23309422595928669 0.0011992346924869579 0 -0.23225005416618269 -0.0083062808975522522 0 -0.22793668930812819 -0.0047197613802529934 0 -0.22322791606248699 -0.0089317895540355161 0 -0.22793668930812819 -0.0047197613802529934 0 -0.23309422595928669 0.0011992346924869579 0 -0.22545942808941941 0.0011867731409743499 0 -0.22322791606248699 -0.0089317895540355161 0 -0.2158633959178336 0.002030983664689207 0 -0.22545942808941941 0.0011867731409743499 0 -0.22793668930812819 -0.0047197613802529934 0 -0.22322791606248699 -0.0089317895540355161 0 -0.22545942808941941 0.0011867731409743499 0 -0.21026692568186911 -0.022299658518587031 0 -0.2318355919023726 -0.033473568435859573 0 -0.22913813401094399 -0.018843261653906561 0 -0.21026692568186911 -0.022299658518587031 0 -0.22322791606248699 -0.0089317895540355161 0 -0.22913813401094399 -0.018843261653906561 0 -0.2318355919023726 -0.033473568435859573 0 -0.22913813401094399 -0.018843261653906561 0 -0.24817998598297519 -0.018617846058952971 0 -0.2318355919023726 -0.033473568435859573 0 -0.24599095072444799 -0.038073521713079039 0 -0.24817998598297519 -0.018617846058952971 0 -0.23225005416618269 -0.0083062808975522522 0 -0.24817998598297519 -0.018617846058952971 0 -0.23309422595928669 0.0011992346924869579 0 -0.23225005416618269 -0.0083062808975522522 0 -0.22913813401094399 -0.018843261653906561 0 -0.24817998598297519 -0.018617846058952971 0 -0.24817998598297519 -0.018617846058952971 0 -0.23309422595928669 0.0011992346924869579 0 -0.24817998598297519 -0.018617846058952971 0 -0.25114912830535069 -0.0022126487976368531 0 -0.23309422595928669 0.0011992346924869579 0 -0.25114912830535069 -0.0022126487976368531 0 -0.26742150494006728 -0.011289779561496859 0 -0.26682331895658962 0.001345887892438911 0 -0.24817998598297519 -0.018617846058952971 0 -0.25114912830535069 -0.0022126487976368531 0 -0.26742150494006728 -0.011289779561496859 0 -0.24817998598297519 -0.018617846058952971 0 -0.26742150494006728 -0.011289779561496859 0 -0.26326574600666508 -0.038434926810391797 0 -0.24817998598297519 -0.018617846058952971 0 -0.26326574600666508 -0.038434926810391797 0 -0.28078867165237659 -0.025350851935771461 0 -0.26742150494006728 -0.011289779561496859 0 -0.28596208239635862 -0.01115860501256874 0 -0.28078867165237659 -0.025350851935771461 0 -0.26742150494006728 -0.011289779561496859 0 -0.26326574600666508 -0.038434926810391797 0 -0.28596208239635862 -0.01115860501256874 0 -0.26682331895658962 0.001345887892438911 0 -0.26742150494006728 -0.011289779561496859 0 -0.28596208239635862 -0.01115860501256874 0 -0.26682331895658962 0.001345887892438911 0 -0.28596208239635862 -0.01115860501256874 0 -0.26682331895658962 0.001345887892438911 0 -0.28244569507833622 0.0078605449768432926 0 -0.26742150494006728 -0.011289779561496859 0 -0.26682331895658962 0.001345887892438911 0 -0.28596208239635862 -0.01115860501256874 0 -0.29632621678536419 0.0021582863934003741 0 -0.28244569507833622 0.0078605449768432926 0 -0.28596208239635862 -0.01115860501256874 0 -0.30073731071674259 -0.0089969866814155024 0 -0.29632621678536419 0.0021582863934003741 0 -0.28078867165237659 -0.025350851935771461 0 -0.28596208239635862 -0.01115860501256874 0 -0.30510084583612779 -0.023663097917575961 0 -0.28078867165237659 -0.025350851935771461 0 -0.30510084583612779 -0.023663097917575961 0 -0.28219317908266439 -0.042207850376823952 0 -0.28596208239635862 -0.01115860501256874 0 -0.30510084583612779 -0.023663097917575961 0 -0.30510084583612779 -0.023663097917575961 0 -0.31085254017460517 -0.011709505619533571 0 -0.31923499204651051 -0.019348829311230251 0 -0.30510084583612779 -0.023663097917575961 0 -0.31085254017460517 -0.011709505619533571 0 -0.30073731071674259 -0.0089969866814155024 0 -0.28596208239635862 -0.01115860501256874 0 -0.30510084583612779 -0.023663097917575961 0 -0.30073731071674259 -0.0089969866814155024 0 -0.31085254017460517 -0.011709505619533571 0 -0.3088215686169305 -0.00084196595563680425 0 -0.30073731071674259 -0.0089969866814155024 0 -0.3088215686169305 -0.00084196595563680425 0 -0.30073731071674259 -0.0089969866814155024 0 -0.29632621678536419 0.0021582863934003741 0 -0.30092378671980291 -0.046556446393590863 0 -0.30109503883156702 -0.063386260431196606 0 -0.31900074820984342 -0.056740450236625058 0 -0.30510084583612779 -0.023663097917575961 0 -0.30092378671980291 -0.046556446393590863 0 -0.32423960927589729 -0.036167590822582911 0 -0.30510084583612779 -0.023663097917575961 0 -0.30092378671980291 -0.046556446393590863 0 -0.28219317908266439 -0.042207850376823952 0 -0.30092378671980291 -0.046556446393590863 0 -0.28219317908266439 -0.042207850376823952 0 -0.27835150603035491 -0.058252007561830681 0 -0.30092378671980291 -0.046556446393590863 0 -0.27835150603035491 -0.058252007561830681 0 -0.30109503883156702 -0.063386260431196606 0 -0.27835150603035491 -0.058252007561830681 0 -0.26249085602040312 -0.054993840433769231 0 -0.26338058341780479 -0.070192694858447285 0 -0.27835150603035491 -0.058252007561830681 0 -0.26326574600666508 -0.038434926810391797 0 -0.26249085602040312 -0.054993840433769231 0 -0.27835150603035491 -0.058252007561830681 0 -0.26326574600666508 -0.038434926810391797 0 -0.28078867165237659 -0.025350851935771461 0 -0.28219317908266439 -0.042207850376823952 0 -0.26326574600666508 -0.038434926810391797 0 -0.28219317908266439 -0.042207850376823952 0 -0.27835150603035491 -0.058252007561830681 0 -0.26326574600666508 -0.038434926810391797 0 -0.24599095072444799 -0.038073521713079039 0 -0.25718945655138831 -0.041727084825687148 0 -0.26326574600666508 -0.038434926810391797 0 -0.24599095072444799 -0.038073521713079039 0 -0.24817998598297519 -0.018617846058952971 0 -0.26326574600666508 -0.038434926810391797 0 -0.25718945655138831 -0.041727084825687148 0 -0.26326574600666508 -0.038434926810391797 0 -0.26249085602040312 -0.054993840433769231 0 -0.25718945655138831 -0.041727084825687148 0 -0.26249085602040312 -0.054993840433769231 0 -0.2502669880958025 -0.066362488112489265 0 -0.25718945655138831 -0.041727084825687148 0 -0.2502669880958025 -0.066362488112489265 0 -0.2436102949889207 -0.062339528903249043 0 -0.25718945655138831 -0.041727084825687148 0 -0.2502669880958025 -0.066362488112489265 0 -0.26249085602040312 -0.054993840433769231 0 -0.2502669880958025 -0.066362488112489265 0 -0.26338058341780479 -0.070192694858447285 0 -0.2502669880958025 -0.066362488112489265 0 -0.26338058341780479 -0.070192694858447285 0 -0.25565770714726349 -0.080391890735027463 0 -0.24334451964021689 -0.090997891399291486 0 -0.25565770714726349 -0.080391890735027463 0 -0.25545611389698819 -0.090505063301739158 0 -0.25545611389698819 -0.090505063301739158 0 -0.26638095799785338 -0.084675402764239141 0 -0.26471126612214552 -0.09778585994279243 0 -0.26338058341780479 -0.070192694858447285 0 -0.25565770714726349 -0.080391890735027463 0 -0.26638095799785338 -0.084675402764239141 0 -0.25565770714726349 -0.080391890735027463 0 -0.25545611389698819 -0.090505063301739158 0 -0.26638095799785338 -0.084675402764239141 0 -0.26638095799785338 -0.084675402764239141 0 -0.27807401141109572 -0.075408936362668794 0 -0.28238561662785983 -0.09833247195837741 0 -0.26638095799785338 -0.084675402764239141 0 -0.26471126612214552 -0.09778585994279243 0 -0.28238561662785983 -0.09833247195837741 0 -0.27835150603035491 -0.058252007561830681 0 -0.26338058341780479 -0.070192694858447285 0 -0.27807401141109572 -0.075408936362668794 0 -0.26338058341780479 -0.070192694858447285 0 -0.26638095799785338 -0.084675402764239141 0 -0.27807401141109572 -0.075408936362668794 0 -0.25871012250113251 -0.122910423036896 0 -0.25102732107067499 -0.10695415721809361 0 -0.25871012250113251 -0.122910423036896 0 -0.25102732107067499 -0.10695415721809361 0 -0.26830632101735108 -0.1084622044715129 0 -0.25545611389698819 -0.090505063301739158 0 -0.25102732107067499 -0.10695415721809361 0 -0.26471126612214552 -0.09778585994279243 0 -0.25102732107067499 -0.10695415721809361 0 -0.26471126612214552 -0.09778585994279243 0 -0.26830632101735108 -0.1084622044715129 0 -0.26471126612214552 -0.09778585994279243 0 -0.26830632101735108 -0.1084622044715129 0 -0.28238561662785983 -0.09833247195837741 0 -0.26830632101735108 -0.1084622044715129 0 -0.28565424946888818 -0.11614278749889199 0 -0.28238561662785983 -0.09833247195837741 0 -0.25871012250113251 -0.122910423036896 0 -0.27058799316550269 -0.1203885468742588 0 -0.27606867758313341 -0.13122394115474201 0 -0.27058799316550269 -0.1203885468742588 0 -0.28565424946888818 -0.11614278749889199 0 -0.28643071777134282 -0.12736116296928571 0 -0.26830632101735108 -0.1084622044715129 0 -0.27058799316550269 -0.1203885468742588 0 -0.28565424946888818 -0.11614278749889199 0 -0.25871012250113251 -0.122910423036896 0 -0.26830632101735108 -0.1084622044715129 0 -0.27058799316550269 -0.1203885468742588 0 -0.28565424946888818 -0.11614278749889199 0 -0.28238561662785983 -0.09833247195837741 0 -0.30590745270925968 -0.1166624825975639 0 -0.29577696181346058 -0.1243832664108752 0 -0.28565424946888818 -0.11614278749889199 0 -0.30590745270925968 -0.1166624825975639 0 -0.29577696181346058 -0.1243832664108752 0 -0.28565424946888818 -0.11614278749889199 0 -0.28643071777134282 -0.12736116296928571 0 -0.28238561662785983 -0.09833247195837741 0 -0.30590745270925968 -0.1166624825975639 0 -0.28238561662785983 -0.09833247195837741 0 -0.29752469797435771 -0.097780960948052442 0 -0.30590745270925968 -0.1166624825975639 0 -0.29752469797435771 -0.097780960948052442 0 -0.30740841945813052 -0.10226319777341809 0 -0.30590745270925968 -0.1166624825975639 0 -0.29752469797435771 -0.097780960948052442 0 -0.30852302607773419 -0.097886169064708789 0 -0.30740841945813052 -0.10226319777341809 0 -0.30852302607773419 -0.097886169064708789 0 -0.30740841945813052 -0.10226319777341809 0 -0.30852302607773419 -0.097886169064708789 0 -0.30740841945813052 -0.10226319777341809 0 -0.31947491445236159 -0.1122728791780809 0 -0.30740841945813052 -0.10226319777341809 0 -0.30590745270925968 -0.1166624825975639 0 -0.31947491445236159 -0.1122728791780809 0 -0.29577696181346058 -0.1243832664108752 0 -0.30590745270925968 -0.1166624825975639 0 -0.30350972094404288 -0.12766746588786901 0 -0.27835150603035491 -0.058252007561830681 0 -0.29343726605404469 -0.078069088313269544 0 -0.27835150603035491 -0.058252007561830681 0 -0.29343726605404469 -0.078069088313269544 0 -0.30109503883156702 -0.063386260431196606 0 -0.27835150603035491 -0.058252007561830681 0 -0.27807401141109572 -0.075408936362668794 0 -0.29343726605404469 -0.078069088313269544 0 -0.27807401141109572 -0.075408936362668794 0 -0.28238561662785983 -0.09833247195837741 0 -0.29343726605404469 -0.078069088313269544 0 -0.28238561662785983 -0.09833247195837741 0 -0.29752469797435771 -0.097780960948052442 0 -0.29343726605404469 -0.078069088313269544 0 -0.30852302607773419 -0.097886169064708789 0 -0.31376188714378861 -0.077313309650666906 0 -0.30852302607773419 -0.097886169064708789 0 -0.29343726605404469 -0.078069088313269544 0 -0.30852302607773419 -0.097886169064708789 0 -0.29343726605404469 -0.078069088313269544 0 -0.31376188714378861 -0.077313309650666906 0 -0.29752469797435771 -0.097780960948052442 0 -0.30852302607773419 -0.097886169064708789 0 -0.29343726605404469 -0.078069088313269544 0 -0.30109503883156702 -0.063386260431196606 0 -0.31376188714378861 -0.077313309650666906 0 -0.31900074820984342 -0.056740450236625058 0 -0.29343726605404469 -0.078069088313269544 0 -0.30109503883156702 -0.063386260431196606 0 -0.31376188714378861 -0.077313309650666906 0 -0.31376188714378861 -0.077313309650666906 0 -0.32893519675815158 -0.070223714521841799 0 -0.31900074820984342 -0.056740450236625058 0 -0.31376188714378861 -0.077313309650666906 0 -0.31900074820984342 -0.056740450236625058 0 -0.30852302607773419 -0.097886169064708789 0 -0.31376188714378861 -0.077313309650666906 0 -0.32730351476232478 -0.091703856471348738 0 -0.31376188714378861 -0.077313309650666906 0 -0.32730351476232478 -0.091703856471348738 0 -0.32893519675815158 -0.070223714521841799 0 -0.32730351476232478 -0.091703856471348738 0 -0.34149795746007972 -0.081299306031557023 0 -0.32893519675815158 -0.070223714521841799 0 -0.32730351476232478 -0.091703856471348738 0 -0.34149795746007972 -0.081299306031557023 0 -0.34611776440841913 -0.1038766949440022 0 -0.34149795746007972 -0.081299306031557023 0 -0.32893519675815158 -0.070223714521841799 0 -0.34876762447254378 -0.052193202558974153 0 -0.30590745270925968 -0.1166624825975639 0 -0.31947491445236159 -0.1122728791780809 0 -0.330426802826989 -0.12665958929145321 0 -0.31947491445236159 -0.1122728791780809 0 -0.33076484674199791 -0.1238356816866817 0 -0.330426802826989 -0.12665958929145321 0 -0.31947491445236159 -0.1122728791780809 0 -0.330426802826989 -0.12665958929145321 0 -0.31947491445236159 -0.1122728791780809 0 -0.3333949958946017 -0.10997444932505809 0 -0.33076484674199791 -0.1238356816866817 0 -0.30852302607773419 -0.097886169064708789 0 -0.32730351476232478 -0.091703856471348738 0 -0.31974767428239348 -0.10177140328914509 0 -0.32730351476232478 -0.091703856471348738 0 -0.31974767428239348 -0.10177140328914509 0 -0.3333949958946017 -0.10997444932505809 0 -0.31947491445236159 -0.1122728791780809 0 -0.31974767428239348 -0.10177140328914509 0 -0.3333949958946017 -0.10997444932505809 0 -0.30852302607773419 -0.097886169064708789 0 -0.31947491445236159 -0.1122728791780809 0 -0.30852302607773419 -0.097886169064708789 0 -0.31947491445236159 -0.1122728791780809 0 -0.31974767428239348 -0.10177140328914509 0 -0.32730351476232478 -0.091703856471348738 0 -0.3333949958946017 -0.10997444932505809 0 -0.34611776440841913 -0.1038766949440022 0 -0.3333949958946017 -0.10997444932505809 0 -0.34019257557063931 -0.1248441905996782 0 -0.34611776440841913 -0.1038766949440022 0 -0.3333949958946017 -0.10997444932505809 0 -0.34019257557063931 -0.1248441905996782 0 -0.33076484674199791 -0.1238356816866817 0 -0.34611776440841913 -0.1038766949440022 0 -0.36874501904363172 -0.1088847508547639 0 -0.35073757135675843 -0.12645408385644741 0 -0.34019257557063931 -0.1248441905996782 0 -0.34611776440841913 -0.1038766949440022 0 -0.35073757135675843 -0.12645408385644741 0 -0.34611776440841913 -0.1038766949440022 0 -0.35073757135675843 -0.12645408385644741 0 -0.34611776440841913 -0.1038766949440022 0 -0.36874501904363172 -0.1088847508547639 0 -0.36300509015345789 -0.089194689121110254 0 -0.36874501904363172 -0.1088847508547639 0 -0.36300509015345789 -0.089194689121110254 0 -0.37948380054151648 -0.090354373946280764 0 -0.36874501904363172 -0.1088847508547639 0 -0.35073757135675843 -0.12645408385644741 0 -0.36802621893478438 -0.12757518991496711 0 -0.36874501904363172 -0.1088847508547639 0 -0.36802621893478438 -0.12757518991496711 0 -0.38164450906837127 -0.1191085755790162 0 -0.34149795746007972 -0.081299306031557023 0 -0.36300509015345789 -0.089194689121110254 0 -0.3732956396691906 -0.068218814295365166 0 -0.34149795746007972 -0.081299306031557023 0 -0.3732956396691906 -0.068218814295365166 0 -0.34876762447254378 -0.052193202558974153 0 -0.34149795746007972 -0.081299306031557023 0 -0.34611776440841913 -0.1038766949440022 0 -0.34149795746007972 -0.081299306031557023 0 -0.34611776440841913 -0.1038766949440022 0 -0.36300509015345789 -0.089194689121110254 0 -0.36300509015345789 -0.089194689121110254 0 -0.3732956396691906 -0.068218814295365166 0 -0.37948380054151648 -0.090354373946280764 0 -0.36850034065987092 -0.053466438713200913 0 -0.36675272518807361 -0.04017924770489413 0 -0.38518537330967539 -0.053274490293570183 0 -0.36850034065987092 -0.053466438713200913 0 -0.34876762447254378 -0.052193202558974153 0 -0.36675272518807361 -0.04017924770489413 0 -0.3732956396691906 -0.068218814295365166 0 -0.36850034065987092 -0.053466438713200913 0 -0.34876762447254378 -0.052193202558974153 0 -0.3732956396691906 -0.068218814295365166 0 -0.34876762447254378 -0.052193202558974153 0 -0.36675272518807361 -0.04017924770489413 0 -0.34832007706647161 -0.02708400511621804 0 -0.34876762447254378 -0.052193202558974153 0 -0.36675272518807361 -0.04017924770489413 0 -0.34832007706647161 -0.02708400511621804 0 -0.36675272518807361 -0.04017924770489413 0 -0.36560563774742988 -0.02348891341087846 0 -0.38765376264265028 -0.030122061418197951 0 -0.36675272518807361 -0.04017924770489413 0 -0.36560563774742988 -0.02348891341087846 0 -0.34832007706647161 -0.02708400511621804 0 -0.36560563774742988 -0.02348891341087846 0 -0.37332402151530453 -0.0096834815976801041 0 -0.35197760232464981 -0.010375771217402069 0 -0.37332402151530453 -0.0096834815976801041 0 -0.35197760232464981 -0.010375771217402069 0 -0.37332402151530453 -0.0096834815976801041 0 -0.3849678467495386 0.0057315818628459001 0 -0.36464433621872222 0.0013726878568638089 0 -0.37332402151530453 -0.0096834815976801041 0 -0.35197760232464981 -0.010375771217402069 0 -0.36464433621872222 0.0013726878568638089 0 -0.35197760232464981 -0.010375771217402069 0 -0.35089552967461862 0.0057931589148030593 0 -0.36464433621872222 0.0013726878568638089 0 -0.35197760232464981 -0.010375771217402069 0 -0.3423434733408578 -0.001855469033100359 0 -0.35089552967461862 0.0057931589148030593 0 -0.36560563774742988 -0.02348891341087846 0 -0.35197760232464981 -0.010375771217402069 0 -0.34832007706647161 -0.02708400511621804 0 -0.34832007706647161 -0.02708400511621804 0 -0.3298874289448695 -0.01398876252754191 0 -0.34832007706647161 -0.02708400511621804 0 -0.3298874289448695 -0.01398876252754191 0 -0.32423960927589729 -0.036167590822582911 0 -0.35197760232464981 -0.010375771217402069 0 -0.34832007706647161 -0.02708400511621804 0 -0.3298874289448695 -0.01398876252754191 0 -0.35197760232464981 -0.010375771217402069 0 -0.3423434733408578 -0.001855469033100359 0 -0.33063118313399498 -0.011068060837124071 0 -0.3423434733408578 -0.001855469033100359 0 -0.33063118313399498 -0.011068060837124071 0 -0.33505973994421512 0.0063227566545038666 0 -0.33063118313399498 -0.011068060837124071 0 -0.3262003725427734 -0.0030272638754478532 0 -0.33505973994421512 0.0063227566545038666 0 -0.33063118313399498 -0.011068060837124071 0 -0.33505973994421512 0.0063227566545038666 0 -0.35197760232464981 -0.010375771217402069 0 -0.33063118313399498 -0.011068060837124071 0 -0.35197760232464981 -0.010375771217402069 0 -0.3298874289448695 -0.01398876252754191 0 -0.33063118313399498 -0.011068060837124071 0 -0.3298874289448695 -0.01398876252754191 0 -0.33063118313399498 -0.011068060837124071 0 -0.32609715715495979 -0.01129601169551607 0 -0.3298874289448695 -0.01398876252754191 0 -0.33063118313399498 -0.011068060837124071 0 -0.33063118313399498 -0.011068060837124071 0 -0.32609715715495979 -0.01129601169551607 0 -0.3262003725427734 -0.0030272638754478532 0 -0.31851201697687009 -0.0041517033381760788 0 -0.32093263343843881 0.006435119975568936 0 -0.3262003725427734 -0.0030272638754478532 0 -0.32609715715495979 -0.01129601169551607 0 -0.31851201697687009 -0.0041517033381760788 0 -0.3298874289448695 -0.01398876252754191 0 -0.32609715715495979 -0.01129601169551607 0 -0.31923499204651051 -0.019348829311230251 0 -0.33063118313399498 -0.011068060837124071 0 -0.3262003725427734 -0.0030272638754478532 0 -0.32609715715495979 -0.01129601169551607 0 -0.3298874289448695 -0.01398876252754191 0 -0.32609715715495979 -0.01129601169551607 0 -0.31085254017460517 -0.011709505619533571 0 -0.32609715715495979 -0.01129601169551607 0 -0.31085254017460517 -0.011709505619533571 0 -0.32609715715495979 -0.01129601169551607 0 -0.31851201697687009 -0.0041517033381760788 0 -0.31085254017460517 -0.011709505619533571 0 -0.32609715715495979 -0.01129601169551607 0 -0.31923499204651051 -0.019348829311230251 0 -0.31085254017460517 -0.011709505619533571 0 -0.3088215686169305 -0.00084196595563680425 0 -0.31851201697687009 -0.0041517033381760788 0 -0.30510084583612779 -0.023663097917575961 0 -0.31923499204651051 -0.019348829311230251 0 -0.32423960927589729 -0.036167590822582911 0 -0.3298874289448695 -0.01398876252754191 0 -0.32423960927589729 -0.036167590822582911 0 -0.30510084583612779 -0.023663097917575961 0 -0.32423960927589729 -0.036167590822582911 0 -0.3298874289448695 -0.01398876252754191 0 -0.31923499204651051 -0.019348829311230251 0 -0.32423960927589729 -0.036167590822582911 0 -0.30092378671980291 -0.046556446393590863 0 -0.32423960927589729 -0.036167590822582911 0 -0.31900074820984342 -0.056740450236625058 0 -0.32423960927589729 -0.036167590822582911 0 -0.31900074820984342 -0.056740450236625058 0 -0.32893519675815158 -0.070223714521841799 0 -0.34876762447254378 -0.052193202558974153 0 -0.31900074820984342 -0.056740450236625058 0 -0.34876762447254378 -0.052193202558974153 0 -0.32423960927589729 -0.036167590822582911 0 -0.31900074820984342 -0.056740450236625058 0 -0.34876762447254378 -0.052193202558974153 0 -0.32423960927589729 -0.036167590822582911 0 -0.34876762447254378 -0.052193202558974153 0 -0.34832007706647161 -0.02708400511621804 0 -0.32423960927589729 -0.036167590822582911 0 -0.29925791627839948 -0.25550812927738697 0 -0.30172617284638442 -0.23437525582011251 0 -0.30842486067350899 -0.24586822180226139 0 -0.30172617284638442 -0.23437525582011251 0 -0.30842486067350899 -0.24586822180226139 0 -0.32265809890951502 -0.23818906000155329 0 -0.30172617284638442 -0.23437525582011251 0 -0.31221685660974241 -0.2207426876322352 0 -0.29214467537770478 -0.22210415888031551 0 -0.30172617284638442 -0.23437525582011251 0 -0.31221685660974241 -0.2207426876322352 0 -0.32265809890951502 -0.23818906000155329 0 -0.30172617284638442 -0.23437525582011251 0 -0.29214467537770478 -0.22210415888031551 0 -0.28046610885590512 -0.23353841045358631 0 -0.29214467537770478 -0.22210415888031551 0 -0.28046610885590512 -0.23353841045358631 0 -0.28109346675878999 -0.2170577214441296 0 -0.29925791627839948 -0.25550812927738697 0 -0.28046610885590512 -0.23353841045358631 0 -0.29925791627839948 -0.25550812927738697 0 -0.30172617284638442 -0.23437525582011251 0 -0.28046610885590512 -0.23353841045358631 0 -0.29925791627839948 -0.25550812927738697 0 -0.28173801187466568 -0.24513199956249379 0 -0.28046610885590512 -0.23353841045358631 0 -0.276108368723049 -0.25119336247152468 0 -0.25738773104086299 -0.24770408537603711 0 -0.276108368723049 -0.25119336247152468 0 -0.28173801187466568 -0.24513199956249379 0 -0.27173546689208961 -0.2435030800796131 0 -0.276108368723049 -0.25119336247152468 0 -0.27173546689208961 -0.2435030800796131 0 -0.25738773104086299 -0.24770408537603711 0 -0.276108368723049 -0.25119336247152468 0 -0.27173546689208961 -0.2435030800796131 0 -0.28173801187466568 -0.24513199956249379 0 -0.27173546689208961 -0.2435030800796131 0 -0.28046610885590512 -0.23353841045358631 0 -0.27173546689208961 -0.2435030800796131 0 -0.26571405306079771 -0.23037050512725091 0 -0.28046610885590512 -0.23353841045358631 0 -0.27173546689208961 -0.2435030800796131 0 -0.26315400461177629 -0.2404921239147261 0 -0.26571405306079771 -0.23037050512725091 0 -0.27173546689208961 -0.2435030800796131 0 -0.26315400461177629 -0.2404921239147261 0 -0.25738773104086299 -0.24770408537603711 0 -0.26315400461177629 -0.2404921239147261 0 -0.25785426210095302 -0.2406924108491536 0 -0.25738773104086299 -0.24770408537603711 0 -0.26315400461177629 -0.2404921239147261 0 -0.26009668843157741 -0.2345210642195949 0 -0.26571405306079771 -0.23037050512725091 0 -0.26315400461177629 -0.2404921239147261 0 -0.26009668843157741 -0.2345210642195949 0 -0.25785426210095302 -0.2406924108491536 0 -0.26009668843157741 -0.2345210642195949 0 -0.25785426210095302 -0.2406924108491536 0 -0.25181609248119308 -0.23864392380118471 0 -0.25785426210095302 -0.2406924108491536 0 -0.25181609248119308 -0.23864392380118471 0 -0.25738773104086299 -0.24770408537603711 0 -0.26009668843157741 -0.2345210642195949 0 -0.25181609248119308 -0.23864392380118471 0 -0.25715774814003051 -0.2185996604661963 0 -0.26571405306079771 -0.23037050512725091 0 -0.26167430143340692 -0.21156869162978861 0 -0.25715774814003051 -0.2185996604661963 0 -0.26009668843157741 -0.2345210642195949 0 -0.26571405306079771 -0.23037050512725091 0 -0.25715774814003051 -0.2185996604661963 0 -0.2412242898946538 -0.23767263498224031 0 -0.25181609248119308 -0.23864392380118471 0 -0.25715774814003051 -0.2185996604661963 0 -0.2412242898946538 -0.23767263498224031 0 -0.25357822299882021 -0.2145799924567329 0 -0.25715774814003051 -0.2185996604661963 0 -0.28046610885590512 -0.23353841045358631 0 -0.28109346675878999 -0.2170577214441296 0 -0.27179532307323617 -0.21392682260316889 0 -0.28046610885590512 -0.23353841045358631 0 -0.26167430143340692 -0.21156869162978861 0 -0.26571405306079771 -0.23037050512725091 0 -0.28046610885590512 -0.23353841045358631 0 -0.26167430143340692 -0.21156869162978861 0 -0.28046610885590512 -0.23353841045358631 0 -0.27179532307323617 -0.21392682260316889 0 -0.26167430143340692 -0.21156869162978861 0 -0.28109346675878999 -0.2170577214441296 0 -0.27658332766294658 -0.20852235176225489 0 -0.27179532307323617 -0.21392682260316889 0 -0.27658332766294658 -0.20852235176225489 0 -0.27657588712027331 -0.19971622980940729 0 -0.28619611658066552 -0.20697164667365289 0 -0.27658332766294658 -0.20852235176225489 0 -0.26725584478176778 -0.20493933828091579 0 -0.27657588712027331 -0.19971622980940729 0 -0.26725584478176778 -0.20493933828091579 0 -0.27179532307323617 -0.21392682260316889 0 -0.26343206513575579 -0.2079615399308519 0 -0.27658332766294658 -0.20852235176225489 0 -0.26725584478176778 -0.20493933828091579 0 -0.27179532307323617 -0.21392682260316889 0 -0.27179532307323617 -0.21392682260316889 0 -0.26167430143340692 -0.21156869162978861 0 -0.26343206513575579 -0.2079615399308519 0 -0.26725584478176778 -0.20493933828091579 0 -0.26343206513575579 -0.2079615399308519 0 -0.25794475037581421 -0.20641784239937491 0 -0.26167430143340692 -0.21156869162978861 0 -0.26343206513575579 -0.2079615399308519 0 -0.25794475037581421 -0.20641784239937491 0 -0.25794475037581421 -0.20641784239937491 0 -0.25357822299882021 -0.2145799924567329 0 -0.25794475037581421 -0.20641784239937491 0 -0.25357822299882021 -0.2145799924567329 0 -0.25065570017860628 -0.2018435148472334 0 -0.26167430143340692 -0.21156869162978861 0 -0.25794475037581421 -0.20641784239937491 0 -0.25357822299882021 -0.2145799924567329 0 -0.26167430143340692 -0.21156869162978861 0 -0.25357822299882021 -0.2145799924567329 0 -0.25715774814003051 -0.2185996604661963 0 -0.25357822299882021 -0.2145799924567329 0 -0.25715774814003051 -0.2185996604661963 0 -0.25794475037581421 -0.20641784239937491 0 -0.25434815389130438 -0.19048087867398239 0 -0.25065570017860628 -0.2018435148472334 0 -0.25794475037581421 -0.20641784239937491 0 -0.26918767008636491 -0.18643629725623909 0 -0.25794475037581421 -0.20641784239937491 0 -0.25434815389130438 -0.19048087867398239 0 -0.26918767008636491 -0.18643629725623909 0 -0.26725584478176778 -0.20493933828091579 0 -0.25794475037581421 -0.20641784239937491 0 -0.26918767008636491 -0.18643629725623909 0 -0.27657588712027331 -0.19971622980940729 0 -0.28980340246563402 -0.18748747149803821 0 -0.26918767008636491 -0.18643629725623909 0 -0.26725584478176778 -0.20493933828091579 0 -0.27657588712027331 -0.19971622980940729 0 -0.26918767008636491 -0.18643629725623909 0 -0.28619611658066552 -0.20697164667365289 0 -0.30000823881251237 -0.20868170420886081 0 -0.28980340246563402 -0.18748747149803821 0 -0.27657588712027331 -0.19971622980940729 0 -0.28619611658066552 -0.20697164667365289 0 -0.28980340246563402 -0.18748747149803821 0 -0.30000823881251237 -0.20868170420886081 0 -0.28980340246563402 -0.18748747149803821 0 -0.28109346675878999 -0.2170577214441296 0 -0.27658332766294658 -0.20852235176225489 0 -0.28619611658066552 -0.20697164667365289 0 -0.29214467537770478 -0.22210415888031551 0 -0.28109346675878999 -0.2170577214441296 0 -0.28619611658066552 -0.20697164667365289 0 -0.29214467537770478 -0.22210415888031551 0 -0.28619611658066552 -0.20697164667365289 0 -0.30000823881251237 -0.20868170420886081 0 -0.31221685660974241 -0.2207426876322352 0 -0.30000823881251237 -0.20868170420886081 0 -0.32127963835027989 -0.20307199070155979 0 -0.31221685660974241 -0.2207426876322352 0 -0.29214467537770478 -0.22210415888031551 0 -0.30000823881251237 -0.20868170420886081 0 -0.30000823881251237 -0.20868170420886081 0 -0.30854380482091093 -0.18828693643285871 0 -0.32127963835027989 -0.20307199070155979 0 -0.30000823881251237 -0.20868170420886081 0 -0.30854380482091093 -0.18828693643285871 0 -0.28980340246563402 -0.18748747149803821 0 -0.30854380482091093 -0.18828693643285871 0 -0.30220483087038452 -0.17287649719147691 0 -0.28980340246563402 -0.18748747149803821 0 -0.30854380482091093 -0.18828693643285871 0 -0.30220483087038452 -0.17287649719147691 0 -0.31276320977760158 -0.17689453315808101 0 -0.30220483087038452 -0.17287649719147691 0 -0.31648367825217 -0.16456844048460459 0 -0.31276320977760158 -0.17689453315808101 0 -0.30220483087038452 -0.17287649719147691 0 -0.306487869095387 -0.15761881602726621 0 -0.31648367825217 -0.16456844048460459 0 -0.30220483087038452 -0.17287649719147691 0 -0.306487869095387 -0.15761881602726621 0 -0.29601943662225821 -0.15980906046478141 0 -0.30220483087038452 -0.17287649719147691 0 -0.29601943662225821 -0.15980906046478141 0 -0.27959856611875578 -0.16629323878721561 0 -0.30220483087038452 -0.17287649719147691 0 -0.28980340246563402 -0.18748747149803821 0 -0.27959856611875578 -0.16629323878721561 0 -0.28980340246563402 -0.18748747149803821 0 -0.27959856611875578 -0.16629323878721561 0 -0.28980340246563402 -0.18748747149803821 0 -0.26918767008636491 -0.18643629725623909 0 -0.27959856611875578 -0.16629323878721561 0 -0.26918767008636491 -0.18643629725623909 0 -0.27959856611875578 -0.16629323878721561 0 -0.26918767008636491 -0.18643629725623909 0 -0.26356317888903952 -0.17520548413250411 0 -0.27959856611875578 -0.16629323878721561 0 -0.25434815389130438 -0.19048087867398239 0 -0.26356317888903952 -0.17520548413250411 0 -0.25292021470595449 -0.1715803686305428 0 -0.25434815389130438 -0.19048087867398239 0 -0.26918767008636491 -0.18643629725623909 0 -0.26356317888903952 -0.17520548413250411 0 -0.25035242760228532 -0.16059419505029951 0 -0.26176128964281831 -0.1612366373145406 0 -0.253675320056164 -0.15018434449616591 0 -0.25035242760228532 -0.16059419505029951 0 -0.25292021470595449 -0.1715803686305428 0 -0.26176128964281831 -0.1612366373145406 0 -0.26356317888903952 -0.17520548413250411 0 -0.25292021470595449 -0.1715803686305428 0 -0.26176128964281831 -0.1612366373145406 0 -0.26356317888903952 -0.17520548413250411 0 -0.26176128964281831 -0.1612366373145406 0 -0.27959856611875578 -0.16629323878721561 0 -0.26176128964281831 -0.1612366373145406 0 -0.27959856611875578 -0.16629323878721561 0 -0.26915434430994428 -0.14460183091205581 0 -0.27959856611875578 -0.16629323878721561 0 -0.26915434430994428 -0.14460183091205581 0 -0.27959856611875578 -0.16629323878721561 0 -0.28007807628047038 -0.14456395002920769 0 -0.26915434430994428 -0.14460183091205581 0 -0.26176128964281831 -0.1612366373145406 0 -0.26915434430994428 -0.14460183091205581 0 -0.253675320056164 -0.15018434449616591 0 -0.26915434430994428 -0.14460183091205581 0 -0.253675320056164 -0.15018434449616591 0 -0.25528619988051138 -0.1356502328634677 0 -0.24363247600140231 -0.13878056891751939 0 -0.253675320056164 -0.15018434449616591 0 -0.25528619988051138 -0.1356502328634677 0 -0.25871012250113251 -0.122910423036896 0 -0.26915434430994428 -0.14460183091205581 0 -0.25528619988051138 -0.1356502328634677 0 -0.25871012250113251 -0.122910423036896 0 -0.26915434430994428 -0.14460183091205581 0 -0.24363247600140231 -0.13878056891751939 0 -0.25125873653391428 -0.12177399695470099 0 -0.25528619988051138 -0.1356502328634677 0 -0.25871012250113251 -0.122910423036896 0 -0.25125873653391428 -0.12177399695470099 0 -0.25528619988051138 -0.1356502328634677 0 -0.25871012250113251 -0.122910423036896 0 -0.26915434430994428 -0.14460183091205581 0 -0.27606867758313341 -0.13122394115474201 0 -0.25871012250113251 -0.122910423036896 0 -0.27606867758313341 -0.13122394115474201 0 -0.27058799316550269 -0.1203885468742588 0 -0.27606867758313341 -0.13122394115474201 0 -0.28643071777134282 -0.12736116296928571 0 -0.28007807628047038 -0.14456395002920769 0 -0.26915434430994428 -0.14460183091205581 0 -0.27606867758313341 -0.13122394115474201 0 -0.27606867758313341 -0.13122394115474201 0 -0.29342723266513449 -0.13953745927258751 0 -0.28007807628047038 -0.14456395002920769 0 -0.27606867758313341 -0.13122394115474201 0 -0.29342723266513449 -0.13953745927258751 0 -0.27606867758313341 -0.13122394115474201 0 -0.28643071777134282 -0.12736116296928571 0 -0.29342723266513449 -0.13953745927258751 0 -0.29577696181346058 -0.1243832664108752 0 -0.28643071777134282 -0.12736116296928571 0 -0.29706919193193793 -0.13249097660435871 0 -0.28643071777134282 -0.12736116296928571 0 -0.29342723266513449 -0.13953745927258751 0 -0.29706919193193793 -0.13249097660435871 0 -0.29342723266513449 -0.13953745927258751 0 -0.29706919193193793 -0.13249097660435871 0 -0.29601943662225821 -0.15980906046478141 0 -0.27959856611875578 -0.16629323878721561 0 -0.29342723266513449 -0.13953745927258751 0 -0.27959856611875578 -0.16629323878721561 0 -0.29342723266513449 -0.13953745927258751 0 -0.27959856611875578 -0.16629323878721561 0 -0.28007807628047038 -0.14456395002920769 0 -0.29342723266513449 -0.13953745927258751 0 -0.29342723266513449 -0.13953745927258751 0 -0.30711540439607732 -0.1368540443677134 0 -0.31544114065210682 -0.15008056162354519 0 -0.306487869095387 -0.15761881602726621 0 -0.29601943662225821 -0.15980906046478141 0 -0.29342723266513449 -0.13953745927258751 0 -0.29342723266513449 -0.13953745927258751 0 -0.31544114065210682 -0.15008056162354519 0 -0.306487869095387 -0.15761881602726621 0 -0.29342723266513449 -0.13953745927258751 0 -0.31544114065210682 -0.15008056162354519 0 -0.30711540439607732 -0.1368540443677134 0 -0.30350972094404288 -0.12766746588786901 0 -0.31344176107713828 -0.13125125017573541 0 -0.30590745270925968 -0.1166624825975639 0 -0.30350972094404288 -0.12766746588786901 0 -0.31344176107713828 -0.13125125017573541 0 -0.29577696181346058 -0.1243832664108752 0 -0.30350972094404288 -0.12766746588786901 0 -0.29706919193193793 -0.13249097660435871 0 -0.30711540439607732 -0.1368540443677134 0 -0.30350972094404288 -0.12766746588786901 0 -0.29706919193193793 -0.13249097660435871 0 -0.29342723266513449 -0.13953745927258751 0 -0.30711540439607732 -0.1368540443677134 0 -0.29706919193193793 -0.13249097660435871 0 -0.30590745270925968 -0.1166624825975639 0 -0.32942928879065952 -0.13499249323675039 0 -0.31344176107713828 -0.13125125017573541 0 -0.31942708336313519 -0.14078981131242749 0 -0.32942928879065952 -0.13499249323675039 0 -0.30590745270925968 -0.1166624825975639 0 -0.32942928879065952 -0.13499249323675039 0 -0.330426802826989 -0.12665958929145321 0 -0.30590745270925968 -0.1166624825975639 0 -0.31344176107713828 -0.13125125017573541 0 -0.32942928879065952 -0.13499249323675039 0 -0.30711540439607732 -0.1368540443677134 0 -0.31344176107713828 -0.13125125017573541 0 -0.31942708336313519 -0.14078981131242749 0 -0.31942708336313519 -0.14078981131242749 0 -0.31544114065210682 -0.15008056162354519 0 -0.3263614119836018 -0.16062052634520779 0 -0.30711540439607732 -0.1368540443677134 0 -0.31942708336313519 -0.14078981131242749 0 -0.31544114065210682 -0.15008056162354519 0 -0.32942928879065952 -0.13499249323675039 0 -0.3263614119836018 -0.16062052634520779 0 -0.31942708336313519 -0.14078981131242749 0 -0.32942928879065952 -0.13499249323675039 0 -0.3263614119836018 -0.16062052634520779 0 -0.34930030342956259 -0.15145235312411201 0 -0.34747594751795657 -0.1490558276349834 0 -0.3263614119836018 -0.16062052634520779 0 -0.32942928879065952 -0.13499249323675039 0 -0.34747594751795657 -0.1490558276349834 0 -0.34930030342956259 -0.15145235312411201 0 -0.3263614119836018 -0.16062052634520779 0 -0.32942928879065952 -0.13499249323675039 0 -0.34747594751795657 -0.1490558276349834 0 -0.3263614119836018 -0.16062052634520779 0 -0.34019257557063931 -0.1248441905996782 0 -0.330426802826989 -0.12665958929145321 0 -0.34747594751795657 -0.1490558276349834 0 -0.32942928879065952 -0.13499249323675039 0 -0.330426802826989 -0.12665958929145321 0 -0.34747594751795657 -0.1490558276349834 0 -0.330426802826989 -0.12665958929145321 0 -0.34747594751795657 -0.1490558276349834 0 -0.32942928879065952 -0.13499249323675039 0 -0.330426802826989 -0.12665958929145321 0 -0.34019257557063931 -0.1248441905996782 0 -0.33076484674199791 -0.1238356816866817 0 -0.330426802826989 -0.12665958929145321 0 -0.33076484674199791 -0.1238356816866817 0 -0.330426802826989 -0.12665958929145321 0 -0.35073757135675843 -0.12645408385644741 0 -0.35535737830509512 -0.14903147276889331 0 -0.35073757135675843 -0.12645408385644741 0 -0.36802621893478438 -0.12757518991496711 0 -0.35535737830509512 -0.14903147276889331 0 -0.34019257557063931 -0.1248441905996782 0 -0.35073757135675843 -0.12645408385644741 0 -0.34747594751795657 -0.1490558276349834 0 -0.36802621893478438 -0.12757518991496711 0 -0.35535737830509512 -0.14903147276889331 0 -0.38225968392702703 -0.1382792095843462 0 -0.35535737830509512 -0.14903147276889331 0 -0.38225968392702703 -0.1382792095843462 0 -0.36964519268133439 -0.1547382598353409 0 -0.35535737830509512 -0.14903147276889331 0 -0.38225968392702703 -0.1382792095843462 0 -0.36964519268133439 -0.1547382598353409 0 -0.35535737830509512 -0.14903147276889331 0 -0.35685846273803662 -0.15636739987837359 0 -0.35073757135675843 -0.12645408385644741 0 -0.35535737830509512 -0.14903147276889331 0 -0.34747594751795657 -0.1490558276349834 0 -0.34930030342956259 -0.15145235312411201 0 -0.35759851636241369 -0.15998410479276789 0 -0.35685846273803662 -0.15636739987837359 0 -0.35535737830509512 -0.14903147276889331 0 -0.35685846273803662 -0.15636739987837359 0 -0.35535737830509512 -0.14903147276889331 0 -0.34930030342956259 -0.15145235312411201 0 -0.35685846273803662 -0.15636739987837359 0 -0.35535737830509512 -0.14903147276889331 0 -0.34930030342956259 -0.15145235312411201 0 -0.34930030342956259 -0.15145235312411201 0 -0.35685846273803662 -0.15636739987837359 0 -0.35535737830509512 -0.14903147276889331 0 -0.34930030342956259 -0.15145235312411201 0 -0.34747594751795657 -0.1490558276349834 0 -0.34930030342956259 -0.15145235312411201 0 -0.34747594751795657 -0.1490558276349834 0 -0.35388896918673718 -0.17017005271097069 0 -0.33726494486578668 -0.16102216305517081 0 -0.3509208011088979 -0.16127793083308969 0 -0.35388896918673718 -0.17017005271097069 0 -0.33726494486578668 -0.16102216305517081 0 -0.34930030342956259 -0.15145235312411201 0 -0.3509208011088979 -0.16127793083308969 0 -0.33726494486578668 -0.16102216305517081 0 -0.35388896918673718 -0.17017005271097069 0 -0.34255700736556582 -0.17149167150888911 0 -0.33726494486578668 -0.16102216305517081 0 -0.3509208011088979 -0.16127793083308969 0 -0.35388896918673718 -0.17017005271097069 0 -0.3599066484686243 -0.16538514774544211 0 -0.34930030342956259 -0.15145235312411201 0 -0.3599066484686243 -0.16538514774544211 0 -0.34930030342956259 -0.15145235312411201 0 -0.3509208011088979 -0.16127793083308969 0 -0.3599066484686243 -0.16538514774544211 0 -0.34930030342956259 -0.15145235312411201 0 -0.35759851636241369 -0.15998410479276789 0 -0.3599066484686243 -0.16538514774544211 0 -0.35759851636241369 -0.15998410479276789 0 -0.35685846273803662 -0.15636739987837359 0 -0.35685846273803662 -0.15636739987837359 0 -0.37338666146756938 -0.1692474343072557 0 -0.35759851636241369 -0.15998410479276789 0 -0.3599066484686243 -0.16538514774544211 0 -0.37338666146756938 -0.1692474343072557 0 -0.35388896918673718 -0.17017005271097069 0 -0.3599066484686243 -0.16538514774544211 0 -0.37051299350768752 -0.17931794236677109 0 -0.35759851636241369 -0.15998410479276789 0 -0.35685846273803662 -0.15636739987837359 0 -0.37338666146756938 -0.1692474343072557 0 -0.36964519268133439 -0.1547382598353409 0 -0.35685846273803662 -0.15636739987837359 0 -0.37338666146756938 -0.1692474343072557 0 -0.3599066484686243 -0.16538514774544211 0 -0.37338666146756938 -0.1692474343072557 0 -0.37051299350768752 -0.17931794236677109 0 -0.36964519268133439 -0.1547382598353409 0 -0.37338666146756938 -0.1692474343072557 0 -0.38055056521695479 -0.16005525465408571 0 -0.35388896918673718 -0.17017005271097069 0 -0.37051299350768752 -0.17931794236677109 0 -0.35815809253460679 -0.18131356288167449 0 -0.35388896918673718 -0.17017005271097069 0 -0.37051299350768752 -0.17931794236677109 0 -0.3599066484686243 -0.16538514774544211 0 -0.37051299350768752 -0.17931794236677109 0 -0.37051299350768752 -0.17931794236677109 0 -0.35815809253460679 -0.18131356288167449 0 -0.36378265375624891 -0.1883446135094006 0 -0.35815809253460679 -0.18131356288167449 0 -0.3538345340641047 -0.18977015258539359 0 -0.36378265375624891 -0.1883446135094006 0 -0.35815809253460679 -0.18131356288167449 0 -0.34877131215825569 -0.1789650532358365 0 -0.3538345340641047 -0.18977015258539359 0 -0.35388896918673718 -0.17017005271097069 0 -0.35815809253460679 -0.18131356288167449 0 -0.34877131215825569 -0.1789650532358365 0 -0.35388896918673718 -0.17017005271097069 0 -0.34877131215825569 -0.1789650532358365 0 -0.34255700736556582 -0.17149167150888911 0 -0.34877131215825569 -0.1789650532358365 0 -0.34162204312834388 -0.18583363480544979 0 -0.3538345340641047 -0.18977015258539359 0 -0.34877131215825569 -0.1789650532358365 0 -0.34162204312834388 -0.18583363480544979 0 -0.33926543083820487 -0.17706574391940591 0 -0.34162204312834388 -0.18583363480544979 0 -0.33926543083820487 -0.17706574391940591 0 -0.32382052516694099 -0.18184625852338379 0 -0.33926543083820487 -0.17706574391940591 0 -0.33359437977884432 -0.17023534462306161 0 -0.32382052516694099 -0.18184625852338379 0 -0.33926543083820487 -0.17706574391940591 0 -0.34255700736556582 -0.17149167150888911 0 -0.33359437977884432 -0.17023534462306161 0 -0.34877131215825569 -0.1789650532358365 0 -0.33926543083820487 -0.17706574391940591 0 -0.34255700736556582 -0.17149167150888911 0 -0.34930030342956259 -0.15145235312411201 0 -0.33726494486578668 -0.16102216305517081 0 -0.3263614119836018 -0.16062052634520779 0 -0.34255700736556582 -0.17149167150888911 0 -0.33726494486578668 -0.16102216305517081 0 -0.33359437977884432 -0.17023534462306161 0 -0.33726494486578668 -0.16102216305517081 0 -0.33359437977884432 -0.17023534462306161 0 -0.3263614119836018 -0.16062052634520779 0 -0.3263614119836018 -0.16062052634520779 0 -0.31648367825217 -0.16456844048460459 0 -0.32382052516694099 -0.18184625852338379 0 -0.3263614119836018 -0.16062052634520779 0 -0.32382052516694099 -0.18184625852338379 0 -0.33359437977884432 -0.17023534462306161 0 -0.3263614119836018 -0.16062052634520779 0 -0.32382052516694099 -0.18184625852338379 0 -0.3263614119836018 -0.16062052634520779 0 -0.31648367825217 -0.16456844048460459 0 -0.306487869095387 -0.15761881602726621 0 -0.31544114065210682 -0.15008056162354519 0 -0.31648367825217 -0.16456844048460459 0 -0.31544114065210682 -0.15008056162354519 0 -0.3263614119836018 -0.16062052634520779 0 -0.31648367825217 -0.16456844048460459 0 -0.31648367825217 -0.16456844048460459 0 -0.31276320977760158 -0.17689453315808101 0 -0.32382052516694099 -0.18184625852338379 0 -0.30854380482091093 -0.18828693643285871 0 -0.31276320977760158 -0.17689453315808101 0 -0.32382052516694099 -0.18184625852338379 0 -0.30854380482091093 -0.18828693643285871 0 -0.32382052516694099 -0.18184625852338379 0 -0.32127963835027989 -0.20307199070155979 0 -0.32382052516694099 -0.18184625852338379 0 -0.32127963835027989 -0.20307199070155979 0 -0.31221685660974241 -0.2207426876322352 0 -0.32127963835027989 -0.20307199070155979 0 -0.33181278150464377 -0.2182148195807406 0 -0.32127963835027989 -0.20307199070155979 0 -0.33181278150464377 -0.2182148195807406 0 -0.34096746409977258 -0.19824057915992779 0 -0.33181278150464377 -0.2182148195807406 0 -0.34096746409977258 -0.19824057915992779 0 -0.33181278150464377 -0.2182148195807406 0 -0.34096746409977258 -0.19824057915992779 0 -0.35132371159128573 -0.2073269237783984 0 -0.34162204312834388 -0.18583363480544979 0 -0.32382052516694099 -0.18184625852338379 0 -0.34096746409977258 -0.19824057915992779 0 -0.32382052516694099 -0.18184625852338379 0 -0.32127963835027989 -0.20307199070155979 0 -0.34096746409977258 -0.19824057915992779 0 -0.3538345340641047 -0.18977015258539359 0 -0.36436085646043759 -0.19946747855944211 0 -0.35132371159128573 -0.2073269237783984 0 -0.34162204312834388 -0.18583363480544979 0 -0.34096746409977258 -0.19824057915992779 0 -0.3538345340641047 -0.18977015258539359 0 -0.34096746409977258 -0.19824057915992779 0 -0.3538345340641047 -0.18977015258539359 0 -0.35132371159128573 -0.2073269237783984 0 -0.3538345340641047 -0.18977015258539359 0 -0.36378265375624891 -0.1883446135094006 0 -0.36436085646043759 -0.19946747855944211 0 -0.37051299350768752 -0.17931794236677109 0 -0.36378265375624891 -0.1883446135094006 0 -0.37240355699330602 -0.1951694473717287 0 -0.36378265375624891 -0.1883446135094006 0 -0.36436085646043759 -0.19946747855944211 0 -0.37240355699330602 -0.1951694473717287 0 -0.36436085646043759 -0.19946747855944211 0 -0.37240355699330602 -0.1951694473717287 0 -0.37514345331481108 -0.20779147196756359 0 -0.36436085646043759 -0.19946747855944211 0 -0.36355839850994381 -0.21524680881052319 0 -0.37514345331481108 -0.20779147196756359 0 -0.36436085646043759 -0.19946747855944211 0 -0.36355839850994381 -0.21524680881052319 0 -0.35132371159128573 -0.2073269237783984 0 -0.36355839850994381 -0.21524680881052319 0 -0.37585835522283312 -0.22319757681477759 0 -0.37514345331481108 -0.20779147196756359 0 -0.36355839850994381 -0.21524680881052319 0 -0.35132371159128573 -0.2073269237783984 0 -0.35079714119276473 -0.2224430292379965 0 -0.33181278150464377 -0.2182148195807406 0 -0.35132371159128573 -0.2073269237783984 0 -0.35079714119276473 -0.2224430292379965 0 -0.36355839850994381 -0.21524680881052319 0 -0.35079714119276473 -0.2224430292379965 0 -0.36287216427264812 -0.23144723916582469 0 -0.35079714119276473 -0.2224430292379965 0 -0.36287216427264812 -0.23144723916582469 0 -0.34337649059429648 -0.24020971280606371 0 -0.36355839850994381 -0.21524680881052319 0 -0.36287216427264812 -0.23144723916582469 0 -0.37585835522283312 -0.22319757681477759 0 -0.36287216427264812 -0.23144723916582469 0 -0.37960814320156072 -0.2418861910958299 0 -0.37585835522283312 -0.22319757681477759 0 -0.36287216427264812 -0.23144723916582469 0 -0.36403445691448949 -0.2457001162297571 0 -0.37960814320156072 -0.2418861910958299 0 -0.34380484447820958 -0.25252541284911428 0 -0.36403445691448949 -0.2457001162297571 0 -0.34337649059429648 -0.24020971280606371 0 -0.36287216427264812 -0.23144723916582469 0 -0.36403445691448949 -0.2457001162297571 0 -0.34337649059429648 -0.24020971280606371 0 -0.33047081334837819 -0.25193238763543391 0 -0.34380484447820958 -0.25252541284911428 0 -0.34337649059429648 -0.24020971280606371 0 -0.33047081334837819 -0.25193238763543391 0 -0.34337649059429648 -0.24020971280606371 0 -0.32265809890951502 -0.23818906000155329 0 -0.33181278150464377 -0.2182148195807406 0 -0.34337649059429648 -0.24020971280606371 0 -0.32265809890951502 -0.23818906000155329 0 -0.33181278150464377 -0.2182148195807406 0 -0.35079714119276473 -0.2224430292379965 0 -0.34337649059429648 -0.24020971280606371 0 -0.33181278150464377 -0.2182148195807406 0 -0.32265809890951502 -0.23818906000155329 0 -0.31221685660974241 -0.2207426876322352 0 -0.33181278150464377 -0.2182148195807406 0 -0.32265809890951502 -0.23818906000155329 0 -0.31350341631438661 -0.25816330042236629 0 -0.32265809890951502 -0.23818906000155329 0 -0.31350341631438661 -0.25816330042236629 0 -0.33047081334837819 -0.25193238763543391 0 -0.32265809890951502 -0.23818906000155329 0 -0.31350341631438661 -0.25816330042236629 0 -0.30842486067350899 -0.24586822180226139 0 -0.32265809890951502 -0.23818906000155329 0 -0.4282780700945289 -0.23663035525666359 0 -0.41775276946165912 -0.24137344724618351 0 -0.42090408341722951 -0.2455131023270429 0 -0.4282780700945289 -0.23663035525666359 0 -0.43250485100393199 -0.2476413254954328 0 -0.42090408341722951 -0.2455131023270429 0 -0.4282780700945289 -0.23663035525666359 0 -0.43250485100393199 -0.2476413254954328 0 -0.43982253135270077 -0.23656486257089801 0 -0.4282780700945289 -0.23663035525666359 0 -0.44013275466843133 -0.22197751492840029 0 -0.43982253135270077 -0.23656486257089801 0 -0.4282780700945289 -0.23663035525666359 0 -0.42585342004615379 -0.22098145484582349 0 -0.44013275466843133 -0.22197751492840029 0 -0.4282780700945289 -0.23663035525666359 0 -0.42585342004615379 -0.22098145484582349 0 -0.41775276946165912 -0.24137344724618351 0 -0.42585342004615379 -0.22098145484582349 0 -0.41775276946165912 -0.24137344724618351 0 -0.4020061774770014 -0.22068827895304641 0 -0.42585342004615379 -0.22098145484582349 0 -0.41775276946165912 -0.24137344724618351 0 -0.41775276946165912 -0.24137344724618351 0 -0.4020061774770014 -0.22068827895304641 0 -0.41775276946165912 -0.24137344724618351 0 -0.40472509977870358 -0.24397221773524561 0 -0.4020061774770014 -0.22068827895304641 0 -0.41105447658868399 -0.25823524568278777 0 -0.41775276946165912 -0.24137344724618351 0 -0.42090408341722951 -0.2455131023270429 0 -0.41105447658868399 -0.25823524568278777 0 -0.41775276946165912 -0.24137344724618351 0 -0.41105447658868399 -0.25823524568278777 0 -0.41775276946165912 -0.24137344724618351 0 -0.40472509977870358 -0.24397221773524561 0 -0.41775276946165912 -0.24137344724618351 0 -0.42090408341722951 -0.2455131023270429 0 -0.40472509977870358 -0.24397221773524561 0 -0.3936929748676386 -0.23929164677800571 0 -0.4020061774770014 -0.22068827895304641 0 -0.39523355390471132 -0.25475421399986481 0 -0.40472509977870358 -0.24397221773524561 0 -0.3936929748676386 -0.23929164677800571 0 -0.39523355390471132 -0.25475421399986481 0 -0.3936929748676386 -0.23929164677800571 0 -0.37960814320156072 -0.2418861910958299 0 -0.3936929748676386 -0.23929164677800571 0 -0.37960814320156072 -0.2418861910958299 0 -0.38732557147745439 -0.22824376805989671 0 -0.37960814320156072 -0.2418861910958299 0 -0.37585835522283312 -0.22319757681477759 0 -0.38732557147745439 -0.22824376805989671 0 -0.37585835522283312 -0.22319757681477759 0 -0.38732557147745439 -0.22824376805989671 0 -0.38546220661823832 -0.2161551466578237 0 -0.38732557147745439 -0.22824376805989671 0 -0.4020061774770014 -0.22068827895304641 0 -0.38546220661823832 -0.2161551466578237 0 -0.3936929748676386 -0.23929164677800571 0 -0.38732557147745439 -0.22824376805989671 0 -0.4020061774770014 -0.22068827895304641 0 -0.4020061774770014 -0.22068827895304641 0 -0.40035474072180333 -0.2073915676500345 0 -0.41015462889520138 -0.20987163245550061 0 -0.4020061774770014 -0.22068827895304641 0 -0.40035474072180333 -0.2073915676500345 0 -0.38625958549234418 -0.20000311065990889 0 -0.4020061774770014 -0.22068827895304641 0 -0.38546220661823832 -0.2161551466578237 0 -0.38625958549234418 -0.20000311065990889 0 -0.4020061774770014 -0.22068827895304641 0 -0.38625958549234418 -0.20000311065990889 0 -0.40341530685802779 -0.20350065727385661 0 -0.40035474072180333 -0.2073915676500345 0 -0.41015462889520138 -0.20987163245550061 0 -0.40341530685802779 -0.20350065727385661 0 -0.40035474072180333 -0.2073915676500345 0 -0.39767231006943482 -0.19976370766351439 0 -0.38546220661823832 -0.2161551466578237 0 -0.37514345331481108 -0.20779147196756359 0 -0.38625958549234418 -0.20000311065990889 0 -0.37585835522283312 -0.22319757681477759 0 -0.38546220661823832 -0.2161551466578237 0 -0.37514345331481108 -0.20779147196756359 0 -0.37051299350768752 -0.17931794236677109 0 -0.38625958549234418 -0.20000311065990889 0 -0.37051299350768752 -0.17931794236677109 0 -0.38625958549234418 -0.20000311065990889 0 -0.38967078480539902 -0.1898601165994829 0 -0.37051299350768752 -0.17931794236677109 0 -0.37240355699330602 -0.1951694473717287 0 -0.38625958549234418 -0.20000311065990889 0 -0.37240355699330602 -0.1951694473717287 0 -0.37514345331481108 -0.20779147196756359 0 -0.38625958549234418 -0.20000311065990889 0 -0.40644305892663612 -0.19500750316501839 0 -0.40211379396396812 -0.18583939545371669 0 -0.38991486019710281 -0.18212746873613711 0 -0.38967078480539902 -0.1898601165994829 0 -0.39767231006943482 -0.19976370766351439 0 -0.40882857610311008 -0.2004022908321951 0 -0.38967078480539902 -0.1898601165994829 0 -0.40644305892663612 -0.19500750316501839 0 -0.40882857610311008 -0.2004022908321951 0 -0.40644305892663612 -0.19500750316501839 0 -0.38991486019710281 -0.18212746873613711 0 -0.38967078480539902 -0.1898601165994829 0 -0.40644305892663612 -0.19500750316501839 0 -0.38991486019710281 -0.18212746873613711 0 -0.38967078480539902 -0.1898601165994829 0 -0.40882857610311008 -0.2004022908321951 0 -0.40035474072180333 -0.2073915676500345 0 -0.38625958549234418 -0.20000311065990889 0 -0.39767231006943482 -0.19976370766351439 0 -0.38625958549234418 -0.20000311065990889 0 -0.38967078480539902 -0.1898601165994829 0 -0.39767231006943482 -0.19976370766351439 0 -0.40341530685802779 -0.20350065727385661 0 -0.39767231006943482 -0.19976370766351439 0 -0.40882857610311008 -0.2004022908321951 0 -0.40644305892663612 -0.19500750316501839 0 -0.41647486582846588 -0.19379636474921699 0 -0.41148509572657499 -0.18665752971144511 0 -0.40644305892663612 -0.19500750316501839 0 -0.41148509572657499 -0.18665752971144511 0 -0.40211379396396812 -0.18583939545371669 0 -0.41647486582846588 -0.19379636474921699 0 -0.42398928801796038 -0.18566266736102621 0 -0.41148509572657499 -0.18665752971144511 0 -0.41647486582846588 -0.19379636474921699 0 -0.40882857610311008 -0.2004022908321951 0 -0.42134169496652851 -0.2071578809868547 0 -0.40644305892663612 -0.19500750316501839 0 -0.41647486582846588 -0.19379636474921699 0 -0.40882857610311008 -0.2004022908321951 0 -0.40341530685802779 -0.20350065727385661 0 -0.40882857610311008 -0.2004022908321951 0 -0.41015462889520138 -0.20987163245550061 0 -0.40882857610311008 -0.2004022908321951 0 -0.41015462889520138 -0.20987163245550061 0 -0.42134169496652851 -0.2071578809868547 0 -0.42585342004615379 -0.22098145484582349 0 -0.41015462889520138 -0.20987163245550061 0 -0.42134169496652851 -0.2071578809868547 0 -0.42585342004615379 -0.22098145484582349 0 -0.4020061774770014 -0.22068827895304641 0 -0.41015462889520138 -0.20987163245550061 0 -0.42585342004615379 -0.22098145484582349 0 -0.43395407063064811 -0.20058946244546341 0 -0.44013275466843133 -0.22197751492840029 0 -0.42585342004615379 -0.22098145484582349 0 -0.42134169496652851 -0.2071578809868547 0 -0.43395407063064811 -0.20058946244546341 0 -0.42585342004615379 -0.22098145484582349 0 -0.43395407063064811 -0.20058946244546341 0 -0.41647486582846588 -0.19379636474921699 0 -0.42134169496652851 -0.2071578809868547 0 -0.43395407063064811 -0.20058946244546341 0 -0.41647486582846588 -0.19379636474921699 0 -0.43395407063064811 -0.20058946244546341 0 -0.42398928801796038 -0.18566266736102621 0 -0.43395407063064811 -0.20058946244546341 0 -0.42398928801796038 -0.18566266736102621 0 -0.44205472121514239 -0.18019747004510339 0 -0.42607594303456359 -0.174571357862712 0 -0.43236439183382008 -0.1646676476262687 0 -0.44205472121514239 -0.18019747004510339 0 -0.42607594303456359 -0.174571357862712 0 -0.42398928801796038 -0.18566266736102621 0 -0.44205472121514239 -0.18019747004510339 0 -0.43236439183382008 -0.1646676476262687 0 -0.4167814695081733 -0.16716707543996659 0 -0.42164802098022153 -0.15656386693511279 0 -0.42607594303456359 -0.174571357862712 0 -0.43236439183382008 -0.1646676476262687 0 -0.4167814695081733 -0.16716707543996659 0 -0.4167814695081733 -0.16716707543996659 0 -0.42164802098022153 -0.15656386693511279 0 -0.40726787322400299 -0.15739074732860639 0 -0.4167814695081733 -0.16716707543996659 0 -0.41476070664163861 -0.17738716969042631 0 -0.40558724594109741 -0.16907971797897001 0 -0.4167814695081733 -0.16716707543996659 0 -0.40726787322400299 -0.15739074732860639 0 -0.40558724594109741 -0.16907971797897001 0 -0.41476070664163861 -0.17738716969042631 0 -0.40497364551272219 -0.1798482608335521 0 -0.40558724594109741 -0.16907971797897001 0 -0.42607594303456359 -0.174571357862712 0 -0.4167814695081733 -0.16716707543996659 0 -0.41476070664163861 -0.17738716969042631 0 -0.42607594303456359 -0.174571357862712 0 -0.42398928801796038 -0.18566266736102621 0 -0.41476070664163861 -0.17738716969042631 0 -0.42398928801796038 -0.18566266736102621 0 -0.41476070664163861 -0.17738716969042631 0 -0.41148509572657499 -0.18665752971144511 0 -0.41476070664163861 -0.17738716969042631 0 -0.41148509572657499 -0.18665752971144511 0 -0.40497364551272219 -0.1798482608335521 0 -0.41148509572657499 -0.18665752971144511 0 -0.40497364551272219 -0.1798482608335521 0 -0.40211379396396812 -0.18583939545371669 0 -0.40497364551272219 -0.1798482608335521 0 -0.40211379396396812 -0.18583939545371669 0 -0.39832619096438132 -0.1803708570279928 0 -0.40497364551272219 -0.1798482608335521 0 -0.39630246418373238 -0.17366830308856551 0 -0.39832619096438132 -0.1803708570279928 0 -0.40497364551272219 -0.1798482608335521 0 -0.39630246418373238 -0.17366830308856551 0 -0.40558724594109741 -0.16907971797897001 0 -0.39630246418373238 -0.17366830308856551 0 -0.39832619096438132 -0.1803708570279928 0 -0.38991486019710281 -0.18212746873613711 0 -0.39630246418373238 -0.17366830308856551 0 -0.38991486019710281 -0.18212746873613711 0 -0.38667785886025252 -0.1688994364576667 0 -0.40211379396396812 -0.18583939545371669 0 -0.39832619096438132 -0.1803708570279928 0 -0.38991486019710281 -0.18212746873613711 0 -0.37051299350768752 -0.17931794236677109 0 -0.38967078480539902 -0.1898601165994829 0 -0.38991486019710281 -0.18212746873613711 0 -0.37338666146756938 -0.1692474343072557 0 -0.38991486019710281 -0.18212746873613711 0 -0.37051299350768752 -0.17931794236677109 0 -0.38967078480539902 -0.1898601165994829 0 -0.37338666146756938 -0.1692474343072557 0 -0.37051299350768752 -0.17931794236677109 0 -0.38991486019710281 -0.18212746873613711 0 -0.37338666146756938 -0.1692474343072557 0 -0.38991486019710281 -0.18212746873613711 0 -0.38667785886025252 -0.1688994364576667 0 -0.37338666146756938 -0.1692474343072557 0 -0.38055056521695479 -0.16005525465408571 0 -0.38667785886025252 -0.1688994364576667 0 -0.38055056521695479 -0.16005525465408571 0 -0.38667785886025252 -0.1688994364576667 0 -0.39343731657631559 -0.15901675149270311 0 -0.39630246418373238 -0.17366830308856551 0 -0.38667785886025252 -0.1688994364576667 0 -0.39343731657631559 -0.15901675149270311 0 -0.39630246418373238 -0.17366830308856551 0 -0.39343731657631559 -0.15901675149270311 0 -0.40558724594109741 -0.16907971797897001 0 -0.40726787322400299 -0.15739074732860639 0 -0.39343731657631559 -0.15901675149270311 0 -0.40558724594109741 -0.16907971797897001 0 -0.39343731657631559 -0.15901675149270311 0 -0.40154516883609448 -0.14413592808426889 0 -0.38225968392702703 -0.1382792095843462 0 -0.40726787322400299 -0.15739074732860639 0 -0.39343731657631559 -0.15901675149270311 0 -0.40154516883609448 -0.14413592808426889 0 -0.36964519268133439 -0.1547382598353409 0 -0.38055056521695479 -0.16005525465408571 0 -0.38225968392702703 -0.1382792095843462 0 -0.38055056521695479 -0.16005525465408571 0 -0.39343731657631559 -0.15901675149270311 0 -0.38225968392702703 -0.1382792095843462 0 -0.36802621893478438 -0.12757518991496711 0 -0.38225968392702703 -0.1382792095843462 0 -0.38164450906837127 -0.1191085755790162 0 -0.38225968392702703 -0.1382792095843462 0 -0.40916198954895899 -0.12752694639979961 0 -0.40154516883609448 -0.14413592808426889 0 -0.38225968392702703 -0.1382792095843462 0 -0.40916198954895899 -0.12752694639979961 0 -0.38225968392702703 -0.1382792095843462 0 -0.40916198954895899 -0.12752694639979961 0 -0.39755104813707282 -0.1174854909862533 0 -0.41382845330358298 -0.12708780335793279 0 -0.40916198954895899 -0.12752694639979961 0 -0.4133827490855233 -0.13821993273164601 0 -0.41382845330358298 -0.12708780335793279 0 -0.4133827490855233 -0.13821993273164601 0 -0.4322488286714446 -0.14593185034996009 0 -0.40154516883609448 -0.14413592808426889 0 -0.40916198954895899 -0.12752694639979961 0 -0.4133827490855233 -0.13821993273164601 0 -0.40154516883609448 -0.14413592808426889 0 -0.4133827490855233 -0.13821993273164601 0 -0.41405534228901941 -0.14781803109836061 0 -0.4133827490855233 -0.13821993273164601 0 -0.41405534228901941 -0.14781803109836061 0 -0.4322488286714446 -0.14593185034996009 0 -0.40726787322400299 -0.15739074732860639 0 -0.40154516883609448 -0.14413592808426889 0 -0.41405534228901941 -0.14781803109836061 0 -0.42164802098022153 -0.15656386693511279 0 -0.40726787322400299 -0.15739074732860639 0 -0.41405534228901941 -0.14781803109836061 0 -0.42164802098022153 -0.15656386693511279 0 -0.41405534228901941 -0.14781803109836061 0 -0.4322488286714446 -0.14593185034996009 0 -0.43236439183382008 -0.1646676476262687 0 -0.42164802098022153 -0.15656386693511279 0 -0.4322488286714446 -0.14593185034996009 0 -0.41382845330358298 -0.12708780335793279 0 -0.4322488286714446 -0.14593185034996009 0 -0.43186550909766419 -0.1303473898859282 0 -0.41382845330358298 -0.12708780335793279 0 -0.4322488286714446 -0.14593185034996009 0 -0.4322488286714446 -0.14593185034996009 0 -0.43186550909766419 -0.1303473898859282 0 -0.44325656970853128 -0.13265350543575191 0 -0.43186550909766419 -0.1303473898859282 0 -0.44325656970853128 -0.13265350543575191 0 -0.43606429517089113 -0.116774683215253 0 -0.44325656970853128 -0.13265350543575191 0 -0.46109213861417592 -0.1273135237400648 0 -0.43606429517089113 -0.116774683215253 0 -0.44325656970853128 -0.13265350543575191 0 -0.45088429791606738 -0.14501664561792371 0 -0.46109213861417592 -0.1273135237400648 0 -0.4322488286714446 -0.14593185034996009 0 -0.45088429791606738 -0.14501664561792371 0 -0.4506692040393061 -0.16477589734198719 0 -0.4322488286714446 -0.14593185034996009 0 -0.4506692040393061 -0.16477589734198719 0 -0.4322488286714446 -0.14593185034996009 0 -0.44325656970853128 -0.13265350543575191 0 -0.45088429791606738 -0.14501664561792371 0 -0.46509085901067188 -0.15546673403703959 0 -0.46109213861417592 -0.1273135237400648 0 -0.45088429791606738 -0.14501664561792371 0 -0.46509085901067188 -0.15546673403703959 0 -0.4506692040393061 -0.16477589734198719 0 -0.45088429791606738 -0.14501664561792371 0 -0.46509085901067188 -0.15546673403703959 0 -0.46109213861417592 -0.1273135237400648 0 -0.46109213861417592 -0.1273135237400648 0 -0.48150786366255061 -0.13999475871175759 0 -0.47953502765589889 -0.1097082167135236 0 -0.48150786366255061 -0.13999475871175759 0 -0.5 -0.12520983863856039 0 -0.5 -0.15522032896539259 0 -0.48150786366255061 -0.13999475871175759 0 -0.5 -0.15522032896539259 0 -0.48332915669455689 -0.1670499101759646 0 -0.46509085901067188 -0.15546673403703959 0 -0.46109213861417592 -0.1273135237400648 0 -0.48150786366255061 -0.13999475871175759 0 -0.46509085901067188 -0.15546673403703959 0 -0.48150786366255061 -0.13999475871175759 0 -0.48332915669455689 -0.1670499101759646 0 -0.46509085901067188 -0.15546673403703959 0 -0.48332915669455689 -0.1670499101759646 0 -0.46908957940716778 -0.18361994433401441 0 -0.5 -0.15522032896539259 0 -0.48332915669455689 -0.1670499101759646 0 -0.5 -0.18523081929222471 0 -0.48332915669455689 -0.1670499101759646 0 -0.5 -0.18523081929222471 0 -0.4842408814513276 -0.18383282519468469 0 -0.48332915669455689 -0.1670499101759646 0 -0.4842408814513276 -0.18383282519468469 0 -0.46908957940716778 -0.18361994433401441 0 -0.46908957940716778 -0.18361994433401441 0 -0.45430273719726161 -0.18081912277859721 0 -0.4506692040393061 -0.16477589734198719 0 -0.46908957940716778 -0.18361994433401441 0 -0.4506692040393061 -0.16477589734198719 0 -0.46908957940716778 -0.18361994433401441 0 -0.45430273719726161 -0.18081912277859721 0 -0.45539744412743011 -0.19468317939328381 0 -0.46509085901067188 -0.15546673403703959 0 -0.46908957940716778 -0.18361994433401441 0 -0.46509085901067188 -0.15546673403703959 0 -0.46908957940716778 -0.18361994433401441 0 -0.4506692040393061 -0.16477589734198719 0 -0.43236439183382008 -0.1646676476262687 0 -0.4506692040393061 -0.16477589734198719 0 -0.44205472121514239 -0.18019747004510339 0 -0.43236439183382008 -0.1646676476262687 0 -0.4322488286714446 -0.14593185034996009 0 -0.4506692040393061 -0.16477589734198719 0 -0.45430273719726161 -0.18081912277859721 0 -0.4506692040393061 -0.16477589734198719 0 -0.44205472121514239 -0.18019747004510339 0 -0.45430273719726161 -0.18081912277859721 0 -0.44205472121514239 -0.18019747004510339 0 -0.45539744412743011 -0.19468317939328381 0 -0.43395407063064811 -0.20058946244546341 0 -0.44205472121514239 -0.18019747004510339 0 -0.43395407063064811 -0.20058946244546341 0 -0.44205472121514239 -0.18019747004510339 0 -0.45539744412743011 -0.19468317939328381 0 -0.43395407063064811 -0.20058946244546341 0 -0.45118213386891792 -0.21041420148590539 0 -0.45539744412743011 -0.19468317939328381 0 -0.43395407063064811 -0.20058946244546341 0 -0.45118213386891792 -0.21041420148590539 0 -0.44013275466843133 -0.22197751492840029 0 -0.46292246488738348 -0.20911981533505189 0 -0.47360140313798832 -0.21538568680202391 0 -0.4563576172931364 -0.2281000209928925 0 -0.45118213386891792 -0.21041420148590539 0 -0.46292246488738348 -0.20911981533505189 0 -0.4563576172931364 -0.2281000209928925 0 -0.45118213386891792 -0.21041420148590539 0 -0.46292246488738348 -0.20911981533505189 0 -0.45539744412743011 -0.19468317939328381 0 -0.46292246488738348 -0.20911981533505189 0 -0.45539744412743011 -0.19468317939328381 0 -0.47134549127257808 -0.1995028155680191 0 -0.46908957940716778 -0.18361994433401441 0 -0.45539744412743011 -0.19468317939328381 0 -0.47134549127257808 -0.1995028155680191 0 -0.46908957940716778 -0.18361994433401441 0 -0.47134549127257808 -0.1995028155680191 0 -0.46908957940716778 -0.18361994433401441 0 -0.47134549127257808 -0.1995028155680191 0 -0.48454478970358572 -0.1994306269765351 0 -0.4842408814513276 -0.18383282519468469 0 -0.46908957940716778 -0.18361994433401441 0 -0.48454478970358572 -0.1994306269765351 0 -0.46908957940716778 -0.18361994433401441 0 -0.48454478970358572 -0.1994306269765351 0 -0.5 -0.18523081929222471 0 -0.48454478970358572 -0.1994306269765351 0 -0.50000000000000244 -0.21524130961905691 0 -0.5 -0.18523081929222471 0 -0.4842408814513276 -0.18383282519468469 0 -0.48454478970358572 -0.1994306269765351 0 -0.48454478970358572 -0.1994306269765351 0 -0.50000000000000244 -0.21524130961905691 0 -0.48454478970358572 -0.1994306269765351 0 -0.50000000000000244 -0.21524130961905691 0 -0.48622219210260981 -0.21373594695857151 0 -0.50000000000000244 -0.21524130961905691 0 -0.48622219210260981 -0.21373594695857151 0 -0.48674257556886502 -0.22488616443667039 0 -0.46292246488738348 -0.20911981533505189 0 -0.47134549127257808 -0.1995028155680191 0 -0.47360140313798832 -0.21538568680202391 0 -0.47134549127257808 -0.1995028155680191 0 -0.47360140313798832 -0.21538568680202391 0 -0.48622219210260981 -0.21373594695857151 0 -0.47360140313798832 -0.21538568680202391 0 -0.48674257556886502 -0.22488616443667039 0 -0.48454478970358572 -0.1994306269765351 0 -0.48622219210260981 -0.21373594695857151 0 -0.47360140313798832 -0.21538568680202391 0 -0.47134549127257808 -0.1995028155680191 0 -0.48454478970358572 -0.1994306269765351 0 -0.47360140313798832 -0.21538568680202391 0 -0.47360140313798832 -0.21538568680202391 0 -0.48674257556886502 -0.22488616443667039 0 -0.47296532364049249 -0.2354610331497648 0 -0.50000000000000244 -0.21524130961905691 0 -0.48674257556886502 -0.22488616443667039 0 -0.5 -0.24113546488157481 0 -0.48674257556886502 -0.22488616443667039 0 -0.5 -0.24113546488157481 0 -0.47296532364049249 -0.2354610331497648 0 -0.47771492469285221 -0.25189451237979799 0 -0.5 -0.24113546488157481 0 -0.47296532364049249 -0.2354610331497648 0 -0.47771492469285221 -0.25189451237979799 0 -0.47296532364049249 -0.2354610331497648 0 -0.46210946183872947 -0.2493779631956265 0 -0.47296532364049249 -0.2354610331497648 0 -0.46210946183872947 -0.2493779631956265 0 -0.4563576172931364 -0.2281000209928925 0 -0.46210946183872947 -0.2493779631956265 0 -0.4563576172931364 -0.2281000209928925 0 -0.44677499405567389 -0.24712879453222 0 -0.47360140313798832 -0.21538568680202391 0 -0.47296532364049249 -0.2354610331497648 0 -0.4563576172931364 -0.2281000209928925 0 -0.45118213386891792 -0.21041420148590539 0 -0.4563576172931364 -0.2281000209928925 0 -0.44013275466843133 -0.22197751492840029 0 -0.4563576172931364 -0.2281000209928925 0 -0.44013275466843133 -0.22197751492840029 0 -0.43982253135270077 -0.23656486257089801 0 -0.4563576172931364 -0.2281000209928925 0 -0.43982253135270077 -0.23656486257089801 0 -0.44677499405567389 -0.24712879453222 0 -0.43250485100393199 -0.2476413254954328 0 -0.43982253135270077 -0.23656486257089801 0 -0.44677499405567389 -0.24712879453222 0 -0.41040260714972571 -0.045440372184402479 0 -0.41637748835601929 -0.02700882026909605 0 -0.40368806705031052 -0.034505085069421557 0 -0.41040260714972571 -0.045440372184402479 0 -0.4240706465381997 -0.03776600267149563 0 -0.41637748835601929 -0.02700882026909605 0 -0.41040260714972571 -0.045440372184402479 0 -0.41637748835601929 -0.02700882026909605 0 -0.41040260714972571 -0.045440372184402479 0 -0.40648875987286542 -0.044501653652779423 0 -0.40368806705031052 -0.034505085069421557 0 -0.41040260714972571 -0.045440372184402479 0 -0.40648875987286542 -0.044501653652779423 0 -0.41040260714972571 -0.045440372184402479 0 -0.40361802143127767 -0.066369732882245819 0 -0.41040260714972571 -0.045440372184402479 0 -0.41123296328724912 -0.057419013222266613 0 -0.40361802143127767 -0.066369732882245819 0 -0.41123296328724912 -0.057419013222266613 0 -0.41549002870631818 -0.064704245955632761 0 -0.40962602684223548 -0.064386336108009812 0 -0.41123296328724912 -0.057419013222266613 0 -0.42080688851634429 -0.0537431146529498 0 -0.42309583029394188 -0.059934591289531998 0 -0.41123296328724912 -0.057419013222266613 0 -0.42309583029394188 -0.059934591289531998 0 -0.41549002870631818 -0.064704245955632761 0 -0.41040260714972571 -0.045440372184402479 0 -0.41123296328724912 -0.057419013222266613 0 -0.42080688851634429 -0.0537431146529498 0 -0.41040260714972571 -0.045440372184402479 0 -0.43849615333446079 -0.052178481915598117 0 -0.42080688851634429 -0.0537431146529498 0 -0.42309583029394188 -0.059934591289531998 0 -0.43849615333446079 -0.052178481915598117 0 -0.41040260714972571 -0.045440372184402479 0 -0.42080688851634429 -0.0537431146529498 0 -0.43849615333446079 -0.052178481915598117 0 -0.42309583029394188 -0.059934591289531998 0 -0.43317538330546812 -0.06668926194462127 0 -0.43849615333446079 -0.052178481915598117 0 -0.4240706465381997 -0.03776600267149563 0 -0.43477658169843258 -0.036885823022139719 0 -0.43112828962388589 -0.02160632508570795 0 -0.4240706465381997 -0.03776600267149563 0 -0.43477658169843258 -0.036885823022139719 0 -0.43849615333446079 -0.052178481915598117 0 -0.41040260714972571 -0.045440372184402479 0 -0.4240706465381997 -0.03776600267149563 0 -0.43849615333446079 -0.052178481915598117 0 -0.4240706465381997 -0.03776600267149563 0 -0.43112828962388589 -0.02160632508570795 0 -0.41637748835601929 -0.02700882026909605 0 -0.43112828962388589 -0.02160632508570795 0 -0.4223523695623152 -0.0085772683537903988 0 -0.41637748835601929 -0.02700882026909605 0 -0.43112828962388589 -0.02160632508570795 0 -0.4223523695623152 -0.0085772683537903988 0 -0.43995955958343991 0.0024606664598983662 0 -0.4223523695623152 -0.0085772683537903988 0 -0.40564289588457397 -0.017856721529259521 0 -0.40503762569256357 -0.00060233263436839952 0 -0.4223523695623152 -0.0085772683537903988 0 -0.40503762569256357 -0.00060233263436839952 0 -0.41945891390200007 0.0085330057458338215 0 -0.4223523695623152 -0.0085772683537903988 0 -0.41637748835601929 -0.02700882026909605 0 -0.4223523695623152 -0.0085772683537903988 0 -0.41637748835601929 -0.02700882026909605 0 -0.40564289588457397 -0.017856721529259521 0 -0.41637748835601929 -0.02700882026909605 0 -0.40564289588457397 -0.017856721529259521 0 -0.40368806705031052 -0.034505085069421557 0 -0.40564289588457397 -0.017856721529259521 0 -0.38765376264265028 -0.030122061418197951 0 -0.40368806705031052 -0.034505085069421557 0 -0.40564289588457397 -0.017856721529259521 0 -0.39467044070595941 -0.0089911919779581441 0 -0.38765376264265028 -0.030122061418197951 0 -0.40564289588457397 -0.017856721529259521 0 -0.40503762569256357 -0.00060233263436839952 0 -0.39467044070595941 -0.0089911919779581441 0 -0.40503762569256357 -0.00060233263436839952 0 -0.39467044070595941 -0.0089911919779581441 0 -0.3849678467495386 0.0057315818628459001 0 -0.37332402151530453 -0.0096834815976801041 0 -0.39467044070595941 -0.0089911919779581441 0 -0.37332402151530453 -0.0096834815976801041 0 -0.39467044070595941 -0.0089911919779581441 0 -0.3849678467495386 0.0057315818628459001 0 -0.37332402151530453 -0.0096834815976801041 0 -0.39467044070595941 -0.0089911919779581441 0 -0.38765376264265028 -0.030122061418197951 0 -0.36560563774742988 -0.02348891341087846 0 -0.37332402151530453 -0.0096834815976801041 0 -0.38765376264265028 -0.030122061418197951 0 -0.36675272518807361 -0.04017924770489413 0 -0.38765376264265028 -0.030122061418197951 0 -0.38518537330967539 -0.053274490293570183 0 -0.36675272518807361 -0.04017924770489413 0 -0.38518537330967539 -0.053274490293570183 0 -0.38765376264265028 -0.030122061418197951 0 -0.39556288839602882 -0.042100881362794017 0 -0.38518537330967539 -0.053274490293570183 0 -0.38765376264265028 -0.030122061418197951 0 -0.39556288839602882 -0.042100881362794017 0 -0.40368806705031052 -0.034505085069421557 0 -0.40648875987286542 -0.044501653652779423 0 -0.39556288839602882 -0.042100881362794017 0 -0.40368806705031052 -0.034505085069421557 0 -0.40648875987286542 -0.044501653652779423 0 -0.39556288839602882 -0.042100881362794017 0 -0.39990112424742452 -0.050406560113785352 0 -0.41040260714972571 -0.045440372184402479 0 -0.40648875987286542 -0.044501653652779423 0 -0.39990112424742452 -0.050406560113785352 0 -0.39990112424742452 -0.050406560113785352 0 -0.38518537330967539 -0.053274490293570183 0 -0.40361802143127767 -0.066369732882245819 0 -0.38518537330967539 -0.053274490293570183 0 -0.40361802143127767 -0.066369732882245819 0 -0.41040260714972571 -0.045440372184402479 0 -0.39990112424742452 -0.050406560113785352 0 -0.40361802143127767 -0.066369732882245819 0 -0.39556288839602882 -0.042100881362794017 0 -0.39990112424742452 -0.050406560113785352 0 -0.38518537330967539 -0.053274490293570183 0 -0.3732956396691906 -0.068218814295365166 0 -0.36850034065987092 -0.053466438713200913 0 -0.38518537330967539 -0.053274490293570183 0 -0.3732956396691906 -0.068218814295365166 0 -0.38998067231899519 -0.068026865875734449 0 -0.39782365486583687 -0.084244426031756747 0 -0.3732956396691906 -0.068218814295365166 0 -0.39782365486583687 -0.084244426031756747 0 -0.3732956396691906 -0.068218814295365166 0 -0.38518537330967539 -0.053274490293570183 0 -0.38998067231899519 -0.068026865875734449 0 -0.3732956396691906 -0.068218814295365166 0 -0.37948380054151648 -0.090354373946280764 0 -0.39782365486583687 -0.084244426031756747 0 -0.37948380054151648 -0.090354373946280764 0 -0.39782365486583687 -0.084244426031756747 0 -0.39164057529934088 -0.1033182365547507 0 -0.39782365486583687 -0.084244426031756747 0 -0.40342715812507279 -0.101690259304625 0 -0.41216583107625521 -0.093615023104546682 0 -0.39782365486583687 -0.084244426031756747 0 -0.41216583107625521 -0.093615023104546682 0 -0.39782365486583687 -0.084244426031756747 0 -0.40724214086382821 -0.074542050417801445 0 -0.41282024474322793 -0.081452271548148547 0 -0.38518537330967539 -0.053274490293570183 0 -0.38998067231899519 -0.068026865875734449 0 -0.40361802143127767 -0.066369732882245819 0 -0.39782365486583687 -0.084244426031756747 0 -0.40361802143127767 -0.066369732882245819 0 -0.40724214086382821 -0.074542050417801445 0 -0.38998067231899519 -0.068026865875734449 0 -0.39782365486583687 -0.084244426031756747 0 -0.40361802143127767 -0.066369732882245819 0 -0.39782365486583687 -0.084244426031756747 0 -0.40361802143127767 -0.066369732882245819 0 -0.40361802143127767 -0.066369732882245819 0 -0.40729550597760078 -0.068982355438295354 0 -0.40724214086382821 -0.074542050417801445 0 -0.40361802143127767 -0.066369732882245819 0 -0.40729550597760078 -0.068982355438295354 0 -0.38164450906837127 -0.1191085755790162 0 -0.39164057529934088 -0.1033182365547507 0 -0.39755104813707282 -0.1174854909862533 0 -0.36874501904363172 -0.1088847508547639 0 -0.38164450906837127 -0.1191085755790162 0 -0.39164057529934088 -0.1033182365547507 0 -0.38225968392702703 -0.1382792095843462 0 -0.38164450906837127 -0.1191085755790162 0 -0.39755104813707282 -0.1174854909862533 0 -0.36874501904363172 -0.1088847508547639 0 -0.37948380054151648 -0.090354373946280764 0 -0.39164057529934088 -0.1033182365547507 0 -0.39782365486583687 -0.084244426031756747 0 -0.39164057529934088 -0.1033182365547507 0 -0.39782365486583687 -0.084244426031756747 0 -0.40342715812507279 -0.101690259304625 0 -0.39164057529934088 -0.1033182365547507 0 -0.40342715812507279 -0.101690259304625 0 -0.39164057529934088 -0.1033182365547507 0 -0.39755104813707282 -0.1174854909862533 0 -0.40342715812507279 -0.101690259304625 0 -0.39755104813707282 -0.1174854909862533 0 -0.41128388500820662 -0.110625900709617 0 -0.39755104813707282 -0.1174854909862533 0 -0.40713180046612968 -0.11877052973443369 0 -0.41128388500820662 -0.110625900709617 0 -0.40916198954895899 -0.12752694639979961 0 -0.39755104813707282 -0.1174854909862533 0 -0.40713180046612968 -0.11877052973443369 0 -0.41382845330358298 -0.12708780335793279 0 -0.40916198954895899 -0.12752694639979961 0 -0.43606429517089113 -0.116774683215253 0 -0.40916198954895899 -0.12752694639979961 0 -0.41241018366111809 -0.1182775206711686 0 -0.4232379999279508 -0.11545779323401389 0 -0.40916198954895899 -0.12752694639979961 0 -0.40713180046612968 -0.11877052973443369 0 -0.41241018366111809 -0.1182775206711686 0 -0.40713180046612968 -0.11877052973443369 0 -0.41241018366111809 -0.1182775206711686 0 -0.41128388500820662 -0.110625900709617 0 -0.41241018366111809 -0.1182775206711686 0 -0.41128388500820662 -0.110625900709617 0 -0.4232379999279508 -0.11545779323401389 0 -0.41128388500820662 -0.110625900709617 0 -0.42650800728667287 -0.1029856201773372 0 -0.4232379999279508 -0.11545779323401389 0 -0.41128388500820662 -0.110625900709617 0 -0.42650800728667287 -0.1029856201773372 0 -0.41216583107625521 -0.093615023104546682 0 -0.40342715812507279 -0.101690259304625 0 -0.41128388500820662 -0.110625900709617 0 -0.41216583107625521 -0.093615023104546682 0 -0.42650800728667287 -0.1029856201773372 0 -0.41216583107625521 -0.093615023104546682 0 -0.42110348738984021 -0.088700375479725896 0 -0.42650800728667287 -0.1029856201773372 0 -0.41216583107625521 -0.093615023104546682 0 -0.42650800728667287 -0.1029856201773372 0 -0.43606429517089113 -0.116774683215253 0 -0.44132851881824697 -0.095201622588424434 0 -0.42650800728667287 -0.1029856201773372 0 -0.43042064030997268 -0.088743566552907591 0 -0.44132851881824697 -0.095201622588424434 0 -0.40916198954895899 -0.12752694639979961 0 -0.43606429517089113 -0.116774683215253 0 -0.41382845330358298 -0.12708780335793279 0 -0.43186550909766419 -0.1303473898859282 0 -0.43606429517089113 -0.116774683215253 0 -0.40916198954895899 -0.12752694639979961 0 -0.4232379999279508 -0.11545779323401389 0 -0.43606429517089113 -0.116774683215253 0 -0.42650800728667287 -0.1029856201773372 0 -0.4232379999279508 -0.11545779323401389 0 -0.43606429517089113 -0.116774683215253 0 -0.4146532773011975 -0.071661466188560868 0 -0.423602713533072 -0.076705396015689431 0 -0.42200344662799949 -0.067938992278807273 0 -0.4146532773011975 -0.071661466188560868 0 -0.41282024474322793 -0.081452271548148547 0 -0.423602713533072 -0.076705396015689431 0 -0.42309583029394188 -0.059934591289531998 0 -0.41549002870631818 -0.064704245955632761 0 -0.42200344662799949 -0.067938992278807273 0 -0.4146532773011975 -0.071661466188560868 0 -0.41549002870631818 -0.064704245955632761 0 -0.42200344662799949 -0.067938992278807273 0 -0.4146532773011975 -0.071661466188560868 0 -0.41176620970683803 -0.067433600922624695 0 -0.40729550597760078 -0.068982355438295354 0 -0.41123296328724912 -0.057419013222266613 0 -0.40361802143127767 -0.066369732882245819 0 -0.40962602684223548 -0.064386336108009812 0 -0.4146532773011975 -0.071661466188560868 0 -0.41549002870631818 -0.064704245955632761 0 -0.41176620970683803 -0.067433600922624695 0 -0.41549002870631818 -0.064704245955632761 0 -0.41176620970683803 -0.067433600922624695 0 -0.40962602684223548 -0.064386336108009812 0 -0.41176620970683803 -0.067433600922624695 0 -0.40962602684223548 -0.064386336108009812 0 -0.40729550597760078 -0.068982355438295354 0 -0.40361802143127767 -0.066369732882245819 0 -0.40962602684223548 -0.064386336108009812 0 -0.40729550597760078 -0.068982355438295354 0 -0.4146532773011975 -0.071661466188560868 0 -0.40724214086382821 -0.074542050417801445 0 -0.41282024474322793 -0.081452271548148547 0 -0.4146532773011975 -0.071661466188560868 0 -0.40729550597760078 -0.068982355438295354 0 -0.40724214086382821 -0.074542050417801445 0 -0.39782365486583687 -0.084244426031756747 0 -0.41282024474322793 -0.081452271548148547 0 -0.41216583107625521 -0.093615023104546682 0 -0.41282024474322793 -0.081452271548148547 0 -0.41216583107625521 -0.093615023104546682 0 -0.42110348738984021 -0.088700375479725896 0 -0.41282024474322793 -0.081452271548148547 0 -0.42110348738984021 -0.088700375479725896 0 -0.423602713533072 -0.076705396015689431 0 -0.42110348738984021 -0.088700375479725896 0 -0.43042064030997268 -0.088743566552907591 0 -0.423602713533072 -0.076705396015689431 0 -0.43042064030997268 -0.088743566552907591 0 -0.423602713533072 -0.076705396015689431 0 -0.44003384312145433 -0.079359200393259444 0 -0.43042064030997268 -0.088743566552907591 0 -0.44003384312145433 -0.079359200393259444 0 -0.44132851881824697 -0.095201622588424434 0 -0.42650800728667287 -0.1029856201773372 0 -0.42110348738984021 -0.088700375479725896 0 -0.43042064030997268 -0.088743566552907591 0 -0.423602713533072 -0.076705396015689431 0 -0.43317538330546812 -0.06668926194462127 0 -0.44003384312145433 -0.079359200393259444 0 -0.423602713533072 -0.076705396015689431 0 -0.42200344662799949 -0.067938992278807273 0 -0.43317538330546812 -0.06668926194462127 0 -0.42309583029394188 -0.059934591289531998 0 -0.42200344662799949 -0.067938992278807273 0 -0.43317538330546812 -0.06668926194462127 0 -0.44690236525411542 -0.067697097720033836 0 -0.44003384312145433 -0.079359200393259444 0 -0.45621674698999759 -0.081341952699896719 0 -0.43317538330546812 -0.06668926194462127 0 -0.44690236525411542 -0.067697097720033836 0 -0.44003384312145433 -0.079359200393259444 0 -0.44003384312145433 -0.079359200393259444 0 -0.45621674698999759 -0.081341952699896719 0 -0.44132851881824697 -0.095201622588424434 0 -0.45621674698999759 -0.081341952699896719 0 -0.44132851881824697 -0.095201622588424434 0 -0.45872758003049319 -0.1020047124918928 0 -0.45621674698999759 -0.081341952699896719 0 -0.45872758003049319 -0.1020047124918928 0 -0.47580202739963412 -0.082442146667044636 0 -0.45621674698999759 -0.081341952699896719 0 -0.47580202739963412 -0.082442146667044636 0 -0.46658969951919599 -0.058916591646793602 0 -0.44690236525411542 -0.067697097720033836 0 -0.45621674698999759 -0.081341952699896719 0 -0.46658969951919599 -0.058916591646793602 0 -0.46109213861417592 -0.1273135237400648 0 -0.43606429517089113 -0.116774683215253 0 -0.45872758003049319 -0.1020047124918928 0 -0.43606429517089113 -0.116774683215253 0 -0.44132851881824697 -0.095201622588424434 0 -0.45872758003049319 -0.1020047124918928 0 -0.46109213861417592 -0.1273135237400648 0 -0.45872758003049319 -0.1020047124918928 0 -0.47953502765589889 -0.1097082167135236 0 -0.45872758003049319 -0.1020047124918928 0 -0.47953502765589889 -0.1097082167135236 0 -0.47580202739963412 -0.082442146667044636 0 -0.47953502765589889 -0.1097082167135236 0 -0.5 -0.09519934831172816 0 -0.47580202739963412 -0.082442146667044636 0 -0.48150786366255061 -0.13999475871175759 0 -0.5 -0.12520983863856039 0 -0.47953502765589889 -0.1097082167135236 0 -0.5 -0.12520983863856039 0 -0.47953502765589889 -0.1097082167135236 0 -0.5 -0.09519934831172816 0 -0.47580202739963412 -0.082442146667044636 0 -0.49468324570393118 -0.065654701377989066 0 -0.46658969951919599 -0.058916591646793602 0 -0.5 -0.09519934831172816 0 -0.47580202739963412 -0.082442146667044636 0 -0.49468324570393118 -0.065654701377989066 0 -0.5 -0.09519934831172816 0 -0.49468324570393118 -0.065654701377989066 0 -0.5 -0.065188857984896043 0 -0.5 -0.065188857984896043 0 -0.5 -0.035178367658064147 0 -0.48403980382640333 -0.048095963280698047 0 -0.49468324570393118 -0.065654701377989066 0 -0.5 -0.065188857984896043 0 -0.48403980382640333 -0.048095963280698047 0 -0.5 -0.035178367658064147 0 -0.48403980382640333 -0.048095963280698047 0 -0.48068680172094391 -0.023107468992204401 0 -0.48403980382640333 -0.048095963280698047 0 -0.45843655989103121 -0.03683262018553423 0 -0.48068680172094391 -0.023107468992204401 0 -0.49468324570393118 -0.065654701377989066 0 -0.48403980382640333 -0.048095963280698047 0 -0.46658969951919599 -0.058916591646793602 0 -0.49468324570393118 -0.065654701377989066 0 -0.46658969951919599 -0.058916591646793602 0 -0.48403980382640333 -0.048095963280698047 0 -0.46658969951919599 -0.058916591646793602 0 -0.45843655989103121 -0.03683262018553423 0 -0.46658969951919599 -0.058916591646793602 0 -0.45843655989103121 -0.03683262018553423 0 -0.43849615333446079 -0.052178481915598117 0 -0.43477658169843258 -0.036885823022139719 0 -0.45843655989103121 -0.03683262018553423 0 -0.43849615333446079 -0.052178481915598117 0 -0.46658969951919599 -0.058916591646793602 0 -0.43849615333446079 -0.052178481915598117 0 -0.44690236525411542 -0.067697097720033836 0 -0.46658969951919599 -0.058916591646793602 0 -0.43849615333446079 -0.052178481915598117 0 -0.43317538330546812 -0.06668926194462127 0 -0.44690236525411542 -0.067697097720033836 0 -0.43849615333446079 -0.052178481915598117 0 -0.43112828962388589 -0.02160632508570795 0 -0.447757551078383 -0.017357431958053272 0 -0.43995955958343991 0.0024606664598983662 0 -0.447757551078383 -0.017357431958053272 0 -0.4607385204583333 0.0021709591060331442 0 -0.43995955958343991 0.0024606664598983662 0 -0.43477658169843258 -0.036885823022139719 0 -0.45843655989103121 -0.03683262018553423 0 -0.447757551078383 -0.017357431958053272 0 -0.43477658169843258 -0.036885823022139719 0 -0.447757551078383 -0.017357431958053272 0 -0.43477658169843258 -0.036885823022139719 0 -0.43112828962388589 -0.02160632508570795 0 -0.447757551078383 -0.017357431958053272 0 -0.45843655989103121 -0.03683262018553423 0 -0.46448693020649162 -0.014400832264724481 0 -0.48068680172094391 -0.023107468992204401 0 -0.45843655989103121 -0.03683262018553423 0 -0.447757551078383 -0.017357431958053272 0 -0.46448693020649162 -0.014400832264724481 0 -0.447757551078383 -0.017357431958053272 0 -0.4607385204583333 0.0021709591060331442 0 -0.46448693020649162 -0.014400832264724481 0 -0.47859614749601942 0.00060599428634608063 0 -0.4607385204583333 0.0021709591060331442 0 -0.447757551078383 -0.017357431958053272 0 -0.46448693020649162 -0.014400832264724481 0 -0.4607385204583333 0.0021709591060331442 0 -0.46448693020649162 -0.014400832264724481 0 -0.48068680172094391 -0.023107468992204401 0 -0.47859614749601942 0.00060599428634608063 0 -0.5 -0.035178367658064147 0 -0.48068680172094391 -0.023107468992204401 0 -0.5 -0.0051678773312322512 0 -0.48068680172094391 -0.023107468992204401 0 -0.5 -0.0051678773312322512 0 -0.47859614749601942 0.00060599428634608063 0 -0.5 -0.0051678773312322512 0 -0.5 0.024842612995599641 0 -0.48770508892893438 0.01620314377451321 0 -0.5 -0.0051678773312322512 0 -0.48770508892893438 0.01620314377451321 0 -0.47859614749601942 0.00060599428634608063 0 -0.5 0.024842612995599641 0 -0.48770508892893438 0.01620314377451321 0 -0.48670045921823418 0.04122774123420625 0 -0.48770508892893438 0.01620314377451321 0 -0.47371948983828371 0.02169935017011965 0 -0.48670045921823418 0.04122774123420625 0 -0.47371948983828371 0.02169935017011965 0 -0.47859614749601942 0.00060599428634608063 0 -0.4607385204583333 0.0021709591060331442 0 -0.48770508892893438 0.01620314377451321 0 -0.47371948983828371 0.02169935017011965 0 -0.47859614749601942 0.00060599428634608063 0 -0.4847113920812553 0.0549700089282006 0 -0.5 0.05485310332243154 0 -0.4898044258926974 0.068538643141367595 0 -0.4847113920812553 0.0549700089282006 0 -0.5 0.05485310332243154 0 -0.48670045921823418 0.04122774123420625 0 -0.5 0.024842612995599641 0 -0.5 0.05485310332243154 0 -0.48670045921823418 0.04122774123420625 0 -0.4847113920812553 0.0549700089282006 0 -0.48670045921823418 0.04122774123420625 0 -0.46928231124624931 0.043037939576623309 0 -0.47371948983828371 0.02169935017011965 0 -0.48670045921823418 0.04122774123420625 0 -0.46928231124624931 0.043037939576623309 0 -0.47371948983828371 0.02169935017011965 0 -0.48670045921823418 0.04122774123420625 0 -0.46928231124624931 0.043037939576623309 0 -0.46094399315544199 0.061370661498818681 0 -0.47649184513889709 0.069078187441231245 0 -0.46928231124624931 0.043037939576623309 0 -0.47649184513889709 0.069078187441231245 0 -0.4847113920812553 0.0549700089282006 0 -0.46928231124624931 0.043037939576623309 0 -0.47649184513889709 0.069078187441231245 0 -0.46928231124624931 0.043037939576623309 0 -0.46094399315544199 0.061370661498818681 0 -0.45539562480263318 0.04870568284139995 0 -0.46094399315544199 0.061370661498818681 0 -0.45539562480263318 0.04870568284139995 0 -0.44373152638225888 0.054918512683775282 0 -0.46928231124624931 0.043037939576623309 0 -0.45539562480263318 0.04870568284139995 0 -0.44762466842658277 0.035495617606382562 0 -0.46928231124624931 0.043037939576623309 0 -0.44762466842658277 0.035495617606382562 0 -0.45413349140622622 0.024863313794193289 0 -0.44762466842658277 0.035495617606382562 0 -0.44373152638225888 0.054918512683775282 0 -0.43206364040316869 0.038445983986473822 0 -0.45539562480263318 0.04870568284139995 0 -0.44762466842658277 0.035495617606382562 0 -0.44373152638225888 0.054918512683775282 0 -0.47371948983828371 0.02169935017011965 0 -0.4607385204583333 0.0021709591060331442 0 -0.47371948983828371 0.02169935017011965 0 -0.4607385204583333 0.0021709591060331442 0 -0.4620727773536013 0.016997691712015369 0 -0.45334057665027422 0.01167953123832186 0 -0.4607385204583333 0.0021709591060331442 0 -0.4620727773536013 0.016997691712015369 0 -0.47371948983828371 0.02169935017011965 0 -0.46928231124624931 0.043037939576623309 0 -0.4620727773536013 0.016997691712015369 0 -0.46928231124624931 0.043037939576623309 0 -0.4620727773536013 0.016997691712015369 0 -0.46928231124624931 0.043037939576623309 0 -0.4620727773536013 0.016997691712015369 0 -0.45413349140622622 0.024863313794193289 0 -0.45334057665027422 0.01167953123832186 0 -0.4620727773536013 0.016997691712015369 0 -0.45413349140622622 0.024863313794193289 0 -0.44762466842658277 0.035495617606382562 0 -0.45413349140622622 0.024863313794193289 0 -0.44543434662267511 0.018871024059984639 0 -0.45334057665027422 0.01167953123832186 0 -0.45413349140622622 0.024863313794193289 0 -0.44543434662267511 0.018871024059984639 0 -0.44762466842658277 0.035495617606382562 0 -0.44543434662267511 0.018871024059984639 0 -0.43120423124954049 0.021307240980401179 0 -0.45334057665027422 0.01167953123832186 0 -0.44543434662267511 0.018871024059984639 0 -0.43995955958343991 0.0024606664598983662 0 -0.44543434662267511 0.018871024059984639 0 -0.43995955958343991 0.0024606664598983662 0 -0.43120423124954049 0.021307240980401179 0 -0.45334057665027422 0.01167953123832186 0 -0.4607385204583333 0.0021709591060331442 0 -0.43995955958343991 0.0024606664598983662 0 -0.4223523695623152 -0.0085772683537903988 0 -0.43995955958343991 0.0024606664598983662 0 -0.41945891390200007 0.0085330057458338215 0 -0.43995955958343991 0.0024606664598983662 0 -0.41945891390200007 0.0085330057458338215 0 -0.43120423124954049 0.021307240980401179 0 -0.40503762569256357 -0.00060233263436839952 0 -0.41945891390200007 0.0085330057458338215 0 -0.4031332873509948 0.017546598446117941 0 -0.41945891390200007 0.0085330057458338215 0 -0.41552324864131029 0.031803639633440052 0 -0.4031332873509948 0.017546598446117941 0 -0.41945891390200007 0.0085330057458338215 0 -0.43120423124954049 0.021307240980401179 0 -0.41552324864131029 0.031803639633440052 0 -0.43120423124954049 0.021307240980401179 0 -0.43206364040316869 0.038445983986473822 0 -0.41552324864131029 0.031803639633440052 0 -0.43206364040316869 0.038445983986473822 0 -0.41958929034729842 0.050230112575604009 0 -0.41552324864131029 0.031803639633440052 0 -0.44762466842658277 0.035495617606382562 0 -0.43120423124954049 0.021307240980401179 0 -0.43206364040316869 0.038445983986473822 0 -0.44373152638225888 0.054918512683775282 0 -0.43206364040316869 0.038445983986473822 0 -0.41958929034729842 0.050230112575604009 0 -0.44373152638225888 0.054918512683775282 0 -0.41958929034729842 0.050230112575604009 0 -0.4301092869665068 0.069385251668904635 0 -0.41958929034729842 0.050230112575604009 0 -0.40581790431860087 0.058164325267505403 0 -0.41173128829534661 0.076860930381240158 0 -0.41958929034729842 0.050230112575604009 0 -0.39713893467152112 0.043240842618793372 0 -0.40581790431860087 0.058164325267505403 0 -0.41958929034729842 0.050230112575604009 0 -0.41552324864131029 0.031803639633440052 0 -0.39713893467152112 0.043240842618793372 0 -0.39713893467152112 0.043240842618793372 0 -0.40581790431860087 0.058164325267505403 0 -0.39541058607504392 0.065603225515496716 0 -0.39713893467152112 0.043240842618793372 0 -0.38179542667073929 0.061533666805883937 0 -0.39541058607504392 0.065603225515496716 0 -0.39713893467152112 0.043240842618793372 0 -0.3767905243652282 0.050684130639670741 0 -0.39713893467152112 0.043240842618793372 0 -0.3767905243652282 0.050684130639670741 0 -0.38179542667073929 0.061533666805883937 0 -0.3767905243652282 0.050684130639670741 0 -0.38179542667073929 0.061533666805883937 0 -0.37395283832317411 0.060121943065181142 0 -0.39713893467152112 0.043240842618793372 0 -0.3767905243652282 0.050684130639670741 0 -0.38331369183213643 0.038947338391402089 0 -0.39713893467152112 0.043240842618793372 0 -0.38331369183213643 0.038947338391402089 0 -0.3846984951691198 0.025591204003105619 0 -0.3767905243652282 0.050684130639670741 0 -0.38331369183213643 0.038947338391402089 0 -0.3700761703646322 0.041199455501525588 0 -0.38331369183213643 0.038947338391402089 0 -0.3846984951691198 0.025591204003105619 0 -0.37319314733540432 0.030405286224044779 0 -0.38331369183213643 0.038947338391402089 0 -0.37319314733540432 0.030405286224044779 0 -0.3700761703646322 0.041199455501525588 0 -0.3846984951691198 0.025591204003105619 0 -0.3849678467495386 0.0057315818628459001 0 -0.36618277406783561 0.01649753716450323 0 -0.40503762569256357 -0.00060233263436839952 0 -0.3849678467495386 0.0057315818628459001 0 -0.4031332873509948 0.017546598446117941 0 -0.39713893467152112 0.043240842618793372 0 -0.3846984951691198 0.025591204003105619 0 -0.4031332873509948 0.017546598446117941 0 -0.3846984951691198 0.025591204003105619 0 -0.3849678467495386 0.0057315818628459001 0 -0.4031332873509948 0.017546598446117941 0 -0.41552324864131029 0.031803639633440052 0 -0.39713893467152112 0.043240842618793372 0 -0.4031332873509948 0.017546598446117941 0 -0.40387328624339491 0.1034917481868763 0 -0.3802750876790556 0.099015617898783284 0 -0.39165108055633679 0.083836150244108065 0 -0.40387328624339491 0.1034917481868763 0 -0.38030318135629793 0.11743060362849229 0 -0.39601528419144322 0.13012256599251229 0 -0.40387328624339491 0.1034917481868763 0 -0.41700245810268638 0.1168687097006911 0 -0.39601528419144322 0.13012256599251229 0 -0.40387328624339491 0.1034917481868763 0 -0.39601528419144322 0.13012256599251229 0 -0.40387328624339491 0.1034917481868763 0 -0.38030318135629793 0.11743060362849229 0 -0.3802750876790556 0.099015617898783284 0 -0.37731881372253062 0.085059993287677937 0 -0.38076019958247281 0.073590471129263757 0 -0.36704795324367112 0.07819772924543808 0 -0.37731881372253062 0.085059993287677937 0 -0.38076019958247281 0.073590471129263757 0 -0.39165108055633679 0.083836150244108065 0 -0.3802750876790556 0.099015617898783284 0 -0.37731881372253062 0.085059993287677937 0 -0.39165108055633679 0.083836150244108065 0 -0.38076019958247281 0.073590471129263757 0 -0.39541058607504392 0.065603225515496716 0 -0.39165108055633679 0.083836150244108065 0 -0.38179542667073929 0.061533666805883937 0 -0.37395283832317411 0.060121943065181142 0 -0.37133733722651552 0.0673120616769778 0 -0.38179542667073929 0.061533666805883937 0 -0.38076019958247281 0.073590471129263757 0 -0.37133733722651552 0.0673120616769778 0 -0.38179542667073929 0.061533666805883937 0 -0.38076019958247281 0.073590471129263757 0 -0.39541058607504392 0.065603225515496716 0 -0.39541058607504392 0.065603225515496716 0 -0.39165108055633679 0.083836150244108065 0 -0.41173128829534661 0.076860930381240158 0 -0.40581790431860087 0.058164325267505403 0 -0.39541058607504392 0.065603225515496716 0 -0.41173128829534661 0.076860930381240158 0 -0.40387328624339491 0.1034917481868763 0 -0.39165108055633679 0.083836150244108065 0 -0.41173128829534661 0.076860930381240158 0 -0.40387328624339491 0.1034917481868763 0 -0.41173128829534661 0.076860930381240158 0 -0.40387328624339491 0.1034917481868763 0 -0.41173128829534661 0.076860930381240158 0 -0.42479302256535068 0.094566571448311348 0 -0.41958929034729842 0.050230112575604009 0 -0.41173128829534661 0.076860930381240158 0 -0.4301092869665068 0.069385251668904635 0 -0.41958929034729842 0.050230112575604009 0 -0.41173128829534661 0.076860930381240158 0 -0.41173128829534661 0.076860930381240158 0 -0.4301092869665068 0.069385251668904635 0 -0.42479302256535068 0.094566571448311348 0 -0.4301092869665068 0.069385251668904635 0 -0.42479302256535068 0.094566571448311348 0 -0.44054363596258039 0.083591767965809416 0 -0.42479302256535068 0.094566571448311348 0 -0.44557043092500109 0.098368616314154195 0 -0.44054363596258039 0.083591767965809416 0 -0.42479302256535068 0.094566571448311348 0 -0.41700245810268638 0.1168687097006911 0 -0.43675733724447308 0.112003597638035 0 -0.42479302256535068 0.094566571448311348 0 -0.43675733724447308 0.112003597638035 0 -0.44557043092500109 0.098368616314154195 0 -0.40387328624339491 0.1034917481868763 0 -0.42479302256535068 0.094566571448311348 0 -0.41700245810268638 0.1168687097006911 0 -0.41700245810268638 0.1168687097006911 0 -0.43675733724447308 0.112003597638035 0 -0.43117099590017 0.12723592268683839 0 -0.43675733724447308 0.112003597638035 0 -0.44512766415285698 0.12221396669768229 0 -0.43117099590017 0.12723592268683839 0 -0.44512766415285698 0.12221396669768229 0 -0.45226958073074403 0.1097917815809915 0 -0.45993101122130159 0.1235669574325944 0 -0.43675733724447308 0.112003597638035 0 -0.44512766415285698 0.12221396669768229 0 -0.45226958073074403 0.1097917815809915 0 -0.45226958073074403 0.1097917815809915 0 -0.44557043092500109 0.098368616314154195 0 -0.45934465773901428 0.092760047625649086 0 -0.43675733724447308 0.112003597638035 0 -0.45226958073074403 0.1097917815809915 0 -0.44557043092500109 0.098368616314154195 0 -0.45226958073074403 0.1097917815809915 0 -0.46333509363136838 0.1084552523402243 0 -0.45934465773901428 0.092760047625649086 0 -0.46333509363136838 0.1084552523402243 0 -0.45934465773901428 0.092760047625649086 0 -0.47235264413842448 0.1026981627610116 0 -0.46333509363136838 0.1084552523402243 0 -0.45993101122130159 0.1235669574325944 0 -0.47277757432735751 0.1134593123008751 0 -0.45226958073074403 0.1097917815809915 0 -0.46333509363136838 0.1084552523402243 0 -0.45993101122130159 0.1235669574325944 0 -0.4301092869665068 0.069385251668904635 0 -0.45139819573627049 0.072962227767644439 0 -0.44054363596258039 0.083591767965809416 0 -0.44373152638225888 0.054918512683775282 0 -0.4301092869665068 0.069385251668904635 0 -0.45139819573627049 0.072962227767644439 0 -0.46094399315544199 0.061370661498818681 0 -0.44373152638225888 0.054918512683775282 0 -0.45139819573627049 0.072962227767644439 0 -0.44557043092500109 0.098368616314154195 0 -0.44054363596258039 0.083591767965809416 0 -0.45934465773901428 0.092760047625649086 0 -0.45139819573627049 0.072962227767644439 0 -0.44054363596258039 0.083591767965809416 0 -0.45934465773901428 0.092760047625649086 0 -0.45934465773901428 0.092760047625649086 0 -0.46582404653939002 0.077727038499578419 0 -0.47235264413842448 0.1026981627610116 0 -0.45139819573627049 0.072962227767644439 0 -0.45934465773901428 0.092760047625649086 0 -0.46582404653939002 0.077727038499578419 0 -0.46094399315544199 0.061370661498818681 0 -0.45139819573627049 0.072962227767644439 0 -0.46582404653939002 0.077727038499578419 0 -0.46094399315544199 0.061370661498818681 0 -0.46582404653939002 0.077727038499578419 0 -0.47649184513889709 0.069078187441231245 0 -0.4847113920812553 0.0549700089282006 0 -0.47649184513889709 0.069078187441231245 0 -0.4898044258926974 0.068538643141367595 0 -0.46582404653939002 0.077727038499578419 0 -0.47649184513889709 0.069078187441231245 0 -0.48370137903154498 0.095118435305839036 0 -0.47649184513889709 0.069078187441231245 0 -0.48370137903154498 0.095118435305839036 0 -0.46582404653939002 0.077727038499578419 0 -0.48370137903154498 0.095118435305839036 0 -0.47235264413842448 0.1026981627610116 0 -0.46582404653939002 0.077727038499578419 0 -0.47235264413842448 0.1026981627610116 0 -0.47649184513889709 0.069078187441231245 0 -0.48781889224333441 0.078928322365711109 0 -0.48370137903154498 0.095118435305839036 0 -0.5 0.084863593649263491 0 -0.48781889224333441 0.078928322365711109 0 -0.48370137903154498 0.095118435305839036 0 -0.5 0.084863593649263491 0 -0.48781889224333441 0.078928322365711109 0 -0.4898044258926974 0.068538643141367595 0 -0.5 0.05485310332243154 0 -0.5 0.084863593649263491 0 -0.4898044258926974 0.068538643141367595 0 -0.47649184513889709 0.069078187441231245 0 -0.48781889224333441 0.078928322365711109 0 -0.4898044258926974 0.068538643141367595 0 -0.47235264413842448 0.1026981627610116 0 -0.47888124173745888 0.12766928702244479 0 -0.47235264413842448 0.1026981627610116 0 -0.49091091292419292 0.1211586831704468 0 -0.47888124173745888 0.12766928702244479 0 -0.47277757432735751 0.1134593123008751 0 -0.47235264413842448 0.1026981627610116 0 -0.47888124173745888 0.12766928702244479 0 -0.46333509363136838 0.1084552523402243 0 -0.47277757432735751 0.1134593123008751 0 -0.47235264413842448 0.1026981627610116 0 -0.48370137903154498 0.095118435305839036 0 -0.47235264413842448 0.1026981627610116 0 -0.49091091292419292 0.1211586831704468 0 -0.48370137903154498 0.095118435305839036 0 -0.49091091292419292 0.1211586831704468 0 -0.5 0.084863593649263491 0 -0.48370137903154498 0.095118435305839036 0 -0.5 0.1148740839760954 0 -0.5 0.1148740839760954 0 -0.49091091292419292 0.1211586831704468 0 -0.49104039879962907 0.13224540795115841 0 -0.48370137903154498 0.095118435305839036 0 -0.5 0.1148740839760954 0 -0.49091091292419292 0.1211586831704468 0 -0.5 0.1148740839760954 0 -0.49104039879962907 0.13224540795115841 0 -0.5 0.14488457430292739 0 -0.49104039879962907 0.13224540795115841 0 -0.47888124173745888 0.12766928702244479 0 -0.4854098393364934 0.15264041128387781 0 -0.49091091292419292 0.1211586831704468 0 -0.49104039879962907 0.13224540795115841 0 -0.47888124173745888 0.12766928702244479 0 -0.47888124173745888 0.12766928702244479 0 -0.47509919557723418 0.1434815504765059 0 -0.46599668963208418 0.1392804978690719 0 -0.47277757432735751 0.1134593123008751 0 -0.47888124173745888 0.12766928702244479 0 -0.46599668963208418 0.1392804978690719 0 -0.47888124173745888 0.12766928702244479 0 -0.4854098393364934 0.15264041128387781 0 -0.47277757432735751 0.1134593123008751 0 -0.46599668963208418 0.1392804978690719 0 -0.47888124173745888 0.12766928702244479 0 -0.47509919557723418 0.1434815504765059 0 -0.4854098393364934 0.15264041128387781 0 -0.47010901160290069 0.15433600573062911 0 -0.47509919557723418 0.1434815504765059 0 -0.46599668963208418 0.1392804978690719 0 -0.47010901160290069 0.15433600573062911 0 -0.47509919557723418 0.1434815504765059 0 -0.4854098393364934 0.15264041128387781 0 -0.49104039879962907 0.13224540795115841 0 -0.4854098393364934 0.15264041128387781 0 -0.5 0.14488457430292739 0 -0.4854098393364934 0.15264041128387781 0 -0.49999999999999972 0.1748950646297594 0 -0.49193843693553252 0.17761153554530959 0 -0.4854098393364934 0.15264041128387781 0 -0.5 0.14488457430292739 0 -0.49999999999999972 0.1748950646297594 0 -0.4854098393364934 0.15264041128387781 0 -0.49193843693553252 0.17761153554530959 0 -0.4854098393364934 0.15264041128387781 0 -0.49193843693553252 0.17761153554530959 0 -0.47602686510023939 0.1673357159413873 0 -0.49193843693553252 0.17761153554530959 0 -0.49704120070068558 0.19712901171437089 0 -0.49999999999999972 0.1748950646297594 0 -0.49193843693553252 0.17761153554530959 0 -0.49999999999999989 0.19384921005217789 0 -0.49999999999999972 0.1748950646297594 0 -0.49193843693553252 0.17761153554530959 0 -0.49193843693553252 0.17761153554530959 0 -0.47218667858853558 0.18426720227538809 0 -0.48071405952023638 0.19788600459579209 0 -0.47218667858853558 0.18426720227538809 0 -0.47602686510023939 0.1673357159413873 0 -0.4671881248676692 0.17182358997414199 0 -0.49193843693553252 0.17761153554530959 0 -0.47218667858853558 0.18426720227538809 0 -0.47602686510023939 0.1673357159413873 0 -0.49193843693553252 0.17761153554530959 0 -0.47218667858853558 0.18426720227538809 0 -0.47010901160290069 0.15433600573062911 0 -0.4854098393364934 0.15264041128387781 0 -0.47602686510023939 0.1673357159413873 0 -0.47602686510023939 0.1673357159413873 0 -0.4671881248676692 0.17182358997414199 0 -0.46813495162690499 0.16464924877085679 0 -0.47010901160290069 0.15433600573062911 0 -0.47602686510023939 0.1673357159413873 0 -0.46813495162690499 0.16464924877085679 0 -0.47010901160290069 0.15433600573062911 0 -0.46813495162690499 0.16464924877085679 0 -0.45921580493681091 0.16510168343726869 0 -0.45921580493681091 0.16510168343726869 0 -0.44959684146380752 0.15883546938184201 0 -0.45389313941988779 0.14937134990038281 0 -0.4671881248676692 0.17182358997414199 0 -0.45921580493681091 0.16510168343726869 0 -0.46271754080141969 0.1780540628603417 0 -0.4671881248676692 0.17182358997414199 0 -0.46813495162690499 0.16464924877085679 0 -0.45921580493681091 0.16510168343726869 0 -0.45921580493681091 0.16510168343726869 0 -0.45617890569905389 0.16810725681488611 0 -0.44959684146380752 0.15883546938184201 0 -0.47218667858853558 0.18426720227538809 0 -0.46271754080141969 0.1780540628603417 0 -0.45243492024153842 0.19092286900546579 0 -0.45921580493681091 0.16510168343726869 0 -0.46271754080141969 0.1780540628603417 0 -0.45243492024153842 0.19092286900546579 0 -0.45921580493681091 0.16510168343726869 0 -0.45617890569905389 0.16810725681488611 0 -0.45243492024153842 0.19092286900546579 0 -0.45921580493681091 0.16510168343726869 0 -0.45243492024153842 0.19092286900546579 0 -0.47218667858853558 0.18426720227538809 0 -0.4671881248676692 0.17182358997414199 0 -0.46271754080141969 0.1780540628603417 0 -0.44319993548629899 0.17600718159525619 0 -0.44850189833694443 0.1922481628137071 0 -0.4308178099476685 0.18635470059311329 0 -0.45617890569905389 0.16810725681488611 0 -0.44850189833694443 0.1922481628137071 0 -0.45617890569905389 0.16810725681488611 0 -0.45243492024153842 0.19092286900546579 0 -0.44850189833694443 0.1922481628137071 0 -0.45617890569905389 0.16810725681488611 0 -0.44319993548629899 0.17600718159525619 0 -0.44850189833694443 0.1922481628137071 0 -0.45617890569905389 0.16810725681488611 0 -0.44319993548629899 0.17600718159525619 0 -0.44959684146380752 0.15883546938184201 0 -0.44319993548629899 0.17600718159525619 0 -0.44959684146380752 0.15883546938184201 0 -0.42999390545440908 0.1715818932342838 0 -0.44959684146380752 0.15883546938184201 0 -0.42999390545440908 0.1715818932342838 0 -0.44959684146380752 0.15883546938184201 0 -0.43619437370997982 0.15110254389504399 0 -0.42999390545440908 0.1715818932342838 0 -0.44959684146380752 0.15883546938184201 0 -0.44595565236961171 0.14966543147847711 0 -0.43619437370997982 0.15110254389504399 0 -0.44959684146380752 0.15883546938184201 0 -0.44595565236961171 0.14966543147847711 0 -0.45389313941988779 0.14937134990038281 0 -0.44595565236961171 0.14966543147847711 0 -0.44550939566759629 0.1384715741499524 0 -0.45389313941988779 0.14937134990038281 0 -0.44595565236961171 0.14966543147847711 0 -0.44550939566759629 0.1384715741499524 0 -0.43619437370997982 0.15110254389504399 0 -0.44512766415285698 0.12221396669768229 0 -0.45993101122130159 0.1235669574325944 0 -0.44550939566759629 0.1384715741499524 0 -0.44512766415285698 0.12221396669768229 0 -0.44550939566759629 0.1384715741499524 0 -0.43117099590017 0.12723592268683839 0 -0.45993101122130159 0.1235669574325944 0 -0.44550939566759629 0.1384715741499524 0 -0.46599668963208418 0.1392804978690719 0 -0.45993101122130159 0.1235669574325944 0 -0.47277757432735751 0.1134593123008751 0 -0.46599668963208418 0.1392804978690719 0 -0.47010901160290069 0.15433600573062911 0 -0.45921580493681091 0.16510168343726869 0 -0.46599668963208418 0.1392804978690719 0 -0.44550939566759629 0.1384715741499524 0 -0.46599668963208418 0.1392804978690719 0 -0.45389313941988779 0.14937134990038281 0 -0.45921580493681091 0.16510168343726869 0 -0.46599668963208418 0.1392804978690719 0 -0.45389313941988779 0.14937134990038281 0 -0.45921580493681091 0.16510168343726869 0 -0.46599668963208418 0.1392804978690719 0 -0.48001379399212563 0.248070689396476 0 -0.48455596597740358 0.2295143311106351 0 -0.46621661038700929 0.2312977850308304 0 -0.48001379399212563 0.248070689396476 0 -0.5 0.23652395136262849 0 -0.5 0.26460182883221378 0 -0.48001379399212563 0.248070689396476 0 -0.5 0.23652395136262849 0 -0.48455596597740358 0.2295143311106351 0 -0.5 0.23652395136262849 0 -0.48455596597740358 0.2295143311106351 0 -0.50000000000000056 0.20844607389304329 0 -0.48455596597740358 0.2295143311106351 0 -0.48162890554384707 0.21421339837260039 0 -0.46621661038700929 0.2312977850308304 0 -0.48162890554384707 0.21421339837260039 0 -0.46621661038700929 0.2312977850308304 0 -0.48162890554384707 0.21421339837260039 0 -0.46828237297354119 0.21000450820538871 0 -0.46621661038700929 0.2312977850308304 0 -0.48162890554384707 0.21421339837260039 0 -0.48071405952023638 0.19788600459579209 0 -0.46828237297354119 0.21000450820538871 0 -0.48455596597740358 0.2295143311106351 0 -0.48162890554384707 0.21421339837260039 0 -0.50000000000000056 0.20844607389304329 0 -0.48162890554384707 0.21421339837260039 0 -0.49704120070068558 0.19712901171437089 0 -0.48162890554384707 0.21421339837260039 0 -0.50000000000000056 0.20844607389304329 0 -0.49704120070068558 0.19712901171437089 0 -0.49193843693553252 0.17761153554530959 0 -0.49704120070068558 0.19712901171437089 0 -0.49999999999999989 0.19384921005217789 0 -0.49193843693553252 0.17761153554530959 0 -0.49704120070068558 0.19712901171437089 0 -0.48071405952023638 0.19788600459579209 0 -0.48162890554384707 0.21421339837260039 0 -0.49704120070068558 0.19712901171437089 0 -0.48071405952023638 0.19788600459579209 0 -0.50000000000000056 0.20844607389304329 0 -0.49704120070068558 0.19712901171437089 0 -0.49999999999999989 0.19384921005217789 0 -0.50000000000000056 0.20844607389304329 0 -0.49704120070068558 0.19712901171437089 0 -0.49704120070068558 0.19712901171437089 0 -0.49999999999999989 0.19384921005217789 0 -0.48071405952023638 0.19788600459579209 0 -0.46769466099016271 0.19907187491460299 0 -0.46828237297354119 0.21000450820538871 0 -0.47218667858853558 0.18426720227538809 0 -0.48071405952023638 0.19788600459579209 0 -0.46769466099016271 0.19907187491460299 0 -0.47218667858853558 0.18426720227538809 0 -0.45243492024153842 0.19092286900546579 0 -0.47218667858853558 0.18426720227538809 0 -0.45985829875437112 0.1961628890628429 0 -0.45243492024153842 0.19092286900546579 0 -0.47218667858853558 0.18426720227538809 0 -0.46769466099016271 0.19907187491460299 0 -0.45985829875437112 0.1961628890628429 0 -0.46769466099016271 0.19907187491460299 0 -0.45985829875437112 0.1961628890628429 0 -0.45682817397297681 0.2069176010703111 0 -0.45985829875437112 0.1961628890628429 0 -0.45014705997864229 0.19963489804844611 0 -0.45682817397297681 0.2069176010703111 0 -0.45985829875437112 0.1961628890628429 0 -0.45243492024153842 0.19092286900546579 0 -0.45014705997864229 0.19963489804844611 0 -0.45243492024153842 0.19092286900546579 0 -0.45014705997864229 0.19963489804844611 0 -0.44850189833694443 0.1922481628137071 0 -0.45014705997864229 0.19963489804844611 0 -0.44073353210111288 0.21667635341171321 0 -0.45243492024153842 0.19092286900546579 0 -0.44850189833694443 0.1922481628137071 0 -0.45014705997864229 0.19963489804844611 0 -0.45243492024153842 0.19092286900546579 0 -0.44850189833694443 0.1922481628137071 0 -0.44850189833694443 0.1922481628137071 0 -0.44073353210111288 0.21667635341171321 0 -0.42961413286641598 0.21135089570867149 0 -0.45014705997864229 0.19963489804844611 0 -0.44073353210111288 0.21667635341171321 0 -0.45682817397297681 0.2069176010703111 0 -0.44850189833694443 0.1922481628137071 0 -0.44073353210111288 0.21667635341171321 0 -0.44073353210111288 0.21667635341171321 0 -0.45682817397297681 0.2069176010703111 0 -0.45612136734584541 0.21907985245001341 0 -0.45682817397297681 0.2069176010703111 0 -0.46828237297354119 0.21000450820538871 0 -0.45612136734584541 0.21907985245001341 0 -0.46769466099016271 0.19907187491460299 0 -0.45682817397297681 0.2069176010703111 0 -0.46828237297354119 0.21000450820538871 0 -0.46621661038700929 0.2312977850308304 0 -0.45612136734584541 0.21907985245001341 0 -0.44936819818588303 0.23130814131826699 0 -0.46828237297354119 0.21000450820538871 0 -0.46621661038700929 0.2312977850308304 0 -0.45612136734584541 0.21907985245001341 0 -0.44073353210111288 0.21667635341171321 0 -0.45612136734584541 0.21907985245001341 0 -0.44936819818588303 0.23130814131826699 0 -0.44073353210111288 0.21667635341171321 0 -0.44936819818588303 0.23130814131826699 0 -0.43296516586527611 0.24110454400971759 0 -0.44936819818588303 0.23130814131826699 0 -0.45080431523017161 0.2483821716890604 0 -0.43296516586527611 0.24110454400971759 0 -0.46621661038700929 0.2312977850308304 0 -0.44936819818588303 0.23130814131826699 0 -0.45080431523017161 0.2483821716890604 0 -0.48001379399212563 0.248070689396476 0 -0.46621661038700929 0.2312977850308304 0 -0.45080431523017161 0.2483821716890604 0 -0.46621661038700929 0.2312977850308304 0 -0.45080431523017161 0.2483821716890604 0 -0.40685787037282212 0.24416574842401889 0 -0.41927932179198751 0.24743400108163491 0 -0.42234077465214132 0.22990328724957931 0 -0.40685787037282212 0.24416574842401889 0 -0.41927932179198751 0.24743400108163491 0 -0.4090359984402584 0.25646369111713663 0 -0.40685787037282212 0.24416574842401889 0 -0.42234077465214132 0.22990328724957931 0 -0.40881881904628309 0.23159057576862879 0 -0.41927932179198751 0.24743400108163491 0 -0.43296516586527611 0.24110454400971759 0 -0.42234077465214132 0.22990328724957931 0 -0.44073353210111288 0.21667635341171321 0 -0.42234077465214132 0.22990328724957931 0 -0.42961413286641598 0.21135089570867149 0 -0.44073353210111288 0.21667635341171321 0 -0.43296516586527611 0.24110454400971759 0 -0.42234077465214132 0.22990328724957931 0 -0.4173785593255111 0.21656919641997641 0 -0.42961413286641598 0.21135089570867149 0 -0.44073353210111288 0.21667635341171321 0 -0.43296516586527611 0.24110454400971759 0 -0.42234077465214132 0.22990328724957931 0 -0.40881881904628309 0.23159057576862879 0 -0.4173785593255111 0.21656919641997641 0 -0.40045495590077718 0.22933240480672021 0 -0.42234077465214132 0.22990328724957931 0 -0.40881881904628309 0.23159057576862879 0 -0.4173785593255111 0.21656919641997641 0 -0.4173785593255111 0.21656919641997641 0 -0.42018170795645521 0.20179109795869329 0 -0.39186151757596732 0.2113340331036844 0 -0.4173785593255111 0.21656919641997641 0 -0.42961413286641598 0.21135089570867149 0 -0.42018170795645521 0.20179109795869329 0 -0.44850189833694443 0.1922481628137071 0 -0.42018170795645521 0.20179109795869329 0 -0.4308178099476685 0.18635470059311329 0 -0.44850189833694443 0.1922481628137071 0 -0.42018170795645521 0.20179109795869329 0 -0.44850189833694443 0.1922481628137071 0 -0.42961413286641598 0.21135089570867149 0 -0.42018170795645521 0.20179109795869329 0 -0.42018170795645521 0.20179109795869329 0 -0.4308178099476685 0.18635470059311329 0 -0.41039096944501069 0.18432831708672559 0 -0.42018170795645521 0.20179109795869329 0 -0.40330555710326121 0.19863204727206721 0 -0.41039096944501069 0.18432831708672559 0 -0.40330555710326121 0.19863204727206721 0 -0.3907880334356123 0.1970747409391673 0 -0.41039096944501069 0.18432831708672559 0 -0.3907880334356123 0.1970747409391673 0 -0.41039096944501069 0.18432831708672559 0 -0.3907880334356123 0.1970747409391673 0 -0.41039096944501069 0.18432831708672559 0 -0.39818169718202018 0.18239728761370369 0 -0.40330555710326121 0.19863204727206721 0 -0.3907880334356123 0.1970747409391673 0 -0.39186151757596732 0.2113340331036844 0 -0.3907880334356123 0.1970747409391673 0 -0.38291015329394512 0.19362784082274459 0 -0.38411916642626343 0.18595505558210659 0 -0.38291015329394512 0.19362784082274459 0 -0.38411916642626343 0.18595505558210659 0 -0.37447615234596437 0.1974826766164309 0 -0.38333981103976661 0.20191780116030891 0 -0.37930945999390703 0.20453845771298201 0 -0.37447615234596437 0.1974826766164309 0 -0.38291015329394512 0.19362784082274459 0 -0.38333981103976661 0.20191780116030891 0 -0.37447615234596437 0.1974826766164309 0 -0.3907880334356123 0.1970747409391673 0 -0.38291015329394512 0.19362784082274459 0 -0.38333981103976661 0.20191780116030891 0 -0.38291015329394512 0.19362784082274459 0 -0.38333981103976661 0.20191780116030891 0 -0.3907880334356123 0.1970747409391673 0 -0.38333981103976661 0.20191780116030891 0 -0.38333981103976661 0.20191780116030891 0 -0.38396573775812709 0.21399464073761729 0 -0.39186151757596732 0.2113340331036844 0 -0.3907880334356123 0.1970747409391673 0 -0.38333981103976661 0.20191780116030891 0 -0.39186151757596732 0.2113340331036844 0 -0.38333981103976661 0.20191780116030891 0 -0.38396573775812709 0.21399464073761729 0 -0.38333981103976661 0.20191780116030891 0 -0.37930945999390703 0.20453845771298201 0 -0.38333981103976661 0.20191780116030891 0 -0.37930945999390703 0.20453845771298201 0 -0.38396573775812709 0.21399464073761729 0 -0.38396573775812709 0.21399464073761729 0 -0.37025851571777402 0.21861350555426201 0 -0.38396573775812709 0.21399464073761729 0 -0.38435543135669248 0.2215135194435745 0 -0.37025851571777402 0.21861350555426201 0 -0.37930945999390703 0.20453845771298201 0 -0.38396573775812709 0.21399464073761729 0 -0.37025851571777402 0.21861350555426201 0 -0.38396573775812709 0.21399464073761729 0 -0.38435543135669248 0.2215135194435745 0 -0.38396573775812709 0.21399464073761729 0 -0.39186151757596732 0.2113340331036844 0 -0.39253565678264518 0.2202887512462707 0 -0.38396573775812709 0.21399464073761729 0 -0.39253565678264518 0.2202887512462707 0 -0.38435543135669248 0.2215135194435745 0 -0.38396573775812709 0.21399464073761729 0 -0.39186151757596732 0.2113340331036844 0 -0.4173785593255111 0.21656919641997641 0 -0.39253565678264518 0.2202887512462707 0 -0.4173785593255111 0.21656919641997641 0 -0.39186151757596732 0.2113340331036844 0 -0.39253565678264518 0.2202887512462707 0 -0.42018170795645521 0.20179109795869329 0 -0.39186151757596732 0.2113340331036844 0 -0.39186151757596732 0.2113340331036844 0 -0.39253565678264518 0.2202887512462707 0 -0.42018170795645521 0.20179109795869329 0 -0.40330555710326121 0.19863204727206721 0 -0.39186151757596732 0.2113340331036844 0 -0.3907880334356123 0.1970747409391673 0 -0.39186151757596732 0.2113340331036844 0 -0.40045495590077718 0.22933240480672021 0 -0.39253565678264518 0.2202887512462707 0 -0.39440299302339232 0.24509293048381439 0 -0.4173785593255111 0.21656919641997641 0 -0.40045495590077718 0.22933240480672021 0 -0.39253565678264518 0.2202887512462707 0 -0.39253565678264518 0.2202887512462707 0 -0.39440299302339232 0.24509293048381439 0 -0.40881881904628309 0.23159057576862879 0 -0.40045495590077718 0.22933240480672021 0 -0.40196559482048377 0.23732636315020719 0 -0.39253565678264518 0.2202887512462707 0 -0.38435543135669248 0.2215135194435745 0 -0.38435543135669248 0.2215135194435745 0 -0.37877357392755029 0.2338751151302236 0 -0.38569924469414357 0.2474415036982523 0 -0.39253565678264518 0.2202887512462707 0 -0.38435543135669248 0.2215135194435745 0 -0.39440299302339232 0.24509293048381439 0 -0.38435543135669248 0.2215135194435745 0 -0.36922760076942868 0.2237785041882164 0 -0.38435543135669248 0.2215135194435745 0 -0.37877357392755029 0.2338751151302236 0 -0.36922760076942868 0.2237785041882164 0 -0.38435543135669248 0.2215135194435745 0 -0.38569924469414357 0.2474415036982523 0 -0.39440299302339232 0.24509293048381439 0 -0.38435543135669248 0.2215135194435745 0 -0.38569924469414357 0.2474415036982523 0 -0.37877357392755029 0.2338751151302236 0 -0.37734908242764809 0.24311785687165169 0 -0.37321937397734412 0.23840352251667221 0 -0.37877357392755029 0.2338751151302236 0 -0.37734908242764809 0.24311785687165169 0 -0.38569924469414357 0.2474415036982523 0 -0.37734908242764809 0.24311785687165169 0 -0.38569924469414357 0.2474415036982523 0 -0.3758827393571097 0.25024210809209668 0 -0.40045495590077718 0.22933240480672021 0 -0.39440299302339232 0.24509293048381439 0 -0.40196559482048377 0.23732636315020719 0 -0.40685787037282212 0.24416574842401889 0 -0.40881881904628309 0.23159057576862879 0 -0.40196559482048377 0.23732636315020719 0 -0.40685787037282212 0.24416574842401889 0 -0.39440299302339232 0.24509293048381439 0 -0.40196559482048377 0.23732636315020719 0 -0.40685787037282212 0.24416574842401889 0 -0.39440299302339232 0.24509293048381439 0 -0.4090359984402584 0.25646369111713663 0 -0.42051501523297818 0.15641361092906639 0 -0.40615036035525742 0.16149043385923911 0 -0.40350542007165602 0.14680743962207091 0 -0.42488165430571079 0.1409344783103697 0 -0.42051501523297818 0.15641361092906639 0 -0.40350542007165602 0.14680743962207091 0 -0.41700245810268638 0.1168687097006911 0 -0.41239913603513279 0.1329925828905813 0 -0.43117099590017 0.12723592268683839 0 -0.41700245810268638 0.1168687097006911 0 -0.41239913603513279 0.1329925828905813 0 -0.39601528419144322 0.13012256599251229 0 -0.41239913603513279 0.1329925828905813 0 -0.42488165430571079 0.1409344783103697 0 -0.40350542007165602 0.14680743962207091 0 -0.44550939566759629 0.1384715741499524 0 -0.43117099590017 0.12723592268683839 0 -0.42488165430571079 0.1409344783103697 0 -0.41239913603513279 0.1329925828905813 0 -0.43117099590017 0.12723592268683839 0 -0.42488165430571079 0.1409344783103697 0 -0.42488165430571079 0.1409344783103697 0 -0.43619437370997982 0.15110254389504399 0 -0.42051501523297818 0.15641361092906639 0 -0.44550939566759629 0.1384715741499524 0 -0.42488165430571079 0.1409344783103697 0 -0.43619437370997982 0.15110254389504399 0 -0.43619437370997982 0.15110254389504399 0 -0.42999390545440908 0.1715818932342838 0 -0.42051501523297818 0.15641361092906639 0 -0.42999390545440908 0.1715818932342838 0 -0.4308178099476685 0.18635470059311329 0 -0.41039096944501069 0.18432831708672559 0 -0.44319993548629899 0.17600718159525619 0 -0.42999390545440908 0.1715818932342838 0 -0.4308178099476685 0.18635470059311329 0 -0.42999390545440908 0.1715818932342838 0 -0.41039096944501069 0.18432831708672559 0 -0.42999390545440908 0.1715818932342838 0 -0.41039096944501069 0.18432831708672559 0 -0.4138961418732805 0.16942358309805061 0 -0.41039096944501069 0.18432831708672559 0 -0.4138961418732805 0.16942358309805061 0 -0.40243045887874729 0.17330366038093811 0 -0.42999390545440908 0.1715818932342838 0 -0.42051501523297818 0.15641361092906639 0 -0.4138961418732805 0.16942358309805061 0 -0.4138961418732805 0.16942358309805061 0 -0.40615036035525742 0.16149043385923911 0 -0.40243045887874729 0.17330366038093811 0 -0.42051501523297818 0.15641361092906639 0 -0.4138961418732805 0.16942358309805061 0 -0.40615036035525742 0.16149043385923911 0 -0.40615036035525742 0.16149043385923911 0 -0.39860821790191092 0.1575071652412092 0 -0.39661980904123872 0.1649774036853785 0 -0.39661980904123872 0.1649774036853785 0 -0.38911732696871038 0.17488243204798401 0 -0.38775479658620449 0.15678368417022789 0 -0.40615036035525742 0.16149043385923911 0 -0.39661980904123872 0.1649774036853785 0 -0.40243045887874729 0.17330366038093811 0 -0.39661980904123872 0.1649774036853785 0 -0.40243045887874729 0.17330366038093811 0 -0.38911732696871038 0.17488243204798401 0 -0.39860821790191092 0.1575071652412092 0 -0.39661980904123872 0.1649774036853785 0 -0.38775479658620449 0.15678368417022789 0 -0.3907880334356123 0.1970747409391673 0 -0.39818169718202018 0.18239728761370369 0 -0.38911732696871038 0.17488243204798401 0 -0.41039096944501069 0.18432831708672559 0 -0.40243045887874729 0.17330366038093811 0 -0.39818169718202018 0.18239728761370369 0 -0.40243045887874729 0.17330366038093811 0 -0.39818169718202018 0.18239728761370369 0 -0.38911732696871038 0.17488243204798401 0 -0.3907880334356123 0.1970747409391673 0 -0.38911732696871038 0.17488243204798401 0 -0.3907880334356123 0.1970747409391673 0 -0.38411916642626343 0.18595505558210659 0 -0.38911732696871038 0.17488243204798401 0 -0.37869378897414779 0.17635184767859829 0 -0.37447615234596437 0.1974826766164309 0 -0.38411916642626343 0.18595505558210659 0 -0.37869378897414779 0.17635184767859829 0 -0.37447615234596437 0.1974826766164309 0 -0.38411916642626343 0.18595505558210659 0 -0.38911732696871038 0.17488243204798401 0 -0.37869378897414779 0.17635184767859829 0 -0.38911732696871038 0.17488243204798401 0 -0.37869378897414779 0.17635184767859829 0 -0.38291142560233132 0.15522101874076569 0 -0.38911732696871038 0.17488243204798401 0 -0.38775479658620449 0.15678368417022789 0 -0.38911732696871038 0.17488243204798401 0 -0.38775479658620449 0.15678368417022789 0 -0.38291142560233132 0.15522101874076569 0 -0.37869378897414779 0.17635184767859829 0 -0.38291142560233132 0.15522101874076569 0 -0.37869378897414779 0.17635184767859829 0 -0.38291142560233132 0.15522101874076569 0 -0.37323261601430568 0.15882394471872499 0 -0.37750491219558779 0.15191400228388749 0 -0.38291142560233132 0.15522101874076569 0 -0.37323261601430568 0.15882394471872499 0 -0.37750491219558779 0.15191400228388749 0 -0.38164502994643051 0.14501255186461601 0 -0.37099932450430451 0.14867367563086389 0 -0.38775479658620449 0.15678368417022789 0 -0.38744662050180861 0.15269012315680081 0 -0.39601528419144322 0.13012256599251229 0 -0.38164502994643051 0.14501255186461601 0 -0.38744662050180861 0.15269012315680081 0 -0.39601528419144322 0.13012256599251229 0 -0.37750491219558779 0.15191400228388749 0 -0.38237699706153949 0.15120942401151749 0 -0.38164502994643051 0.14501255186461601 0 -0.37750491219558779 0.15191400228388749 0 -0.38237699706153949 0.15120942401151749 0 -0.38291142560233132 0.15522101874076569 0 -0.38164502994643051 0.14501255186461601 0 -0.37454403994444641 0.13597894328274149 0 -0.37099932450430451 0.14867367563086389 0 -0.38237699706153949 0.15120942401151749 0 -0.38291142560233132 0.15522101874076569 0 -0.38744662050180861 0.15269012315680081 0 -0.38775479658620449 0.15678368417022789 0 -0.38291142560233132 0.15522101874076569 0 -0.38744662050180861 0.15269012315680081 0 -0.38237699706153949 0.15120942401151749 0 -0.38164502994643051 0.14501255186461601 0 -0.38744662050180861 0.15269012315680081 0 -0.38775479658620449 0.15678368417022789 0 -0.38744662050180861 0.15269012315680081 0 -0.38775479658620449 0.15678368417022789 0 -0.40350542007165602 0.14680743962207091 0 -0.39601528419144322 0.13012256599251229 0 -0.39860821790191092 0.1575071652412092 0 -0.38775479658620449 0.15678368417022789 0 -0.40350542007165602 0.14680743962207091 0 -0.38775479658620449 0.15678368417022789 0 -0.39601528419144322 0.13012256599251229 0 -0.40615036035525742 0.16149043385923911 0 -0.39860821790191092 0.1575071652412092 0 -0.40350542007165602 0.14680743962207091 0 -0.41239913603513279 0.1329925828905813 0 -0.40350542007165602 0.14680743962207091 0 -0.39601528419144322 0.13012256599251229 0 -0.38030318135629793 0.11743060362849229 0 -0.39601528419144322 0.13012256599251229 0 -0.37454403994444641 0.13597894328274149 0 -0.38164502994643051 0.14501255186461601 0 -0.39601528419144322 0.13012256599251229 0 -0.37454403994444641 0.13597894328274149 0 -0.38030318135629793 0.11743060362849229 0 -0.36368460586676732 0.12767002607820199 0 -0.37454403994444641 0.13597894328274149 0 -0.36368460586676732 0.12767002607820199 0 -0.37454403994444641 0.13597894328274149 0 -0.3555890384297431 0.1437813711120661 0 -0.36368460586676732 0.12767002607820199 0 -0.3555890384297431 0.1437813711120661 0 -0.34842263627384329 0.1195589161987036 0 -0.3555890384297431 0.1437813711120661 0 -0.32819122786026711 0.13371433070117419 0 -0.34842263627384329 0.1195589161987036 0 -0.3555890384297431 0.1437813711120661 0 -0.36286105063600771 0.15567804165074431 0 -0.35308978202663432 0.16025505404620161 0 -0.3555890384297431 0.1437813711120661 0 -0.35308978202663432 0.16025505404620161 0 -0.33960310914220643 0.15356270672761879 0 -0.3555890384297431 0.1437813711120661 0 -0.36286105063600771 0.15567804165074431 0 -0.37099932450430451 0.14867367563086389 0 -0.37454403994444641 0.13597894328274149 0 -0.3555890384297431 0.1437813711120661 0 -0.37099932450430451 0.14867367563086389 0 -0.37750491219558779 0.15191400228388749 0 -0.37099932450430451 0.14867367563086389 0 -0.37323261601430568 0.15882394471872499 0 -0.36286105063600771 0.15567804165074431 0 -0.37099932450430451 0.14867367563086389 0 -0.37323261601430568 0.15882394471872499 0 -0.36286105063600771 0.15567804165074431 0 -0.37323261601430568 0.15882394471872499 0 -0.36707683950615011 0.16487825843910001 0 -0.37869378897414779 0.17635184767859829 0 -0.37323261601430568 0.15882394471872499 0 -0.36707683950615011 0.16487825843910001 0 -0.36707683950615011 0.16487825843910001 0 -0.36677447328504031 0.17641328838221501 0 -0.35500263530177673 0.1728383739509339 0 -0.36286105063600771 0.15567804165074431 0 -0.36707683950615011 0.16487825843910001 0 -0.35308978202663432 0.16025505404620161 0 -0.37869378897414779 0.17635184767859829 0 -0.36872639007617369 0.18603438674875231 0 -0.37447615234596437 0.1974826766164309 0 -0.37869378897414779 0.17635184767859829 0 -0.36872639007617369 0.18603438674875231 0 -0.36677447328504031 0.17641328838221501 0 -0.37869378897414779 0.17635184767859829 0 -0.36707683950615011 0.16487825843910001 0 -0.36677447328504031 0.17641328838221501 0 -0.36677447328504031 0.17641328838221501 0 -0.36134248273758168 0.1838749169770717 0 -0.35500263530177673 0.1728383739509339 0 -0.36872639007617369 0.18603438674875231 0 -0.36677447328504031 0.17641328838221501 0 -0.36134248273758168 0.1838749169770717 0 -0.36134248273758168 0.1838749169770717 0 -0.35500263530177673 0.1728383739509339 0 -0.34480525175324239 0.1930501222148493 0 -0.35500263530177673 0.1728383739509339 0 -0.33827644263182072 0.17098227924120499 0 -0.34480525175324239 0.1930501222148493 0 -0.35500263530177673 0.1728383739509339 0 -0.35308978202663432 0.16025505404620161 0 -0.33827644263182072 0.17098227924120499 0 -0.36707683950615011 0.16487825843910001 0 -0.35500263530177673 0.1728383739509339 0 -0.35308978202663432 0.16025505404620161 0 -0.33827644263182072 0.17098227924120499 0 -0.32286905476256689 0.1590804985374471 0 -0.33960310914220643 0.15356270672761879 0 -0.35308978202663432 0.16025505404620161 0 -0.33827644263182072 0.17098227924120499 0 -0.33960310914220643 0.15356270672761879 0 -0.33827644263182072 0.17098227924120499 0 -0.3175468816648665 0.1844466663737199 0 -0.34480525175324239 0.1930501222148493 0 -0.33827644263182072 0.17098227924120499 0 -0.3175468816648665 0.1844466663737199 0 -0.32286905476256689 0.1590804985374471 0 -0.3175468816648665 0.1844466663737199 0 -0.32286905476256689 0.1590804985374471 0 -0.3175468816648665 0.1844466663737199 0 -0.32286905476256689 0.1590804985374471 0 -0.30652584879432709 0.1656712785438203 0 -0.32286905476256689 0.1590804985374471 0 -0.32819122786026711 0.13371433070117419 0 -0.32286905476256689 0.1590804985374471 0 -0.31040621879259622 0.1341772306586069 0 -0.30471675311996532 0.15094431812759279 0 -0.32286905476256689 0.1590804985374471 0 -0.32819122786026711 0.13371433070117419 0 -0.31040621879259622 0.1341772306586069 0 -0.32819122786026711 0.13371433070117419 0 -0.31040621879259622 0.1341772306586069 0 -0.30600923180644868 0.1158651582711437 0 -0.32286905476256689 0.1590804985374471 0 -0.32819122786026711 0.13371433070117419 0 -0.33960310914220643 0.15356270672761879 0 -0.3555890384297431 0.1437813711120661 0 -0.32819122786026711 0.13371433070117419 0 -0.33960310914220643 0.15356270672761879 0 -0.34884817714731708 0.24293906875282209 0 -0.34505270852980441 0.22710700012615939 0 -0.34884817714731708 0.24293906875282209 0 -0.36619807714700892 0.23895675472803479 0 -0.35734847960851851 0.23326557139516699 0 -0.34884817714731708 0.24293906875282209 0 -0.35734847960851851 0.23326557139516699 0 -0.34505270852980441 0.22710700012615939 0 -0.34884817714731708 0.24293906875282209 0 -0.37126343674920531 0.24516953941134051 0 -0.36619807714700892 0.23895675472803479 0 -0.34884817714731708 0.24293906875282209 0 -0.37126343674920531 0.24516953941134051 0 -0.34884817714731708 0.24293906875282209 0 -0.37126343674920531 0.24516953941134051 0 -0.36543855953242738 0.25359307670828002 0 -0.37126343674920531 0.24516953941134051 0 -0.3758827393571097 0.25024210809209668 0 -0.36543855953242738 0.25359307670828002 0 -0.37734908242764809 0.24311785687165169 0 -0.37126343674920531 0.24516953941134051 0 -0.37321937397734412 0.23840352251667221 0 -0.37734908242764809 0.24311785687165169 0 -0.37126343674920531 0.24516953941134051 0 -0.3758827393571097 0.25024210809209668 0 -0.37126343674920531 0.24516953941134051 0 -0.37321937397734412 0.23840352251667221 0 -0.36619807714700892 0.23895675472803479 0 -0.36619807714700892 0.23895675472803479 0 -0.36922760076942868 0.2237785041882164 0 -0.35734847960851851 0.23326557139516699 0 -0.36922760076942868 0.2237785041882164 0 -0.34505270852980441 0.22710700012615939 0 -0.37025851571777402 0.21861350555426201 0 -0.37321937397734412 0.23840352251667221 0 -0.36619807714700892 0.23895675472803479 0 -0.36922760076942868 0.2237785041882164 0 -0.36619807714700892 0.23895675472803479 0 -0.36922760076942868 0.2237785041882164 0 -0.37877357392755029 0.2338751151302236 0 -0.37321937397734412 0.23840352251667221 0 -0.36922760076942868 0.2237785041882164 0 -0.38435543135669248 0.2215135194435745 0 -0.36922760076942868 0.2237785041882164 0 -0.37025851571777402 0.21861350555426201 0 -0.36922760076942868 0.2237785041882164 0 -0.37025851571777402 0.21861350555426201 0 -0.36922760076942868 0.2237785041882164 0 -0.35734847960851851 0.23326557139516699 0 -0.34505270852980441 0.22710700012615939 0 -0.36922760076942868 0.2237785041882164 0 -0.34505270852980441 0.22710700012615939 0 -0.34884817714731708 0.24293906875282209 0 -0.34505270852980441 0.22710700012615939 0 -0.34349835001642409 0.22763076576071281 0 -0.34505270852980441 0.22710700012615939 0 -0.37025851571777402 0.21861350555426201 0 -0.34505270852980441 0.22710700012615939 0 -0.34349835001642409 0.22763076576071281 0 -0.34505270852980441 0.22710700012615939 0 -0.34307888340903953 0.2188735675996373 0 -0.34505270852980441 0.22710700012615939 0 -0.34307888340903953 0.2188735675996373 0 -0.34349835001642409 0.22763076576071281 0 -0.34505270852980441 0.22710700012615939 0 -0.35313535855034101 0.2092874603348536 0 -0.37025851571777402 0.21861350555426201 0 -0.34505270852980441 0.22710700012615939 0 -0.35313535855034101 0.2092874603348536 0 -0.34307888340903953 0.2188735675996373 0 -0.35313535855034101 0.2092874603348536 0 -0.33908538436793029 0.20647191054895209 0 -0.34307888340903953 0.2188735675996373 0 -0.37025851571777402 0.21861350555426201 0 -0.37447615234596437 0.1974826766164309 0 -0.35313535855034101 0.2092874603348536 0 -0.37025851571777402 0.21861350555426201 0 -0.36505376991305322 0.20535821164874721 0 -0.37930945999390703 0.20453845771298201 0 -0.37025851571777402 0.21861350555426201 0 -0.37447615234596437 0.1974826766164309 0 -0.37025851571777402 0.21861350555426201 0 -0.36505376991305322 0.20535821164874721 0 -0.37447615234596437 0.1974826766164309 0 -0.35313535855034101 0.2092874603348536 0 -0.36505376991305322 0.20535821164874721 0 -0.36234505303813469 0.19604920408944571 0 -0.36505376991305322 0.20535821164874721 0 -0.36234505303813469 0.19604920408944571 0 -0.37447615234596437 0.1974826766164309 0 -0.36872639007617369 0.18603438674875231 0 -0.36234505303813469 0.19604920408944571 0 -0.37447615234596437 0.1974826766164309 0 -0.36872639007617369 0.18603438674875231 0 -0.36134248273758168 0.1838749169770717 0 -0.36234505303813469 0.19604920408944571 0 -0.36134248273758168 0.1838749169770717 0 -0.36234505303813469 0.19604920408944571 0 -0.34480525175324239 0.1930501222148493 0 -0.35313535855034101 0.2092874603348536 0 -0.34480525175324239 0.1930501222148493 0 -0.33908538436793029 0.20647191054895209 0 -0.35313535855034101 0.2092874603348536 0 -0.36234505303813469 0.19604920408944571 0 -0.34480525175324239 0.1930501222148493 0 -0.3175468816648665 0.1844466663737199 0 -0.34480525175324239 0.1930501222148493 0 -0.3175468816648665 0.1844466663737199 0 -0.34480525175324239 0.1930501222148493 0 -0.3275977885870166 0.200767902748021 0 -0.34480525175324239 0.1930501222148493 0 -0.3275977885870166 0.200767902748021 0 -0.33908538436793029 0.20647191054895209 0 -0.3175468816648665 0.1844466663737199 0 -0.31211057532811581 0.2103568080425447 0 -0.3175468816648665 0.1844466663737199 0 -0.3275977885870166 0.200767902748021 0 -0.31211057532811581 0.2103568080425447 0 -0.3275977885870166 0.200767902748021 0 -0.32931877148810079 0.2145953684846324 0 -0.31211057532811581 0.2103568080425447 0 -0.32931877148810079 0.2145953684846324 0 -0.32414769230171331 0.2233429159465157 0 -0.31211057532811581 0.2103568080425447 0 -0.3275977885870166 0.200767902748021 0 -0.32931877148810079 0.2145953684846324 0 -0.33908538436793029 0.20647191054895209 0 -0.32931877148810079 0.2145953684846324 0 -0.33908538436793029 0.20647191054895209 0 -0.34307888340903953 0.2188735675996373 0 -0.34349835001642409 0.22763076576071281 0 -0.32657178975336187 0.2333344374044389 0 -0.34349835001642409 0.22763076576071281 0 -0.33116459863210868 0.22947741248038259 0 -0.32657178975336187 0.2333344374044389 0 -0.34349835001642409 0.22763076576071281 0 -0.32657178975336187 0.2333344374044389 0 -0.33656873666640291 0.23495635698035999 0 -0.34307888340903953 0.2188735675996373 0 -0.33614995291236838 0.22325081637422919 0 -0.34349835001642409 0.22763076576071281 0 -0.32931877148810079 0.2145953684846324 0 -0.34307888340903953 0.2188735675996373 0 -0.33614995291236838 0.22325081637422919 0 -0.34349835001642409 0.22763076576071281 0 -0.33116459863210868 0.22947741248038259 0 -0.33614995291236838 0.22325081637422919 0 -0.34349835001642409 0.22763076576071281 0 -0.33116459863210868 0.22947741248038259 0 -0.33116459863210868 0.22947741248038259 0 -0.32988922511748953 0.22286549685693841 0 -0.32414769230171331 0.2233429159465157 0 -0.32931877148810079 0.2145953684846324 0 -0.33614995291236838 0.22325081637422919 0 -0.32988922511748953 0.22286549685693841 0 -0.33614995291236838 0.22325081637422919 0 -0.33116459863210868 0.22947741248038259 0 -0.32988922511748953 0.22286549685693841 0 -0.31583119349110278 0.22942797241015739 0 -0.32657178975336187 0.2333344374044389 0 -0.30964522949029982 0.23903810904816539 0 -0.32414769230171331 0.2233429159465157 0 -0.31583119349110278 0.22942797241015739 0 -0.31211057532811581 0.2103568080425447 0 -0.32931877148810079 0.2145953684846324 0 -0.32988922511748953 0.22286549685693841 0 -0.32414769230171331 0.2233429159465157 0 -0.33116459863210868 0.22947741248038259 0 -0.32414769230171331 0.2233429159465157 0 -0.32657178975336187 0.2333344374044389 0 -0.32414769230171331 0.2233429159465157 0 -0.31583119349110278 0.22942797241015739 0 -0.32657178975336187 0.2333344374044389 0 -0.32657178975336187 0.2333344374044389 0 -0.30964522949029982 0.23903810904816539 0 -0.32924670331880851 0.24098858890049341 0 -0.30964522949029982 0.23903810904816539 0 -0.3173478352698661 0.25182257248945911 0 -0.32657178975336187 0.2333344374044389 0 -0.32924670331880851 0.24098858890049341 0 -0.30964522949029982 0.23903810904816539 0 -0.32924670331880851 0.24098858890049341 0 -0.30964522949029982 0.23903810904816539 0 -0.32924670331880851 0.24098858890049341 0 -0.32654676090150447 0.25233624660696169 0 -0.3173478352698661 0.25182257248945911 0 -0.34884817714731708 0.24293906875282209 0 -0.32924670331880851 0.24098858890049341 0 -0.33656873666640291 0.23495635698035999 0 -0.34884817714731708 0.24293906875282209 0 -0.32924670331880851 0.24098858890049341 0 -0.33770320029179868 0.25547285533439767 0 -0.32924670331880851 0.24098858890049341 0 -0.33770320029179868 0.25547285533439767 0 -0.32654676090150447 0.25233624660696169 0 -0.34884817714731708 0.24293906875282209 0 -0.32924670331880851 0.24098858890049341 0 -0.32657178975336187 0.2333344374044389 0 -0.32924670331880851 0.24098858890049341 0 -0.33656873666640291 0.23495635698035999 0 -0.34884817714731708 0.24293906875282209 0 -0.34349835001642409 0.22763076576071281 0 -0.33656873666640291 0.23495635698035999 0 -0.28428102633662689 0.23651419846601041 0 -0.2928652661105029 0.24469238255824399 0 -0.30964522949029982 0.23903810904816539 0 -0.2928652661105029 0.24469238255824399 0 -0.27844142326740617 0.24955272406526871 0 -0.28428102633662689 0.23651419846601041 0 -0.2928652661105029 0.24469238255824399 0 -0.27844142326740617 0.24955272406526871 0 -0.28428102633662689 0.23651419846601041 0 -0.2928652661105029 0.24469238255824399 0 -0.30964522949029982 0.23903810904816539 0 -0.3173478352698661 0.25182257248945911 0 -0.30453831883258342 0.25581327113943819 0 -0.28428102633662689 0.23651419846601041 0 -0.3066742689913648 0.23626694971136949 0 -0.30964522949029982 0.23903810904816539 0 -0.2928652661105029 0.24469238255824399 0 -0.30964522949029982 0.23903810904816539 0 -0.2928652661105029 0.24469238255824399 0 -0.30964522949029982 0.23903810904816539 0 -0.30453831883258342 0.25581327113943819 0 -0.28428102633662689 0.23651419846601041 0 -0.30964522949029982 0.23903810904816539 0 -0.31583119349110278 0.22942797241015739 0 -0.3066742689913648 0.23626694971136949 0 -0.30964522949029982 0.23903810904816539 0 -0.3066742689913648 0.23626694971136949 0 -0.29537295169496391 0.2224524800627031 0 -0.31211057532811581 0.2103568080425447 0 -0.3066742689913648 0.23626694971136949 0 -0.31211057532811581 0.2103568080425447 0 -0.31583119349110278 0.22942797241015739 0 -0.3066742689913648 0.23626694971136949 0 -0.31211057532811581 0.2103568080425447 0 -0.29537295169496391 0.2224524800627031 0 -0.28429549848709318 0.22383771052930981 0 -0.2890178274213846 0.21856242777448939 0 -0.28428102633662689 0.23651419846601041 0 -0.3066742689913648 0.23626694971136949 0 -0.29537295169496391 0.2224524800627031 0 -0.28428102633662689 0.23651419846601041 0 -0.29537295169496391 0.2224524800627031 0 -0.28429549848709318 0.22383771052930981 0 -0.28429549848709318 0.22383771052930981 0 -0.2890178274213846 0.21856242777448939 0 -0.28068587916068471 0.21673121080706839 0 -0.29312580082053102 0.20984668208682189 0 -0.28146809556074259 0.2009976724404938 0 -0.28068587916068471 0.21673121080706839 0 -0.2890178274213846 0.21856242777448939 0 -0.29312580082053102 0.20984668208682189 0 -0.28068587916068471 0.21673121080706839 0 -0.29537295169496391 0.2224524800627031 0 -0.2890178274213846 0.21856242777448939 0 -0.29312580082053102 0.20984668208682189 0 -0.29312580082053102 0.20984668208682189 0 -0.31211057532811581 0.2103568080425447 0 -0.30061084609091659 0.1922567131173831 0 -0.29537295169496391 0.2224524800627031 0 -0.29312580082053102 0.20984668208682189 0 -0.31211057532811581 0.2103568080425447 0 -0.3175468816648665 0.1844466663737199 0 -0.31211057532811581 0.2103568080425447 0 -0.30061084609091659 0.1922567131173831 0 -0.30061084609091659 0.1922567131173831 0 -0.28146809556074259 0.2009976724404938 0 -0.27864864365022279 0.183094818986413 0 -0.29312580082053102 0.20984668208682189 0 -0.30061084609091659 0.1922567131173831 0 -0.28146809556074259 0.2009976724404938 0 -0.28146809556074259 0.2009976724404938 0 -0.26431734892634051 0.19080368652370561 0 -0.27147239794909939 0.20913430589715881 0 -0.28146809556074259 0.2009976724404938 0 -0.26431734892634051 0.19080368652370561 0 -0.27864864365022279 0.183094818986413 0 -0.26431734892634051 0.19080368652370561 0 -0.25491400997276542 0.18014227642440839 0 -0.24439286566741861 0.19851284602870861 0 -0.26431734892634051 0.19080368652370561 0 -0.25877085827591839 0.21221072417824779 0 -0.26431734892634051 0.19080368652370561 0 -0.25877085827591839 0.21221072417824779 0 -0.24439286566741861 0.19851284602870861 0 -0.26431734892634051 0.19080368652370561 0 -0.25877085827591839 0.21221072417824779 0 -0.27147239794909939 0.20913430589715881 0 -0.25877085827591839 0.21221072417824779 0 -0.24439286566741861 0.19851284602870861 0 -0.25877085827591839 0.21221072417824779 0 -0.27211980782180673 0.22492823553627711 0 -0.25877085827591839 0.21221072417824779 0 -0.27147239794909939 0.20913430589715881 0 -0.27211980782180673 0.22492823553627711 0 -0.27147239794909939 0.20913430589715881 0 -0.28068587916068471 0.21673121080706839 0 -0.27211980782180673 0.22492823553627711 0 -0.28146809556074259 0.2009976724404938 0 -0.27147239794909939 0.20913430589715881 0 -0.28068587916068471 0.21673121080706839 0 -0.28428102633662689 0.23651419846601041 0 -0.27211980782180673 0.22492823553627711 0 -0.26229815022043079 0.23432675290268079 0 -0.28429549848709318 0.22383771052930981 0 -0.28068587916068471 0.21673121080706839 0 -0.27211980782180673 0.22492823553627711 0 -0.28068587916068471 0.21673121080706839 0 -0.27211980782180673 0.22492823553627711 0 -0.28428102633662689 0.23651419846601041 0 -0.27211980782180673 0.22492823553627711 0 -0.28428102633662689 0.23651419846601041 0 -0.28429549848709318 0.22383771052930981 0 -0.27211980782180673 0.22492823553627711 0 -0.27211980782180673 0.22492823553627711 0 -0.26229815022043079 0.23432675290268079 0 -0.25877085827591839 0.21221072417824779 0 -0.27211980782180673 0.22492823553627711 0 -0.26229815022043079 0.23432675290268079 0 -0.25877085827591839 0.21221072417824779 0 -0.25315328476864257 0.23341677664415891 0 -0.2391931840162978 0.21805810922534169 0 -0.25877085827591839 0.21221072417824779 0 -0.25315328476864257 0.23341677664415891 0 -0.26229815022043079 0.23432675290268079 0 -0.25877085827591839 0.21221072417824779 0 -0.25315328476864257 0.23341677664415891 0 -0.25315328476864257 0.23341677664415891 0 -0.26229815022043079 0.23432675290268079 0 -0.26229815022043079 0.23432675290268079 0 -0.25441910505671272 0.24186635016898481 0 -0.26229815022043079 0.23432675290268079 0 -0.25441910505671272 0.24186635016898481 0 -0.27844142326740617 0.24955272406526871 0 -0.25441910505671272 0.24186635016898481 0 -0.25886890313127769 0.24974377795831501 0 -0.27844142326740617 0.24955272406526871 0 -0.25315328476864257 0.23341677664415891 0 -0.25441910505671272 0.24186635016898481 0 -0.25134226460388293 0.2408818595827053 0 -0.25315328476864257 0.23341677664415891 0 -0.26229815022043079 0.23432675290268079 0 -0.25441910505671272 0.24186635016898481 0 -0.25441910505671272 0.24186635016898481 0 -0.25134226460388293 0.2408818595827053 0 -0.25315328476864257 0.23341677664415891 0 -0.25134226460388293 0.2408818595827053 0 -0.25886890313127769 0.24974377795831501 0 -0.25052974299966041 0.25187302739506851 0 -0.2499887504339155 0.2461058346380591 0 -0.25441910505671272 0.24186635016898481 0 -0.25886890313127769 0.24974377795831501 0 -0.2499887504339155 0.2461058346380591 0 -0.25441910505671272 0.24186635016898481 0 -0.2499887504339155 0.2461058346380591 0 -0.25441910505671272 0.24186635016898481 0 -0.25134226460388293 0.2408818595827053 0 -0.2499887504339155 0.2461058346380591 0 -0.25134226460388293 0.2408818595827053 0 -0.2499887504339155 0.2461058346380591 0 -0.28428102633662689 0.23651419846601041 0 -0.26229815022043079 0.23432675290268079 0 -0.27844142326740617 0.24955272406526871 0 -0.28428102633662689 0.23651419846601041 0 -0.26229815022043079 0.23432675290268079 0 -0.25441910505671272 0.24186635016898481 0 -0.27844142326740617 0.24955272406526871 0 -0.28370720945548472 0.14545102325914039 0 -0.29326901878394968 0.13895605894296381 0 -0.28965110621979751 0.15680317445413419 0 -0.29326901878394968 0.13895605894296381 0 -0.30471675311996532 0.15094431812759279 0 -0.28965110621979751 0.15680317445413419 0 -0.28370720945548472 0.14545102325914039 0 -0.28965110621979751 0.15680317445413419 0 -0.27432036819411981 0.15219638983452061 0 -0.28370720945548472 0.14545102325914039 0 -0.29326901878394968 0.13895605894296381 0 -0.27877689681148282 0.13499613079987921 0 -0.29326901878394968 0.13895605894296381 0 -0.28108785953371268 0.12607682143273399 0 -0.27877689681148282 0.13499613079987921 0 -0.29326901878394968 0.13895605894296381 0 -0.27877689681148282 0.13499613079987921 0 -0.29564051187888002 0.1263596672107877 0 -0.29326901878394968 0.13895605894296381 0 -0.28108785953371268 0.12607682143273399 0 -0.29564051187888002 0.1263596672107877 0 -0.31040621879259622 0.1341772306586069 0 -0.30600923180644868 0.1158651582711437 0 -0.29564051187888002 0.1263596672107877 0 -0.29326901878394968 0.13895605894296381 0 -0.31040621879259622 0.1341772306586069 0 -0.29326901878394968 0.13895605894296381 0 -0.31040621879259622 0.1341772306586069 0 -0.30471675311996532 0.15094431812759279 0 -0.30471675311996532 0.15094431812759279 0 -0.30652584879432709 0.1656712785438203 0 -0.28965110621979751 0.15680317445413419 0 -0.32286905476256689 0.1590804985374471 0 -0.30471675311996532 0.15094431812759279 0 -0.30652584879432709 0.1656712785438203 0 -0.3175468816648665 0.1844466663737199 0 -0.29370536062081049 0.1769216576214466 0 -0.3175468816648665 0.1844466663737199 0 -0.30652584879432709 0.1656712785438203 0 -0.29370536062081049 0.1769216576214466 0 -0.3175468816648665 0.1844466663737199 0 -0.30061084609091659 0.1922567131173831 0 -0.29370536062081049 0.1769216576214466 0 -0.30061084609091659 0.1922567131173831 0 -0.29370536062081049 0.1769216576214466 0 -0.27864864365022279 0.183094818986413 0 -0.29370536062081049 0.1769216576214466 0 -0.26986383957675802 0.16939664886916231 0 -0.29370536062081049 0.1769216576214466 0 -0.28965110621979751 0.15680317445413419 0 -0.26986383957675802 0.16939664886916231 0 -0.30652584879432709 0.1656712785438203 0 -0.29370536062081049 0.1769216576214466 0 -0.28965110621979751 0.15680317445413419 0 -0.28965110621979751 0.15680317445413419 0 -0.26986383957675802 0.16939664886916231 0 -0.27432036819411981 0.15219638983452061 0 -0.26986383957675802 0.16939664886916231 0 -0.25896209078480609 0.15381364755373589 0 -0.27432036819411981 0.15219638983452061 0 -0.26986383957675802 0.16939664886916231 0 -0.27432036819411981 0.15219638983452061 0 -0.29370536062081049 0.1769216576214466 0 -0.26986383957675802 0.16939664886916231 0 -0.27864864365022279 0.183094818986413 0 -0.26431734892634051 0.19080368652370561 0 -0.26986383957675802 0.16939664886916231 0 -0.27864864365022279 0.183094818986413 0 -0.26431734892634051 0.19080368652370561 0 -0.26986383957675802 0.16939664886916231 0 -0.26986383957675802 0.16939664886916231 0 -0.25491400997276542 0.18014227642440839 0 -0.25228443981064808 0.1664488431744337 0 -0.26431734892634051 0.19080368652370561 0 -0.26986383957675802 0.16939664886916231 0 -0.25491400997276542 0.18014227642440839 0 -0.25491400997276542 0.18014227642440839 0 -0.25228443981064808 0.1664488431744337 0 -0.24371155588266169 0.1755493575260316 0 -0.26986383957675802 0.16939664886916231 0 -0.25896209078480609 0.15381364755373589 0 -0.24458523146099179 0.1614180577815883 0 -0.26986383957675802 0.16939664886916231 0 -0.24458523146099179 0.1614180577815883 0 -0.26986383957675802 0.16939664886916231 0 -0.25228443981064808 0.1664488431744337 0 -0.24458523146099179 0.1614180577815883 0 -0.26320590905687902 0.14119580011181071 0 -0.25896209078480609 0.15381364755373589 0 -0.24288581740547799 0.14220227665763371 0 -0.26320590905687902 0.14119580011181071 0 -0.25896209078480609 0.15381364755373589 0 -0.27432036819411981 0.15219638983452061 0 -0.26320590905687902 0.14119580011181071 0 -0.27432036819411981 0.15219638983452061 0 -0.27877689681148282 0.13499613079987921 0 -0.28370720945548472 0.14545102325914039 0 -0.27432036819411981 0.15219638983452061 0 -0.27877689681148282 0.13499613079987921 0 -0.27432036819411981 0.15219638983452061 0 -0.27877689681148282 0.13499613079987921 0 -0.28108785953371268 0.12607682143273399 0 -0.27877689681148282 0.13499613079987921 0 -0.27069548785830788 0.115823351408661 0 -0.27877689681148282 0.13499613079987921 0 -0.25451737207002773 0.1283672896305835 0 -0.27877689681148282 0.13499613079987921 0 -0.25451737207002773 0.1283672896305835 0 -0.27069548785830788 0.115823351408661 0 -0.28108785953371268 0.12607682143273399 0 -0.27877689681148282 0.13499613079987921 0 -0.26320590905687902 0.14119580011181071 0 -0.25451737207002773 0.1283672896305835 0 -0.24288581740547799 0.14220227665763371 0 -0.26320590905687902 0.14119580011181071 0 -0.27877689681148282 0.13499613079987921 0 -0.25451737207002773 0.1283672896305835 0 -0.25451737207002773 0.1283672896305835 0 -0.27069548785830788 0.115823351408661 0 -0.24718529483595381 0.1067075401313953 0 -0.26687036662075542 0.09719906059577213 0 -0.27069548785830788 0.115823351408661 0 -0.24718529483595381 0.1067075401313953 0 -0.26687036662075542 0.09719906059577213 0 -0.25493693273238438 0.08810109825235421 0 -0.24718529483595381 0.1067075401313953 0 -0.26687036662075542 0.09719906059577213 0 -0.27069548785830788 0.115823351408661 0 -0.29000472848162001 0.1024683063975758 0 -0.28108785953371268 0.12607682143273399 0 -0.27069548785830788 0.115823351408661 0 -0.2886875639117939 0.11731866094418041 0 -0.2886875639117939 0.11731866094418041 0 -0.29000472848162001 0.1024683063975758 0 -0.30600923180644868 0.1158651582711437 0 -0.29564051187888002 0.1263596672107877 0 -0.2886875639117939 0.11731866094418041 0 -0.30600923180644868 0.1158651582711437 0 -0.27069548785830788 0.115823351408661 0 -0.2886875639117939 0.11731866094418041 0 -0.29000472848162001 0.1024683063975758 0 -0.29564051187888002 0.1263596672107877 0 -0.28108785953371268 0.12607682143273399 0 -0.2886875639117939 0.11731866094418041 0 -0.26687036662075542 0.09719906059577213 0 -0.29000472848162001 0.1024683063975758 0 -0.28821791133560531 0.082322918070693946 0 -0.29000472848162001 0.1024683063975758 0 -0.3124996910815574 0.099317582189633893 0 -0.30600923180644868 0.1158651582711437 0 -0.29000472848162001 0.1024683063975758 0 -0.3124996910815574 0.099317582189633893 0 -0.30419098157183072 0.088450424756890245 0 -0.30956545605045532 0.067446775545615734 0 -0.30827188156685259 0.07739306982543126 0 -0.28821791133560531 0.082322918070693946 0 -0.30956545605045532 0.067446775545615734 0 -0.29334965434589122 0.065297024793785921 0 -0.30190469840548451 0.056034843451786193 0 -0.30956545605045532 0.067446775545615734 0 -0.28821791133560531 0.082322918070693946 0 -0.29334965434589122 0.065297024793785921 0 -0.30956545605045532 0.067446775545615734 0 -0.28821791133560531 0.082322918070693946 0 -0.30956545605045532 0.067446775545615734 0 -0.30827188156685259 0.07739306982543126 0 -0.31924271621413508 0.071734665034798056 0 -0.30827188156685259 0.07739306982543126 0 -0.30419098157183072 0.088450424756890245 0 -0.28821791133560531 0.082322918070693946 0 -0.30827188156685259 0.07739306982543126 0 -0.30419098157183072 0.088450424756890245 0 -0.32014234266223701 0.077010565719158333 0 -0.30419098157183072 0.088450424756890245 0 -0.32014234266223701 0.077010565719158333 0 -0.3124996910815574 0.099317582189633893 0 -0.30419098157183072 0.088450424756890245 0 -0.31741056812490731 0.088799594826778294 0 -0.29000472848162001 0.1024683063975758 0 -0.30419098157183072 0.088450424756890245 0 -0.28821791133560531 0.082322918070693946 0 -0.28821791133560531 0.082322918070693946 0 -0.29334965434589122 0.065297024793785921 0 -0.28050768494109779 0.067828132472114916 0 -0.28050768494109779 0.067828132472114916 0 -0.26357212458030899 0.070021871786321979 0 -0.27473251891540751 0.05725328676105839 0 -0.28050768494109779 0.067828132472114916 0 -0.27297151457702129 0.080582560780352849 0 -0.26357212458030899 0.070021871786321979 0 -0.28821791133560531 0.082322918070693946 0 -0.28050768494109779 0.067828132472114916 0 -0.27297151457702129 0.080582560780352849 0 -0.26687036662075542 0.09719906059577213 0 -0.28821791133560531 0.082322918070693946 0 -0.27297151457702129 0.080582560780352849 0 -0.26687036662075542 0.09719906059577213 0 -0.28821791133560531 0.082322918070693946 0 -0.25493693273238438 0.08810109825235421 0 -0.26357212458030899 0.070021871786321979 0 -0.24868923350182959 0.076305769476465432 0 -0.27297151457702129 0.080582560780352849 0 -0.25493693273238438 0.08810109825235421 0 -0.26357212458030899 0.070021871786321979 0 -0.26687036662075542 0.09719906059577213 0 -0.27297151457702129 0.080582560780352849 0 -0.25493693273238438 0.08810109825235421 0 -0.26357212458030899 0.070021871786321979 0 -0.25040868369117097 0.065706762161028068 0 -0.24868923350182959 0.076305769476465432 0 -0.26357212458030899 0.070021871786321979 0 -0.26446823673201503 0.051093017779118281 0 -0.25040868369117097 0.065706762161028068 0 -0.26446823673201503 0.051093017779118281 0 -0.24843752021348331 0.054448440502992933 0 -0.26357212458030899 0.070021871786321979 0 -0.25040868369117097 0.065706762161028068 0 -0.26446823673201503 0.051093017779118281 0 -0.26446823673201503 0.051093017779118281 0 -0.25318973409114109 0.043378185924719433 0 -0.24843752021348331 0.054448440502992933 0 -0.26446823673201503 0.051093017779118281 0 -0.25318973409114109 0.043378185924719433 0 -0.26536434888372201 0.032164163771914597 0 -0.26446823673201503 0.051093017779118281 0 -0.26536434888372201 0.032164163771914597 0 -0.25318973409114109 0.043378185924719433 0 -0.25203054700984578 0.033247391100786353 0 -0.2457861938291763 0.040328193419476743 0 -0.25318973409114109 0.043378185924719433 0 -0.25203054700984578 0.033247391100786353 0 -0.26536434888372201 0.032164163771914597 0 -0.26446823673201503 0.051093017779118281 0 -0.26536434888372201 0.032164163771914597 0 -0.27682629906911271 0.043162525179883678 0 -0.26536434888372201 0.032164163771914597 0 -0.27682629906911271 0.043162525179883678 0 -0.26536434888372201 0.032164163771914597 0 -0.27665066071661698 0.031514648571742243 0 -0.27682629906911271 0.043162525179883678 0 -0.27682629906911271 0.043162525179883678 0 -0.27473251891540751 0.05725328676105839 0 -0.28828824925450308 0.054160886587853133 0 -0.26357212458030899 0.070021871786321979 0 -0.26446823673201503 0.051093017779118281 0 -0.27473251891540751 0.05725328676105839 0 -0.28050768494109779 0.067828132472114916 0 -0.27473251891540751 0.05725328676105839 0 -0.28828824925450308 0.054160886587853133 0 -0.26446823673201503 0.051093017779118281 0 -0.27682629906911271 0.043162525179883678 0 -0.27473251891540751 0.05725328676105839 0 -0.26609383392015568 0.016755025832176779 0 -0.26682331895658962 0.001345887892438911 0 -0.24684814085771881 0.01439686026062219 0 -0.25114912830535069 -0.0022126487976368531 0 -0.26682331895658962 0.001345887892438911 0 -0.24684814085771881 0.01439686026062219 0 -0.26682331895658962 0.001345887892438911 0 -0.24684814085771881 0.01439686026062219 0 -0.26536434888372201 0.032164163771914597 0 -0.26609383392015568 0.016755025832176779 0 -0.24684814085771881 0.01439686026062219 0 -0.25203054700984578 0.033247391100786353 0 -0.26536434888372201 0.032164163771914597 0 -0.24684814085771881 0.01439686026062219 0 -0.26536434888372201 0.032164163771914597 0 -0.24684814085771881 0.01439686026062219 0 -0.26609383392015568 0.016755025832176779 0 -0.28244569507833622 0.0078605449768432926 0 -0.28576729336925999 0.02256889875338558 0 -0.27665066071661698 0.031514648571742243 0 -0.26609383392015568 0.016755025832176779 0 -0.28576729336925999 0.02256889875338558 0 -0.26536434888372201 0.032164163771914597 0 -0.27665066071661698 0.031514648571742243 0 -0.26609383392015568 0.016755025832176779 0 -0.26536434888372201 0.032164163771914597 0 -0.26609383392015568 0.016755025832176779 0 -0.26609383392015568 0.016755025832176779 0 -0.26682331895658962 0.001345887892438911 0 -0.28244569507833622 0.0078605449768432926 0 -0.26609383392015568 0.016755025832176779 0 -0.26682331895658962 0.001345887892438911 0 -0.28244569507833622 0.0078605449768432926 0 -0.29508894976000039 0.01376865765703145 0 -0.28576729336925999 0.02256889875338558 0 -0.29632621678536419 0.0021582863934003741 0 -0.28244569507833622 0.0078605449768432926 0 -0.29508894976000039 0.01376865765703145 0 -0.28576729336925999 0.02256889875338558 0 -0.30231163813584389 0.025048433164576691 0 -0.29146649491256021 0.037429988341134757 0 -0.29508894976000039 0.01376865765703145 0 -0.28576729336925999 0.02256889875338558 0 -0.30231163813584389 0.025048433164576691 0 -0.27665066071661698 0.031514648571742243 0 -0.28576729336925999 0.02256889875338558 0 -0.29146649491256021 0.037429988341134757 0 -0.30231163813584389 0.025048433164576691 0 -0.31379500054089088 0.032082831258815933 0 -0.31719435338614821 0.020157416264188498 0 -0.30231163813584389 0.025048433164576691 0 -0.30725704372239881 0.011098016183916421 0 -0.31719435338614821 0.020157416264188498 0 -0.29508894976000039 0.01376865765703145 0 -0.30231163813584389 0.025048433164576691 0 -0.30725704372239881 0.011098016183916421 0 -0.29632621678536419 0.0021582863934003741 0 -0.29508894976000039 0.01376865765703145 0 -0.30725704372239881 0.011098016183916421 0 -0.3088215686169305 -0.00084196595563680425 0 -0.30725704372239881 0.011098016183916421 0 -0.32093263343843881 0.006435119975568936 0 -0.3088215686169305 -0.00084196595563680425 0 -0.29632621678536419 0.0021582863934003741 0 -0.30725704372239881 0.011098016183916421 0 -0.28828824925450308 0.054160886587853133 0 -0.29947068595977328 0.046171120875331297 0 -0.30190469840548451 0.056034843451786193 0 -0.29334965434589122 0.065297024793785921 0 -0.28828824925450308 0.054160886587853133 0 -0.30190469840548451 0.056034843451786193 0 -0.29334965434589122 0.065297024793785921 0 -0.28050768494109779 0.067828132472114916 0 -0.28828824925450308 0.054160886587853133 0 -0.27682629906911271 0.043162525179883678 0 -0.28828824925450308 0.054160886587853133 0 -0.27682629906911271 0.043162525179883678 0 -0.28828824925450308 0.054160886587853133 0 -0.29146649491256021 0.037429988341134757 0 -0.28828824925450308 0.054160886587853133 0 -0.29146649491256021 0.037429988341134757 0 -0.29947068595977328 0.046171120875331297 0 -0.27665066071661698 0.031514648571742243 0 -0.27682629906911271 0.043162525179883678 0 -0.29146649491256021 0.037429988341134757 0 -0.29146649491256021 0.037429988341134757 0 -0.29947068595977328 0.046171120875331297 0 -0.30354433733520392 0.036702675893154867 0 -0.29947068595977328 0.046171120875331297 0 -0.30354433733520392 0.036702675893154867 0 -0.30947612548207531 0.044563448862067957 0 -0.30231163813584389 0.025048433164576691 0 -0.29146649491256021 0.037429988341134757 0 -0.30354433733520392 0.036702675893154867 0 -0.30354433733520392 0.036702675893154867 0 -0.30947612548207531 0.044563448862067957 0 -0.31379500054089088 0.032082831258815933 0 -0.30231163813584389 0.025048433164576691 0 -0.30354433733520392 0.036702675893154867 0 -0.31379500054089088 0.032082831258815933 0 -0.30947612548207531 0.044563448862067957 0 -0.30190469840548451 0.056034843451786193 0 -0.31492444577789508 0.052461329581386128 0 -0.29947068595977328 0.046171120875331297 0 -0.30947612548207531 0.044563448862067957 0 -0.30190469840548451 0.056034843451786193 0 -0.30956545605045532 0.067446775545615734 0 -0.30190469840548451 0.056034843451786193 0 -0.31492444577789508 0.052461329581386128 0 -0.30956545605045532 0.067446775545615734 0 -0.33091300076530528 0.052570633020537542 0 -0.32395371919563459 0.064330695070594329 0 -0.30956545605045532 0.067446775545615734 0 -0.31492444577789508 0.052461329581386128 0 -0.33091300076530528 0.052570633020537542 0 -0.30956545605045532 0.067446775545615734 0 -0.33091300076530528 0.052570633020537542 0 -0.31492444577789508 0.052461329581386128 0 -0.32204995068655418 0.041195334040658782 0 -0.33091300076530528 0.052570633020537542 0 -0.30947612548207531 0.044563448862067957 0 -0.31492444577789508 0.052461329581386128 0 -0.32204995068655418 0.041195334040658782 0 -0.30947612548207531 0.044563448862067957 0 -0.31379500054089088 0.032082831258815933 0 -0.32204995068655418 0.041195334040658782 0 -0.31379500054089088 0.032082831258815933 0 -0.32204995068655418 0.041195334040658782 0 -0.32751955951839629 0.028956522305069319 0 -0.33091300076530528 0.052570633020537542 0 -0.35226054548015517 0.037694490495459337 0 -0.32204995068655418 0.041195334040658782 0 -0.33578234248771999 0.036757439386605868 0 -0.33091300076530528 0.052570633020537542 0 -0.33578234248771999 0.036757439386605868 0 -0.33091300076530528 0.052570633020537542 0 -0.35226054548015517 0.037694490495459337 0 -0.32204995068655418 0.041195334040658782 0 -0.33578234248771999 0.036757439386605868 0 -0.32751955951839629 0.028956522305069319 0 -0.34220781395653038 0.054835006245082751 0 -0.33091300076530528 0.052570633020537542 0 -0.35226054548015517 0.037694490495459337 0 -0.34220781395653038 0.054835006245082751 0 -0.33091300076530528 0.052570633020537542 0 -0.3360937037526428 0.065570706681425978 0 -0.33091300076530528 0.052570633020537542 0 -0.32395371919563459 0.064330695070594329 0 -0.3360937037526428 0.065570706681425978 0 -0.3262003725427734 -0.0030272638754478532 0 -0.32093263343843881 0.006435119975568936 0 -0.33505973994421512 0.0063227566545038666 0 -0.3088215686169305 -0.00084196595563680425 0 -0.31851201697687009 -0.0041517033381760788 0 -0.32093263343843881 0.006435119975568936 0 -0.30725704372239881 0.011098016183916421 0 -0.32093263343843881 0.006435119975568936 0 -0.31719435338614821 0.020157416264188498 0 -0.32093263343843881 0.006435119975568936 0 -0.31719435338614821 0.020157416264188498 0 -0.32923238895515738 0.016949283856874109 0 -0.31719435338614821 0.020157416264188498 0 -0.32751955951839629 0.028956522305069319 0 -0.32923238895515738 0.016949283856874109 0 -0.31379500054089088 0.032082831258815933 0 -0.31719435338614821 0.020157416264188498 0 -0.32751955951839629 0.028956522305069319 0 -0.33578234248771999 0.036757439386605868 0 -0.32751955951839629 0.028956522305069319 0 -0.34545565848858828 0.022874604085039899 0 -0.32751955951839629 0.028956522305069319 0 -0.32923238895515738 0.016949283856874109 0 -0.34545565848858828 0.022874604085039899 0 -0.3423434733408578 -0.001855469033100359 0 -0.33505973994421512 0.0063227566545038666 0 -0.35089552967461862 0.0057931589148030593 0 -0.32923238895515738 0.016949283856874109 0 -0.33505973994421512 0.0063227566545038666 0 -0.34545565848858828 0.022874604085039899 0 -0.32093263343843881 0.006435119975568936 0 -0.32923238895515738 0.016949283856874109 0 -0.33505973994421512 0.0063227566545038666 0 -0.33505973994421512 0.0063227566545038666 0 -0.35089552967461862 0.0057931589148030593 0 -0.34545565848858828 0.022874604085039899 0 -0.35089552967461862 0.0057931589148030593 0 -0.34545565848858828 0.022874604085039899 0 -0.36618277406783561 0.01649753716450323 0 -0.34545565848858828 0.022874604085039899 0 -0.361694605243297 0.02979089605968736 0 -0.35226054548015517 0.037694490495459337 0 -0.34545565848858828 0.022874604085039899 0 -0.361694605243297 0.02979089605968736 0 -0.36618277406783561 0.01649753716450323 0 -0.3846984951691198 0.025591204003105619 0 -0.37319314733540432 0.030405286224044779 0 -0.36618277406783561 0.01649753716450323 0 -0.361694605243297 0.02979089605968736 0 -0.37319314733540432 0.030405286224044779 0 -0.36618277406783561 0.01649753716450323 0 -0.3849678467495386 0.0057315818628459001 0 -0.36618277406783561 0.01649753716450323 0 -0.36464433621872222 0.0013726878568638089 0 -0.35089552967461862 0.0057931589148030593 0 -0.36618277406783561 0.01649753716450323 0 -0.36464433621872222 0.0013726878568638089 0 -0.34220781395653038 0.054835006245082751 0 -0.35308493705863758 0.053385081091475987 0 -0.35226054548015517 0.037694490495459337 0 -0.34220781395653038 0.054835006245082751 0 -0.35308493705863758 0.053385081091475987 0 -0.3360937037526428 0.065570706681425978 0 -0.35308493705863758 0.053385081091475987 0 -0.3360937037526428 0.065570706681425978 0 -0.35644211405893539 0.058127418660548102 0 -0.3360937037526428 0.065570706681425978 0 -0.35308493705863758 0.053385081091475987 0 -0.35644211405893539 0.058127418660548102 0 -0.3360937037526428 0.065570706681425978 0 -0.33578234248771999 0.036757439386605868 0 -0.34545565848858828 0.022874604085039899 0 -0.35226054548015517 0.037694490495459337 0 -0.35308493705863758 0.053385081091475987 0 -0.35226054548015517 0.037694490495459337 0 -0.3700761703646322 0.041199455501525588 0 -0.361694605243297 0.02979089605968736 0 -0.35226054548015517 0.037694490495459337 0 -0.3700761703646322 0.041199455501525588 0 -0.361694605243297 0.02979089605968736 0 -0.37319314733540432 0.030405286224044779 0 -0.3700761703646322 0.041199455501525588 0 -0.3767905243652282 0.050684130639670741 0 -0.35644211405893539 0.058127418660548102 0 -0.35308493705863758 0.053385081091475987 0 -0.35644211405893539 0.058127418660548102 0 -0.3700761703646322 0.041199455501525588 0 -0.3767905243652282 0.050684130639670741 0 -0.35644211405893539 0.058127418660548102 0 -0.3700761703646322 0.041199455501525588 0 -0.35308493705863758 0.053385081091475987 0 -0.3700761703646322 0.041199455501525588 0 -0.3767905243652282 0.050684130639670741 0 -0.35644211405893539 0.058127418660548102 0 -0.36588806503021332 0.060957913138192092 0 -0.3767905243652282 0.050684130639670741 0 -0.36588806503021332 0.060957913138192092 0 -0.37395283832317411 0.060121943065181142 0 -0.36588806503021332 0.060957913138192092 0 -0.37395283832317411 0.060121943065181142 0 -0.37133733722651552 0.0673120616769778 0 -0.38076019958247281 0.073590471129263757 0 -0.37133733722651552 0.0673120616769778 0 -0.36704795324367112 0.07819772924543808 0 -0.37133733722651552 0.0673120616769778 0 -0.36019197029488981 0.068716586320170761 0 -0.36704795324367112 0.07819772924543808 0 -0.36019197029488981 0.068716586320170761 0 -0.35174996224941429 0.080116460645062934 0 -0.36704795324367112 0.07819772924543808 0 -0.36588806503021332 0.060957913138192092 0 -0.37133733722651552 0.0673120616769778 0 -0.36019197029488981 0.068716586320170761 0 -0.35644211405893539 0.058127418660548102 0 -0.36588806503021332 0.060957913138192092 0 -0.36019197029488981 0.068716586320170761 0 -0.35644211405893539 0.058127418660548102 0 -0.36019197029488981 0.068716586320170761 0 -0.34901987092978431 0.069328905925502102 0 -0.35644211405893539 0.058127418660548102 0 -0.34901987092978431 0.069328905925502102 0 -0.3360937037526428 0.065570706681425978 0 -0.36019197029488981 0.068716586320170761 0 -0.34901987092978431 0.069328905925502102 0 -0.35174996224941429 0.080116460645062934 0 -0.34901987092978431 0.069328905925502102 0 -0.35174996224941429 0.080116460645062934 0 -0.34062160429303912 0.074113357320302775 0 -0.35174996224941429 0.080116460645062934 0 -0.34579960451035718 0.096786324630162041 0 -0.33571689853987069 0.084725511147808685 0 -0.35174996224941429 0.080116460645062934 0 -0.36324816967939461 0.090966961485292902 0 -0.34579960451035718 0.096786324630162041 0 -0.3802750876790556 0.099015617898783284 0 -0.37731881372253062 0.085059993287677937 0 -0.36324816967939461 0.090966961485292902 0 -0.35174996224941429 0.080116460645062934 0 -0.36324816967939461 0.090966961485292902 0 -0.36704795324367112 0.07819772924543808 0 -0.37731881372253062 0.085059993287677937 0 -0.36324816967939461 0.090966961485292902 0 -0.36704795324367112 0.07819772924543808 0 -0.38030318135629793 0.11743060362849229 0 -0.3802750876790556 0.099015617898783284 0 -0.36375794001795808 0.1070532818057158 0 -0.3802750876790556 0.099015617898783284 0 -0.36324816967939461 0.090966961485292902 0 -0.36375794001795808 0.1070532818057158 0 -0.38030318135629793 0.11743060362849229 0 -0.36368460586676732 0.12767002607820199 0 -0.36375794001795808 0.1070532818057158 0 -0.36368460586676732 0.12767002607820199 0 -0.36375794001795808 0.1070532818057158 0 -0.34842263627384329 0.1195589161987036 0 -0.36324816967939461 0.090966961485292902 0 -0.36375794001795808 0.1070532818057158 0 -0.34579960451035718 0.096786324630162041 0 -0.36375794001795808 0.1070532818057158 0 -0.34842263627384329 0.1195589161987036 0 -0.34579960451035718 0.096786324630162041 0 -0.34842263627384329 0.1195589161987036 0 -0.34579960451035718 0.096786324630162041 0 -0.33351340095796728 0.1083481628649014 0 -0.34579960451035718 0.096786324630162041 0 -0.33351340095796728 0.1083481628649014 0 -0.32621284398953643 0.093998866606643985 0 -0.32819122786026711 0.13371433070117419 0 -0.34842263627384329 0.1195589161987036 0 -0.33351340095796728 0.1083481628649014 0 -0.32819122786026711 0.13371433070117419 0 -0.33351340095796728 0.1083481628649014 0 -0.32819122786026711 0.13371433070117419 0 -0.30600923180644868 0.1158651582711437 0 -0.33351340095796728 0.1083481628649014 0 -0.3124996910815574 0.099317582189633893 0 -0.33351340095796728 0.1083481628649014 0 -0.32621284398953643 0.093998866606643985 0 -0.3124996910815574 0.099317582189633893 0 -0.30600923180644868 0.1158651582711437 0 -0.33351340095796728 0.1083481628649014 0 -0.3124996910815574 0.099317582189633893 0 -0.32621284398953643 0.093998866606643985 0 -0.31741056812490731 0.088799594826778294 0 -0.30419098157183072 0.088450424756890245 0 -0.31741056812490731 0.088799594826778294 0 -0.32014234266223701 0.077010565719158333 0 -0.32621284398953643 0.093998866606643985 0 -0.31741056812490731 0.088799594826778294 0 -0.32521146523775329 0.084691275503139263 0 -0.32521146523775329 0.084691275503139263 0 -0.32014234266223701 0.077010565719158333 0 -0.33155720289710849 0.077222283274367004 0 -0.31741056812490731 0.088799594826778294 0 -0.32521146523775329 0.084691275503139263 0 -0.32014234266223701 0.077010565719158333 0 -0.31924271621413508 0.071734665034798056 0 -0.3360937037526428 0.065570706681425978 0 -0.32014234266223701 0.077010565719158333 0 -0.3360937037526428 0.065570706681425978 0 -0.31924271621413508 0.071734665034798056 0 -0.32014234266223701 0.077010565719158333 0 -0.3360937037526428 0.065570706681425978 0 -0.31924271621413508 0.071734665034798056 0 -0.32395371919563459 0.064330695070594329 0 -0.3360937037526428 0.065570706681425978 0 -0.30827188156685259 0.07739306982543126 0 -0.31924271621413508 0.071734665034798056 0 -0.32014234266223701 0.077010565719158333 0 -0.30956545605045532 0.067446775545615734 0 -0.31924271621413508 0.071734665034798056 0 -0.32395371919563459 0.064330695070594329 0 -0.32014234266223701 0.077010565719158333 0 -0.33155720289710849 0.077222283274367004 0 -0.3360937037526428 0.065570706681425978 0 -0.34901987092978431 0.069328905925502102 0 -0.3360937037526428 0.065570706681425978 0 -0.34062160429303912 0.074113357320302775 0 -0.33155720289710849 0.077222283274367004 0 -0.3360937037526428 0.065570706681425978 0 -0.34062160429303912 0.074113357320302775 0 -0.33155720289710849 0.077222283274367004 0 -0.34062160429303912 0.074113357320302775 0 -0.33571689853987069 0.084725511147808685 0 -0.35174996224941429 0.080116460645062934 0 -0.34062160429303912 0.074113357320302775 0 -0.33571689853987069 0.084725511147808685 0 -0.34579960451035718 0.096786324630162041 0 -0.32621284398953643 0.093998866606643985 0 -0.33571689853987069 0.084725511147808685 0 -0.32621284398953643 0.093998866606643985 0 -0.32521146523775329 0.084691275503139263 0 -0.33571689853987069 0.084725511147808685 0 -0.32521146523775329 0.084691275503139263 0 -0.33155720289710849 0.077222283274367004 0 -0.33571689853987069 0.084725511147808685 0 -0.40444053784898681 0.46996991046480219 0 -0.39313406135320828 0.5 0 -0.37592982592381968 0.47884673576733611 0 -0.40444053784898681 0.46996991046480219 0 -0.39313406135320828 0.5 0 -0.41959501476965771 0.5 0 -0.39313406135320828 0.5 0 -0.37592982592381968 0.47884673576733611 0 -0.366673107936759 0.5 0 -0.40444053784898681 0.46996991046480219 0 -0.37592982592381968 0.47884673576733611 0 -0.40444053784898681 0.46996991046480219 0 -0.37592982592381968 0.47884673576733611 0 -0.38182791538189509 0.44529481720469072 0 -0.40444053784898681 0.46996991046480219 0 -0.38182791538189509 0.44529481720469072 0 -0.40546233230551609 0.43161852150586361 0 -0.38182791538189509 0.44529481720469072 0 -0.40546233230551609 0.43161852150586361 0 -0.40444053784898681 0.46996991046480219 0 -0.42677122267080941 0.44049209144356599 0 -0.43295124977415372 0.46109308516226832 0 -0.40444053784898681 0.46996991046480219 0 -0.43295124977415372 0.46109308516226832 0 -0.40444053784898681 0.46996991046480219 0 -0.42677122267080941 0.44049209144356599 0 -0.40546233230551609 0.43161852150586361 0 -0.42677122267080941 0.44049209144356599 0 -0.43295124977415372 0.46109308516226832 0 -0.44938541335681742 0.43140245376972669 0 -0.40444053784898681 0.46996991046480219 0 -0.43295124977415372 0.46109308516226832 0 -0.43282549147788202 0.48279588179895422 0 -0.40444053784898681 0.46996991046480219 0 -0.43282549147788202 0.48279588179895422 0 -0.41959501476965771 0.5 0 -0.43282549147788202 0.48279588179895422 0 -0.41959501476965771 0.5 0 -0.44605596818610699 0.49999999999999889 0 -0.43282549147788202 0.48279588179895422 0 -0.44605596818610699 0.49999999999999889 0 -0.46319950792969761 0.47651085550399069 0 -0.43295124977415372 0.46109308516226832 0 -0.43282549147788202 0.48279588179895422 0 -0.46319950792969761 0.47651085550399069 0 -0.44605596818610699 0.49999999999999889 0 -0.46319950792969761 0.47651085550399069 0 -0.46319950792969761 0.47651085550399069 0 -0.5 0.5 0 -0.4803430476732885 0.45302171100798289 0 -0.44605596818610699 0.49999999999999889 0 -0.46319950792969761 0.47651085550399069 0 -0.5 0.5 0 -0.5 0.5 0 -0.5 0.44658488039183791 0 -0.4803430476732885 0.45302171100798289 0 -0.4803430476732885 0.45302171100798289 0 -0.49748658741687962 0.42953256651197508 0 -0.5 0.44658488039183791 0 -0.4803430476732885 0.45302171100798289 0 -0.49748658741687962 0.42953256651197508 0 -0.46319950792969761 0.47651085550399069 0 -0.4803430476732885 0.45302171100798289 0 -0.4803430476732885 0.45302171100798289 0 -0.46146196169932069 0.45221625985973429 0 -0.4734805773623123 0.43259136418047162 0 -0.4803430476732885 0.45302171100798289 0 -0.4734805773623123 0.43259136418047162 0 -0.49748658741687962 0.42953256651197508 0 -0.46146196169932069 0.45221625985973429 0 -0.44938541335681742 0.43140245376972669 0 -0.4734805773623123 0.43259136418047162 0 -0.46319950792969761 0.47651085550399069 0 -0.4803430476732885 0.45302171100798289 0 -0.46146196169932069 0.45221625985973429 0 -0.43295124977415372 0.46109308516226832 0 -0.46319950792969761 0.47651085550399069 0 -0.46146196169932069 0.45221625985973429 0 -0.43295124977415372 0.46109308516226832 0 -0.46146196169932069 0.45221625985973429 0 -0.43295124977415372 0.46109308516226832 0 -0.46146196169932069 0.45221625985973429 0 -0.44938541335681742 0.43140245376972669 0 -0.4527311661527581 0.40426593010820921 0 -0.43906494355265069 0.40237029971779681 0 -0.43378818335188751 0.41379548769305791 0 -0.4527311661527581 0.40426593010820921 0 -0.4290967492291371 0.41794222580703633 0 -0.43378818335188751 0.41379548769305791 0 -0.44938541335681742 0.43140245376972669 0 -0.4527311661527581 0.40426593010820921 0 -0.4290967492291371 0.41794222580703633 0 -0.4527311661527581 0.40426593010820921 0 -0.4290967492291371 0.41794222580703633 0 -0.44938541335681742 0.43140245376972669 0 -0.46793604277931239 0.41299390542650988 0 -0.4527311661527581 0.40426593010820921 0 -0.44938541335681742 0.43140245376972669 0 -0.46793604277931239 0.41299390542650988 0 -0.4734805773623123 0.43259136418047162 0 -0.5 0.44658488039183791 0 -0.5 0.40669759041287618 0 -0.49748658741687962 0.42953256651197508 0 -0.46793604277931239 0.41299390542650988 0 -0.48433636334002761 0.41575069820337268 0 -0.47636558307637922 0.39058963440938199 0 -0.46793604277931239 0.41299390542650988 0 -0.4734805773623123 0.43259136418047162 0 -0.48433636334002761 0.41575069820337268 0 -0.48433636334002761 0.41575069820337268 0 -0.5 0.40669759041287618 0 -0.49748658741687962 0.42953256651197508 0 -0.4734805773623123 0.43259136418047162 0 -0.48433636334002761 0.41575069820337268 0 -0.49748658741687962 0.42953256651197508 0 -0.50000000000000022 0.37691333871055471 0 -0.47636558307637922 0.39058963440938199 0 -0.5 0.40669759041287618 0 -0.50000000000000022 0.37691333871055471 0 -0.47636558307637922 0.39058963440938199 0 -0.48433636334002761 0.41575069820337268 0 -0.5 0.40669759041287618 0 -0.47636558307637922 0.39058963440938199 0 -0.50000000000000022 0.37691333871055471 0 -0.47636558307637922 0.39058963440938199 0 -0.47332066419223717 0.3723720754107267 0 -0.47636558307637922 0.39058963440938199 0 -0.45599239876778941 0.38363872628617263 0 -0.47332066419223717 0.3723720754107267 0 -0.46793604277931239 0.41299390542650988 0 -0.47636558307637922 0.39058963440938199 0 -0.4527311661527581 0.40426593010820921 0 -0.47636558307637922 0.39058963440938199 0 -0.45599239876778941 0.38363872628617263 0 -0.4527311661527581 0.40426593010820921 0 -0.47636558307637922 0.39058963440938199 0 -0.4527311661527581 0.40426593010820921 0 -0.45599239876778941 0.38363872628617263 0 -0.4527311661527581 0.40426593010820921 0 -0.44343429876771367 0.39188538318713451 0 -0.44343429876771367 0.39188538318713451 0 -0.43906494355265069 0.40237029971779681 0 -0.43001194708290702 0.39483747173910611 0 -0.4527311661527581 0.40426593010820921 0 -0.44343429876771367 0.39188538318713451 0 -0.43906494355265069 0.40237029971779681 0 -0.45599239876778941 0.38363872628617263 0 -0.44343429876771367 0.39188538318713451 0 -0.43795300124851061 0.37949749576314962 0 -0.45599239876778941 0.38363872628617263 0 -0.43795300124851061 0.37949749576314962 0 -0.45362775417628548 0.36247977004405801 0 -0.43795300124851061 0.37949749576314962 0 -0.42336923794933001 0.38460687882689398 0 -0.42110251437663992 0.37229074556403668 0 -0.42336923794933001 0.38460687882689398 0 -0.41269521814499133 0.39089946099784412 0 -0.43001194708290702 0.39483747173910611 0 -0.44343429876771367 0.39188538318713451 0 -0.43795300124851061 0.37949749576314962 0 -0.43001194708290702 0.39483747173910611 0 -0.43795300124851061 0.37949749576314962 0 -0.42336923794933001 0.38460687882689398 0 -0.43001194708290702 0.39483747173910611 0 -0.42336923794933001 0.38460687882689398 0 -0.41269521814499133 0.39089946099784412 0 -0.40560032183329642 0.37716603750382921 0 -0.42336923794933001 0.38460687882689398 0 -0.40560032183329642 0.37716603750382921 0 -0.42110251437663992 0.37229074556403668 0 -0.41596533563033999 0.40497841458038758 0 -0.39814248790879242 0.39616134146771748 0 -0.41269521814499133 0.39089946099784412 0 -0.41596533563033999 0.40497841458038758 0 -0.39814248790879242 0.39616134146771748 0 -0.41269521814499133 0.39089946099784412 0 -0.41596533563033999 0.40497841458038758 0 -0.43001194708290702 0.39483747173910611 0 -0.41596533563033999 0.40497841458038758 0 -0.43001194708290702 0.39483747173910611 0 -0.42970760240444622 0.40399541843258707 0 -0.43906494355265069 0.40237029971779681 0 -0.43001194708290702 0.39483747173910611 0 -0.42970760240444622 0.40399541843258707 0 -0.41596533563033999 0.40497841458038758 0 -0.42970760240444622 0.40399541843258707 0 -0.43378818335188751 0.41379548769305791 0 -0.43906494355265069 0.40237029971779681 0 -0.42970760240444622 0.40399541843258707 0 -0.43378818335188751 0.41379548769305791 0 -0.41596533563033999 0.40497841458038758 0 -0.4290967492291371 0.41794222580703633 0 -0.43378818335188751 0.41379548769305791 0 -0.41596533563033999 0.40497841458038758 0 -0.43378818335188751 0.41379548769305791 0 -0.42677122267080941 0.44049209144356599 0 -0.44938541335681742 0.43140245376972669 0 -0.4290967492291371 0.41794222580703633 0 -0.4290967492291371 0.41794222580703633 0 -0.40546233230551609 0.43161852150586361 0 -0.42677122267080941 0.44049209144356599 0 -0.4290967492291371 0.41794222580703633 0 -0.40546233230551609 0.43161852150586361 0 -0.41596533563033999 0.40497841458038758 0 -0.4290967492291371 0.41794222580703633 0 -0.40451532775530369 0.41562327327390719 0 -0.4290967492291371 0.41794222580703633 0 -0.40451532775530369 0.41562327327390719 0 -0.40546233230551609 0.43161852150586361 0 -0.41596533563033999 0.40497841458038758 0 -0.40451532775530369 0.41562327327390719 0 -0.39560012123814681 0.40263681788424732 0 -0.40451532775530369 0.41562327327390719 0 -0.39286238034051268 0.41222492564166102 0 -0.38810504778816962 0.42433873422424778 0 -0.40451532775530369 0.41562327327390719 0 -0.39286238034051268 0.41222492564166102 0 -0.39560012123814681 0.40263681788424732 0 -0.38182791538189509 0.44529481720469072 0 -0.40546233230551609 0.43161852150586361 0 -0.38810504778816962 0.42433873422424778 0 -0.40451532775530369 0.41562327327390719 0 -0.40546233230551609 0.43161852150586361 0 -0.38810504778816962 0.42433873422424778 0 -0.38810504778816962 0.42433873422424778 0 -0.37704640266107808 0.4208582829104186 0 -0.37092289923537253 0.4317655022104514 0 -0.38182791538189509 0.44529481720469072 0 -0.38810504778816962 0.42433873422424778 0 -0.37092289923537253 0.4317655022104514 0 -0.39286238034051268 0.41222492564166102 0 -0.38153096313137791 0.41199417910709257 0 -0.38847153169597431 0.40371579234920091 0 -0.39286238034051268 0.41222492564166102 0 -0.38810504778816962 0.42433873422424778 0 -0.38153096313137791 0.41199417910709257 0 -0.37704640266107808 0.4208582829104186 0 -0.38153096313137791 0.41199417910709257 0 -0.36762670048939278 0.41533471609988287 0 -0.38810504778816962 0.42433873422424778 0 -0.37704640266107808 0.4208582829104186 0 -0.38153096313137791 0.41199417910709257 0 -0.38153096313137791 0.41199417910709257 0 -0.3803557557608499 0.40194336393645291 0 -0.37080358569747651 0.4046568095355948 0 -0.38080491588580589 0.38758433724756441 0 -0.39814248790879242 0.39616134146771748 0 -0.38755911949424832 0.39574297973006112 0 -0.38080491588580589 0.38758433724756441 0 -0.39814248790879242 0.39616134146771748 0 -0.3803557557608499 0.40194336393645291 0 -0.38847153169597431 0.40371579234920091 0 -0.38755911949424832 0.39574297973006112 0 -0.38153096313137791 0.41199417910709257 0 -0.3803557557608499 0.40194336393645291 0 -0.38847153169597431 0.40371579234920091 0 -0.38847153169597431 0.40371579234920091 0 -0.38755911949424832 0.39574297973006112 0 -0.39244331508429042 0.39956423285780668 0 -0.3803557557608499 0.40194336393645291 0 -0.38755911949424832 0.39574297973006112 0 -0.37959197545456108 0.39446656447888218 0 -0.38755911949424832 0.39574297973006112 0 -0.37959197545456108 0.39446656447888218 0 -0.38080491588580589 0.38758433724756441 0 -0.3803557557608499 0.40194336393645291 0 -0.37959197545456108 0.39446656447888218 0 -0.37363586517340319 0.39728088957961949 0 -0.37959197545456108 0.39446656447888218 0 -0.38080491588580589 0.38758433724756441 0 -0.3700845033093797 0.38956519531103612 0 -0.38080491588580589 0.38758433724756441 0 -0.39072343864259368 0.38575849254878192 0 -0.39814248790879242 0.39616134146771748 0 -0.38080491588580589 0.38758433724756441 0 -0.37723194490283829 0.37811553383459617 0 -0.37308315190602692 0.37936474732823477 0 -0.38080491588580589 0.38758433724756441 0 -0.37723194490283829 0.37811553383459617 0 -0.38259955889380781 0.38089147069062512 0 -0.38259955889380781 0.38089147069062512 0 -0.38973102312866159 0.37716419045794419 0 -0.37518587075026338 0.37378790657752448 0 -0.37723194490283829 0.37811553383459617 0 -0.37518587075026338 0.37378790657752448 0 -0.37723194490283829 0.37811553383459617 0 -0.37518587075026338 0.37378790657752448 0 -0.37308315190602692 0.37936474732823477 0 -0.37723194490283829 0.37811553383459617 0 -0.38259955889380781 0.38089147069062512 0 -0.37518587075026338 0.37378790657752448 0 -0.38259955889380781 0.38089147069062512 0 -0.38973102312866159 0.37716419045794419 0 -0.39072343864259368 0.38575849254878192 0 -0.38080491588580589 0.38758433724756441 0 -0.38259955889380781 0.38089147069062512 0 -0.39072343864259368 0.38575849254878192 0 -0.40560032183329642 0.37716603750382921 0 -0.39814248790879242 0.39616134146771748 0 -0.41269521814499133 0.39089946099784412 0 -0.40560032183329642 0.37716603750382921 0 -0.39814248790879242 0.39616134146771748 0 -0.38973102312866159 0.37716419045794419 0 -0.40560032183329642 0.37716603750382921 0 -0.39072343864259368 0.38575849254878192 0 -0.40560032183329642 0.37716603750382921 0 -0.39072343864259368 0.38575849254878192 0 -0.39814248790879242 0.39616134146771748 0 -0.41596533563033999 0.40497841458038758 0 -0.39560012123814681 0.40263681788424732 0 -0.39814248790879242 0.39616134146771748 0 -0.39560012123814681 0.40263681788424732 0 -0.39244331508429042 0.39956423285780668 0 -0.39814248790879242 0.39616134146771748 0 -0.39286238034051268 0.41222492564166102 0 -0.38847153169597431 0.40371579234920091 0 -0.39560012123814681 0.40263681788424732 0 -0.39560012123814681 0.40263681788424732 0 -0.39814248790879242 0.39616134146771748 0 -0.38847153169597431 0.40371579234920091 0 -0.39560012123814681 0.40263681788424732 0 -0.39244331508429042 0.39956423285780668 0 -0.38755911949424832 0.39574297973006112 0 -0.39244331508429042 0.39956423285780668 0 -0.39814248790879242 0.39616134146771748 0 -0.39107449804394812 0.35115344071696369 0 -0.40277730891312657 0.3375480832481742 0 -0.41305815575780042 0.35817073353994089 0 -0.39107449804394812 0.35115344071696369 0 -0.39412201325403129 0.36597932005873107 0 -0.41305815575780042 0.35817073353994089 0 -0.40560032183329642 0.37716603750382921 0 -0.39412201325403129 0.36597932005873107 0 -0.41305815575780042 0.35817073353994089 0 -0.39412201325403129 0.36597932005873107 0 -0.41305815575780042 0.35817073353994089 0 -0.38973102312866159 0.37716419045794419 0 -0.40560032183329642 0.37716603750382921 0 -0.39412201325403129 0.36597932005873107 0 -0.39412201325403129 0.36597932005873107 0 -0.37518587075026338 0.37378790657752448 0 -0.38230909158731852 0.36464670510507169 0 -0.38973102312866159 0.37716419045794419 0 -0.39412201325403129 0.36597932005873107 0 -0.37518587075026338 0.37378790657752448 0 -0.39412201325403129 0.36597932005873107 0 -0.38230909158731852 0.36464670510507169 0 -0.38426577455813937 0.35904965349855311 0 -0.39412201325403129 0.36597932005873107 0 -0.37518587075026338 0.37378790657752448 0 -0.38230909158731852 0.36464670510507169 0 -0.37566270778683991 0.35976994028547821 0 -0.38426577455813937 0.35904965349855311 0 -0.37518587075026338 0.37378790657752448 0 -0.38230909158731852 0.36464670510507169 0 -0.37566270778683991 0.35976994028547821 0 -0.39107449804394812 0.35115344071696369 0 -0.38055350240246227 0.35141384721382762 0 -0.37759589128220022 0.33346949691056987 0 -0.37566270778683991 0.35976994028547821 0 -0.38055350240246227 0.35141384721382762 0 -0.37356890885384142 0.35208320566894502 0 -0.37566270778683991 0.35976994028547821 0 -0.38426577455813937 0.35904965349855311 0 -0.38055350240246227 0.35141384721382762 0 -0.39107449804394812 0.35115344071696369 0 -0.38426577455813937 0.35904965349855311 0 -0.38055350240246227 0.35141384721382762 0 -0.39107449804394812 0.35115344071696369 0 -0.39412201325403129 0.36597932005873107 0 -0.38426577455813937 0.35904965349855311 0 -0.38055350240246227 0.35141384721382762 0 -0.37353286768074412 0.34590651597375538 0 -0.37356890885384142 0.35208320566894502 0 -0.39107449804394812 0.35115344071696369 0 -0.38973068470649702 0.3252254564622859 0 -0.39107449804394812 0.35115344071696369 0 -0.37759589128220022 0.33346949691056987 0 -0.38973068470649702 0.3252254564622859 0 -0.38055350240246227 0.35141384721382762 0 -0.37759589128220022 0.33346949691056987 0 -0.37353286768074412 0.34590651597375538 0 -0.38973068470649702 0.3252254564622859 0 -0.37410597093503112 0.30534871222078819 0 -0.36736169504738742 0.32016465416852202 0 -0.37759589128220022 0.33346949691056987 0 -0.38973068470649702 0.3252254564622859 0 -0.36736169504738742 0.32016465416852202 0 -0.38973068470649702 0.3252254564622859 0 -0.40942211800836398 0.32575288948377729 0 -0.40561144528007548 0.30791227354080458 0 -0.38973068470649702 0.3252254564622859 0 -0.40277730891312657 0.3375480832481742 0 -0.40942211800836398 0.32575288948377729 0 -0.39107449804394812 0.35115344071696369 0 -0.38973068470649702 0.3252254564622859 0 -0.40277730891312657 0.3375480832481742 0 -0.40277730891312657 0.3375480832481742 0 -0.4206831022999743 0.33874978923585458 0 -0.40942211800836398 0.32575288948377729 0 -0.40942211800836398 0.32575288948377729 0 -0.42830804884214652 0.31932884493176761 0 -0.40561144528007548 0.30791227354080458 0 -0.4206831022999743 0.33874978923585458 0 -0.40942211800836398 0.32575288948377729 0 -0.42830804884214652 0.31932884493176761 0 -0.4206831022999743 0.33874978923585458 0 -0.42830804884214652 0.31932884493176761 0 -0.4206831022999743 0.33874978923585458 0 -0.43619888856873978 0.34862832466619198 0 -0.44079471735756992 0.33167828374278968 0 -0.4206831022999743 0.33874978923585458 0 -0.42830804884214652 0.31932884493176761 0 -0.44079471735756992 0.33167828374278968 0 -0.43619888856873978 0.34862832466619198 0 -0.41305815575780042 0.35817073353994089 0 -0.43238806282559522 0.3642134139154754 0 -0.43619888856873978 0.34862832466619198 0 -0.41305815575780042 0.35817073353994089 0 -0.4206831022999743 0.33874978923585458 0 -0.43619888856873978 0.34862832466619198 0 -0.41305815575780042 0.35817073353994089 0 -0.40277730891312657 0.3375480832481742 0 -0.4206831022999743 0.33874978923585458 0 -0.41305815575780042 0.35817073353994089 0 -0.4206831022999743 0.33874978923585458 0 -0.41305815575780042 0.35817073353994089 0 -0.40560032183329642 0.37716603750382921 0 -0.41305815575780042 0.35817073353994089 0 -0.40560032183329642 0.37716603750382921 0 -0.41305815575780042 0.35817073353994089 0 -0.42110251437663992 0.37229074556403668 0 -0.41305815575780042 0.35817073353994089 0 -0.42110251437663992 0.37229074556403668 0 -0.43238806282559522 0.3642134139154754 0 -0.43795300124851061 0.37949749576314962 0 -0.42110251437663992 0.37229074556403668 0 -0.43238806282559522 0.3642134139154754 0 -0.43795300124851061 0.37949749576314962 0 -0.43238806282559522 0.3642134139154754 0 -0.45362775417628548 0.36247977004405801 0 -0.43619888856873978 0.34862832466619198 0 -0.43238806282559522 0.3642134139154754 0 -0.45362775417628548 0.36247977004405801 0 -0.43619888856873978 0.34862832466619198 0 -0.45933962137968021 0.33908591579244529 0 -0.43619888856873978 0.34862832466619198 0 -0.45362775417628548 0.36247977004405801 0 -0.45933962137968021 0.33908591579244529 0 -0.45362775417628548 0.36247977004405801 0 -0.47791150599115362 0.35129368010651502 0 -0.45933962137968021 0.33908591579244529 0 -0.45599239876778941 0.38363872628617263 0 -0.45362775417628548 0.36247977004405801 0 -0.47332066419223717 0.3723720754107267 0 -0.45362775417628548 0.36247977004405801 0 -0.47332066419223717 0.3723720754107267 0 -0.47791150599115362 0.35129368010651502 0 -0.50000000000000022 0.37691333871055471 0 -0.47332066419223717 0.3723720754107267 0 -0.47791150599115362 0.35129368010651502 0 -0.50000000000000022 0.37691333871055471 0 -0.47791150599115362 0.35129368010651502 0 -0.5 0.34883546124096948 0 -0.5 0.32075758377138419 0 -0.48248035419062058 0.32954350691869871 0 -0.48199676764908178 0.30671864503659169 0 -0.47791150599115362 0.35129368010651502 0 -0.5 0.34883546124096948 0 -0.48248035419062058 0.32954350691869871 0 -0.5 0.34883546124096948 0 -0.5 0.32075758377138419 0 -0.48248035419062058 0.32954350691869871 0 -0.48248035419062058 0.32954350691869871 0 -0.45933962137968021 0.33908591579244529 0 -0.48248035419062058 0.32954350691869871 0 -0.46816636018602409 0.31819905394864478 0 -0.45933962137968021 0.33908591579244529 0 -0.47791150599115362 0.35129368010651502 0 -0.48248035419062058 0.32954350691869871 0 -0.45933962137968021 0.33908591579244529 0 -0.48248035419062058 0.32954350691869871 0 -0.46816636018602409 0.31819905394864478 0 -0.48199676764908178 0.30671864503659169 0 -0.46816636018602409 0.31819905394864478 0 -0.45933962137968021 0.33908591579244529 0 -0.45057760772988331 0.3171901730368295 0 -0.43619888856873978 0.34862832466619198 0 -0.45933962137968021 0.33908591579244529 0 -0.44079471735756992 0.33167828374278968 0 -0.45933962137968021 0.33908591579244529 0 -0.44079471735756992 0.33167828374278968 0 -0.45057760772988331 0.3171901730368295 0 -0.42830804884214652 0.31932884493176761 0 -0.44079471735756992 0.33167828374278968 0 -0.45057760772988331 0.3171901730368295 0 -0.42830804884214652 0.31932884493176761 0 -0.45057760772988331 0.3171901730368295 0 -0.43861821855160787 0.29419215686892819 0 -0.45057760772988331 0.3171901730368295 0 -0.43861821855160787 0.29419215686892819 0 -0.46064811739775091 0.29657262686557939 0 -0.43861821855160787 0.29419215686892819 0 -0.46064811739775091 0.29657262686557939 0 -0.44863063997516339 0.27432953126097809 0 -0.46816636018602409 0.31819905394864478 0 -0.45057760772988331 0.3171901730368295 0 -0.46064811739775091 0.29657262686557939 0 -0.46816636018602409 0.31819905394864478 0 -0.46064811739775091 0.29657262686557939 0 -0.48199676764908178 0.30671864503659169 0 -0.46064811739775091 0.29657262686557939 0 -0.48199676764908178 0.30671864503659169 0 -0.48139996300831539 0.28644593066174512 0 -0.46064811739775091 0.29657262686557939 0 -0.48139996300831539 0.28644593066174512 0 -0.47117204996572692 0.2693222987449761 0 -0.48199676764908178 0.30671864503659169 0 -0.48139996300831539 0.28644593066174512 0 -0.5 0.29267970630179901 0 -0.5 0.32075758377138419 0 -0.48199676764908178 0.30671864503659169 0 -0.5 0.29267970630179901 0 -0.48139996300831539 0.28644593066174512 0 -0.5 0.29267970630179901 0 -0.5 0.26460182883221378 0 -0.48139996300831539 0.28644593066174512 0 -0.5 0.26460182883221378 0 -0.47117204996572692 0.2693222987449761 0 -0.48001379399212563 0.248070689396476 0 -0.5 0.26460182883221378 0 -0.47117204996572692 0.2693222987449761 0 -0.45080431523017161 0.2483821716890604 0 -0.47117204996572692 0.2693222987449761 0 -0.44863063997516339 0.27432953126097809 0 -0.48001379399212563 0.248070689396476 0 -0.45080431523017161 0.2483821716890604 0 -0.47117204996572692 0.2693222987449761 0 -0.46064811739775091 0.29657262686557939 0 -0.47117204996572692 0.2693222987449761 0 -0.44863063997516339 0.27432953126097809 0 -0.45080431523017161 0.2483821716890604 0 -0.44863063997516339 0.27432953126097809 0 -0.42519679962943918 0.26553273460772198 0 -0.41927932179198751 0.24743400108163491 0 -0.43296516586527611 0.24110454400971759 0 -0.42519679962943918 0.26553273460772198 0 -0.43296516586527611 0.24110454400971759 0 -0.42519679962943918 0.26553273460772198 0 -0.45080431523017161 0.2483821716890604 0 -0.43296516586527611 0.24110454400971759 0 -0.42519679962943918 0.26553273460772198 0 -0.41927932179198751 0.24743400108163491 0 -0.42519679962943918 0.26553273460772198 0 -0.4090359984402584 0.25646369111713663 0 -0.42519679962943918 0.26553273460772198 0 -0.4090359984402584 0.25646369111713663 0 -0.40903933116396529 0.27391495574920988 0 -0.42519679962943918 0.26553273460772198 0 -0.40903933116396529 0.27391495574920988 0 -0.4176861473933805 0.29182937694481359 0 -0.43861821855160787 0.29419215686892819 0 -0.44863063997516339 0.27432953126097809 0 -0.42519679962943918 0.26553273460772198 0 -0.43861821855160787 0.29419215686892819 0 -0.42519679962943918 0.26553273460772198 0 -0.4176861473933805 0.29182937694481359 0 -0.42830804884214652 0.31932884493176761 0 -0.43861821855160787 0.29419215686892819 0 -0.4176861473933805 0.29182937694481359 0 -0.42830804884214652 0.31932884493176761 0 -0.4176861473933805 0.29182937694481359 0 -0.40561144528007548 0.30791227354080458 0 -0.4176861473933805 0.29182937694481359 0 -0.39700738109260941 0.28585186635501952 0 -0.40561144528007548 0.30791227354080458 0 -0.40903933116396529 0.27391495574920988 0 -0.4176861473933805 0.29182937694481359 0 -0.39700738109260941 0.28585186635501952 0 -0.39700738109260941 0.28585186635501952 0 -0.38838687136904593 0.299297472207608 0 -0.38704305803159478 0.27336948795293009 0 -0.39700738109260941 0.28585186635501952 0 -0.40561144528007548 0.30791227354080458 0 -0.38838687136904593 0.299297472207608 0 -0.38973068470649702 0.3252254564622859 0 -0.40561144528007548 0.30791227354080458 0 -0.38838687136904593 0.299297472207608 0 -0.38973068470649702 0.3252254564622859 0 -0.38838687136904593 0.299297472207608 0 -0.37410597093503112 0.30534871222078819 0 -0.38973068470649702 0.3252254564622859 0 -0.38838687136904593 0.299297472207608 0 -0.38838687136904593 0.299297472207608 0 -0.37521730645196938 0.29075751547230561 0 -0.37410597093503112 0.30534871222078819 0 -0.38838687136904593 0.299297472207608 0 -0.37521730645196938 0.29075751547230561 0 -0.38704305803159478 0.27336948795293009 0 -0.38838687136904593 0.299297472207608 0 -0.38704305803159478 0.27336948795293009 0 -0.38704305803159478 0.27336948795293009 0 -0.37617909462783089 0.26093373672708498 0 -0.370538015493863 0.27741190355727141 0 -0.37521730645196938 0.29075751547230561 0 -0.38704305803159478 0.27336948795293009 0 -0.370538015493863 0.27741190355727141 0 -0.38569924469414357 0.2474415036982523 0 -0.38704305803159478 0.27336948795293009 0 -0.39627032926413919 0.269897109721358 0 -0.38569924469414357 0.2474415036982523 0 -0.38704305803159478 0.27336948795293009 0 -0.38569924469414357 0.2474415036982523 0 -0.38704305803159478 0.27336948795293009 0 -0.37617909462783089 0.26093373672708498 0 -0.38569924469414357 0.2474415036982523 0 -0.37617909462783089 0.26093373672708498 0 -0.3758827393571097 0.25024210809209668 0 -0.38569924469414357 0.2474415036982523 0 -0.39440299302339232 0.24509293048381439 0 -0.39627032926413919 0.269897109721358 0 -0.39440299302339232 0.24509293048381439 0 -0.39627032926413919 0.269897109721358 0 -0.39440299302339232 0.24509293048381439 0 -0.4090359984402584 0.25646369111713663 0 -0.39627032926413919 0.269897109721358 0 -0.39700738109260941 0.28585186635501952 0 -0.38704305803159478 0.27336948795293009 0 -0.39627032926413919 0.269897109721358 0 -0.4090359984402584 0.25646369111713663 0 -0.40903933116396529 0.27391495574920988 0 -0.39627032926413919 0.269897109721358 0 -0.40903933116396529 0.27391495574920988 0 -0.39700738109260941 0.28585186635501952 0 -0.39627032926413919 0.269897109721358 0 -0.34884817714731708 0.24293906875282209 0 -0.35501934978067412 0.26868093055805531 0 -0.33770320029179868 0.25547285533439767 0 -0.34884817714731708 0.24293906875282209 0 -0.35501934978067412 0.26868093055805531 0 -0.34884817714731708 0.24293906875282209 0 -0.35501934978067412 0.26868093055805531 0 -0.36543855953242738 0.25359307670828002 0 -0.37617909462783089 0.26093373672708498 0 -0.35501934978067412 0.26868093055805531 0 -0.36543855953242738 0.25359307670828002 0 -0.37617909462783089 0.26093373672708498 0 -0.3758827393571097 0.25024210809209668 0 -0.36543855953242738 0.25359307670828002 0 -0.37617909462783089 0.26093373672708498 0 -0.35501934978067412 0.26868093055805531 0 -0.370538015493863 0.27741190355727141 0 -0.35501934978067412 0.26868093055805531 0 -0.370538015493863 0.27741190355727141 0 -0.36119052241403071 0.29442279236328872 0 -0.37521730645196938 0.29075751547230561 0 -0.370538015493863 0.27741190355727141 0 -0.36119052241403071 0.29442279236328872 0 -0.37521730645196938 0.29075751547230561 0 -0.36119052241403071 0.29442279236328872 0 -0.37410597093503112 0.30534871222078819 0 -0.36119052241403071 0.29442279236328872 0 -0.36736169504738742 0.32016465416852202 0 -0.36119052241403071 0.29442279236328872 0 -0.37410597093503112 0.30534871222078819 0 -0.36736169504738742 0.32016465416852202 0 -0.36119052241403071 0.29442279236328872 0 -0.34320793113543202 0.30615174445310778 0 -0.36736169504738742 0.32016465416852202 0 -0.35501934978067412 0.26868093055805531 0 -0.36119052241403071 0.29442279236328872 0 -0.33254861793048818 0.28360635707830217 0 -0.35501934978067412 0.26868093055805531 0 -0.36119052241403071 0.29442279236328872 0 -0.36119052241403071 0.29442279236328872 0 -0.33254861793048818 0.28360635707830217 0 -0.34320793113543202 0.30615174445310778 0 -0.33254861793048818 0.28360635707830217 0 -0.34320793113543202 0.30615174445310778 0 -0.34320793113543202 0.30615174445310778 0 -0.32419919687456988 0.30211534307582111 0 -0.32613385961688862 0.31635093966638039 0 -0.33254861793048818 0.28360635707830217 0 -0.34320793113543202 0.30615174445310778 0 -0.32419919687456988 0.30211534307582111 0 -0.32419919687456988 0.30211534307582111 0 -0.31257069547718752 0.3139489419382272 0 -0.32613385961688862 0.31635093966638039 0 -0.32419919687456988 0.30211534307582111 0 -0.31727685935835093 0.29035906623055457 0 -0.31106554775060269 0.30105141326623969 0 -0.32419919687456988 0.30211534307582111 0 -0.31106554775060269 0.30105141326623969 0 -0.31257069547718752 0.3139489419382272 0 -0.33254861793048818 0.28360635707830217 0 -0.32419919687456988 0.30211534307582111 0 -0.31727685935835093 0.29035906623055457 0 -0.33254861793048818 0.28360635707830217 0 -0.31727685935835093 0.29035906623055457 0 -0.32115344286124198 0.27764729599860699 0 -0.31727685935835093 0.29035906623055457 0 -0.32115344286124198 0.27764729599860699 0 -0.30969515563923461 0.28606484580267 0 -0.32115344286124198 0.27764729599860699 0 -0.30940781337894108 0.27875884706547821 0 -0.31088837874613512 0.27174109663384338 0 -0.31621137155466439 0.26693415972063189 0 -0.32115344286124198 0.27764729599860699 0 -0.32188930472554439 0.26106096970349668 0 -0.32115344286124198 0.27764729599860699 0 -0.30940781337894108 0.27875884706547821 0 -0.30969515563923461 0.28606484580267 0 -0.33254861793048818 0.28360635707830217 0 -0.32115344286124198 0.27764729599860699 0 -0.32188930472554439 0.26106096970349668 0 -0.33254861793048818 0.28360635707830217 0 -0.32188930472554439 0.26106096970349668 0 -0.31621137155466439 0.26693415972063189 0 -0.32115344286124198 0.27764729599860699 0 -0.31088837874613512 0.27174109663384338 0 -0.35501934978067412 0.26868093055805531 0 -0.33254861793048818 0.28360635707830217 0 -0.33526995878130372 0.26821944665747161 0 -0.33254861793048818 0.28360635707830217 0 -0.33526995878130372 0.26821944665747161 0 -0.32188930472554439 0.26106096970349668 0 -0.33770320029179868 0.25547285533439767 0 -0.32654676090150447 0.25233624660696169 0 -0.32188930472554439 0.26106096970349668 0 -0.33526995878130372 0.26821944665747161 0 -0.33770320029179868 0.25547285533439767 0 -0.32188930472554439 0.26106096970349668 0 -0.35501934978067412 0.26868093055805531 0 -0.33526995878130372 0.26821944665747161 0 -0.33770320029179868 0.25547285533439767 0 -0.32654676090150447 0.25233624660696169 0 -0.32188930472554439 0.26106096970349668 0 -0.3173478352698661 0.25182257248945911 0 -0.31621137155466439 0.26693415972063189 0 -0.32188930472554439 0.26106096970349668 0 -0.3173478352698661 0.25182257248945911 0 -0.31621137155466439 0.26693415972063189 0 -0.3173478352698661 0.25182257248945911 0 -0.30453831883258342 0.25581327113943819 0 -0.31621137155466439 0.26693415972063189 0 -0.30453831883258342 0.25581327113943819 0 -0.31621137155466439 0.26693415972063189 0 -0.30453831883258342 0.25581327113943819 0 -0.30442608051819892 0.26713400826703981 0 -0.29880792393050137 0.26205135989356171 0 -0.30453831883258342 0.25581327113943819 0 -0.30442608051819892 0.26713400826703981 0 -0.29880792393050137 0.26205135989356171 0 -0.30453831883258342 0.25581327113943819 0 -0.2919714383367813 0.25802118293060933 0 -0.2928652661105029 0.24469238255824399 0 -0.30453831883258342 0.25581327113943819 0 -0.30940781337894108 0.27875884706547821 0 -0.31088837874613512 0.27174109663384338 0 -0.30262130587369929 0.27508854220149559 0 -0.30940781337894108 0.27875884706547821 0 -0.30262130587369929 0.27508854220149559 0 -0.30312767464355322 0.2828852758891337 0 -0.31088837874613512 0.27174109663384338 0 -0.30442608051819892 0.26713400826703981 0 -0.30262130587369929 0.27508854220149559 0 -0.31621137155466439 0.26693415972063189 0 -0.31088837874613512 0.27174109663384338 0 -0.30442608051819892 0.26713400826703981 0 -0.29880792393050137 0.26205135989356171 0 -0.30442608051819892 0.26713400826703981 0 -0.29306726841660929 0.2682800075243838 0 -0.30442608051819892 0.26713400826703981 0 -0.30262130587369929 0.27508854220149559 0 -0.29306726841660929 0.2682800075243838 0 -0.30262130587369929 0.27508854220149559 0 -0.2957760784182204 0.27929497821964772 0 -0.29306726841660929 0.2682800075243838 0 -0.30262130587369929 0.27508854220149559 0 -0.2957760784182204 0.27929497821964772 0 -0.30312767464355322 0.2828852758891337 0 -0.2957760784182204 0.27929497821964772 0 -0.28980935019110288 0.27673134094431651 0 -0.29306726841660929 0.2682800075243838 0 -0.2957760784182204 0.27929497821964772 0 -0.28980935019110288 0.27673134094431651 0 -0.28956766974627163 0.28451474991392572 0 -0.28980935019110288 0.27673134094431651 0 -0.29306726841660929 0.2682800075243838 0 -0.28653947537807722 0.27236612760458118 0 -0.29306726841660929 0.2682800075243838 0 -0.28668017315745892 0.26767608132255261 0 -0.28653947537807722 0.27236612760458118 0 -0.29306726841660929 0.2682800075243838 0 -0.28668017315745892 0.26767608132255261 0 -0.28537798633628708 0.26229658136447231 0 -0.28668017315745892 0.26767608132255261 0 -0.28173596249886168 0.26776160879677302 0 -0.28653947537807722 0.27236612760458118 0 -0.28668017315745892 0.26767608132255261 0 -0.28173596249886168 0.26776160879677302 0 -0.28537798633628708 0.26229658136447231 0 -0.28173596249886168 0.26776160879677302 0 -0.28653947537807722 0.27236612760458118 0 -0.28167641330065152 0.27368001847842799 0 -0.28980935019110288 0.27673134094431651 0 -0.28653947537807722 0.27236612760458118 0 -0.28409625899633573 0.27920084145904378 0 -0.28653947537807722 0.27236612760458118 0 -0.28167641330065152 0.27368001847842799 0 -0.28409625899633573 0.27920084145904378 0 -0.28167641330065152 0.27368001847842799 0 -0.28409625899633573 0.27920084145904378 0 -0.2785813070321187 0.27979014022589921 0 -0.28980935019110288 0.27673134094431651 0 -0.28409625899633573 0.27920084145904378 0 -0.28956766974627163 0.28451474991392572 0 -0.2928652661105029 0.24469238255824399 0 -0.2919714383367813 0.25802118293060933 0 -0.28411300846643661 0.25579033967363368 0 -0.2928652661105029 0.24469238255824399 0 -0.30453831883258342 0.25581327113943819 0 -0.2919714383367813 0.25802118293060933 0 -0.29880792393050137 0.26205135989356171 0 -0.29306726841660929 0.2682800075243838 0 -0.2919714383367813 0.25802118293060933 0 -0.29306726841660929 0.2682800075243838 0 -0.2919714383367813 0.25802118293060933 0 -0.28537798633628708 0.26229658136447231 0 -0.2919714383367813 0.25802118293060933 0 -0.28537798633628708 0.26229658136447231 0 -0.28411300846643661 0.25579033967363368 0 -0.28173596249886168 0.26776160879677302 0 -0.28537798633628708 0.26229658136447231 0 -0.28026666930252331 0.26192360417356192 0 -0.28537798633628708 0.26229658136447231 0 -0.28411300846643661 0.25579033967363368 0 -0.28026666930252331 0.26192360417356192 0 -0.2928652661105029 0.24469238255824399 0 -0.27844142326740617 0.24955272406526871 0 -0.28411300846643661 0.25579033967363368 0 -0.25886890313127769 0.24974377795831501 0 -0.27844142326740617 0.24955272406526871 0 -0.26476778744461438 0.25416027147579101 0 -0.27844142326740617 0.24955272406526871 0 -0.28411300846643661 0.25579033967363368 0 -0.27532049450450308 0.25729652026071748 0 -0.27844142326740617 0.24955272406526871 0 -0.27532049450450308 0.25729652026071748 0 -0.26476778744461438 0.25416027147579101 0 -0.27532049450450308 0.25729652026071748 0 -0.26647931064292368 0.26188431813390572 0 -0.26476778744461438 0.25416027147579101 0 -0.27844142326740617 0.24955272406526871 0 -0.26476778744461438 0.25416027147579101 0 -0.27532049450450308 0.25729652026071748 0 -0.26647931064292368 0.26188431813390572 0 -0.27478589470652809 0.26647297077221299 0 -0.28411300846643661 0.25579033967363368 0 -0.27532049450450308 0.25729652026071748 0 -0.28026666930252331 0.26192360417356192 0 -0.27532049450450308 0.25729652026071748 0 -0.28026666930252331 0.26192360417356192 0 -0.27478589470652809 0.26647297077221299 0 -0.28173596249886168 0.26776160879677302 0 -0.28026666930252331 0.26192360417356192 0 -0.27478589470652809 0.26647297077221299 0 -0.28173596249886168 0.26776160879677302 0 -0.27478589470652809 0.26647297077221299 0 -0.27619275752392008 0.2735211266493156 0 -0.28173596249886168 0.26776160879677302 0 -0.28167641330065152 0.27368001847842799 0 -0.27619275752392008 0.2735211266493156 0 -0.2785813070321187 0.27979014022589921 0 -0.27619275752392008 0.2735211266493156 0 -0.27224842321110138 0.28217343615036228 0 -0.28167641330065152 0.27368001847842799 0 -0.2785813070321187 0.27979014022589921 0 -0.27619275752392008 0.2735211266493156 0 -0.27619275752392008 0.2735211266493156 0 -0.26804764876421983 0.27144107377112109 0 -0.27224842321110138 0.28217343615036228 0 -0.26804764876421983 0.27144107377112109 0 -0.26098996316744838 0.27935315063522198 0 -0.27224842321110138 0.28217343615036228 0 -0.27478589470652809 0.26647297077221299 0 -0.27619275752392008 0.2735211266493156 0 -0.26804764876421983 0.27144107377112109 0 -0.26647931064292368 0.26188431813390572 0 -0.27478589470652809 0.26647297077221299 0 -0.26804764876421983 0.27144107377112109 0 -0.26647931064292368 0.26188431813390572 0 -0.26804764876421983 0.27144107377112109 0 -0.2565886272595248 0.26520235342157522 0 -0.26804764876421983 0.27144107377112109 0 -0.26098996316744838 0.27935315063522198 0 -0.2565886272595248 0.26520235342157522 0 -0.26098996316744838 0.27935315063522198 0 -0.2565886272595248 0.26520235342157522 0 -0.24211190684587519 0.27650701944404182 0 -0.2565886272595248 0.26520235342157522 0 -0.25649411295679969 0.25639218755621779 0 -0.24813231691776619 0.25327085927943482 0 -0.25649411295679969 0.25639218755621779 0 -0.25052974299966041 0.25187302739506851 0 -0.24813231691776619 0.25327085927943482 0 -0.25886890313127769 0.24974377795831501 0 -0.25649411295679969 0.25639218755621779 0 -0.25052974299966041 0.25187302739506851 0 -0.25886890313127769 0.24974377795831501 0 -0.25649411295679969 0.25639218755621779 0 -0.26476778744461438 0.25416027147579101 0 -0.26647931064292368 0.26188431813390572 0 -0.25649411295679969 0.25639218755621779 0 -0.26476778744461438 0.25416027147579101 0 -0.26647931064292368 0.26188431813390572 0 -0.2565886272595248 0.26520235342157522 0 -0.25649411295679969 0.25639218755621779 0 -0.26461706849186672 0.30051585246683421 0 -0.25514794707642369 0.30823525991860901 0 -0.27491675502299068 0.31520649410049167 0 -0.25514794707642369 0.30823525991860901 0 -0.27491675502299068 0.31520649410049167 0 -0.26461706849186672 0.30051585246683421 0 -0.25514794707642369 0.30823525991860901 0 -0.25542828889283381 0.30374539535095763 0 -0.26461706849186672 0.30051585246683421 0 -0.25542828889283381 0.30374539535095763 0 -0.25456872907390898 0.2988356264286795 0 -0.25514794707642369 0.30823525991860901 0 -0.2528668594803255 0.30497013340450912 0 -0.25542828889283381 0.30374539535095763 0 -0.25514794707642369 0.30823525991860901 0 -0.25092249199879868 0.30674520361623658 0 -0.25082964281992393 0.31374473726900409 0 -0.25514794707642369 0.30823525991860901 0 -0.25092249199879868 0.30674520361623658 0 -0.2528668594803255 0.30497013340450912 0 -0.25514794707642369 0.30823525991860901 0 -0.25092249199879868 0.30674520361623658 0 -0.25092249199879868 0.30674520361623658 0 -0.2528668594803255 0.30497013340450912 0 -0.25051841792775942 0.30184479702737887 0 -0.25051841792775942 0.30184479702737887 0 -0.25456872907390898 0.2988356264286795 0 -0.24583773327269609 0.29888048188094479 0 -0.2528668594803255 0.30497013340450912 0 -0.25051841792775942 0.30184479702737887 0 -0.25542828889283381 0.30374539535095763 0 -0.25051841792775942 0.30184479702737887 0 -0.25542828889283381 0.30374539535095763 0 -0.25456872907390898 0.2988356264286795 0 -0.25456872907390898 0.2988356264286795 0 -0.2560223893744164 0.29053697812698909 0 -0.24583773327269609 0.29888048188094479 0 -0.26098996316744838 0.27935315063522198 0 -0.2560223893744164 0.29053697812698909 0 -0.24211190684587519 0.27650701944404182 0 -0.26098996316744838 0.27935315063522198 0 -0.2560223893744164 0.29053697812698909 0 -0.26574625641039917 0.28903980302466681 0 -0.26461706849186672 0.30051585246683421 0 -0.25456872907390898 0.2988356264286795 0 -0.2560223893744164 0.29053697812698909 0 -0.26461706849186672 0.30051585246683421 0 -0.2560223893744164 0.29053697812698909 0 -0.26574625641039917 0.28903980302466681 0 -0.26461706849186672 0.30051585246683421 0 -0.26574625641039917 0.28903980302466681 0 -0.27485343780716293 0.29261959774392637 0 -0.26574625641039917 0.28903980302466681 0 -0.27224842321110138 0.28217343615036228 0 -0.27485343780716293 0.29261959774392637 0 -0.26098996316744838 0.27935315063522198 0 -0.26574625641039917 0.28903980302466681 0 -0.27224842321110138 0.28217343615036228 0 -0.27224842321110138 0.28217343615036228 0 -0.27966974931995081 0.28566150867874279 0 -0.27485343780716293 0.29261959774392637 0 -0.2785813070321187 0.27979014022589921 0 -0.27224842321110138 0.28217343615036228 0 -0.27966974931995081 0.28566150867874279 0 -0.28409625899633573 0.27920084145904378 0 -0.2785813070321187 0.27979014022589921 0 -0.27966974931995081 0.28566150867874279 0 -0.27966974931995081 0.28566150867874279 0 -0.27485343780716293 0.29261959774392637 0 -0.28559316772063081 0.29078472283484641 0 -0.27485343780716293 0.29261959774392637 0 -0.28105196193434928 0.30230547417561893 0 -0.28559316772063081 0.29078472283484641 0 -0.26461706849186672 0.30051585246683421 0 -0.28105196193434928 0.30230547417561893 0 -0.27491675502299068 0.31520649410049167 0 -0.26461706849186672 0.30051585246683421 0 -0.27485343780716293 0.29261959774392637 0 -0.28105196193434928 0.30230547417561893 0 -0.28105196193434928 0.30230547417561893 0 -0.29468875841427611 0.30315307484840281 0 -0.27491675502299068 0.31520649410049167 0 -0.29468875841427611 0.30315307484840281 0 -0.30129659739834852 0.30665168482918381 0 -0.29343738742937869 0.32173757407509201 0 -0.29468875841427611 0.30315307484840281 0 -0.27491675502299068 0.31520649410049167 0 -0.28105196193434928 0.30230547417561893 0 -0.2889686096618132 0.29736588879564779 0 -0.29468875841427611 0.30315307484840281 0 -0.2889686096618132 0.29736588879564779 0 -0.29468875841427611 0.30315307484840281 0 -0.2945405505779965 0.29322028332372302 0 -0.29468875841427611 0.30315307484840281 0 -0.2945405505779965 0.29322028332372302 0 -0.30127756352913032 0.29869820292398608 0 -0.27966974931995081 0.28566150867874279 0 -0.28559316772063081 0.29078472283484641 0 -0.28956766974627163 0.28451474991392572 0 -0.28409625899633573 0.27920084145904378 0 -0.27966974931995081 0.28566150867874279 0 -0.28956766974627163 0.28451474991392572 0 -0.28105196193434928 0.30230547417561893 0 -0.2889686096618132 0.29736588879564779 0 -0.28559316772063081 0.29078472283484641 0 -0.2889686096618132 0.29736588879564779 0 -0.28559316772063081 0.29078472283484641 0 -0.2945405505779965 0.29322028332372302 0 -0.28559316772063081 0.29078472283484641 0 -0.2945405505779965 0.29322028332372302 0 -0.28956766974627163 0.28451474991392572 0 -0.2945405505779965 0.29322028332372302 0 -0.28956766974627163 0.28451474991392572 0 -0.29703009336133213 0.28616765332747579 0 -0.2957760784182204 0.27929497821964772 0 -0.28956766974627163 0.28451474991392572 0 -0.29703009336133213 0.28616765332747579 0 -0.30312767464355322 0.2828852758891337 0 -0.29703009336133213 0.28616765332747579 0 -0.30499919509396861 0.29166914216168782 0 -0.2957760784182204 0.27929497821964772 0 -0.30312767464355322 0.2828852758891337 0 -0.29703009336133213 0.28616765332747579 0 -0.2945405505779965 0.29322028332372302 0 -0.29703009336133213 0.28616765332747579 0 -0.30499919509396861 0.29166914216168782 0 -0.2945405505779965 0.29322028332372302 0 -0.30499919509396861 0.29166914216168782 0 -0.30127756352913032 0.29869820292398608 0 -0.31727685935835093 0.29035906623055457 0 -0.30499919509396861 0.29166914216168782 0 -0.30969515563923461 0.28606484580267 0 -0.31727685935835093 0.29035906623055457 0 -0.30499919509396861 0.29166914216168782 0 -0.31106554775060269 0.30105141326623969 0 -0.30312767464355322 0.2828852758891337 0 -0.30499919509396861 0.29166914216168782 0 -0.30969515563923461 0.28606484580267 0 -0.30940781337894108 0.27875884706547821 0 -0.30312767464355322 0.2828852758891337 0 -0.30969515563923461 0.28606484580267 0 -0.29468875841427611 0.30315307484840281 0 -0.30129659739834852 0.30665168482918381 0 -0.30127756352913032 0.29869820292398608 0 -0.30129659739834852 0.30665168482918381 0 -0.30127756352913032 0.29869820292398608 0 -0.31106554775060269 0.30105141326623969 0 -0.30499919509396861 0.29166914216168782 0 -0.30127756352913032 0.29869820292398608 0 -0.31106554775060269 0.30105141326623969 0 -0.30129659739834852 0.30665168482918381 0 -0.31106554775060269 0.30105141326623969 0 -0.31257069547718752 0.3139489419382272 0 -0.29343738742937869 0.32173757407509201 0 -0.31811863437434701 0.33044112123986458 0 -0.31257069547718752 0.3139489419382272 0 -0.30129659739834852 0.30665168482918381 0 -0.29343738742937869 0.32173757407509201 0 -0.31257069547718752 0.3139489419382272 0 -0.29343738742937869 0.32173757407509201 0 -0.31811863437434701 0.33044112123986458 0 -0.30129659739834852 0.30665168482918381 0 -0.29343738742937869 0.32173757407509201 0 -0.29965590712860268 0.33945789936522508 0 -0.31111384513532481 0.34981485862107647 0 -0.31811863437434701 0.33044112123986458 0 -0.29965590712860268 0.33945789936522508 0 -0.29343738742937869 0.32173757407509201 0 -0.31811863437434701 0.33044112123986458 0 -0.29965590712860268 0.33945789936522508 0 -0.28254979929020801 0.34263648751183279 0 -0.29343738742937869 0.32173757407509201 0 -0.28254979929020801 0.34263648751183279 0 -0.29343738742937869 0.32173757407509201 0 -0.27985667975016593 0.32673407670561311 0 -0.28254979929020801 0.34263648751183279 0 -0.29343738742937869 0.32173757407509201 0 -0.29343738742937869 0.32173757407509201 0 -0.27491675502299068 0.31520649410049167 0 -0.29468875841427611 0.30315307484840281 0 -0.29343738742937869 0.32173757407509201 0 -0.27491675502299068 0.31520649410049167 0 -0.29343738742937869 0.32173757407509201 0 -0.27491675502299068 0.31520649410049167 0 -0.27985667975016593 0.32673407670561311 0 -0.27491675502299068 0.31520649410049167 0 -0.26534748876123221 0.32104011530240739 0 -0.27491675502299068 0.31520649410049167 0 -0.27985667975016593 0.32673407670561311 0 -0.26534748876123221 0.32104011530240739 0 -0.28254979929020801 0.34263648751183279 0 -0.26534748876123221 0.32104011530240739 0 -0.28254979929020801 0.34263648751183279 0 -0.26225542692196557 0.343656512528768 0 -0.26534748876123221 0.32104011530240739 0 -0.28254979929020801 0.34263648751183279 0 -0.27985667975016593 0.32673407670561311 0 -0.26534748876123221 0.32104011530240739 0 -0.26225542692196557 0.343656512528768 0 -0.26534748876123221 0.32104011530240739 0 -0.24469908269573809 0.33362780762014749 0 -0.25514794707642369 0.30823525991860901 0 -0.27491675502299068 0.31520649410049167 0 -0.26534748876123221 0.32104011530240739 0 -0.26534748876123221 0.32104011530240739 0 -0.24469908269573809 0.33362780762014749 0 -0.26534748876123221 0.32104011530240739 0 -0.24850163173668791 0.32034643831665588 0 -0.24469908269573809 0.33362780762014749 0 -0.25082964281992393 0.31374473726900409 0 -0.26534748876123221 0.32104011530240739 0 -0.24850163173668791 0.32034643831665588 0 -0.25514794707642369 0.30823525991860901 0 -0.25082964281992393 0.31374473726900409 0 -0.26534748876123221 0.32104011530240739 0 -0.25514794707642369 0.30823525991860901 0 -0.26534748876123221 0.32104011530240739 0 -0.27253775888794513 0.36185477194888749 0 -0.26252571848568018 0.38107305638594108 0 -0.2461430049747054 0.35912338026056412 0 -0.26225542692196557 0.343656512528768 0 -0.27253775888794513 0.36185477194888749 0 -0.2461430049747054 0.35912338026056412 0 -0.26225542692196557 0.343656512528768 0 -0.2461430049747054 0.35912338026056412 0 -0.24469908269573809 0.33362780762014749 0 -0.28254979929020801 0.34263648751183279 0 -0.27253775888794513 0.36185477194888749 0 -0.28254979929020801 0.34263648751183279 0 -0.26225542692196557 0.343656512528768 0 -0.27253775888794513 0.36185477194888749 0 -0.27253775888794513 0.36185477194888749 0 -0.26252571848568018 0.38107305638594108 0 -0.27253775888794513 0.36185477194888749 0 -0.29655261464217098 0.36021610344839672 0 -0.29093931384012889 0.37685592965348019 0 -0.28254979929020801 0.34263648751183279 0 -0.29655261464217098 0.36021610344839672 0 -0.28254979929020801 0.34263648751183279 0 -0.27253775888794513 0.36185477194888749 0 -0.29655261464217098 0.36021610344839672 0 -0.29965590712860268 0.33945789936522508 0 -0.28254979929020801 0.34263648751183279 0 -0.29655261464217098 0.36021610344839672 0 -0.29965590712860268 0.33945789936522508 0 -0.29655261464217098 0.36021610344839672 0 -0.31111384513532481 0.34981485862107647 0 -0.29655261464217098 0.36021610344839672 0 -0.31111384513532481 0.34981485862107647 0 -0.31152780049484169 0.36402592998843541 0 -0.29655261464217098 0.36021610344839672 0 -0.31055542999413471 0.37779571938495993 0 -0.29093931384012889 0.37685592965348019 0 -0.29655261464217098 0.36021610344839672 0 -0.31152780049484169 0.36402592998843541 0 -0.31055542999413471 0.37779571938495993 0 -0.29655261464217098 0.36021610344839672 0 -0.31055542999413471 0.37779571938495993 0 -0.31152780049484169 0.36402592998843541 0 -0.31844333471781361 0.37220714939135568 0 -0.31055542999413471 0.37779571938495993 0 -0.31152780049484169 0.36402592998843541 0 -0.31844333471781361 0.37220714939135568 0 -0.32097377798476429 0.36009581909638871 0 -0.32097377798476429 0.36009581909638871 0 -0.32937265258016341 0.36677753750201242 0 -0.33085146933263698 0.35860096163159833 0 -0.31844333471781361 0.37220714939135568 0 -0.32097377798476429 0.36009581909638871 0 -0.32937265258016341 0.36677753750201242 0 -0.31844333471781361 0.37220714939135568 0 -0.32937265258016341 0.36677753750201242 0 -0.32954792842406078 0.37521222694386452 0 -0.32937265258016341 0.36677753750201242 0 -0.33730490978688082 0.36371365072701017 0 -0.33885049365856562 0.3711141719693612 0 -0.32937265258016341 0.36677753750201242 0 -0.33885049365856562 0.3711141719693612 0 -0.32954792842406078 0.37521222694386452 0 -0.32937265258016341 0.36677753750201242 0 -0.33730490978688082 0.36371365072701017 0 -0.33085146933263698 0.35860096163159833 0 -0.33730490978688082 0.36371365072701017 0 -0.33885049365856562 0.3711141719693612 0 -0.34691289543030618 0.36596363868564608 0 -0.33730490978688082 0.36371365072701017 0 -0.33935920402080161 0.3538125901070599 0 -0.34691289543030618 0.36596363868564608 0 -0.33935920402080161 0.3538125901070599 0 -0.32724680229057468 0.3486052107255202 0 -0.34279988131931488 0.33914466840463747 0 -0.33935920402080161 0.3538125901070599 0 -0.34279988131931488 0.33914466840463747 0 -0.3463382676869694 0.34897919851243597 0 -0.33730490978688082 0.36371365072701017 0 -0.33935920402080161 0.3538125901070599 0 -0.33085146933263698 0.35860096163159833 0 -0.33935920402080161 0.3538125901070599 0 -0.33085146933263698 0.35860096163159833 0 -0.32724680229057468 0.3486052107255202 0 -0.31111384513532481 0.34981485862107647 0 -0.32097377798476429 0.36009581909638871 0 -0.32724680229057468 0.3486052107255202 0 -0.32097377798476429 0.36009581909638871 0 -0.33085146933263698 0.35860096163159833 0 -0.32724680229057468 0.3486052107255202 0 -0.31111384513532481 0.34981485862107647 0 -0.31152780049484169 0.36402592998843541 0 -0.32097377798476429 0.36009581909638871 0 -0.31111384513532481 0.34981485862107647 0 -0.32724680229057468 0.3486052107255202 0 -0.31811863437434701 0.33044112123986458 0 -0.31811863437434701 0.33044112123986458 0 -0.31257069547718752 0.3139489419382272 0 -0.32613385961688862 0.31635093966638039 0 -0.31811863437434701 0.33044112123986458 0 -0.32613385961688862 0.31635093966638039 0 -0.33721927540912688 0.3233855040203959 0 -0.34320793113543202 0.30615174445310778 0 -0.32613385961688862 0.31635093966638039 0 -0.33721927540912688 0.3233855040203959 0 -0.32724680229057468 0.3486052107255202 0 -0.31811863437434701 0.33044112123986458 0 -0.34279988131931488 0.33914466840463747 0 -0.31811863437434701 0.33044112123986458 0 -0.33721927540912688 0.3233855040203959 0 -0.34279988131931488 0.33914466840463747 0 -0.31811863437434701 0.33044112123986458 0 -0.34279988131931488 0.33914466840463747 0 -0.35386724434037581 0.32869713182791338 0 -0.3645265575453196 0.35124251920271898 0 -0.35298652501739469 0.34700973364271698 0 -0.33721927540912688 0.3233855040203959 0 -0.34279988131931488 0.33914466840463747 0 -0.35386724434037581 0.32869713182791338 0 -0.35386724434037581 0.32869713182791338 0 -0.3645265575453196 0.35124251920271898 0 -0.34279988131931488 0.33914466840463747 0 -0.35386724434037581 0.32869713182791338 0 -0.35298652501739469 0.34700973364271698 0 -0.34320793113543202 0.30615174445310778 0 -0.35386724434037581 0.32869713182791338 0 -0.34320793113543202 0.30615174445310778 0 -0.35386724434037581 0.32869713182791338 0 -0.36736169504738742 0.32016465416852202 0 -0.34320793113543202 0.30615174445310778 0 -0.33721927540912688 0.3233855040203959 0 -0.35386724434037581 0.32869713182791338 0 -0.36736169504738742 0.32016465416852202 0 -0.37353286768074412 0.34590651597375538 0 -0.37759589128220022 0.33346949691056987 0 -0.36736169504738742 0.32016465416852202 0 -0.37353286768074412 0.34590651597375538 0 -0.35386724434037581 0.32869713182791338 0 -0.36736169504738742 0.32016465416852202 0 -0.37353286768074412 0.34590651597375538 0 -0.35386724434037581 0.32869713182791338 0 -0.37353286768074412 0.34590651597375538 0 -0.3645265575453196 0.35124251920271898 0 -0.37353286768074412 0.34590651597375538 0 -0.3645265575453196 0.35124251920271898 0 -0.37356890885384142 0.35208320566894502 0 -0.3645265575453196 0.35124251920271898 0 -0.35950831100830749 0.35827024298617172 0 -0.36441092429293009 0.36487343691572832 0 -0.37566270778683991 0.35976994028547821 0 -0.3645265575453196 0.35124251920271898 0 -0.37356890885384142 0.35208320566894502 0 -0.37518587075026338 0.37378790657752448 0 -0.37566270778683991 0.35976994028547821 0 -0.3645265575453196 0.35124251920271898 0 -0.37518587075026338 0.37378790657752448 0 -0.3645265575453196 0.35124251920271898 0 -0.36441092429293009 0.36487343691572832 0 -0.37518587075026338 0.37378790657752448 0 -0.3645265575453196 0.35124251920271898 0 -0.37518587075026338 0.37378790657752448 0 -0.36227346674618699 0.37340777296450828 0 -0.36441092429293009 0.36487343691572832 0 -0.35993557273736809 0.36772620407941481 0 -0.36227346674618699 0.37340777296450828 0 -0.36441092429293009 0.36487343691572832 0 -0.35950831100830749 0.35827024298617172 0 -0.35993557273736809 0.36772620407941481 0 -0.36441092429293009 0.36487343691572832 0 -0.35950831100830749 0.35827024298617172 0 -0.35993557273736809 0.36772620407941481 0 -0.3543295083571934 0.36396994919705539 0 -0.35950831100830749 0.35827024298617172 0 -0.3543295083571934 0.36396994919705539 0 -0.35020746039036649 0.35594980189532982 0 -0.35993557273736809 0.36772620407941481 0 -0.3543295083571934 0.36396994919705539 0 -0.35445845954241367 0.37200731957041122 0 -0.3543295083571934 0.36396994919705539 0 -0.35445845954241367 0.37200731957041122 0 -0.34691289543030618 0.36596363868564608 0 -0.35993557273736809 0.36772620407941481 0 -0.36227346674618699 0.37340777296450828 0 -0.35445845954241367 0.37200731957041122 0 -0.36227346674618699 0.37340777296450828 0 -0.35445845954241367 0.37200731957041122 0 -0.35665011938661739 0.37612724382564061 0 -0.35445845954241367 0.37200731957041122 0 -0.34691289543030618 0.36596363868564608 0 -0.34557523676278229 0.37527608323801093 0 -0.33885049365856562 0.3711141719693612 0 -0.34691289543030618 0.36596363868564608 0 -0.34557523676278229 0.37527608323801093 0 -0.3543295083571934 0.36396994919705539 0 -0.34691289543030618 0.36596363868564608 0 -0.35020746039036649 0.35594980189532982 0 -0.33935920402080161 0.3538125901070599 0 -0.35020746039036649 0.35594980189532982 0 -0.3463382676869694 0.34897919851243597 0 -0.33935920402080161 0.3538125901070599 0 -0.34691289543030618 0.36596363868564608 0 -0.35020746039036649 0.35594980189532982 0 -0.34279988131931488 0.33914466840463747 0 -0.3463382676869694 0.34897919851243597 0 -0.35298652501739469 0.34700973364271698 0 -0.35020746039036649 0.35594980189532982 0 -0.3463382676869694 0.34897919851243597 0 -0.35298652501739469 0.34700973364271698 0 -0.35950831100830749 0.35827024298617172 0 -0.35020746039036649 0.35594980189532982 0 -0.35298652501739469 0.34700973364271698 0 -0.3645265575453196 0.35124251920271898 0 -0.35950831100830749 0.35827024298617172 0 -0.35298652501739469 0.34700973364271698 0 -0.35213819600867979 0.39367126631585642 0 -0.35987649800154209 0.3934055446960098 0 -0.35949525975736413 0.40259311482134452 0 -0.35213819600867979 0.39367126631585642 0 -0.35748483715095342 0.38762662074761839 0 -0.35987649800154209 0.3934055446960098 0 -0.34805959329394681 0.40348909371151692 0 -0.35949525975736413 0.40259311482134452 0 -0.35448623230019799 0.41198915944026587 0 -0.35213819600867979 0.39367126631585642 0 -0.34805959329394681 0.40348909371151692 0 -0.35949525975736413 0.40259311482134452 0 -0.35213819600867979 0.39367126631585642 0 -0.34805959329394681 0.40348909371151692 0 -0.34276670499380568 0.39186204612039788 0 -0.35213819600867979 0.39367126631585642 0 -0.34964807824307681 0.38505326126168471 0 -0.34276670499380568 0.39186204612039788 0 -0.34964807824307681 0.38505326126168471 0 -0.34276670499380568 0.39186204612039788 0 -0.34308531182914448 0.38213775332947469 0 -0.35445845954241367 0.37200731957041122 0 -0.34557523676278229 0.37527608323801093 0 -0.35180424804325211 0.37824565535588178 0 -0.34964807824307681 0.38505326126168471 0 -0.35180424804325211 0.37824565535588178 0 -0.34308531182914448 0.38213775332947469 0 -0.34557523676278229 0.37527608323801093 0 -0.35180424804325211 0.37824565535588178 0 -0.34308531182914448 0.38213775332947469 0 -0.34964807824307681 0.38505326126168471 0 -0.35180424804325211 0.37824565535588178 0 -0.35806430321461669 0.38084822741176111 0 -0.35445845954241367 0.37200731957041122 0 -0.35180424804325211 0.37824565535588178 0 -0.35665011938661739 0.37612724382564061 0 -0.36227346674618699 0.37340777296450828 0 -0.35806430321461669 0.38084822741176111 0 -0.35665011938661739 0.37612724382564061 0 -0.35180424804325211 0.37824565535588178 0 -0.35806430321461669 0.38084822741176111 0 -0.35665011938661739 0.37612724382564061 0 -0.35213819600867979 0.39367126631585642 0 -0.34964807824307681 0.38505326126168471 0 -0.35748483715095342 0.38762662074761839 0 -0.34964807824307681 0.38505326126168471 0 -0.35806430321461669 0.38084822741176111 0 -0.35748483715095342 0.38762662074761839 0 -0.35806430321461669 0.38084822741176111 0 -0.35748483715095342 0.38762662074761839 0 -0.36245821017403762 0.38537528193871018 0 -0.35748483715095342 0.38762662074761839 0 -0.36319006333241882 0.38982903319572382 0 -0.35987649800154209 0.3934055446960098 0 -0.38080491588580589 0.38758433724756441 0 -0.36333090725352218 0.37867646865520188 0 -0.37308315190602692 0.37936474732823477 0 -0.35748483715095342 0.38762662074761839 0 -0.36319006333241882 0.38982903319572382 0 -0.36245821017403762 0.38537528193871018 0 -0.36245821017403762 0.38537528193871018 0 -0.36333090725352218 0.37867646865520188 0 -0.3700845033093797 0.38956519531103612 0 -0.38080491588580589 0.38758433724756441 0 -0.36333090725352218 0.37867646865520188 0 -0.3700845033093797 0.38956519531103612 0 -0.38080491588580589 0.38758433724756441 0 -0.36333090725352218 0.37867646865520188 0 -0.36319006333241882 0.38982903319572382 0 -0.36245821017403762 0.38537528193871018 0 -0.3700845033093797 0.38956519531103612 0 -0.37518587075026338 0.37378790657752448 0 -0.36227346674618699 0.37340777296450828 0 -0.36333090725352218 0.37867646865520188 0 -0.36227346674618699 0.37340777296450828 0 -0.35806430321461669 0.38084822741176111 0 -0.36333090725352218 0.37867646865520188 0 -0.35806430321461669 0.38084822741176111 0 -0.36333090725352218 0.37867646865520188 0 -0.35806430321461669 0.38084822741176111 0 -0.36245821017403762 0.38537528193871018 0 -0.36333090725352218 0.37867646865520188 0 -0.37518587075026338 0.37378790657752448 0 -0.36333090725352218 0.37867646865520188 0 -0.37308315190602692 0.37936474732823477 0 -0.37518587075026338 0.37378790657752448 0 -0.36333090725352218 0.37867646865520188 0 -0.37959197545456108 0.39446656447888218 0 -0.3700845033093797 0.38956519531103612 0 -0.37363586517340319 0.39728088957961949 0 -0.3700845033093797 0.38956519531103612 0 -0.37363586517340319 0.39728088957961949 0 -0.3661935644678489 0.39572750284661551 0 -0.3661935644678489 0.39572750284661551 0 -0.35987649800154209 0.3934055446960098 0 -0.35949525975736413 0.40259311482134452 0 -0.36319006333241882 0.38982903319572382 0 -0.3700845033093797 0.38956519531103612 0 -0.3661935644678489 0.39572750284661551 0 -0.36319006333241882 0.38982903319572382 0 -0.3661935644678489 0.39572750284661551 0 -0.35987649800154209 0.3934055446960098 0 -0.3661935644678489 0.39572750284661551 0 -0.35949525975736413 0.40259311482134452 0 -0.37080358569747651 0.4046568095355948 0 -0.37363586517340319 0.39728088957961949 0 -0.3661935644678489 0.39572750284661551 0 -0.37080358569747651 0.4046568095355948 0 -0.3803557557608499 0.40194336393645291 0 -0.37363586517340319 0.39728088957961949 0 -0.37080358569747651 0.4046568095355948 0 -0.38153096313137791 0.41199417910709257 0 -0.37080358569747651 0.4046568095355948 0 -0.36762670048939278 0.41533471609988287 0 -0.36762670048939278 0.41533471609988287 0 -0.3577854486953187 0.42244862522896059 0 -0.35448623230019799 0.41198915944026587 0 -0.35949525975736413 0.40259311482134452 0 -0.36762670048939278 0.41533471609988287 0 -0.35448623230019799 0.41198915944026587 0 -0.35949525975736413 0.40259311482134452 0 -0.37080358569747651 0.4046568095355948 0 -0.36762670048939278 0.41533471609988287 0 -0.37704640266107808 0.4208582829104186 0 -0.36762670048939278 0.41533471609988287 0 -0.37092289923537253 0.4317655022104514 0 -0.37092289923537253 0.4317655022104514 0 -0.35282285475341729 0.43508841845784291 0 -0.3577854486953187 0.42244862522896059 0 -0.36762670048939278 0.41533471609988287 0 -0.37092289923537253 0.4317655022104514 0 -0.3577854486953187 0.42244862522896059 0 -0.35282285475341729 0.43508841845784291 0 -0.3577854486953187 0.42244862522896059 0 -0.34306855669821251 0.41806532993636009 0 -0.35282285475341729 0.43508841845784291 0 -0.34306855669821251 0.41806532993636009 0 -0.339245346239193 0.43559046217408792 0 -0.3577854486953187 0.42244862522896059 0 -0.35448623230019799 0.41198915944026587 0 -0.34306855669821251 0.41806532993636009 0 -0.34805959329394681 0.40348909371151692 0 -0.35448623230019799 0.41198915944026587 0 -0.34306855669821251 0.41806532993636009 0 -0.34306855669821251 0.41806532993636009 0 -0.32863476681732001 0.41456870571295151 0 -0.33640261000542082 0.40275364563487659 0 -0.34805959329394681 0.40348909371151692 0 -0.34306855669821251 0.41806532993636009 0 -0.33640261000542082 0.40275364563487659 0 -0.34306855669821251 0.41806532993636009 0 -0.32863476681732001 0.41456870571295151 0 -0.3279416649815593 0.4286253325806062 0 -0.32863476681732001 0.41456870571295151 0 -0.32176658111516238 0.40308672588278632 0 -0.33640261000542082 0.40275364563487659 0 -0.339245346239193 0.43559046217408792 0 -0.3279416649815593 0.4286253325806062 0 -0.32726919661073722 0.44585414172090559 0 -0.34306855669821251 0.41806532993636009 0 -0.339245346239193 0.43559046217408792 0 -0.3279416649815593 0.4286253325806062 0 -0.3279416649815593 0.4286253325806062 0 -0.31387533074570051 0.41987372031590242 0 -0.31555679277819332 0.43779963562342988 0 -0.3279416649815593 0.4286253325806062 0 -0.31555679277819332 0.43779963562342988 0 -0.32726919661073722 0.44585414172090559 0 -0.31387533074570051 0.41987372031590242 0 -0.32176658111516238 0.40308672588278632 0 -0.30710296605125781 0.40512195492538228 0 -0.32863476681732001 0.41456870571295151 0 -0.31387533074570051 0.41987372031590242 0 -0.32176658111516238 0.40308672588278632 0 -0.32863476681732001 0.41456870571295151 0 -0.3279416649815593 0.4286253325806062 0 -0.31387533074570051 0.41987372031590242 0 -0.31485932618392459 0.39310120394167392 0 -0.32176658111516238 0.40308672588278632 0 -0.30710296605125781 0.40512195492538228 0 -0.31485932618392459 0.39310120394167392 0 -0.32344576899640531 0.39235487265197638 0 -0.32128701997958431 0.38659114705833592 0 -0.31485932618392459 0.39310120394167392 0 -0.32344576899640531 0.39235487265197638 0 -0.32176658111516238 0.40308672588278632 0 -0.32344576899640531 0.39235487265197638 0 -0.32176658111516238 0.40308672588278632 0 -0.33188283081955933 0.39389465409140539 0 -0.32344576899640531 0.39235487265197638 0 -0.33188283081955933 0.39389465409140539 0 -0.32812539172694 0.38680213679735309 0 -0.32176658111516238 0.40308672588278632 0 -0.33188283081955933 0.39389465409140539 0 -0.33640261000542082 0.40275364563487659 0 -0.33188283081955933 0.39389465409140539 0 -0.34276670499380568 0.39186204612039788 0 -0.33640261000542082 0.40275364563487659 0 -0.33188283081955933 0.39389465409140539 0 -0.34276670499380568 0.39186204612039788 0 -0.33729183783693262 0.38626411136790778 0 -0.34805959329394681 0.40348909371151692 0 -0.34276670499380568 0.39186204612039788 0 -0.33640261000542082 0.40275364563487659 0 -0.33781100568552258 0.37867532170220858 0 -0.34308531182914448 0.38213775332947469 0 -0.33729183783693262 0.38626411136790778 0 -0.34557523676278229 0.37527608323801093 0 -0.33781100568552258 0.37867532170220858 0 -0.34308531182914448 0.38213775332947469 0 -0.33885049365856562 0.3711141719693612 0 -0.34557523676278229 0.37527608323801093 0 -0.33781100568552258 0.37867532170220858 0 -0.34276670499380568 0.39186204612039788 0 -0.34308531182914448 0.38213775332947469 0 -0.33729183783693262 0.38626411136790778 0 -0.33188283081955933 0.39389465409140539 0 -0.33729183783693262 0.38626411136790778 0 -0.32812539172694 0.38680213679735309 0 -0.33729183783693262 0.38626411136790778 0 -0.32812539172694 0.38680213679735309 0 -0.3312498358384845 0.38136995301330251 0 -0.33885049365856562 0.3711141719693612 0 -0.33781100568552258 0.37867532170220858 0 -0.32954792842406078 0.37521222694386452 0 -0.33781100568552258 0.37867532170220858 0 -0.3312498358384845 0.38136995301330251 0 -0.32954792842406078 0.37521222694386452 0 -0.33781100568552258 0.37867532170220858 0 -0.33729183783693262 0.38626411136790778 0 -0.3312498358384845 0.38136995301330251 0 -0.3312498358384845 0.38136995301330251 0 -0.32954792842406078 0.37521222694386452 0 -0.32347301551896651 0.37989596825517818 0 -0.31844333471781361 0.37220714939135568 0 -0.32954792842406078 0.37521222694386452 0 -0.32347301551896651 0.37989596825517818 0 -0.32812539172694 0.38680213679735309 0 -0.3312498358384845 0.38136995301330251 0 -0.32347301551896651 0.37989596825517818 0 -0.32347301551896651 0.37989596825517818 0 -0.32128701997958431 0.38659114705833592 0 -0.31653159747168491 0.38080155364549811 0 -0.32344576899640531 0.39235487265197638 0 -0.32812539172694 0.38680213679735309 0 -0.32128701997958431 0.38659114705833592 0 -0.32812539172694 0.38680213679735309 0 -0.32347301551896651 0.37989596825517818 0 -0.32128701997958431 0.38659114705833592 0 -0.31485932618392459 0.39310120394167392 0 -0.32128701997958431 0.38659114705833592 0 -0.31653159747168491 0.38080155364549811 0 -0.31844333471781361 0.37220714939135568 0 -0.31653159747168491 0.38080155364549811 0 -0.31055542999413471 0.37779571938495993 0 -0.31844333471781361 0.37220714939135568 0 -0.32347301551896651 0.37989596825517818 0 -0.31653159747168491 0.38080155364549811 0 -0.31653159747168491 0.38080155364549811 0 -0.29306955143955132 0.39362053580041312 0 -0.31653159747168491 0.38080155364549811 0 -0.31055542999413471 0.37779571938495993 0 -0.29306955143955132 0.39362053580041312 0 -0.31055542999413471 0.37779571938495993 0 -0.29306955143955132 0.39362053580041312 0 -0.29093931384012889 0.37685592965348019 0 -0.31485932618392459 0.39310120394167392 0 -0.31653159747168491 0.38080155364549811 0 -0.29306955143955132 0.39362053580041312 0 -0.31485932618392459 0.39310120394167392 0 -0.30710296605125781 0.40512195492538228 0 -0.29306955143955132 0.39362053580041312 0 -0.30710296605125781 0.40512195492538228 0 -0.29306955143955132 0.39362053580041312 0 -0.29706057255262852 0.41718525438474252 0 -0.29306955143955132 0.39362053580041312 0 -0.26960750540741779 0.40643951795532818 0 -0.29306955143955132 0.39362053580041312 0 -0.29093931384012889 0.37685592965348019 0 -0.27634319603276181 0.39088727926494748 0 -0.27253775888794513 0.36185477194888749 0 -0.29093931384012889 0.37685592965348019 0 -0.27634319603276181 0.39088727926494748 0 -0.27253775888794513 0.36185477194888749 0 -0.27634319603276181 0.39088727926494748 0 -0.26252571848568018 0.38107305638594108 0 -0.27634319603276181 0.39088727926494748 0 -0.25251367808341529 0.40029134082299472 0 -0.26960750540741779 0.40643951795532818 0 -0.29306955143955132 0.39362053580041312 0 -0.27634319603276181 0.39088727926494748 0 -0.26960750540741779 0.40643951795532818 0 -0.29306955143955132 0.39362053580041312 0 -0.26960750540741779 0.40643951795532818 0 -0.28077968639062972 0.41741416348853561 0 -0.25251367808341529 0.40029134082299472 0 -0.26252571848568018 0.38107305638594108 0 -0.27634319603276181 0.39088727926494748 0 -0.25251367808341529 0.40029134082299472 0 -0.26252571848568018 0.38107305638594108 0 -0.25251367808341529 0.40029134082299472 0 -0.26252571848568018 0.38107305638594108 0 -0.23794142988137071 0.38173887193316441 0 -0.2617333143321009 0.42497394672815109 0 -0.24614545937528429 0.41925850011024318 0 -0.24248398516646649 0.43426471821323259 0 -0.2617333143321009 0.42497394672815109 0 -0.27447168150601781 0.43268582560176999 0 -0.2580387939827557 0.43904332425791232 0 -0.2617333143321009 0.42497394672815109 0 -0.2580387939827557 0.43904332425791232 0 -0.24248398516646649 0.43426471821323259 0 -0.2617333143321009 0.42497394672815109 0 -0.26960750540741779 0.40643951795532818 0 -0.24614545937528429 0.41925850011024318 0 -0.26960750540741779 0.40643951795532818 0 -0.24614545937528429 0.41925850011024318 0 -0.25251367808341529 0.40029134082299472 0 -0.26960750540741779 0.40643951795532818 0 -0.24614545937528429 0.41925850011024318 0 -0.2617333143321009 0.42497394672815109 0 -0.26960750540741779 0.40643951795532818 0 -0.28077968639062972 0.41741416348853561 0 -0.2617333143321009 0.42497394672815109 0 -0.28077968639062972 0.41741416348853561 0 -0.27447168150601781 0.43268582560176999 0 -0.28077968639062972 0.41741416348853561 0 -0.27447168150601781 0.43268582560176999 0 -0.28834054026742367 0.42990032653523491 0 -0.27447168150601781 0.43268582560176999 0 -0.28834054026742367 0.42990032653523491 0 -0.28495319459540319 0.44798487030738771 0 -0.28834054026742367 0.42990032653523491 0 -0.29706057255262852 0.41718525438474252 0 -0.30099357753951089 0.43702563426273799 0 -0.29306955143955132 0.39362053580041312 0 -0.28077968639062972 0.41741416348853561 0 -0.29706057255262852 0.41718525438474252 0 -0.28077968639062972 0.41741416348853561 0 -0.28834054026742367 0.42990032653523491 0 -0.29706057255262852 0.41718525438474252 0 -0.31387533074570051 0.41987372031590242 0 -0.30710296605125781 0.40512195492538228 0 -0.29706057255262852 0.41718525438474252 0 -0.31387533074570051 0.41987372031590242 0 -0.30099357753951089 0.43702563426273799 0 -0.31555679277819332 0.43779963562342988 0 -0.31387533074570051 0.41987372031590242 0 -0.29706057255262852 0.41718525438474252 0 -0.30099357753951089 0.43702563426273799 0 -0.30099357753951089 0.43702563426273799 0 -0.30986941423241759 0.45588685629071479 0 -0.28495319459540319 0.44798487030738771 0 -0.30099357753951089 0.43702563426273799 0 -0.30986941423241759 0.45588685629071479 0 -0.31555679277819332 0.43779963562342988 0 -0.30986941423241759 0.45588685629071479 0 -0.29203487913111181 0.46512466697141391 0 -0.28495319459540319 0.44798487030738771 0 -0.28834054026742367 0.42990032653523491 0 -0.30099357753951089 0.43702563426273799 0 -0.28495319459540319 0.44798487030738771 0 -0.27447168150601781 0.43268582560176999 0 -0.26590192799560841 0.45740475936781633 0 -0.2580387939827557 0.43904332425791232 0 -0.27447168150601781 0.43268582560176999 0 -0.28495319459540319 0.44798487030738771 0 -0.26590192799560841 0.45740475936781633 0 -0.29203487913111181 0.46512466697141391 0 -0.26590192799560841 0.45740475936781633 0 -0.27763281420724989 0.48098300709167457 0 -0.29203487913111181 0.46512466697141391 0 -0.28495319459540319 0.44798487030738771 0 -0.26590192799560841 0.45740475936781633 0 -0.26590192799560841 0.45740475936781633 0 -0.2448267571638153 0.44953247490846349 0 -0.24988781149345329 0.46348945122460389 0 -0.26590192799560841 0.45740475936781633 0 -0.25421058668763852 0.47868584694323191 0 -0.24988781149345329 0.46348945122460389 0 -0.26590192799560841 0.45740475936781633 0 -0.2580387939827557 0.43904332425791232 0 -0.2448267571638153 0.44953247490846349 0 -0.26309155633445291 0.5 0 -0.25421058668763852 0.47868584694323191 0 -0.27763281420724989 0.48098300709167457 0 -0.26309155633445291 0.5 0 -0.25421058668763852 0.47868584694323191 0 -0.23889286498149459 0.5 0 -0.26590192799560841 0.45740475936781633 0 -0.25421058668763852 0.47868584694323191 0 -0.27763281420724989 0.48098300709167457 0 -0.26309155633445291 0.5 0 -0.27763281420724989 0.48098300709167457 0 -0.28729024768741118 0.49999999999999961 0 -0.29203487913111181 0.46512466697141391 0 -0.27763281420724989 0.48098300709167457 0 -0.31092466461103208 0.48632370430117211 0 -0.27763281420724989 0.48098300709167457 0 -0.28729024768741118 0.49999999999999961 0 -0.31092466461103208 0.48632370430117211 0 -0.30986941423241759 0.45588685629071479 0 -0.29203487913111181 0.46512466697141391 0 -0.31092466461103208 0.48632370430117211 0 -0.28729024768741118 0.49999999999999961 0 -0.31092466461103208 0.48632370430117211 0 -0.31375120110386051 0.5 0 -0.28729024768741118 0.49999999999999961 0 -0.31092466461103208 0.48632370430117211 0 -0.31375120110386051 0.5 0 -0.34021215452030967 0.5 0 -0.32835544166557051 0.48942704794000003 0 -0.31092466461103208 0.48632370430117211 0 -0.31375120110386051 0.5 0 -0.32835544166557051 0.48942704794000003 0 -0.34021215452030967 0.5 0 -0.32835544166557051 0.48942704794000003 0 -0.35065385167323088 0.48331538420219983 0 -0.32835544166557051 0.48942704794000003 0 -0.33455908153465308 0.472647408602345 0 -0.35065385167323088 0.48331538420219983 0 -0.30986941423241759 0.45588685629071479 0 -0.31092466461103208 0.48632370430117211 0 -0.33455908153465308 0.472647408602345 0 -0.31092466461103208 0.48632370430117211 0 -0.33455908153465308 0.472647408602345 0 -0.31092466461103208 0.48632370430117211 0 -0.32835544166557051 0.48942704794000003 0 -0.33455908153465308 0.472647408602345 0 -0.30986941423241759 0.45588685629071479 0 -0.33455908153465308 0.472647408602345 0 -0.32726919661073722 0.44585414172090559 0 -0.30986941423241759 0.45588685629071479 0 -0.31555679277819332 0.43779963562342988 0 -0.32726919661073722 0.44585414172090559 0 -0.339245346239193 0.43559046217408792 0 -0.32726919661073722 0.44585414172090559 0 -0.34291166694191721 0.4519875099809213 0 -0.33455908153465308 0.472647408602345 0 -0.32726919661073722 0.44585414172090559 0 -0.34291166694191721 0.4519875099809213 0 -0.33455908153465308 0.472647408602345 0 -0.35819349845827397 0.45897111290351778 0 -0.33455908153465308 0.472647408602345 0 -0.34291166694191721 0.4519875099809213 0 -0.35819349845827397 0.45897111290351778 0 -0.37592982592381968 0.47884673576733611 0 -0.38182791538189509 0.44529481720469072 0 -0.35819349845827397 0.45897111290351778 0 -0.35282285475341729 0.43508841845784291 0 -0.34291166694191721 0.4519875099809213 0 -0.35819349845827397 0.45897111290351778 0 -0.35282285475341729 0.43508841845784291 0 -0.339245346239193 0.43559046217408792 0 -0.34291166694191721 0.4519875099809213 0 -0.38182791538189509 0.44529481720469072 0 -0.37092289923537253 0.4317655022104514 0 -0.35819349845827397 0.45897111290351778 0 -0.38182791538189509 0.44529481720469072 0 -0.35819349845827397 0.45897111290351778 0 -0.37092289923537253 0.4317655022104514 0 -0.35282285475341729 0.43508841845784291 0 -0.35819349845827397 0.45897111290351778 0 -0.37592982592381968 0.47884673576733611 0 -0.35819349845827397 0.45897111290351778 0 -0.35065385167323088 0.48331538420219983 0 -0.37592982592381968 0.47884673576733611 0 -0.366673107936759 0.5 0 -0.35065385167323088 0.48331538420219983 0 -0.34021215452030967 0.5 0 -0.366673107936759 0.5 0 -0.35065385167323088 0.48331538420219983 0 -0.33455908153465308 0.472647408602345 0 -0.35819349845827397 0.45897111290351778 0 -0.35065385167323088 0.48331538420219983 0 -0.14211319641243811 0.48088213799472301 0 -0.15496695790589671 0.479981562535715 0 -0.1634514904064889 0.48931378922261742 0 -0.14836432460248331 0.47268327900732449 0 -0.15496695790589671 0.479981562535715 0 -0.1636101960150928 0.47616660845613901 0 -0.14211319641243811 0.48088213799472301 0 -0.14836432460248331 0.47268327900732449 0 -0.15496695790589671 0.479981562535715 0 -0.15559298196177779 0.5 0 -0.14458548265653201 0.49199839923724342 0 -0.1634514904064889 0.48931378922261742 0 -0.14211319641243811 0.48088213799472301 0 -0.1634514904064889 0.48931378922261742 0 -0.15559298196177779 0.5 0 -0.14458548265653201 0.49199839923724342 0 -0.12698032823447269 0.5 0 -0.14211319641243811 0.48088213799472301 0 -0.14458548265653201 0.49199839923724342 0 -0.1634514904064889 0.48931378922261742 0 -0.14211319641243811 0.48088213799472301 0 -0.13478941626748259 0.48979606896887629 0 -0.1233659995548267 0.48634163950366771 0 -0.14211319641243811 0.48088213799472301 0 -0.14458548265653201 0.49199839923724342 0 -0.13478941626748259 0.48979606896887629 0 -0.14458548265653201 0.49199839923724342 0 -0.13478941626748259 0.48979606896887629 0 -0.12698032823447269 0.5 0 -0.13478941626748259 0.48979606896887629 0 -0.12698032823447269 0.5 0 -0.1233659995548267 0.48634163950366771 0 -0.14211319641243811 0.48088213799472301 0 -0.14836432460248331 0.47268327900732449 0 -0.1233659995548267 0.48634163950366771 0 -0.14836432460248331 0.47268327900732449 0 -0.1233659995548267 0.48634163950366771 0 -0.14836432460248331 0.47268327900732449 0 -0.13000064407188441 0.4591577299358664 0 -0.1233659995548267 0.48634163950366771 0 -0.13931187065141781 0.43198230337874383 0 -0.1136858655058603 0.44322056454625192 0 -0.13000064407188441 0.4591577299358664 0 -0.13931187065141781 0.43198230337874383 0 -0.1136858655058603 0.44322056454625192 0 -0.13000064407188441 0.4591577299358664 0 -0.1551115023343127 0.44762465646262761 0 -0.13931187065141781 0.43198230337874383 0 -0.14836432460248331 0.47268327900732449 0 -0.13000064407188441 0.4591577299358664 0 -0.1551115023343127 0.44762465646262761 0 -0.14836432460248331 0.47268327900732449 0 -0.1551115023343127 0.44762465646262761 0 -0.17336264965013981 0.45902491851098159 0 -0.14836432460248331 0.47268327900732449 0 -0.17336264965013981 0.45902491851098159 0 -0.1551115023343127 0.44762465646262761 0 -0.17336264965013981 0.45902491851098159 0 -0.18112352042446239 0.43544326895486368 0 -0.17336264965013981 0.45902491851098159 0 -0.19836097469778979 0.44536655801462682 0 -0.17336264965013981 0.45902491851098159 0 -0.19836097469778979 0.44536655801462682 0 -0.18112352042446239 0.43544326895486368 0 -0.1764501673935279 0.4792792208402713 0 -0.18478978440054139 0.49774544045050761 0 -0.1915753795491614 0.47155599923256608 0 -0.17336264965013981 0.45902491851098159 0 -0.1764501673935279 0.4792792208402713 0 -0.1915753795491614 0.47155599923256608 0 -0.14836432460248331 0.47268327900732449 0 -0.17336264965013981 0.45902491851098159 0 -0.1636101960150928 0.47616660845613901 0 -0.17336264965013981 0.45902491851098159 0 -0.1764501673935279 0.4792792208402713 0 -0.1636101960150928 0.47616660845613901 0 -0.1764501673935279 0.4792792208402713 0 -0.1636101960150928 0.47616660845613901 0 -0.1634514904064889 0.48931378922261742 0 -0.15496695790589671 0.479981562535715 0 -0.1636101960150928 0.47616660845613901 0 -0.1634514904064889 0.48931378922261742 0 -0.15559298196177779 0.5 0 -0.1634514904064889 0.48931378922261742 0 -0.18420563568908291 0.49999999999999889 0 -0.1764501673935279 0.4792792208402713 0 -0.1634514904064889 0.48931378922261742 0 -0.18478978440054139 0.49774544045050761 0 -0.1634514904064889 0.48931378922261742 0 -0.18478978440054139 0.49774544045050761 0 -0.1634514904064889 0.48931378922261742 0 -0.18478978440054139 0.49774544045050761 0 -0.18420563568908291 0.49999999999999889 0 -0.18478978440054139 0.49774544045050761 0 -0.18420563568908291 0.49999999999999889 0 -0.19049548227557819 0.49999999999999978 0 -0.18478978440054139 0.49774544045050761 0 -0.18420563568908291 0.49999999999999889 0 -0.18478978440054139 0.49774544045050761 0 -0.19049548227557819 0.49999999999999978 0 -0.18478978440054139 0.49774544045050761 0 -0.1915753795491614 0.47155599923256608 0 -0.18478978440054139 0.49774544045050761 0 -0.19049548227557819 0.49999999999999978 0 -0.1992743617485617 0.48950754711468841 0 -0.18478978440054139 0.49774544045050761 0 -0.1992743617485617 0.48950754711468841 0 -0.1915753795491614 0.47155599923256608 0 -0.19049548227557819 0.49999999999999978 0 -0.1992743617485617 0.48950754711468841 0 -0.21469417362853649 0.5 0 -0.1992743617485617 0.48950754711468841 0 -0.1915753795491614 0.47155599923256608 0 -0.2148169888889904 0.47823629589036809 0 -0.1915753795491614 0.47155599923256608 0 -0.2148169888889904 0.47823629589036809 0 -0.21516104203176609 0.46008525091005148 0 -0.1992743617485617 0.48950754711468841 0 -0.2148169888889904 0.47823629589036809 0 -0.21469417362853649 0.5 0 -0.2148169888889904 0.47823629589036809 0 -0.21469417362853649 0.5 0 -0.2304797170515358 0.48501538080210238 0 -0.21469417362853649 0.5 0 -0.2304797170515358 0.48501538080210238 0 -0.23889286498149459 0.5 0 -0.2148169888889904 0.47823629589036809 0 -0.23461197412675119 0.46833472367890411 0 -0.21516104203176609 0.46008525091005148 0 -0.2148169888889904 0.47823629589036809 0 -0.2304797170515358 0.48501538080210238 0 -0.23461197412675119 0.46833472367890411 0 -0.25421058668763852 0.47868584694323191 0 -0.2304797170515358 0.48501538080210238 0 -0.23461197412675119 0.46833472367890411 0 -0.25421058668763852 0.47868584694323191 0 -0.23461197412675119 0.46833472367890411 0 -0.24988781149345329 0.46348945122460389 0 -0.25421058668763852 0.47868584694323191 0 -0.2304797170515358 0.48501538080210238 0 -0.23889286498149459 0.5 0 -0.23629499251256991 0.44306551240187841 0 -0.2448267571638153 0.44953247490846349 0 -0.23054563029371941 0.4512411487992205 0 -0.23629499251256991 0.44306551240187841 0 -0.2273235974262782 0.43722370768659718 0 -0.24248398516646649 0.43426471821323259 0 -0.23629499251256991 0.44306551240187841 0 -0.2448267571638153 0.44953247490846349 0 -0.24248398516646649 0.43426471821323259 0 -0.2580387939827557 0.43904332425791232 0 -0.2448267571638153 0.44953247490846349 0 -0.24248398516646649 0.43426471821323259 0 -0.2448267571638153 0.44953247490846349 0 -0.23461197412675119 0.46833472367890411 0 -0.24988781149345329 0.46348945122460389 0 -0.2448267571638153 0.44953247490846349 0 -0.23461197412675119 0.46833472367890411 0 -0.23054563029371941 0.4512411487992205 0 -0.23461197412675119 0.46833472367890411 0 -0.23054563029371941 0.4512411487992205 0 -0.21516104203176609 0.46008525091005148 0 -0.22024686357887349 0.44573386803378762 0 -0.23054563029371941 0.4512411487992205 0 -0.21516104203176609 0.46008525091005148 0 -0.23629499251256991 0.44306551240187841 0 -0.23054563029371941 0.4512411487992205 0 -0.2273235974262782 0.43722370768659718 0 -0.22024686357887349 0.44573386803378762 0 -0.22268341334315139 0.43207748226515907 0 -0.2273235974262782 0.43722370768659718 0 -0.22024686357887349 0.44573386803378762 0 -0.23054563029371941 0.4512411487992205 0 -0.2273235974262782 0.43722370768659718 0 -0.22024686357887349 0.44573386803378762 0 -0.21516104203176609 0.46008525091005148 0 -0.19836097469778979 0.44536655801462682 0 -0.19836097469778979 0.44536655801462682 0 -0.22268341334315139 0.43207748226515907 0 -0.22024686357887349 0.44573386803378762 0 -0.19836097469778979 0.44536655801462682 0 -0.22268341334315139 0.43207748226515907 0 -0.1915753795491614 0.47155599923256608 0 -0.19836097469778979 0.44536655801462682 0 -0.17336264965013981 0.45902491851098159 0 -0.1915753795491614 0.47155599923256608 0 -0.19836097469778979 0.44536655801462682 0 -0.1915753795491614 0.47155599923256608 0 -0.21516104203176609 0.46008525091005148 0 -0.19836097469778979 0.44536655801462682 0 -0.19836097469778979 0.44536655801462682 0 -0.20241280642318621 0.42972825268202858 0 -0.19091363979617479 0.42288339557817461 0 -0.20241280642318621 0.42972825268202858 0 -0.18112352042446239 0.43544326895486368 0 -0.19836097469778979 0.44536655801462682 0 -0.20241280642318621 0.42972825268202858 0 -0.18112352042446239 0.43544326895486368 0 -0.19091363979617479 0.42288339557817461 0 -0.20241280642318621 0.42972825268202858 0 -0.20646463814860239 0.41408994734943561 0 -0.19091363979617479 0.42288339557817461 0 -0.19056388094253279 0.40950578104372731 0 -0.20646463814860239 0.41408994734943561 0 -0.19056388094253279 0.40950578104372731 0 -0.20646463814860239 0.41408994734943561 0 -0.1898374177415337 0.39564942369478179 0 -0.20646463814860239 0.41408994734943561 0 -0.22268341334315139 0.43207748226515907 0 -0.22474416153456411 0.41101500034212501 0 -0.19836097469778979 0.44536655801462682 0 -0.20241280642318621 0.42972825268202858 0 -0.22268341334315139 0.43207748226515907 0 -0.20241280642318621 0.42972825268202858 0 -0.20646463814860239 0.41408994734943561 0 -0.22268341334315139 0.43207748226515907 0 -0.20646463814860239 0.41408994734943561 0 -0.22268341334315139 0.43207748226515907 0 -0.20241280642318621 0.42972825268202858 0 -0.20646463814860239 0.41408994734943561 0 -0.22268341334315139 0.43207748226515907 0 -0.2273235974262782 0.43722370768659718 0 -0.24248398516646649 0.43426471821323259 0 -0.22268341334315139 0.43207748226515907 0 -0.2273235974262782 0.43722370768659718 0 -0.22268341334315139 0.43207748226515907 0 -0.22474416153456411 0.41101500034212501 0 -0.24614545937528429 0.41925850011024318 0 -0.22474416153456411 0.41101500034212501 0 -0.24614545937528429 0.41925850011024318 0 -0.2356026976303181 0.3991204668653609 0 -0.22268341334315139 0.43207748226515907 0 -0.24614545937528429 0.41925850011024318 0 -0.24248398516646649 0.43426471821323259 0 -0.22268341334315139 0.43207748226515907 0 -0.24614545937528429 0.41925850011024318 0 -0.25251367808341529 0.40029134082299472 0 -0.23794142988137071 0.38173887193316441 0 -0.2356026976303181 0.3991204668653609 0 -0.25251367808341529 0.40029134082299472 0 -0.24614545937528429 0.41925850011024318 0 -0.2356026976303181 0.3991204668653609 0 -0.23794142988137071 0.38173887193316441 0 -0.2356026976303181 0.3991204668653609 0 -0.21232665097580181 0.39146513154557788 0 -0.22474416153456411 0.41101500034212501 0 -0.2356026976303181 0.3991204668653609 0 -0.21232665097580181 0.39146513154557788 0 -0.23794142988137071 0.38173887193316441 0 -0.21232665097580181 0.39146513154557788 0 -0.21818866380301219 0.36884031574172299 0 -0.21232665097580181 0.39146513154557788 0 -0.19852081262648941 0.37979152923413739 0 -0.21818866380301219 0.36884031574172299 0 -0.21232665097580181 0.39146513154557788 0 -0.21818866380301219 0.36884031574172299 0 -0.20646463814860239 0.41408994734943561 0 -0.22474416153456411 0.41101500034212501 0 -0.21232665097580181 0.39146513154557788 0 -0.20646463814860239 0.41408994734943561 0 -0.21232665097580181 0.39146513154557788 0 -0.20646463814860239 0.41408994734943561 0 -0.1898374177415337 0.39564942369478179 0 -0.20646463814860239 0.41408994734943561 0 -0.21232665097580181 0.39146513154557788 0 -0.1898374177415337 0.39564942369478179 0 -0.21232665097580181 0.39146513154557788 0 -0.1898374177415337 0.39564942369478179 0 -0.19852081262648941 0.37979152923413739 0 -0.1898374177415337 0.39564942369478179 0 -0.19852081262648941 0.37979152923413739 0 -0.17321019733444959 0.37720890004014168 0 -0.1898374177415337 0.39564942369478179 0 -0.17321019733444959 0.37720890004014168 0 -0.17321019733444959 0.37720890004014168 0 -0.17265175705761071 0.40349765835091589 0 -0.15093204105883509 0.3907901215501417 0 -0.17321019733444959 0.37720890004014168 0 -0.15093204105883509 0.3907901215501417 0 -0.15899968259756081 0.36144863905036351 0 -0.17321019733444959 0.37720890004014168 0 -0.15093204105883509 0.3907901215501417 0 -0.17265175705761071 0.40349765835091589 0 -0.14863700963237839 0.41048072555964549 0 -0.15093204105883509 0.3907901215501417 0 -0.19056388094253279 0.40950578104372731 0 -0.1898374177415337 0.39564942369478179 0 -0.17265175705761071 0.40349765835091589 0 -0.1898374177415337 0.39564942369478179 0 -0.17321019733444959 0.37720890004014168 0 -0.17265175705761071 0.40349765835091589 0 -0.19056388094253279 0.40950578104372731 0 -0.1649378757969753 0.42074404221123551 0 -0.19056388094253279 0.40950578104372731 0 -0.17265175705761071 0.40349765835091589 0 -0.1649378757969753 0.42074404221123551 0 -0.19091363979617479 0.42288339557817461 0 -0.19056388094253279 0.40950578104372731 0 -0.1649378757969753 0.42074404221123551 0 -0.19091363979617479 0.42288339557817461 0 -0.18112352042446239 0.43544326895486368 0 -0.1649378757969753 0.42074404221123551 0 -0.1551115023343127 0.44762465646262761 0 -0.18112352042446239 0.43544326895486368 0 -0.1649378757969753 0.42074404221123551 0 -0.17265175705761071 0.40349765835091589 0 -0.1649378757969753 0.42074404221123551 0 -0.14863700963237839 0.41048072555964549 0 -0.1649378757969753 0.42074404221123551 0 -0.14863700963237839 0.41048072555964549 0 -0.13931187065141781 0.43198230337874383 0 -0.1551115023343127 0.44762465646262761 0 -0.1649378757969753 0.42074404221123551 0 -0.13931187065141781 0.43198230337874383 0 -0.1649378757969753 0.42074404221123551 0 -0.13931187065141781 0.43198230337874383 0 -0.14863700963237839 0.41048072555964549 0 -0.13931187065141781 0.43198230337874383 0 -0.12865388478322029 0.40437134306014161 0 -0.12865388478322029 0.40437134306014161 0 -0.12627624648413069 0.3861620261206839 0 -0.15093204105883509 0.3907901215501417 0 -0.12865388478322029 0.40437134306014161 0 -0.15093204105883509 0.3907901215501417 0 -0.12627624648413069 0.3861620261206839 0 -0.15093204105883509 0.3907901215501417 0 -0.13324945680631939 0.3674709220184636 0 -0.14863700963237839 0.41048072555964549 0 -0.12865388478322029 0.40437134306014161 0 -0.15093204105883509 0.3907901215501417 0 -0.14478916786067211 0.34568837806058511 0 -0.15931665262984121 0.34041478456165569 0 -0.15899968259756081 0.36144863905036351 0 -0.14478916786067211 0.34568837806058511 0 -0.13324945680631939 0.3674709220184636 0 -0.15899968259756081 0.36144863905036351 0 -0.14478916786067211 0.34568837806058511 0 -0.15899968259756081 0.36144863905036351 0 -0.15093204105883509 0.3907901215501417 0 -0.13324945680631939 0.3674709220184636 0 -0.15899968259756081 0.36144863905036351 0 -0.14478916786067211 0.34568837806058511 0 -0.13324945680631939 0.3674709220184636 0 -0.13324945680631939 0.3674709220184636 0 -0.12684128673777231 0.34718920863694452 0 -0.1149104585678624 0.35870746298976902 0 -0.14478916786067211 0.34568837806058511 0 -0.13324945680631939 0.3674709220184636 0 -0.12684128673777231 0.34718920863694452 0 -0.13633678805858951 0.33631421293483182 0 -0.1254136078805092 0.32042453303270207 0 -0.12203838836234709 0.33507840394087918 0 -0.12684128673777231 0.34718920863694452 0 -0.13633678805858951 0.33631421293483182 0 -0.12203838836234709 0.33507840394087918 0 -0.14478916786067211 0.34568837806058511 0 -0.12684128673777231 0.34718920863694452 0 -0.13633678805858951 0.33631421293483182 0 -0.14478916786067211 0.34568837806058511 0 -0.13633678805858951 0.33631421293483182 0 -0.1254136078805092 0.32042453303270207 0 -0.14271414269548721 0.32598818730417589 0 -0.1486716848437909 0.30744094498940849 0 -0.13633678805858951 0.33631421293483182 0 -0.1254136078805092 0.32042453303270207 0 -0.14271414269548721 0.32598818730417589 0 -0.1254136078805092 0.32042453303270207 0 -0.1486716848437909 0.30744094498940849 0 -0.14271414269548721 0.32598818730417589 0 -0.15835946483387431 0.3200728675033519 0 -0.1486716848437909 0.30744094498940849 0 -0.14478916786067211 0.34568837806058511 0 -0.15835946483387431 0.3200728675033519 0 -0.14478916786067211 0.34568837806058511 0 -0.15931665262984121 0.34041478456165569 0 -0.15835946483387431 0.3200728675033519 0 -0.14478916786067211 0.34568837806058511 0 -0.14271414269548721 0.32598818730417589 0 -0.15835946483387431 0.3200728675033519 0 -0.14478916786067211 0.34568837806058511 0 -0.13633678805858951 0.33631421293483182 0 -0.14271414269548721 0.32598818730417589 0 -0.16337149902471629 0.32899141003071197 0 -0.17951334030780289 0.328246236829427 0 -0.1710634488323827 0.34587262816326608 0 -0.16337149902471629 0.32899141003071197 0 -0.15931665262984121 0.34041478456165569 0 -0.15835946483387431 0.3200728675033519 0 -0.16337149902471629 0.32899141003071197 0 -0.15931665262984121 0.34041478456165569 0 -0.1710634488323827 0.34587262816326608 0 -0.16337149902471629 0.32899141003071197 0 -0.15835946483387431 0.3200728675033519 0 -0.18095839181928611 0.31216220216587021 0 -0.16337149902471629 0.32899141003071197 0 -0.17951334030780289 0.328246236829427 0 -0.18095839181928611 0.31216220216587021 0 -0.16337149902471629 0.32899141003071197 0 -0.18095839181928611 0.31216220216587021 0 -0.17951334030780289 0.328246236829427 0 -0.20016805003907381 0.3192227678949045 0 -0.18095839181928611 0.31216220216587021 0 -0.17951334030780289 0.328246236829427 0 -0.1710634488323827 0.34587262816326608 0 -0.1890159742699061 0.34226141459555098 0 -0.1781839480033291 0.35770075636766713 0 -0.1710634488323827 0.34587262816326608 0 -0.1890159742699061 0.34226141459555098 0 -0.1781839480033291 0.35770075636766713 0 -0.1710634488323827 0.34587262816326608 0 -0.15899968259756081 0.36144863905036351 0 -0.15931665262984121 0.34041478456165569 0 -0.1710634488323827 0.34587262816326608 0 -0.15899968259756081 0.36144863905036351 0 -0.17321019733444959 0.37720890004014168 0 -0.15899968259756081 0.36144863905036351 0 -0.17321019733444959 0.37720890004014168 0 -0.1781839480033291 0.35770075636766713 0 -0.15899968259756081 0.36144863905036351 0 -0.17321019733444959 0.37720890004014168 0 -0.19863043698234631 0.36171219998901349 0 -0.17321019733444959 0.37720890004014168 0 -0.1781839480033291 0.35770075636766713 0 -0.19863043698234631 0.36171219998901349 0 -0.19852081262648941 0.37979152923413739 0 -0.17321019733444959 0.37720890004014168 0 -0.19863043698234631 0.36171219998901349 0 -0.1781839480033291 0.35770075636766713 0 -0.19863043698234631 0.36171219998901349 0 -0.1890159742699061 0.34226141459555098 0 -0.19863043698234631 0.36171219998901349 0 -0.20719448241021551 0.33772548866701613 0 -0.1890159742699061 0.34226141459555098 0 -0.19863043698234631 0.36171219998901349 0 -0.22405067663023409 0.34621549993787121 0 -0.20719448241021551 0.33772548866701613 0 -0.19863043698234631 0.36171219998901349 0 -0.22405067663023409 0.34621549993787121 0 -0.19863043698234631 0.36171219998901349 0 -0.21818866380301219 0.36884031574172299 0 -0.22405067663023409 0.34621549993787121 0 -0.19852081262648941 0.37979152923413739 0 -0.19863043698234631 0.36171219998901349 0 -0.21818866380301219 0.36884031574172299 0 -0.23794142988137071 0.38173887193316441 0 -0.21818866380301219 0.36884031574172299 0 -0.2461430049747054 0.35912338026056412 0 -0.21818866380301219 0.36884031574172299 0 -0.22405067663023409 0.34621549993787121 0 -0.21818866380301219 0.36884031574172299 0 -0.22405067663023409 0.34621549993787121 0 -0.2461430049747054 0.35912338026056412 0 -0.22405067663023409 0.34621549993787121 0 -0.2461430049747054 0.35912338026056412 0 -0.24469908269573809 0.33362780762014749 0 -0.26252571848568018 0.38107305638594108 0 -0.23794142988137071 0.38173887193316441 0 -0.2461430049747054 0.35912338026056412 0 -0.24850163173668791 0.32034643831665588 0 -0.24469908269573809 0.33362780762014749 0 -0.2300710867021068 0.32297933977325938 0 -0.24850163173668791 0.32034643831665588 0 -0.2300710867021068 0.32297933977325938 0 -0.24370901388403399 0.31040656341079181 0 -0.25082964281992393 0.31374473726900409 0 -0.24850163173668791 0.32034643831665588 0 -0.24370901388403399 0.31040656341079181 0 -0.22405067663023409 0.34621549993787121 0 -0.2300710867021068 0.32297933977325938 0 -0.22405067663023409 0.34621549993787121 0 -0.24469908269573809 0.33362780762014749 0 -0.2300710867021068 0.32297933977325938 0 -0.22405067663023409 0.34621549993787121 0 -0.2300710867021068 0.32297933977325938 0 -0.20719448241021551 0.33772548866701613 0 -0.22405067663023409 0.34621549993787121 0 -0.24469908269573809 0.33362780762014749 0 -0.2300710867021068 0.32297933977325938 0 -0.20719448241021551 0.33772548866701613 0 -0.20016805003907381 0.3192227678949045 0 -0.2300710867021068 0.32297933977325938 0 -0.20016805003907381 0.3192227678949045 0 -0.21753138531943331 0.29851638768825578 0 -0.17951334030780289 0.328246236829427 0 -0.1890159742699061 0.34226141459555098 0 -0.20016805003907381 0.3192227678949045 0 -0.20719448241021551 0.33772548866701613 0 -0.1890159742699061 0.34226141459555098 0 -0.20016805003907381 0.3192227678949045 0 -0.20016805003907381 0.3192227678949045 0 -0.19854528461385601 0.29533299430102861 0 -0.18095839181928611 0.31216220216587021 0 -0.19854528461385601 0.29533299430102861 0 -0.18095839181928611 0.31216220216587021 0 -0.19854528461385601 0.29533299430102861 0 -0.20782520503826599 0.27677213282354729 0 -0.18193133987353691 0.29186968707575017 0 -0.20782520503826599 0.27677213282354729 0 -0.18193133987353691 0.29186968707575017 0 -0.1939563281196722 0.28216124736394388 0 -0.20782520503826599 0.27677213282354729 0 -0.18193133987353691 0.29186968707575017 0 -0.19854528461385601 0.29533299430102861 0 -0.20782520503826599 0.27677213282354729 0 -0.21613217740842569 0.27850378643618678 0 -0.19854528461385601 0.29533299430102861 0 -0.21753138531943331 0.29851638768825578 0 -0.21613217740842569 0.27850378643618678 0 -0.19854528461385601 0.29533299430102861 0 -0.21613217740842569 0.27850378643618678 0 -0.20016805003907381 0.3192227678949045 0 -0.19854528461385601 0.29533299430102861 0 -0.21753138531943331 0.29851638768825578 0 -0.2300710867021068 0.32297933977325938 0 -0.21753138531943331 0.29851638768825578 0 -0.23609149677399099 0.29974317960865049 0 -0.2300710867021068 0.32297933977325938 0 -0.23609149677399099 0.29974317960865049 0 -0.21753138531943331 0.29851638768825578 0 -0.2285572033774573 0.28561193381262878 0 -0.23609149677399099 0.29974317960865049 0 -0.21753138531943331 0.29851638768825578 0 -0.2285572033774573 0.28561193381262878 0 -0.21613217740842569 0.27850378643618678 0 -0.23609149677399099 0.29974317960865049 0 -0.24211190684587519 0.27650701944404182 0 -0.24583773327269609 0.29888048188094479 0 -0.23609149677399099 0.29974317960865049 0 -0.24211190684587519 0.27650701944404182 0 -0.2285572033774573 0.28561193381262878 0 -0.23609149677399099 0.29974317960865049 0 -0.24211190684587519 0.27650701944404182 0 -0.2560223893744164 0.29053697812698909 0 -0.24583773327269609 0.29888048188094479 0 -0.24211190684587519 0.27650701944404182 0 -0.25092249199879868 0.30674520361623658 0 -0.25051841792775942 0.30184479702737887 0 -0.24583773327269609 0.29888048188094479 0 -0.2300710867021068 0.32297933977325938 0 -0.24370901388403399 0.31040656341079181 0 -0.23609149677399099 0.29974317960865049 0 -0.25092249199879868 0.30674520361623658 0 -0.24583773327269609 0.29888048188094479 0 -0.24370901388403399 0.31040656341079181 0 -0.25092249199879868 0.30674520361623658 0 -0.25082964281992393 0.31374473726900409 0 -0.24370901388403399 0.31040656341079181 0 -0.24583773327269609 0.29888048188094479 0 -0.24370901388403399 0.31040656341079181 0 -0.23609149677399099 0.29974317960865049 0 -0.24813231691776619 0.25327085927943482 0 -0.24211190684587519 0.27650701944404182 0 -0.23872058612654781 0.26656043829520742 0 -0.2565886272595248 0.26520235342157522 0 -0.24813231691776619 0.25327085927943482 0 -0.24211190684587519 0.27650701944404182 0 -0.24813231691776619 0.25327085927943482 0 -0.24211190684587519 0.27650701944404182 0 -0.24813231691776619 0.25327085927943482 0 -0.23872058612654781 0.26656043829520742 0 -0.23371907020299529 0.26167457857134491 0 -0.23800946074487131 0.25756902819960131 0 -0.23371907020299529 0.26167457857134491 0 -0.23800946074487131 0.25756902819960131 0 -0.24813231691776619 0.25327085927943482 0 -0.23371907020299529 0.26167457857134491 0 -0.23800946074487131 0.25756902819960131 0 -0.2294257499030683 0.25591035732078021 0 -0.23840205524030439 0.2464716818085162 0 -0.24813231691776619 0.25327085927943482 0 -0.23371907020299529 0.26167457857134491 0 -0.23800946074487131 0.25756902819960131 0 -0.23840205524030439 0.2464716818085162 0 -0.2499887504339155 0.2461058346380591 0 -0.23800946074487131 0.25756902819960131 0 -0.24536889978956231 0.2534606952133085 0 -0.23800946074487131 0.25756902819960131 0 -0.24536889978956231 0.2534606952133085 0 -0.24813231691776619 0.25327085927943482 0 -0.23800946074487131 0.25756902819960131 0 -0.24536889978956231 0.2534606952133085 0 -0.2499887504339155 0.2461058346380591 0 -0.23800946074487131 0.25756902819960131 0 -0.2499887504339155 0.2461058346380591 0 -0.24536889978956231 0.2534606952133085 0 -0.24813231691776619 0.25327085927943482 0 -0.2499887504339155 0.2461058346380591 0 -0.25052974299966041 0.25187302739506851 0 -0.24813231691776619 0.25327085927943482 0 -0.2499887504339155 0.2461058346380591 0 -0.25052974299966041 0.25187302739506851 0 -0.24813231691776619 0.25327085927943482 0 -0.24211190684587519 0.27650701944404182 0 -0.23872058612654781 0.26656043829520742 0 -0.23091905053956141 0.27478929588600942 0 -0.23872058612654781 0.26656043829520742 0 -0.23091905053956141 0.27478929588600942 0 -0.23371907020299529 0.26167457857134491 0 -0.23371907020299529 0.26167457857134491 0 -0.21613217740842569 0.27850378643618678 0 -0.23371907020299529 0.26167457857134491 0 -0.20782520503826599 0.27677213282354729 0 -0.21613217740842569 0.27850378643618678 0 -0.23371907020299529 0.26167457857134491 0 -0.20782520503826599 0.27677213282354729 0 -0.23091905053956141 0.27478929588600942 0 -0.23371907020299529 0.26167457857134491 0 -0.21613217740842569 0.27850378643618678 0 -0.23371907020299529 0.26167457857134491 0 -0.20782520503826599 0.27677213282354729 0 -0.21598289443227189 0.26986513778177279 0 -0.2285572033774573 0.28561193381262878 0 -0.24211190684587519 0.27650701944404182 0 -0.23091905053956141 0.27478929588600942 0 -0.2285572033774573 0.28561193381262878 0 -0.23091905053956141 0.27478929588600942 0 -0.21613217740842569 0.27850378643618678 0 -0.23800946074487131 0.25756902819960131 0 -0.2294257499030683 0.25591035732078021 0 -0.21598289443227189 0.26986513778177279 0 -0.23800946074487131 0.25756902819960131 0 -0.23371907020299529 0.26167457857134491 0 -0.21598289443227189 0.26986513778177279 0 -0.2294257499030683 0.25591035732078021 0 -0.21784337770742021 0.25820512470290108 0 -0.21598289443227189 0.26986513778177279 0 -0.23800946074487131 0.25756902819960131 0 -0.21598289443227189 0.26986513778177279 0 -0.2294257499030683 0.25591035732078021 0 -0.21784337770742021 0.25820512470290108 0 -0.21227254561210221 0.2481350162727371 0 -0.20223905984356089 0.26419337707346269 0 -0.19578237057084041 0.24943278947995479 0 -0.21227254561210221 0.2481350162727371 0 -0.21784337770742021 0.25820512470290108 0 -0.20223905984356089 0.26419337707346269 0 -0.21227254561210221 0.2481350162727371 0 -0.21784337770742021 0.25820512470290108 0 -0.21598289443227189 0.26986513778177279 0 -0.20223905984356089 0.26419337707346269 0 -0.1939563281196722 0.28216124736394388 0 -0.21598289443227189 0.26986513778177279 0 -0.20223905984356089 0.26419337707346269 0 -0.1939563281196722 0.28216124736394388 0 -0.20782520503826599 0.27677213282354729 0 -0.21598289443227189 0.26986513778177279 0 -0.1939563281196722 0.28216124736394388 0 -0.21598289443227189 0.26986513778177279 0 -0.1939563281196722 0.28216124736394388 0 -0.20223905984356089 0.26419337707346269 0 -0.18385606618895811 0.27194507321303651 0 -0.18385606618895811 0.27194507321303651 0 -0.19578237057084041 0.24943278947995479 0 -0.20223905984356089 0.26419337707346269 0 -0.18385606618895811 0.27194507321303651 0 -0.19578237057084041 0.24943278947995479 0 -0.18385606618895811 0.27194507321303651 0 -0.19578237057084041 0.24943278947995479 0 -0.1692147041367538 0.24942294167756821 0 -0.15884677020686949 0.26696685121081482 0 -0.1692147041367538 0.24942294167756821 0 -0.14824908046117191 0.2455952354061374 0 -0.15884677020686949 0.26696685121081482 0 -0.18385606618895811 0.27194507321303651 0 -0.1692147041367538 0.24942294167756821 0 -0.15884677020686949 0.26696685121081482 0 -0.18385606618895811 0.27194507321303651 0 -0.17192976180707381 0.29445735694611719 0 -0.1939563281196722 0.28216124736394388 0 -0.18385606618895811 0.27194507321303651 0 -0.17192976180707381 0.29445735694611719 0 -0.1939563281196722 0.28216124736394388 0 -0.17192976180707381 0.29445735694611719 0 -0.1939563281196722 0.28216124736394388 0 -0.17192976180707381 0.29445735694611719 0 -0.18193133987353691 0.29186968707575017 0 -0.18385606618895811 0.27194507321303651 0 -0.17192976180707381 0.29445735694611719 0 -0.17192976180707381 0.29445735694611719 0 -0.18193133987353691 0.29186968707575017 0 -0.18095839181928611 0.31216220216587021 0 -0.19854528461385601 0.29533299430102861 0 -0.18193133987353691 0.29186968707575017 0 -0.18095839181928611 0.31216220216587021 0 -0.15835946483387431 0.3200728675033519 0 -0.17192976180707381 0.29445735694611719 0 -0.18095839181928611 0.31216220216587021 0 -0.15835946483387431 0.3200728675033519 0 -0.17192976180707381 0.29445735694611719 0 -0.1486716848437909 0.30744094498940849 0 -0.15835946483387431 0.3200728675033519 0 -0.17192976180707381 0.29445735694611719 0 -0.17192976180707381 0.29445735694611719 0 -0.1486716848437909 0.30744094498940849 0 -0.15884677020686949 0.26696685121081482 0 -0.17192976180707381 0.29445735694611719 0 -0.148693784636417 0.28325134685522357 0 -0.17192976180707381 0.29445735694611719 0 -0.148693784636417 0.28325134685522357 0 -0.1486716848437909 0.30744094498940849 0 -0.148693784636417 0.28325134685522357 0 -0.1486716848437909 0.30744094498940849 0 -0.1336618614244737 0.30042506546367348 0 -0.1254136078805092 0.32042453303270207 0 -0.1486716848437909 0.30744094498940849 0 -0.1336618614244737 0.30042506546367348 0 -0.1254136078805092 0.32042453303270207 0 -0.1336618614244737 0.30042506546367348 0 -0.1177010155189064 0.30363026833189971 0 -0.1336618614244737 0.30042506546367348 0 -0.12641730666947501 0.28720309748184097 0 -0.1177010155189064 0.30363026833189971 0 -0.148693784636417 0.28325134685522357 0 -0.12641730666947501 0.28720309748184097 0 -0.12869048239889019 0.27344778000872749 0 -0.148693784636417 0.28325134685522357 0 -0.1336618614244737 0.30042506546367348 0 -0.12641730666947501 0.28720309748184097 0 -0.148693784636417 0.28325134685522357 0 -0.12869048239889019 0.27344778000872749 0 -0.1329423768225505 0.25720180978670898 0 -0.12869048239889019 0.27344778000872749 0 -0.1329423768225505 0.25720180978670898 0 -0.1199126906348159 0.2643236128970885 0 -0.15884677020686949 0.26696685121081482 0 -0.1329423768225505 0.25720180978670898 0 -0.14824908046117191 0.2455952354061374 0 -0.15884677020686949 0.26696685121081482 0 -0.148693784636417 0.28325134685522357 0 -0.1329423768225505 0.25720180978670898 0 -0.098367381994878197 0.27628870016433238 0 -0.1075328936498587 0.26280630929698412 0 -0.1154862532311927 0.2752590330227756 0 -0.098367381994878197 0.27628870016433238 0 -0.1154862532311927 0.2752590330227756 0 -0.1096871463670147 0.29032463505878159 0 -0.098367381994878197 0.27628870016433238 0 -0.097610998758335094 0.26229407932612869 0 -0.08983164898461965 0.26636502415028701 0 -0.098367381994878197 0.27628870016433238 0 -0.097610998758335094 0.26229407932612869 0 -0.1075328936498587 0.26280630929698412 0 -0.097610998758335094 0.26229407932612869 0 -0.1016060430604164 0.25172526059100397 0 -0.090717026101902534 0.25428510242803559 0 -0.1016060430604164 0.25172526059100397 0 -0.090717026101902534 0.25428510242803559 0 -0.094430068240738768 0.24606220954010971 0 -0.1016060430604164 0.25172526059100397 0 -0.1075328936498587 0.26280630929698412 0 -0.1128060493370544 0.25365098694052829 0 -0.097610998758335094 0.26229407932612869 0 -0.1016060430604164 0.25172526059100397 0 -0.1075328936498587 0.26280630929698412 0 -0.1075328936498587 0.26280630929698412 0 -0.1128060493370544 0.25365098694052829 0 -0.1199126906348159 0.2643236128970885 0 -0.1329423768225505 0.25720180978670898 0 -0.1128060493370544 0.25365098694052829 0 -0.1199126906348159 0.2643236128970885 0 -0.1329423768225505 0.25720180978670898 0 -0.1128060493370544 0.25365098694052829 0 -0.1110409392292048 0.24407165211225321 0 -0.12869048239889019 0.27344778000872749 0 -0.1199126906348159 0.2643236128970885 0 -0.1154862532311927 0.2752590330227756 0 -0.1075328936498587 0.26280630929698412 0 -0.1199126906348159 0.2643236128970885 0 -0.1154862532311927 0.2752590330227756 0 -0.12641730666947501 0.28720309748184097 0 -0.12869048239889019 0.27344778000872749 0 -0.1154862532311927 0.2752590330227756 0 -0.12641730666947501 0.28720309748184097 0 -0.1154862532311927 0.2752590330227756 0 -0.1096871463670147 0.29032463505878159 0 -0.12641730666947501 0.28720309748184097 0 -0.1096871463670147 0.29032463505878159 0 -0.1177010155189064 0.30363026833189971 0 -0.1096871463670147 0.29032463505878159 0 -0.1177010155189064 0.30363026833189971 0 -0.1016758841064547 0.30679988795763652 0 -0.1177010155189064 0.30363026833189971 0 -0.1016758841064547 0.30679988795763652 0 -0.10949313203484839 0.31794249227791632 0 -0.1016758841064547 0.30679988795763652 0 -0.097235655945017846 0.29348644715575822 0 -0.087768698637131201 0.30591798793983421 0 -0.1096871463670147 0.29032463505878159 0 -0.1016758841064547 0.30679988795763652 0 -0.097235655945017846 0.29348644715575822 0 -0.098367381994878197 0.27628870016433238 0 -0.1096871463670147 0.29032463505878159 0 -0.097235655945017846 0.29348644715575822 0 -0.097235655945017846 0.29348644715575822 0 -0.085049843089653382 0.28863686379733311 0 -0.087768698637131201 0.30591798793983421 0 -0.098367381994878197 0.27628870016433238 0 -0.097235655945017846 0.29348644715575822 0 -0.085049843089653382 0.28863686379733311 0 -0.085049843089653382 0.28863686379733311 0 -0.077348915472846891 0.30019040665949942 0 -0.075939869526798126 0.29096240588141492 0 -0.085049843089653382 0.28863686379733311 0 -0.074140048826978652 0.28163394717436208 0 -0.082655436540261307 0.27419917131574723 0 -0.085049843089653382 0.28863686379733311 0 -0.074140048826978652 0.28163394717436208 0 -0.075939869526798126 0.29096240588141492 0 -0.085049843089653382 0.28863686379733311 0 -0.087768698637131201 0.30591798793983421 0 -0.077348915472846891 0.30019040665949942 0 -0.087768698637131201 0.30591798793983421 0 -0.077348915472846891 0.30019040665949942 0 -0.071681707390398849 0.31780042724060109 0 -0.1016758841064547 0.30679988795763652 0 -0.087768698637131201 0.30591798793983421 0 -0.088713179443759199 0.31995279185333603 0 -0.067002518410934644 0.29433129953035542 0 -0.071681707390398849 0.31780042724060109 0 -0.077348915472846891 0.30019040665949942 0 -0.067002518410934644 0.29433129953035542 0 -0.071681707390398849 0.31780042724060109 0 -0.067002518410934644 0.29433129953035542 0 -0.057685857831776467 0.30962576401769942 0 -0.071681707390398849 0.31780042724060109 0 -0.067002518410934644 0.29433129953035542 0 -0.062323329431471237 0.27086217182010941 0 -0.074140048826978652 0.28163394717436208 0 -0.067002518410934644 0.29433129953035542 0 -0.062323329431471237 0.27086217182010941 0 -0.074140048826978652 0.28163394717436208 0 -0.075939869526798126 0.29096240588141492 0 -0.067002518410934644 0.29433129953035542 0 -0.077348915472846891 0.30019040665949942 0 -0.075939869526798126 0.29096240588141492 0 -0.067002518410934644 0.29433129953035542 0 -0.074140048826978652 0.28163394717436208 0 -0.073136409436345098 0.27256988821595302 0 -0.062323329431471237 0.27086217182010941 0 -0.073136409436345098 0.27256988821595302 0 -0.075836982807323317 0.26479131376605008 0 -0.062323329431471237 0.27086217182010941 0 -0.073136409436345098 0.27256988821595302 0 -0.082655436540261307 0.27419917131574723 0 -0.075836982807323317 0.26479131376605008 0 -0.074140048826978652 0.28163394717436208 0 -0.073136409436345098 0.27256988821595302 0 -0.082655436540261307 0.27419917131574723 0 -0.098367381994878197 0.27628870016433238 0 -0.085049843089653382 0.28863686379733311 0 -0.082655436540261307 0.27419917131574723 0 -0.098367381994878197 0.27628870016433238 0 -0.082655436540261307 0.27419917131574723 0 -0.08983164898461965 0.26636502415028701 0 -0.082655436540261307 0.27419917131574723 0 -0.08983164898461965 0.26636502415028701 0 -0.075836982807323317 0.26479131376605008 0 -0.08983164898461965 0.26636502415028701 0 -0.090717026101902534 0.25428510242803559 0 -0.081095830747456382 0.25595653724186068 0 -0.097610998758335094 0.26229407932612869 0 -0.08983164898461965 0.26636502415028701 0 -0.090717026101902534 0.25428510242803559 0 -0.08983164898461965 0.26636502415028701 0 -0.081095830747456382 0.25595653724186068 0 -0.075836982807323317 0.26479131376605008 0 -0.090717026101902534 0.25428510242803559 0 -0.081095830747456382 0.25595653724186068 0 -0.082503833694728107 0.24565447940816099 0 -0.068175738589521639 0.25124103123253522 0 -0.062323329431471237 0.27086217182010941 0 -0.075836982807323317 0.26479131376605008 0 -0.068175738589521639 0.25124103123253522 0 -0.062323329431471237 0.27086217182010941 0 -0.068175738589521639 0.25124103123253522 0 -0.062323329431471237 0.27086217182010941 0 -0.057333149502053232 0.2458332254418833 0 -0.081095830747456382 0.25595653724186068 0 -0.075836982807323317 0.26479131376605008 0 -0.068175738589521639 0.25124103123253522 0 -0.081095830747456382 0.25595653724186068 0 -0.068175738589521639 0.25124103123253522 0 -0.082503833694728107 0.24565447940816099 0 -0.062323329431471237 0.27086217182010941 0 -0.057333149502053232 0.2458332254418833 0 -0.062323329431471237 0.27086217182010941 0 -0.051288825255352492 0.26844461469053232 0 -0.057333149502053232 0.2458332254418833 0 -0.051288825255352492 0.26844461469053232 0 -0.043949827689276792 0.26119087002487812 0 -0.057333149502053232 0.2458332254418833 0 -0.043949827689276792 0.26119087002487812 0 -0.042813132900127497 0.24912307242277609 0 -0.057333149502053232 0.2458332254418833 0 -0.062323329431471237 0.27086217182010941 0 -0.052657418694589779 0.27965714143199732 0 -0.057902271523783258 0.28568447771327371 0 -0.062323329431471237 0.27086217182010941 0 -0.057902271523783258 0.28568447771327371 0 -0.062323329431471237 0.27086217182010941 0 -0.051288825255352492 0.26844461469053232 0 -0.052657418694589779 0.27965714143199732 0 -0.051288825255352492 0.26844461469053232 0 -0.052657418694589779 0.27965714143199732 0 -0.032136686034466268 0.27584488666053603 0 -0.032136686034466268 0.27584488666053603 0 -0.043949827689276792 0.26119087002487812 0 -0.024679745777064121 0.26362151483142371 0 -0.052657418694589779 0.27965714143199732 0 -0.032136686034466268 0.27584488666053603 0 -0.047193772240957971 0.28648042965563758 0 -0.052657418694589779 0.27965714143199732 0 -0.032136686034466268 0.27584488666053603 0 -0.051288825255352492 0.26844461469053232 0 -0.032136686034466268 0.27584488666053603 0 -0.043949827689276792 0.26119087002487812 0 -0.043949827689276792 0.26119087002487812 0 -0.042813132900127497 0.24912307242277609 0 -0.02831389987001931 0.2499099156050987 0 -0.043949827689276792 0.26119087002487812 0 -0.024679745777064121 0.26362151483142371 0 -0.02831389987001931 0.2499099156050987 0 -0.024679745777064121 0.26362151483142371 0 -0.0097045602921192395 0.25906514636135641 0 -0.02831389987001931 0.2499099156050987 0 -0.0097045602921192395 0.25906514636135641 0 -0.02831389987001931 0.2499099156050987 0 -0.032136686034466268 0.27584488666053603 0 -0.024679745777064121 0.26362151483142371 0 -0.01161595337434271 0.27203263188907478 0 -0.032136686034466268 0.27584488666053603 0 -0.01161595337434271 0.27203263188907478 0 -0.032136686034466268 0.27584488666053603 0 -0.01161595337434271 0.27203263188907478 0 -0.020413397109338181 0.28181342801429871 0 -0.01161595337434271 0.27203263188907478 0 -0.00058824932322706057 0.28049934236947061 0 -0.020413397109338181 0.28181342801429871 0 -0.01161595337434271 0.27203263188907478 0 -0.00058824932322706057 0.28049934236947061 0 0.0089047792857808797 0.26822037711761382 0 -0.01161595337434271 0.27203263188907478 0 -0.0097045602921192395 0.25906514636135641 0 0.0089047792857808797 0.26822037711761382 0 -0.01161595337434271 0.27203263188907478 0 0.0089047792857808797 0.26822037711761382 0 -0.0097045602921192395 0.25906514636135641 0 -0.0060663621197512346 0.24927777650849131 0 -0.02831389987001931 0.2499099156050987 0 -0.0097045602921192395 0.25906514636135641 0 0.0089047792857808797 0.26822037711761382 0 -0.0097045602921192395 0.25906514636135641 0 -0.0060663621197512346 0.24927777650849131 0 0.0032882937976513949 0.25334643695700099 0 -0.024679745777064121 0.26362151483142371 0 -0.01161595337434271 0.27203263188907478 0 -0.0097045602921192395 0.25906514636135641 0 -0.00031268786957370712 0.30599346904104952 0 -0.012656530611225601 0.29412820040912352 0 -0.014444595492295259 0.31335438503196922 0 -0.00031268786957370712 0.30599346904104952 0 -0.012656530611225601 0.29412820040912352 0 0.007687535548831493 0.29240531769650913 0 -0.00058824932322706057 0.28049934236947061 0 -0.012656530611225601 0.29412820040912352 0 -0.020413397109338181 0.28181342801429871 0 -0.00058824932322706057 0.28049934236947061 0 -0.012656530611225601 0.29412820040912352 0 0.007687535548831493 0.29240531769650913 0 -0.012656530611225601 0.29412820040912352 0 -0.027880504511239999 0.28964158922129218 0 -0.028068963595082291 0.30277979278836997 0 -0.012656530611225601 0.29412820040912352 0 -0.020413397109338181 0.28181342801429871 0 -0.027880504511239999 0.28964158922129218 0 -0.032136686034466268 0.27584488666053603 0 -0.020413397109338181 0.28181342801429871 0 -0.027880504511239999 0.28964158922129218 0 -0.012656530611225601 0.29412820040912352 0 -0.028068963595082291 0.30277979278836997 0 -0.014444595492295259 0.31335438503196922 0 -0.028068963595082291 0.30277979278836997 0 -0.043357351817515648 0.31031334572834052 0 -0.040594264222939373 0.2937997203761048 0 -0.043357351817515648 0.31031334572834052 0 -0.040594264222939373 0.2937997203761048 0 -0.052678220729011148 0.29741592209627682 0 -0.028068963595082291 0.30277979278836997 0 -0.043357351817515648 0.31031334572834052 0 -0.030407400333060799 0.32305402680141548 0 -0.032136686034466268 0.27584488666053603 0 -0.027880504511239999 0.28964158922129218 0 -0.040594264222939373 0.2937997203761048 0 -0.032136686034466268 0.27584488666053603 0 -0.040594264222939373 0.2937997203761048 0 -0.047193772240957971 0.28648042965563758 0 -0.027880504511239999 0.28964158922129218 0 -0.028068963595082291 0.30277979278836997 0 -0.040594264222939373 0.2937997203761048 0 -0.040594264222939373 0.2937997203761048 0 -0.047193772240957971 0.28648042965563758 0 -0.052678220729011148 0.29741592209627682 0 -0.067002518410934644 0.29433129953035542 0 -0.062323329431471237 0.27086217182010941 0 -0.057902271523783258 0.28568447771327371 0 -0.052657418694589779 0.27965714143199732 0 -0.047193772240957971 0.28648042965563758 0 -0.057902271523783258 0.28568447771327371 0 -0.047193772240957971 0.28648042965563758 0 -0.057902271523783258 0.28568447771327371 0 -0.052678220729011148 0.29741592209627682 0 -0.067002518410934644 0.29433129953035542 0 -0.057902271523783258 0.28568447771327371 0 -0.052678220729011148 0.29741592209627682 0 -0.043357351817515648 0.31031334572834052 0 -0.052678220729011148 0.29741592209627682 0 -0.057685857831776467 0.30962576401769942 0 -0.067002518410934644 0.29433129953035542 0 -0.052678220729011148 0.29741592209627682 0 -0.057685857831776467 0.30962576401769942 0 -0.057685857831776467 0.30962576401769942 0 -0.053709490811021998 0.32826782549292288 0 -0.071681707390398849 0.31780042724060109 0 -0.043357351817515648 0.31031334572834052 0 -0.057685857831776467 0.30962576401769942 0 -0.053709490811021998 0.32826782549292288 0 -0.053709490811021998 0.32826782549292288 0 -0.03788009769032296 0.34175846329767828 0 -0.06421870375730207 0.34846571607789772 0 -0.053709490811021998 0.32826782549292288 0 -0.06421870375730207 0.34846571607789772 0 -0.067021189581306956 0.33417456574685428 0 -0.053709490811021998 0.32826782549292288 0 -0.03788009769032296 0.34175846329767828 0 -0.030407400333060799 0.32305402680141548 0 -0.043357351817515648 0.31031334572834052 0 -0.053709490811021998 0.32826782549292288 0 -0.030407400333060799 0.32305402680141548 0 -0.030407400333060799 0.32305402680141548 0 -0.011541491623343759 0.33505121051745912 0 -0.014444595492295259 0.31335438503196922 0 -0.028068963595082291 0.30277979278836997 0 -0.030407400333060799 0.32305402680141548 0 -0.014444595492295259 0.31335438503196922 0 -0.03788009769032296 0.34175846329767828 0 -0.030407400333060799 0.32305402680141548 0 -0.011541491623343759 0.33505121051745912 0 -0.03788009769032296 0.34175846329767828 0 -0.011541491623343759 0.33505121051745912 0 -0.022584197204392351 0.3522495514225632 0 -0.03788009769032296 0.34175846329767828 0 -0.011541491623343759 0.33505121051745912 0 -0.011541491623343759 0.33505121051745912 0 -0.0054400226697274047 0.33541140090889782 0 -0.0083376226530973135 0.34778916586260528 0 -0.0054400226697274047 0.33541140090889782 0 -0.0022319124022550829 0.32047502819239498 0 0.0070395580998945549 0.33000477848004139 0 -0.011541491623343759 0.33505121051745912 0 -0.0054400226697274047 0.33541140090889782 0 -0.014444595492295259 0.31335438503196922 0 -0.0054400226697274047 0.33541140090889782 0 -0.0022319124022550829 0.32047502819239498 0 -0.014444595492295259 0.31335438503196922 0 -0.0054400226697274047 0.33541140090889782 0 -0.014444595492295259 0.31335438503196922 0 -0.00031268786957370712 0.30599346904104952 0 -0.0022319124022550829 0.32047502819239498 0 -0.014444595492295259 0.31335438503196922 0 -0.0060300236740785012 0.37371420799543331 0 -0.003086416064761489 0.35769091366622108 0 -0.028002476584585319 0.37026471504085662 0 -0.0060300236740785012 0.37371420799543331 0 -0.0001281653365701346 0.36623232152712493 0 -0.003086416064761489 0.35769091366622108 0 -0.003086416064761489 0.35769091366622108 0 -0.028002476584585319 0.37026471504085662 0 -0.0060300236740785012 0.37371420799543331 0 -0.0001281653365701346 0.36623232152712493 0 0.0037264626103119878 0.37407226519092718 0 -0.003086416064761489 0.35769091366622108 0 -0.0083376226530973135 0.34778916586260528 0 -0.022584197204392351 0.3522495514225632 0 -0.003086416064761489 0.35769091366622108 0 -0.0083376226530973135 0.34778916586260528 0 0.0035645501528404591 0.35746841678582641 0 -0.011541491623343759 0.33505121051745912 0 -0.0083376226530973135 0.34778916586260528 0 -0.022584197204392351 0.3522495514225632 0 -0.0054400226697274047 0.33541140090889782 0 0.0035645501528404591 0.35746841678582641 0 -0.0054400226697274047 0.33541140090889782 0 -0.0083376226530973135 0.34778916586260528 0 0.0035645501528404591 0.35746841678582641 0 -0.003086416064761489 0.35769091366622108 0 -0.022584197204392351 0.3522495514225632 0 -0.028002476584585319 0.37026471504085662 0 -0.0060300236740785012 0.37371420799543331 0 -0.028002476584585319 0.37026471504085662 0 -0.0153468200983723 0.38031848927273859 0 -0.022584197204392351 0.3522495514225632 0 -0.028002476584585319 0.37026471504085662 0 -0.046657078610243263 0.36094284015055839 0 -0.028002476584585319 0.37026471504085662 0 -0.046657078610243263 0.36094284015055839 0 -0.052918537104409517 0.38283851641549138 0 -0.03788009769032296 0.34175846329767828 0 -0.022584197204392351 0.3522495514225632 0 -0.046657078610243263 0.36094284015055839 0 -0.03788009769032296 0.34175846329767828 0 -0.06421870375730207 0.34846571607789772 0 -0.03788009769032296 0.34175846329767828 0 -0.046657078610243263 0.36094284015055839 0 -0.06421870375730207 0.34846571607789772 0 -0.046657078610243263 0.36094284015055839 0 -0.071737923464345363 0.36900574263680519 0 -0.06421870375730207 0.34846571607789772 0 -0.046657078610243263 0.36094284015055839 0 -0.071737923464345363 0.36900574263680519 0 -0.052918537104409517 0.38283851641549138 0 -0.071737923464345363 0.36900574263680519 0 -0.08741467170420722 0.3738324296916351 0 -0.07384383558685359 0.38088634905695878 0 -0.071737923464345363 0.36900574263680519 0 -0.089650333357560688 0.364220075034216 0 -0.08741467170420722 0.3738324296916351 0 -0.071737923464345363 0.36900574263680519 0 -0.089650333357560688 0.364220075034216 0 -0.090557309824280896 0.3551729688581185 0 -0.071737923464345363 0.36900574263680519 0 -0.090557309824280896 0.3551729688581185 0 -0.089650333357560688 0.364220075034216 0 -0.08741467170420722 0.3738324296916351 0 -0.095110599767171261 0.36842258018154411 0 -0.090557309824280896 0.3551729688581185 0 -0.081983656292656443 0.34457140357877691 0 -0.06421870375730207 0.34846571607789772 0 -0.090557309824280896 0.3551729688581185 0 -0.081983656292656443 0.34457140357877691 0 -0.093132789334859578 0.34022291842149238 0 -0.089650333357560688 0.364220075034216 0 -0.090557309824280896 0.3551729688581185 0 -0.095804234218290846 0.35650912340402668 0 -0.090557309824280896 0.3551729688581185 0 -0.095804234218290846 0.35650912340402668 0 -0.071737923464345363 0.36900574263680519 0 -0.090557309824280896 0.3551729688581185 0 -0.06421870375730207 0.34846571607789772 0 -0.090557309824280896 0.3551729688581185 0 -0.06421870375730207 0.34846571607789772 0 -0.06421870375730207 0.34846571607789772 0 -0.067021189581306956 0.33417456574685428 0 -0.080025822254183213 0.3344240109575991 0 -0.081983656292656443 0.34457140357877691 0 -0.06421870375730207 0.34846571607789772 0 -0.080025822254183213 0.3344240109575991 0 -0.067021189581306956 0.33417456574685428 0 -0.071681707390398849 0.31780042724060109 0 -0.080025822254183213 0.3344240109575991 0 -0.053709490811021998 0.32826782549292288 0 -0.067021189581306956 0.33417456574685428 0 -0.071681707390398849 0.31780042724060109 0 -0.071681707390398849 0.31780042724060109 0 -0.088713179443759199 0.31995279185333603 0 -0.080025822254183213 0.3344240109575991 0 -0.087768698637131201 0.30591798793983421 0 -0.071681707390398849 0.31780042724060109 0 -0.088713179443759199 0.31995279185333603 0 -0.088713179443759199 0.31995279185333603 0 -0.092353342145848324 0.3306168603633779 0 -0.099565862103168257 0.32284962074292062 0 -0.081983656292656443 0.34457140357877691 0 -0.080025822254183213 0.3344240109575991 0 -0.093132789334859578 0.34022291842149238 0 -0.088713179443759199 0.31995279185333603 0 -0.080025822254183213 0.3344240109575991 0 -0.092353342145848324 0.3306168603633779 0 -0.080025822254183213 0.3344240109575991 0 -0.092353342145848324 0.3306168603633779 0 -0.093132789334859578 0.34022291842149238 0 -0.093132789334859578 0.34022291842149238 0 -0.10215553091722759 0.3334081210759956 0 -0.1117789887947863 0.33957444301947531 0 -0.092353342145848324 0.3306168603633779 0 -0.093132789334859578 0.34022291842149238 0 -0.10215553091722759 0.3334081210759956 0 -0.092353342145848324 0.3306168603633779 0 -0.10215553091722759 0.3334081210759956 0 -0.099565862103168257 0.32284962074292062 0 -0.1016758841064547 0.30679988795763652 0 -0.099565862103168257 0.32284962074292062 0 -0.10949313203484839 0.31794249227791632 0 -0.1016758841064547 0.30679988795763652 0 -0.088713179443759199 0.31995279185333603 0 -0.099565862103168257 0.32284962074292062 0 -0.10215553091722759 0.3334081210759956 0 -0.099565862103168257 0.32284962074292062 0 -0.10949313203484839 0.31794249227791632 0 -0.1254136078805092 0.32042453303270207 0 -0.1177010155189064 0.30363026833189971 0 -0.10949313203484839 0.31794249227791632 0 -0.1254136078805092 0.32042453303270207 0 -0.10215553091722759 0.3334081210759956 0 -0.10949313203484839 0.31794249227791632 0 -0.1254136078805092 0.32042453303270207 0 -0.10215553091722759 0.3334081210759956 0 -0.1254136078805092 0.32042453303270207 0 -0.10215553091722759 0.3334081210759956 0 -0.12203838836234709 0.33507840394087918 0 -0.10215553091722759 0.3334081210759956 0 -0.1117789887947863 0.33957444301947531 0 -0.12203838836234709 0.33507840394087918 0 -0.12684128673777231 0.34718920863694452 0 -0.1117789887947863 0.33957444301947531 0 -0.12203838836234709 0.33507840394087918 0 -0.1117789887947863 0.33957444301947531 0 -0.1149104585678624 0.35870746298976902 0 -0.1047545753675633 0.35686197651096008 0 -0.12684128673777231 0.34718920863694452 0 -0.1117789887947863 0.33957444301947531 0 -0.1149104585678624 0.35870746298976902 0 -0.13324945680631939 0.3674709220184636 0 -0.1149104585678624 0.35870746298976902 0 -0.1127793117866188 0.37439115255626049 0 -0.1149104585678624 0.35870746298976902 0 -0.1127793117866188 0.37439115255626049 0 -0.1040019340898081 0.36714124770836287 0 -0.1040019340898081 0.36714124770836287 0 -0.097864335360078838 0.36263100056782188 0 -0.1047545753675633 0.35686197651096008 0 -0.1149104585678624 0.35870746298976902 0 -0.1040019340898081 0.36714124770836287 0 -0.1047545753675633 0.35686197651096008 0 -0.1127793117866188 0.37439115255626049 0 -0.1040019340898081 0.36714124770836287 0 -0.098886661012281357 0.38083383426925349 0 -0.1040019340898081 0.36714124770836287 0 -0.095110599767171261 0.36842258018154411 0 -0.098886661012281357 0.38083383426925349 0 -0.08741467170420722 0.3738324296916351 0 -0.095110599767171261 0.36842258018154411 0 -0.098886661012281357 0.38083383426925349 0 -0.089650333357560688 0.364220075034216 0 -0.095110599767171261 0.36842258018154411 0 -0.097864335360078838 0.36263100056782188 0 -0.1040019340898081 0.36714124770836287 0 -0.095110599767171261 0.36842258018154411 0 -0.097864335360078838 0.36263100056782188 0 -0.089650333357560688 0.364220075034216 0 -0.097864335360078838 0.36263100056782188 0 -0.095804234218290846 0.35650912340402668 0 -0.090557309824280896 0.3551729688581185 0 -0.1117789887947863 0.33957444301947531 0 -0.1117789887947863 0.33957444301947531 0 -0.095804234218290846 0.35650912340402668 0 -0.1047545753675633 0.35686197651096008 0 -0.090557309824280896 0.3551729688581185 0 -0.093132789334859578 0.34022291842149238 0 -0.1117789887947863 0.33957444301947531 0 -0.090557309824280896 0.3551729688581185 0 -0.1117789887947863 0.33957444301947531 0 -0.095804234218290846 0.35650912340402668 0 -0.097864335360078838 0.36263100056782188 0 -0.095804234218290846 0.35650912340402668 0 -0.1047545753675633 0.35686197651096008 0 -0.1096215046050063 0.39401771618176379 0 -0.1063757285076055 0.41795256457014152 0 -0.093671805370820732 0.39861534088442568 0 -0.098886661012281357 0.38083383426925349 0 -0.1096215046050063 0.39401771618176379 0 -0.093671805370820732 0.39861534088442568 0 -0.1127793117866188 0.37439115255626049 0 -0.098886661012281357 0.38083383426925349 0 -0.1096215046050063 0.39401771618176379 0 -0.12627624648413069 0.3861620261206839 0 -0.1127793117866188 0.37439115255626049 0 -0.1096215046050063 0.39401771618176379 0 -0.12627624648413069 0.3861620261206839 0 -0.13324945680631939 0.3674709220184636 0 -0.1127793117866188 0.37439115255626049 0 -0.12865388478322029 0.40437134306014161 0 -0.12627624648413069 0.3861620261206839 0 -0.1096215046050063 0.39401771618176379 0 -0.12865388478322029 0.40437134306014161 0 -0.1096215046050063 0.39401771618176379 0 -0.1063757285076055 0.41795256457014152 0 -0.13931187065141781 0.43198230337874383 0 -0.12865388478322029 0.40437134306014161 0 -0.1063757285076055 0.41795256457014152 0 -0.12865388478322029 0.40437134306014161 0 -0.1063757285076055 0.41795256457014152 0 -0.13931187065141781 0.43198230337874383 0 -0.1063757285076055 0.41795256457014152 0 -0.1136858655058603 0.44322056454625192 0 -0.1063757285076055 0.41795256457014152 0 -0.084097572231990769 0.43153378608014131 0 -0.1063757285076055 0.41795256457014152 0 -0.084097572231990769 0.43153378608014131 0 -0.1136858655058603 0.44322056454625192 0 -0.1063757285076055 0.41795256457014152 0 -0.086864902871838179 0.41226442610667202 0 -0.093671805370820732 0.39861534088442568 0 -0.086864902871838179 0.41226442610667202 0 -0.084097572231990769 0.43153378608014131 0 -0.074734435723139786 0.41281517398573941 0 -0.1063757285076055 0.41795256457014152 0 -0.086864902871838179 0.41226442610667202 0 -0.084097572231990769 0.43153378608014131 0 -0.086864902871838179 0.41226442610667202 0 -0.074734435723139786 0.41281517398573941 0 -0.0824235921395855 0.40156567628669598 0 -0.084097572231990769 0.43153378608014131 0 -0.061029991525081019 0.41867139088115651 0 -0.061819415956375467 0.44511500759014011 0 -0.084097572231990769 0.43153378608014131 0 -0.074734435723139786 0.41281517398573941 0 -0.061029991525081019 0.41867139088115651 0 -0.074734435723139786 0.41281517398573941 0 -0.064493997385552226 0.40539995424012648 0 -0.061029991525081019 0.41867139088115651 0 -0.064493997385552226 0.40539995424012648 0 -0.068344819381831859 0.39859382867505438 0 -0.074208657505552944 0.399120122095111 0 -0.068344819381831859 0.39859382867505438 0 -0.070890241964314829 0.39190787339077587 0 -0.071294032832406928 0.39569064656987241 0 -0.070890241964314829 0.39190787339077587 0 -0.074208657505552944 0.399120122095111 0 -0.086257803696991042 0.38684718315008659 0 -0.068344819381831859 0.39859382867505438 0 -0.071294032832406928 0.39569064656987241 0 -0.074208657505552944 0.399120122095111 0 -0.070890241964314829 0.39190787339077587 0 -0.071294032832406928 0.39569064656987241 0 -0.074208657505552944 0.399120122095111 0 -0.074734435723139786 0.41281517398573941 0 -0.064493997385552226 0.40539995424012648 0 -0.074208657505552944 0.399120122095111 0 -0.074734435723139786 0.41281517398573941 0 -0.074208657505552944 0.399120122095111 0 -0.0824235921395855 0.40156567628669598 0 -0.074208657505552944 0.399120122095111 0 -0.0824235921395855 0.40156567628669598 0 -0.086257803696991042 0.38684718315008659 0 -0.0824235921395855 0.40156567628669598 0 -0.093671805370820732 0.39861534088442568 0 -0.086257803696991042 0.38684718315008659 0 -0.086864902871838179 0.41226442610667202 0 -0.0824235921395855 0.40156567628669598 0 -0.093671805370820732 0.39861534088442568 0 -0.098886661012281357 0.38083383426925349 0 -0.093671805370820732 0.39861534088442568 0 -0.086257803696991042 0.38684718315008659 0 -0.08741467170420722 0.3738324296916351 0 -0.098886661012281357 0.38083383426925349 0 -0.086257803696991042 0.38684718315008659 0 -0.070890241964314829 0.39190787339077587 0 -0.086257803696991042 0.38684718315008659 0 -0.08741467170420722 0.3738324296916351 0 -0.086257803696991042 0.38684718315008659 0 -0.07384383558685359 0.38088634905695878 0 -0.070890241964314829 0.39190787339077587 0 -0.07384383558685359 0.38088634905695878 0 -0.052918537104409517 0.38283851641549138 0 -0.071737923464345363 0.36900574263680519 0 -0.07384383558685359 0.38088634905695878 0 -0.052918537104409517 0.38283851641549138 0 -0.070890241964314829 0.39190787339077587 0 -0.086257803696991042 0.38684718315008659 0 -0.07384383558685359 0.38088634905695878 0 -0.071737923464345363 0.36900574263680519 0 -0.052918537104409517 0.38283851641549138 0 -0.070890241964314829 0.39190787339077587 0 -0.052918537104409517 0.38283851641549138 0 -0.064493997385552226 0.40539995424012648 0 -0.047911446897235338 0.39947501813121561 0 -0.054286383023362812 0.4091991773937525 0 -0.070890241964314829 0.39190787339077587 0 -0.052918537104409517 0.38283851641549138 0 -0.047911446897235338 0.39947501813121561 0 -0.068344819381831859 0.39859382867505438 0 -0.070890241964314829 0.39190787339077587 0 -0.047911446897235338 0.39947501813121561 0 -0.070890241964314829 0.39190787339077587 0 -0.047911446897235338 0.39947501813121561 0 -0.064493997385552226 0.40539995424012648 0 -0.068344819381831859 0.39859382867505438 0 -0.047911446897235338 0.39947501813121561 0 -0.052918537104409517 0.38283851641549138 0 -0.047911446897235338 0.39947501813121561 0 -0.038455930073549451 0.39346893589260068 0 -0.047911446897235338 0.39947501813121561 0 -0.02493265183015618 0.40704216287165629 0 -0.047911446897235338 0.39947501813121561 0 -0.038455930073549451 0.39346893589260068 0 -0.02493265183015618 0.40704216287165629 0 -0.028002476584585319 0.37026471504085662 0 -0.052918537104409517 0.38283851641549138 0 -0.028002476584585319 0.37026471504085662 0 -0.052918537104409517 0.38283851641549138 0 -0.038455930073549451 0.39346893589260068 0 -0.052918537104409517 0.38283851641549138 0 -0.038455930073549451 0.39346893589260068 0 -0.028002476584585319 0.37026471504085662 0 -0.038455930073549451 0.39346893589260068 0 -0.022506255393934822 0.38739643929600442 0 -0.028002476584585319 0.37026471504085662 0 -0.022506255393934822 0.38739643929600442 0 -0.0153468200983723 0.38031848927273859 0 -0.022506255393934822 0.38739643929600442 0 -0.015690524296157759 0.3954728404735619 0 -0.0142692834261905 0.38797233181097818 0 -0.022506255393934822 0.38739643929600442 0 -0.0153468200983723 0.38031848927273859 0 -0.0142692834261905 0.38797233181097818 0 -0.038455930073549451 0.39346893589260068 0 -0.022506255393934822 0.38739643929600442 0 -0.02433488186464814 0.39522339639277049 0 -0.038455930073549451 0.39346893589260068 0 -0.02433488186464814 0.39522339639277049 0 -0.026803754418644681 0.39814794303291762 0 -0.02433488186464814 0.39522339639277049 0 -0.026803754418644681 0.39814794303291762 0 -0.020430882693691602 0.39980008447658849 0 -0.038455930073549451 0.39346893589260068 0 -0.023993323042689529 0.40409935536971042 0 -0.02493265183015618 0.40704216287165629 0 -0.038455930073549451 0.39346893589260068 0 -0.023993323042689529 0.40409935536971042 0 -0.038455930073549451 0.39346893589260068 0 -0.026803754418644681 0.39814794303291762 0 -0.023993323042689529 0.40409935536971042 0 -0.026803754418644681 0.39814794303291762 0 -0.023993323042689529 0.40409935536971042 0 -0.020430882693691602 0.39980008447658849 0 -0.023993323042689529 0.40409935536971042 0 -0.021862820754488341 0.40460962318142762 0 -0.02493265183015618 0.40704216287165629 0 -0.021862820754488341 0.40460962318142762 0 -0.01501458193170899 0.40529976505221321 0 -0.02493265183015618 0.40704216287165629 0 -0.020430882693691602 0.39980008447658849 0 -0.015690524296157759 0.3954728404735619 0 -0.01501458193170899 0.40529976505221321 0 -0.023993323042689529 0.40409935536971042 0 -0.021862820754488341 0.40460962318142762 0 -0.020430882693691602 0.39980008447658849 0 -0.021862820754488341 0.40460962318142762 0 -0.020430882693691602 0.39980008447658849 0 -0.01501458193170899 0.40529976505221321 0 -0.022506255393934822 0.38739643929600442 0 -0.02433488186464814 0.39522339639277049 0 -0.015690524296157759 0.3954728404735619 0 -0.02433488186464814 0.39522339639277049 0 -0.020430882693691602 0.39980008447658849 0 -0.015690524296157759 0.3954728404735619 0 -0.015690524296157759 0.3954728404735619 0 -0.0067579059378530208 0.39025638595133549 0 -0.0142692834261905 0.38797233181097818 0 -0.015690524296157759 0.3954728404735619 0 -0.0061185097014542231 0.40144698938540729 0 -0.0067579059378530208 0.39025638595133549 0 -0.015690524296157759 0.3954728404735619 0 -0.01501458193170899 0.40529976505221321 0 -0.0061185097014542231 0.40144698938540729 0 -0.0061185097014542231 0.40144698938540729 0 -0.0067579059378530208 0.39025638595133549 0 0.0068759618994304614 0.3940424653362482 0 -0.0067579059378530208 0.39025638595133549 0 -0.0067993164742263489 0.38259387873138062 0 0.0023555539128062089 0.3839002311270559 0 -0.0060300236740785012 0.37371420799543331 0 -0.0067993164742263489 0.38259387873138062 0 0.0023555539128062089 0.3839002311270559 0 -0.0060300236740785012 0.37371420799543331 0 -0.0067993164742263489 0.38259387873138062 0 -0.0153468200983723 0.38031848927273859 0 -0.0067993164742263489 0.38259387873138062 0 -0.0153468200983723 0.38031848927273859 0 -0.0142692834261905 0.38797233181097818 0 -0.0067579059378530208 0.39025638595133549 0 -0.0067993164742263489 0.38259387873138062 0 -0.0142692834261905 0.38797233181097818 0 -0.0064344957635735804 0.43040173333671339 0 -0.023667500538670411 0.43678867176354758 0 0.0020241585882910021 0.44491362090450992 0 -0.0064344957635735804 0.43040173333671339 0 -0.0091804382033371483 0.41222952278972169 0 -0.023667500538670411 0.43678867176354758 0 -0.0064344957635735804 0.43040173333671339 0 -0.0091804382033371483 0.41222952278972169 0 0.0065717754234813699 0.41741688270778893 0 -0.0091804382033371483 0.41222952278972169 0 0.0065717754234813699 0.41741688270778893 0 -0.0061185097014542231 0.40144698938540729 0 -0.0091804382033371483 0.41222952278972169 0 0.0054087579384110166 0.40598461484861859 0 -0.01501458193170899 0.40529976505221321 0 -0.0061185097014542231 0.40144698938540729 0 -0.0091804382033371483 0.41222952278972169 0 -0.0091804382033371483 0.41222952278972169 0 -0.02493265183015618 0.40704216287165629 0 -0.023667500538670411 0.43678867176354758 0 -0.01501458193170899 0.40529976505221321 0 -0.0091804382033371483 0.41222952278972169 0 -0.02493265183015618 0.40704216287165629 0 -0.0091804382033371483 0.41222952278972169 0 -0.02493265183015618 0.40704216287165629 0 -0.02493265183015618 0.40704216287165629 0 -0.023667500538670411 0.43678867176354758 0 -0.02493265183015618 0.40704216287165629 0 -0.023667500538670411 0.43678867176354758 0 -0.036982620239140403 0.43101862982846872 0 -0.036982620239140403 0.43101862982846872 0 -0.045971804548461379 0.41648467067513179 0 -0.048742027105544719 0.43018819787292062 0 -0.036982620239140403 0.43101862982846872 0 -0.048742027105544719 0.43018819787292062 0 -0.044565690391531063 0.44392845813484738 0 -0.047911446897235338 0.39947501813121561 0 -0.02493265183015618 0.40704216287165629 0 -0.045971804548461379 0.41648467067513179 0 -0.02493265183015618 0.40704216287165629 0 -0.036982620239140403 0.43101862982846872 0 -0.045971804548461379 0.41648467067513179 0 -0.047911446897235338 0.39947501813121561 0 -0.045971804548461379 0.41648467067513179 0 -0.054286383023362812 0.4091991773937525 0 -0.045971804548461379 0.41648467067513179 0 -0.054286383023362812 0.4091991773937525 0 -0.061029991525081019 0.41867139088115651 0 -0.045971804548461379 0.41648467067513179 0 -0.061029991525081019 0.41867139088115651 0 -0.048742027105544719 0.43018819787292062 0 -0.064493997385552226 0.40539995424012648 0 -0.054286383023362812 0.4091991773937525 0 -0.061029991525081019 0.41867139088115651 0 -0.061029991525081019 0.41867139088115651 0 -0.048742027105544719 0.43018819787292062 0 -0.054098763660162308 0.4384589917767599 0 -0.061029991525081019 0.41867139088115651 0 -0.061819415956375467 0.44511500759014011 0 -0.054098763660162308 0.4384589917767599 0 -0.061029991525081019 0.41867139088115651 0 -0.061819415956375467 0.44511500759014011 0 -0.061819415956375467 0.44511500759014011 0 -0.0572286759547809 0.44791361695822102 0 -0.054098763660162308 0.4384589917767599 0 -0.061819415956375467 0.44511500759014011 0 -0.0572286759547809 0.44791361695822102 0 -0.055522045253340688 0.45736945242010851 0 -0.061819415956375467 0.44511500759014011 0 -0.0572286759547809 0.44791361695822102 0 -0.0572286759547809 0.44791361695822102 0 -0.05079412217749199 0.45075616343130659 0 -0.051444042261503287 0.44510413042327912 0 -0.0572286759547809 0.44791361695822102 0 -0.05079412217749199 0.45075616343130659 0 -0.055522045253340688 0.45736945242010851 0 -0.05079412217749199 0.45075616343130659 0 -0.051444042261503287 0.44510413042327912 0 -0.044565690391531063 0.44392845813484738 0 -0.0572286759547809 0.44791361695822102 0 -0.054098763660162308 0.4384589917767599 0 -0.051444042261503287 0.44510413042327912 0 -0.054098763660162308 0.4384589917767599 0 -0.051444042261503287 0.44510413042327912 0 -0.044565690391531063 0.44392845813484738 0 -0.048742027105544719 0.43018819787292062 0 -0.054098763660162308 0.4384589917767599 0 -0.044565690391531063 0.44392845813484738 0 -0.061819415956375467 0.44511500759014011 0 -0.062433855214744947 0.46569708688126771 0 -0.061819415956375467 0.44511500759014011 0 -0.062433855214744947 0.46569708688126771 0 -0.055522045253340688 0.45736945242010851 0 -0.062433855214744947 0.46569708688126771 0 -0.056198210595533003 0.46337773589336018 0 -0.055522045253340688 0.45736945242010851 0 -0.056765016722734249 0.46689732912794191 0 -0.062433855214744947 0.46569708688126771 0 -0.053435682055319657 0.46964322750762488 0 -0.062433855214744947 0.46569708688126771 0 -0.053435682055319657 0.46964322750762488 0 -0.056765016722734249 0.46689732912794191 0 -0.062433855214744947 0.46569708688126771 0 -0.056198210595533003 0.46337773589336018 0 -0.056765016722734249 0.46689732912794191 0 -0.053435682055319657 0.46964322750762488 0 -0.05079412217749199 0.45075616343130659 0 -0.055522045253340688 0.45736945242010851 0 -0.045149869652277221 0.45536369230238788 0 -0.055522045253340688 0.45736945242010851 0 -0.050071925191311817 0.46354707514412191 0 -0.045149869652277221 0.45536369230238788 0 -0.056765016722734249 0.46689732912794191 0 -0.056198210595533003 0.46337773589336018 0 -0.050071925191311817 0.46354707514412191 0 -0.056198210595533003 0.46337773589336018 0 -0.055522045253340688 0.45736945242010851 0 -0.050071925191311817 0.46354707514412191 0 -0.056765016722734249 0.46689732912794191 0 -0.050071925191311817 0.46354707514412191 0 -0.053435682055319657 0.46964322750762488 0 -0.050071925191311817 0.46354707514412191 0 -0.045149869652277221 0.45536369230238788 0 -0.036655554546172399 0.46501900732886481 0 -0.050071925191311817 0.46354707514412191 0 -0.036655554546172399 0.46501900732886481 0 -0.04511373180245408 0.47329281119550248 0 -0.045149869652277221 0.45536369230238788 0 -0.036655554546172399 0.46501900732886481 0 -0.034016047020478633 0.45167961765270859 0 -0.023667500538670411 0.43678867176354758 0 -0.036982620239140403 0.43101862982846872 0 -0.034016047020478633 0.45167961765270859 0 -0.036982620239140403 0.43101862982846872 0 -0.044565690391531063 0.44392845813484738 0 -0.034016047020478633 0.45167961765270859 0 -0.045149869652277221 0.45536369230238788 0 -0.044565690391531063 0.44392845813484738 0 -0.034016047020478633 0.45167961765270859 0 -0.05079412217749199 0.45075616343130659 0 -0.045149869652277221 0.45536369230238788 0 -0.044565690391531063 0.44392845813484738 0 -0.023667500538670411 0.43678867176354758 0 -0.034016047020478633 0.45167961765270859 0 -0.022402349247183991 0.46653518065543892 0 -0.023667500538670411 0.43678867176354758 0 -0.022402349247183991 0.46653518065543892 0 -0.023667500538670411 0.43678867176354758 0 -0.022402349247183991 0.46653518065543892 0 -0.004340580209444023 0.46220129804778243 0 -0.036655554546172399 0.46501900732886481 0 -0.034016047020478633 0.45167961765270859 0 -0.022402349247183991 0.46653518065543892 0 -0.023667500538670411 0.43678867176354758 0 -0.004340580209444023 0.46220129804778243 0 0.0020241585882910021 0.44491362090450992 0 -0.0054350175871107336 0.48279382027766488 0 -0.016628837418439891 0.50000000000000044 0 -0.021137197955697601 0.49628168954733032 0 -0.0054350175871107336 0.48279382027766488 0 -0.016628837418439891 0.50000000000000044 0 0.010273265442598991 0.5 0 -0.022402349247183991 0.46653518065543892 0 -0.004340580209444023 0.46220129804778243 0 -0.0054350175871107336 0.48279382027766488 0 -0.022402349247183991 0.46653518065543892 0 -0.021137197955697601 0.49628168954733032 0 -0.037286440005508861 0.48296245852747788 0 -0.022402349247183991 0.46653518065543892 0 -0.021137197955697601 0.49628168954733032 0 -0.022402349247183991 0.46653518065543892 0 -0.0054350175871107336 0.48279382027766488 0 -0.021137197955697601 0.49628168954733032 0 -0.016628837418439891 0.50000000000000044 0 -0.021137197955697601 0.49628168954733032 0 -0.040043370786967403 0.5 0 -0.021137197955697601 0.49628168954733032 0 -0.037286440005508861 0.48296245852747788 0 -0.016628837418439891 0.50000000000000044 0 -0.021137197955697601 0.49628168954733032 0 -0.021137197955697601 0.49628168954733032 0 -0.040043370786967403 0.5 0 -0.037286440005508861 0.48296245852747788 0 -0.040043370786967403 0.5 0 -0.037286440005508861 0.48296245852747788 0 -0.051433855337682022 0.48709084589514751 0 -0.037286440005508861 0.48296245852747788 0 -0.053435682055319657 0.46964322750762488 0 -0.036655554546172399 0.46501900732886481 0 -0.022402349247183991 0.46653518065543892 0 -0.037286440005508861 0.48296245852747788 0 -0.037286440005508861 0.48296245852747788 0 -0.04511373180245408 0.47329281119550248 0 -0.053435682055319657 0.46964322750762488 0 -0.036655554546172399 0.46501900732886481 0 -0.037286440005508861 0.48296245852747788 0 -0.04511373180245408 0.47329281119550248 0 -0.053435682055319657 0.46964322750762488 0 -0.051433855337682022 0.48709084589514751 0 -0.062945879685118986 0.48284854344063433 0 -0.062433855214744947 0.46569708688126771 0 -0.053435682055319657 0.46964322750762488 0 -0.062945879685118986 0.48284854344063433 0 -0.037286440005508861 0.48296245852747788 0 -0.053435682055319657 0.46964322750762488 0 -0.051433855337682022 0.48709084589514751 0 -0.04511373180245408 0.47329281119550248 0 -0.053435682055319657 0.46964322750762488 0 -0.050071925191311817 0.46354707514412191 0 -0.04511373180245408 0.47329281119550248 0 -0.053435682055319657 0.46964322750762488 0 -0.040043370786967403 0.5 0 -0.051433855337682022 0.48709084589514751 0 -0.063457904155494821 0.50000000000000067 0 -0.051433855337682022 0.48709084589514751 0 -0.063457904155494821 0.50000000000000067 0 -0.062945879685118986 0.48284854344063433 0 -0.063457904155494821 0.50000000000000067 0 -0.074701594758856169 0.48756138536324922 0 -0.08091278933133117 0.5 0 -0.063457904155494821 0.50000000000000067 0 -0.074701594758856169 0.48756138536324922 0 -0.062945879685118986 0.48284854344063433 0 -0.063457904155494821 0.50000000000000067 0 -0.062945879685118986 0.48284854344063433 0 -0.074701594758856169 0.48756138536324922 0 -0.08091278933133117 0.5 0 -0.090301012315060658 0.48072083348185041 0 -0.08091278933133117 0.5 0 -0.090301012315060658 0.48072083348185041 0 -0.098367674507167546 0.500000000000006 0 -0.090301012315060658 0.48072083348185041 0 -0.075890388307275292 0.47423754989376188 0 -0.088059860360302875 0.45445882571376012 0 -0.074701594758856169 0.48756138536324922 0 -0.090301012315060658 0.48072083348185041 0 -0.075890388307275292 0.47423754989376188 0 -0.062433855214744947 0.46569708688126771 0 -0.075890388307275292 0.47423754989376188 0 -0.062945879685118986 0.48284854344063433 0 -0.062433855214744947 0.46569708688126771 0 -0.062945879685118986 0.48284854344063433 0 -0.074701594758856169 0.48756138536324922 0 -0.075890388307275292 0.47423754989376188 0 -0.062945879685118986 0.48284854344063433 0 -0.061819415956375467 0.44511500759014011 0 -0.062433855214744947 0.46569708688126771 0 -0.088059860360302875 0.45445882571376012 0 -0.062433855214744947 0.46569708688126771 0 -0.075890388307275292 0.47423754989376188 0 -0.088059860360302875 0.45445882571376012 0 -0.062433855214744947 0.46569708688126771 0 -0.088059860360302875 0.45445882571376012 0 -0.084097572231990769 0.43153378608014131 0 -0.061819415956375467 0.44511500759014011 0 -0.088059860360302875 0.45445882571376012 0 -0.084097572231990769 0.43153378608014131 0 -0.061819415956375467 0.44511500759014011 0 -0.088059860360302875 0.45445882571376012 0 -0.10839038154870211 0.46715218373740902 0 -0.1136858655058603 0.44322056454625192 0 -0.090301012315060658 0.48072083348185041 0 -0.088059860360302875 0.45445882571376012 0 -0.10839038154870211 0.46715218373740902 0 -0.084097572231990769 0.43153378608014131 0 -0.088059860360302875 0.45445882571376012 0 -0.1136858655058603 0.44322056454625192 0 -0.088059860360302875 0.45445882571376012 0 -0.1136858655058603 0.44322056454625192 0 -0.13000064407188441 0.4591577299358664 0 -0.10839038154870211 0.46715218373740902 0 -0.1136858655058603 0.44322056454625192 0 -0.13000064407188441 0.4591577299358664 0 -0.10839038154870211 0.46715218373740902 0 -0.1233659995548267 0.48634163950366771 0 -0.10839038154870211 0.46715218373740902 0 -0.1233659995548267 0.48634163950366771 0 -0.10510626698143929 0.48355366418073181 0 -0.1233659995548267 0.48634163950366771 0 -0.098367674507167546 0.500000000000006 0 -0.12698032823447269 0.5 0 -0.1233659995548267 0.48634163950366771 0 -0.098367674507167546 0.500000000000006 0 -0.090301012315060658 0.48072083348185041 0 -0.098367674507167546 0.500000000000006 0 -0.10510626698143929 0.48355366418073181 0 -0.1233659995548267 0.48634163950366771 0 -0.098367674507167546 0.500000000000006 0 -0.10510626698143929 0.48355366418073181 0 -0.090301012315060658 0.48072083348185041 0 -0.10839038154870211 0.46715218373740902 0 -0.10510626698143929 0.48355366418073181 0 -0.1685902525195557 0.088082498302175544 0 -0.16319013532614379 0.072282521956516674 0 -0.15156389570185999 0.076554861049086084 0 -0.1685902525195557 0.088082498302175544 0 -0.16319013532614379 0.072282521956516674 0 -0.17436546609199269 0.071044878363616559 0 -0.16319013532614379 0.072282521956516674 0 -0.15156389570185999 0.076554861049086084 0 -0.15482623035573831 0.061724567189747517 0 -0.16319013532614379 0.072282521956516674 0 -0.1666048319615723 0.064005804877957734 0 -0.15482623035573831 0.061724567189747517 0 -0.16319013532614379 0.072282521956516674 0 -0.1666048319615723 0.064005804877957734 0 -0.17436546609199269 0.071044878363616559 0 -0.17436546609199269 0.071044878363616559 0 -0.18493118631575459 0.064467564849653047 0 -0.1759500525931014 0.058273114771013157 0 -0.1666048319615723 0.064005804877957734 0 -0.17436546609199269 0.071044878363616559 0 -0.1759500525931014 0.058273114771013157 0 -0.17436546609199269 0.071044878363616559 0 -0.18493118631575459 0.064467564849653047 0 -0.18688116353881479 0.07635484140497531 0 -0.18391855426453321 0.079091890642684917 0 -0.19052195906119709 0.10474945742124921 0 -0.1685902525195557 0.088082498302175544 0 -0.18688116353881479 0.07635484140497531 0 -0.18391855426453321 0.079091890642684917 0 -0.1685902525195557 0.088082498302175544 0 -0.17436546609199269 0.071044878363616559 0 -0.18688116353881479 0.07635484140497531 0 -0.18391855426453321 0.079091890642684917 0 -0.17850886754705361 0.093386793573516633 0 -0.19052195906119709 0.10474945742124921 0 -0.1685902525195557 0.088082498302175544 0 -0.18688116353881479 0.07635484140497531 0 -0.18688116353881479 0.07635484140497531 0 -0.18391855426453321 0.079091890642684917 0 -0.19021311611246819 0.084829920428026256 0 -0.1685902525195557 0.088082498302175544 0 -0.18391855426453321 0.079091890642684917 0 -0.17850886754705361 0.093386793573516633 0 -0.17850886754705361 0.093386793573516633 0 -0.17194888314186241 0.1006263071502605 0 -0.19052195906119709 0.10474945742124921 0 -0.17194888314186241 0.1006263071502605 0 -0.173712352679078 0.1151085896995938 0 -0.19052195906119709 0.10474945742124921 0 -0.1685902525195557 0.088082498302175544 0 -0.17850886754705361 0.093386793573516633 0 -0.17194888314186241 0.1006263071502605 0 -0.173712352679078 0.1151085896995938 0 -0.19052195906119709 0.10474945742124921 0 -0.19712536385786061 0.13040702419981359 0 -0.173712352679078 0.1151085896995938 0 -0.19712536385786061 0.13040702419981359 0 -0.173712352679078 0.1151085896995938 0 -0.1502993415002955 0.099810155199374126 0 -0.15253245154610279 0.1154281289599508 0 -0.173712352679078 0.1151085896995938 0 -0.15253245154610279 0.1154281289599508 0 -0.15176115796168119 0.13212034794950589 0 -0.1685902525195557 0.088082498302175544 0 -0.1502993415002955 0.099810155199374126 0 -0.173712352679078 0.1151085896995938 0 -0.1502993415002955 0.099810155199374126 0 -0.17194888314186241 0.1006263071502605 0 -0.173712352679078 0.1151085896995938 0 -0.1502993415002955 0.099810155199374126 0 -0.1685902525195557 0.088082498302175544 0 -0.17194888314186241 0.1006263071502605 0 -0.1502993415002955 0.099810155199374126 0 -0.1502993415002955 0.099810155199374126 0 -0.13702380218724519 0.091135706317725024 0 -0.15253245154610279 0.1154281289599508 0 -0.12782805850827511 0.1142181579879102 0 -0.15176115796168119 0.13212034794950589 0 -0.1502993415002955 0.099810155199374126 0 -0.15253245154610279 0.1154281289599508 0 -0.12782805850827511 0.1142181579879102 0 -0.12782805850827511 0.1142181579879102 0 -0.13702380218724519 0.091135706317725024 0 -0.1197165229953847 0.095331580138812849 0 -0.1502993415002955 0.099810155199374126 0 -0.12782805850827511 0.1142181579879102 0 -0.13702380218724519 0.091135706317725024 0 -0.1502993415002955 0.099810155199374126 0 -0.12782805850827511 0.1142181579879102 0 -0.13702380218724519 0.091135706317725024 0 -0.122575609538368 0.081166001661021794 0 -0.1197165229953847 0.095331580138812849 0 -0.13702380218724519 0.091135706317725024 0 -0.13755416074394189 0.077698170781374004 0 -0.122575609538368 0.081166001661021794 0 -0.1685902525195557 0.088082498302175544 0 -0.14852317652892449 0.087866824797346796 0 -0.15156389570185999 0.076554861049086084 0 -0.1685902525195557 0.088082498302175544 0 -0.1502993415002955 0.099810155199374126 0 -0.14852317652892449 0.087866824797346796 0 -0.1502993415002955 0.099810155199374126 0 -0.13702380218724519 0.091135706317725024 0 -0.14852317652892449 0.087866824797346796 0 -0.14852317652892449 0.087866824797346796 0 -0.15156389570185999 0.076554861049086084 0 -0.13755416074394189 0.077698170781374004 0 -0.13702380218724519 0.091135706317725024 0 -0.14852317652892449 0.087866824797346796 0 -0.13755416074394189 0.077698170781374004 0 -0.15156389570185999 0.076554861049086084 0 -0.1390305301931998 0.062778895715901561 0 -0.15482623035573831 0.061724567189747517 0 -0.15156389570185999 0.076554861049086084 0 -0.1390305301931998 0.062778895715901561 0 -0.13755416074394189 0.077698170781374004 0 -0.1390305301931998 0.062778895715901561 0 -0.13755416074394189 0.077698170781374004 0 -0.12403962172299959 0.066764256472053529 0 -0.13755416074394189 0.077698170781374004 0 -0.12403962172299959 0.066764256472053529 0 -0.122575609538368 0.081166001661021794 0 -0.1390305301931998 0.062778895715901561 0 -0.12703816788002059 0.053605323241749117 0 -0.12403962172299959 0.066764256472053529 0 -0.1390305301931998 0.062778895715901561 0 -0.13872757195916319 0.047248238424143343 0 -0.12703816788002059 0.053605323241749117 0 -0.13872757195916319 0.047248238424143343 0 -0.12703816788002059 0.053605323241749117 0 -0.12545967178647149 0.039600099693044809 0 -0.13842394107725309 0.036745081215598649 0 -0.13152585550260351 0.026207072813884919 0 -0.14856043226664481 0.031165207391162481 0 -0.12545967178647149 0.039600099693044809 0 -0.13842394107725309 0.036745081215598649 0 -0.13152585550260351 0.026207072813884919 0 -0.13872757195916319 0.047248238424143343 0 -0.12545967178647149 0.039600099693044809 0 -0.13842394107725309 0.036745081215598649 0 -0.13872757195916319 0.047248238424143343 0 -0.13842394107725309 0.036745081215598649 0 -0.14839134696720011 0.042032660022686477 0 -0.13842394107725309 0.036745081215598649 0 -0.14839134696720011 0.042032660022686477 0 -0.14856043226664481 0.031165207391162481 0 -0.14839134696720011 0.042032660022686477 0 -0.14856043226664481 0.031165207391162481 0 -0.157562803479847 0.037133545744793453 0 -0.14856043226664481 0.031165207391162481 0 -0.15741732357826399 0.027960826293749769 0 -0.157562803479847 0.037133545744793453 0 -0.14839134696720011 0.042032660022686477 0 -0.15696707837799601 0.047796863685247631 0 -0.157562803479847 0.037133545744793453 0 -0.14839134696720011 0.042032660022686477 0 -0.14830191589999711 0.052568804198597011 0 -0.15696707837799601 0.047796863685247631 0 -0.15482623035573831 0.061724567189747517 0 -0.14830191589999711 0.052568804198597011 0 -0.15696707837799601 0.047796863685247631 0 -0.1390305301931998 0.062778895715901561 0 -0.15482623035573831 0.061724567189747517 0 -0.14830191589999711 0.052568804198597011 0 -0.1390305301931998 0.062778895715901561 0 -0.13872757195916319 0.047248238424143343 0 -0.14830191589999711 0.052568804198597011 0 -0.13872757195916319 0.047248238424143343 0 -0.14839134696720011 0.042032660022686477 0 -0.14830191589999711 0.052568804198597011 0 -0.13152585550260351 0.026207072813884919 0 -0.1478113520156005 0.0036670898920004719 0 -0.13715303416023239 -0.005951121056745029 0 -0.12673546701018451 0.01034125548388224 0 -0.1478113520156005 0.0036670898920004719 0 -0.12673546701018451 0.01034125548388224 0 -0.13152585550260351 0.026207072813884919 0 -0.1478113520156005 0.0036670898920004719 0 -0.12545967178647149 0.039600099693044809 0 -0.12673546701018451 0.01034125548388224 0 -0.13152585550260351 0.026207072813884919 0 -0.12545967178647149 0.039600099693044809 0 -0.12673546701018451 0.01034125548388224 0 -0.13152585550260351 0.026207072813884919 0 -0.14856043226664481 0.031165207391162481 0 -0.15769686051448381 0.018095780680228359 0 -0.13152585550260351 0.026207072813884919 0 -0.1478113520156005 0.0036670898920004719 0 -0.15769686051448381 0.018095780680228359 0 -0.14856043226664481 0.031165207391162481 0 -0.15769686051448381 0.018095780680228359 0 -0.15741732357826399 0.027960826293749769 0 -0.1478113520156005 0.0036670898920004719 0 -0.16238195428484911 0.00099491061349847349 0 -0.15769686051448381 0.018095780680228359 0 -0.16238195428484911 0.00099491061349847349 0 -0.15769686051448381 0.018095780680228359 0 -0.1766678782998824 0.0049135031697342332 0 -0.15769686051448381 0.018095780680228359 0 -0.1748920326163548 0.02427702327659792 0 -0.16637813682766711 0.032010373860988282 0 -0.15769686051448381 0.018095780680228359 0 -0.1748920326163548 0.02427702327659792 0 -0.1766678782998824 0.0049135031697342332 0 -0.15769686051448381 0.018095780680228359 0 -0.15741732357826399 0.027960826293749769 0 -0.16637813682766711 0.032010373860988282 0 -0.1748920326163548 0.02427702327659792 0 -0.1766678782998824 0.0049135031697342332 0 -0.18826327000511561 0.023399320186211051 0 -0.1748920326163548 0.02427702327659792 0 -0.18471497290232519 0.030768711714636798 0 -0.17559860757647069 0.03560822767601405 0 -0.1748920326163548 0.02427702327659792 0 -0.16637813682766711 0.032010373860988282 0 -0.17559860757647069 0.03560822767601405 0 -0.1748920326163548 0.02427702327659792 0 -0.18471497290232519 0.030768711714636798 0 -0.18826327000511561 0.023399320186211051 0 -0.18471497290232519 0.030768711714636798 0 -0.18826327000511561 0.023399320186211051 0 -0.1766678782998824 0.0049135031697342332 0 -0.18826327000511561 0.023399320186211051 0 -0.16644438871287251 0.053368797542084678 0 -0.1669106950520185 0.042027751766352622 0 -0.17740744393680871 0.046384682962189457 0 -0.1666048319615723 0.064005804877957734 0 -0.16644438871287251 0.053368797542084678 0 -0.1759500525931014 0.058273114771013157 0 -0.1666048319615723 0.064005804877957734 0 -0.15482623035573831 0.061724567189747517 0 -0.16644438871287251 0.053368797542084678 0 -0.15482623035573831 0.061724567189747517 0 -0.16644438871287251 0.053368797542084678 0 -0.15696707837799601 0.047796863685247631 0 -0.16644438871287251 0.053368797542084678 0 -0.15696707837799601 0.047796863685247631 0 -0.1669106950520185 0.042027751766352622 0 -0.15696707837799601 0.047796863685247631 0 -0.157562803479847 0.037133545744793453 0 -0.1669106950520185 0.042027751766352622 0 -0.157562803479847 0.037133545744793453 0 -0.16637813682766711 0.032010373860988282 0 -0.1669106950520185 0.042027751766352622 0 -0.15741732357826399 0.027960826293749769 0 -0.157562803479847 0.037133545744793453 0 -0.16637813682766711 0.032010373860988282 0 -0.16637813682766711 0.032010373860988282 0 -0.1669106950520185 0.042027751766352622 0 -0.17559860757647069 0.03560822767601405 0 -0.1669106950520185 0.042027751766352622 0 -0.17740744393680871 0.046384682962189457 0 -0.17559860757647069 0.03560822767601405 0 -0.17740744393680871 0.046384682962189457 0 -0.17559860757647069 0.03560822767601405 0 -0.18143858546711461 0.03898665911912632 0 -0.18471497290232519 0.030768711714636798 0 -0.18143858546711461 0.03898665911912632 0 -0.1880333174528539 0.043185014123665003 0 -0.18471497290232519 0.030768711714636798 0 -0.17559860757647069 0.03560822767601405 0 -0.18143858546711461 0.03898665911912632 0 -0.17740744393680871 0.046384682962189457 0 -0.18143858546711461 0.03898665911912632 0 -0.1880333174528539 0.043185014123665003 0 -0.17740744393680871 0.046384682962189457 0 -0.18537343579446261 0.051140207646859288 0 -0.1880333174528539 0.043185014123665003 0 -0.17740744393680871 0.046384682962189457 0 -0.18537343579446261 0.051140207646859288 0 -0.1759500525931014 0.058273114771013157 0 -0.16644438871287251 0.053368797542084678 0 -0.17740744393680871 0.046384682962189457 0 -0.1759500525931014 0.058273114771013157 0 -0.18493118631575459 0.064467564849653047 0 -0.18537343579446261 0.051140207646859288 0 -0.1759500525931014 0.058273114771013157 0 -0.18493118631575459 0.064467564849653047 0 -0.20088115501962961 0.043515235149907128 0 -0.20517207455807379 0.06462718450777509 0 -0.18493118631575459 0.064467564849653047 0 -0.18537343579446261 0.051140207646859288 0 -0.20088115501962961 0.043515235149907128 0 -0.18493118631575459 0.064467564849653047 0 -0.20088115501962961 0.043515235149907128 0 -0.18537343579446261 0.051140207646859288 0 -0.1880333174528539 0.043185014123665003 0 -0.20088115501962961 0.043515235149907128 0 -0.20088115501962961 0.043515235149907128 0 -0.18826327000511561 0.023399320186211051 0 -0.21079606131756859 0.030490734001759699 0 -0.18471497290232519 0.030768711714636798 0 -0.20088115501962961 0.043515235149907128 0 -0.18826327000511561 0.023399320186211051 0 -0.20088115501962961 0.043515235149907128 0 -0.18826327000511561 0.023399320186211051 0 -0.18471497290232519 0.030768711714636798 0 -0.1880333174528539 0.043185014123665003 0 -0.20088115501962961 0.043515235149907128 0 -0.20473834121219769 0.041909697887554463 0 -0.21651877991376101 0.02884566316488844 0 -0.2298297495097717 0.025515987916629339 0 -0.20473834121219769 0.041909697887554463 0 -0.21019595041395911 0.04613919623908895 0 -0.21465146392366419 0.043504330169869418 0 -0.20473834121219769 0.041909697887554463 0 -0.2298297495097717 0.025515987916629339 0 -0.21877840586056821 0.037708698052657391 0 -0.20473834121219769 0.041909697887554463 0 -0.2298297495097717 0.025515987916629339 0 -0.20088115501962961 0.043515235149907128 0 -0.20473834121219769 0.041909697887554463 0 -0.21019595041395911 0.04613919623908895 0 -0.20473834121219769 0.041909697887554463 0 -0.21079606131756859 0.030490734001759699 0 -0.21651877991376101 0.02884566316488844 0 -0.20088115501962961 0.043515235149907128 0 -0.21079606131756859 0.030490734001759699 0 -0.20088115501962961 0.043515235149907128 0 -0.20473834121219769 0.041909697887554463 0 -0.21079606131756859 0.030490734001759699 0 -0.20473834121219769 0.041909697887554463 0 -0.21465146392366419 0.043504330169869418 0 -0.21877840586056821 0.037708698052657391 0 -0.21019595041395911 0.04613919623908895 0 -0.21465146392366419 0.043504330169869418 0 -0.21734567387806741 0.048177761640633518 0 -0.21465146392366419 0.043504330169869418 0 -0.22146230329526001 0.042663126891895303 0 -0.21877840586056821 0.037708698052657391 0 -0.21465146392366419 0.043504330169869418 0 -0.21734567387806741 0.048177761640633518 0 -0.22146230329526001 0.042663126891895303 0 -0.20088115501962961 0.043515235149907128 0 -0.2128393790349549 0.052660378025631928 0 -0.21495613630358229 0.065954108724826821 0 -0.20088115501962961 0.043515235149907128 0 -0.21495613630358229 0.065954108724826821 0 -0.20088115501962961 0.043515235149907128 0 -0.21495613630358229 0.065954108724826821 0 -0.20517207455807379 0.06462718450777509 0 -0.21019595041395911 0.04613919623908895 0 -0.21734567387806741 0.048177761640633518 0 -0.2128393790349549 0.052660378025631928 0 -0.21734567387806741 0.048177761640633518 0 -0.2128393790349549 0.052660378025631928 0 -0.21885937015014439 0.053451075143600493 0 -0.21719905853217869 0.058011337379026293 0 -0.22275906759788719 0.059298098540720739 0 -0.21495613630358229 0.065954108724826821 0 -0.2128393790349549 0.052660378025631928 0 -0.21719905853217869 0.058011337379026293 0 -0.21885937015014439 0.053451075143600493 0 -0.2128393790349549 0.052660378025631928 0 -0.21719905853217869 0.058011337379026293 0 -0.21495613630358229 0.065954108724826821 0 -0.20088115501962961 0.043515235149907128 0 -0.21019595041395911 0.04613919623908895 0 -0.2128393790349549 0.052660378025631928 0 -0.1999460211580254 -0.0008643659936434997 0 -0.18826327000511561 0.023399320186211051 0 -0.20423164659795889 0.015207457267470701 0 -0.1999460211580254 -0.0008643659936434997 0 -0.18826327000511561 0.023399320186211051 0 -0.1999460211580254 -0.0008643659936434997 0 -0.1766678782998824 0.0049135031697342332 0 -0.18826327000511561 0.023399320186211051 0 -0.18826327000511561 0.023399320186211051 0 -0.21079606131756859 0.030490734001759699 0 -0.20423164659795889 0.015207457267470701 0 -0.21079606131756859 0.030490734001759699 0 -0.20423164659795889 0.015207457267470701 0 -0.2207109676155056 0.017466232853610719 0 -0.21079606131756859 0.030490734001759699 0 -0.21651877991376101 0.02884566316488844 0 -0.2207109676155056 0.017466232853610719 0 -0.21079606131756859 0.030490734001759699 0 -0.2207109676155056 0.017466232853610719 0 -0.1999460211580254 -0.0008643659936434997 0 -0.2158633959178336 0.002030983664689207 0 -0.2207109676155056 0.017466232853610719 0 -0.1999460211580254 -0.0008643659936434997 0 -0.2207109676155056 0.017466232853610719 0 -0.1999460211580254 -0.0008643659936434997 0 -0.20423164659795889 0.015207457267470701 0 -0.2207109676155056 0.017466232853610719 0 -0.2158633959178336 0.002030983664689207 0 -0.22545942808941941 0.0011867731409743499 0 -0.2207109676155056 0.017466232853610719 0 -0.23309422595928669 0.0011992346924869579 0 -0.2207109676155056 0.017466232853610719 0 -0.23309422595928669 0.0011992346924869579 0 -0.23248600315963169 0.014072329922232899 0 -0.2207109676155056 0.017466232853610719 0 -0.23309422595928669 0.0011992346924869579 0 -0.22545942808941941 0.0011867731409743499 0 -0.2207109676155056 0.017466232853610719 0 -0.23248600315963169 0.014072329922232899 0 -0.2207109676155056 0.017466232853610719 0 -0.2298297495097717 0.025515987916629339 0 -0.2207109676155056 0.017466232853610719 0 -0.2298297495097717 0.025515987916629339 0 -0.21651877991376101 0.02884566316488844 0 -0.2207109676155056 0.017466232853610719 0 -0.2298297495097717 0.025515987916629339 0 -0.22950883748778411 0.030641962513892972 0 -0.2298297495097717 0.025515987916629339 0 -0.22321017136194701 0.03495034739733905 0 -0.22950883748778411 0.030641962513892972 0 -0.2298297495097717 0.025515987916629339 0 -0.23175048309790469 0.027211547159634461 0 -0.2298297495097717 0.025515987916629339 0 -0.23175048309790469 0.027211547159634461 0 -0.23175048309790469 0.027211547159634461 0 -0.2319270660085874 0.031115489095303289 0 -0.23626357635786621 0.032048925432981608 0 -0.22950883748778411 0.030641962513892972 0 -0.23175048309790469 0.027211547159634461 0 -0.2319270660085874 0.031115489095303289 0 -0.2298297495097717 0.025515987916629339 0 -0.23175048309790469 0.027211547159634461 0 -0.24684814085771881 0.01439686026062219 0 -0.2298297495097717 0.025515987916629339 0 -0.24684814085771881 0.01439686026062219 0 -0.25203054700984578 0.033247391100786353 0 -0.24253277365040829 0.03106906490442831 0 -0.24684814085771881 0.01439686026062219 0 -0.23175048309790469 0.027211547159634461 0 -0.24253277365040829 0.03106906490442831 0 -0.24684814085771881 0.01439686026062219 0 -0.23248600315963169 0.014072329922232899 0 -0.2298297495097717 0.025515987916629339 0 -0.24684814085771881 0.01439686026062219 0 -0.23175048309790469 0.027211547159634461 0 -0.24253277365040829 0.03106906490442831 0 -0.23626357635786621 0.032048925432981608 0 -0.25114912830535069 -0.0022126487976368531 0 -0.23309422595928669 0.0011992346924869579 0 -0.24684814085771881 0.01439686026062219 0 -0.23309422595928669 0.0011992346924869579 0 -0.23248600315963169 0.014072329922232899 0 -0.24684814085771881 0.01439686026062219 0 -0.23309422595928669 0.0011992346924869579 0 -0.24684814085771881 0.01439686026062219 0 -0.2308493329637315 0.055340738421001012 0 -0.2241536717076337 0.049107800131990002 0 -0.23221277569169441 0.046744752475224617 0 -0.2308493329637315 0.055340738421001012 0 -0.23221277569169441 0.046744752475224617 0 -0.23834551942979831 0.051954506604958373 0 -0.2308493329637315 0.055340738421001012 0 -0.22943697446332381 0.062270069511464153 0 -0.22275906759788719 0.059298098540720739 0 -0.2308493329637315 0.055340738421001012 0 -0.22943697446332381 0.062270069511464153 0 -0.23862505639291781 0.063756311063410856 0 -0.21719905853217869 0.058011337379026293 0 -0.22275906759788719 0.059298098540720739 0 -0.21885937015014439 0.053451075143600493 0 -0.22275906759788719 0.059298098540720739 0 -0.21885937015014439 0.053451075143600493 0 -0.2241536717076337 0.049107800131990002 0 -0.2308493329637315 0.055340738421001012 0 -0.22275906759788719 0.059298098540720739 0 -0.2241536717076337 0.049107800131990002 0 -0.21734567387806741 0.048177761640633518 0 -0.21885937015014439 0.053451075143600493 0 -0.2241536717076337 0.049107800131990002 0 -0.2241536717076337 0.049107800131990002 0 -0.22146230329526001 0.042663126891895303 0 -0.2273990933019101 0.040906138222423678 0 -0.21734567387806741 0.048177761640633518 0 -0.2241536717076337 0.049107800131990002 0 -0.22146230329526001 0.042663126891895303 0 -0.22146230329526001 0.042663126891895303 0 -0.22321017136194701 0.03495034739733905 0 -0.2273990933019101 0.040906138222423678 0 -0.2298297495097717 0.025515987916629339 0 -0.21877840586056821 0.037708698052657391 0 -0.22321017136194701 0.03495034739733905 0 -0.22146230329526001 0.042663126891895303 0 -0.21877840586056821 0.037708698052657391 0 -0.22321017136194701 0.03495034739733905 0 -0.22950883748778411 0.030641962513892972 0 -0.22321017136194701 0.03495034739733905 0 -0.23018536709079479 0.034559521274704103 0 -0.22321017136194701 0.03495034739733905 0 -0.23018536709079479 0.034559521274704103 0 -0.2273990933019101 0.040906138222423678 0 -0.23018536709079479 0.034559521274704103 0 -0.2339717787795495 0.03907512126457495 0 -0.23626357635786621 0.032048925432981608 0 -0.23018536709079479 0.034559521274704103 0 -0.2273990933019101 0.040906138222423678 0 -0.2339717787795495 0.03907512126457495 0 -0.2319270660085874 0.031115489095303289 0 -0.23018536709079479 0.034559521274704103 0 -0.23626357635786621 0.032048925432981608 0 -0.22950883748778411 0.030641962513892972 0 -0.2319270660085874 0.031115489095303289 0 -0.23018536709079479 0.034559521274704103 0 -0.2241536717076337 0.049107800131990002 0 -0.2273990933019101 0.040906138222423678 0 -0.23221277569169441 0.046744752475224617 0 -0.2273990933019101 0.040906138222423678 0 -0.2339717787795495 0.03907512126457495 0 -0.23221277569169441 0.046744752475224617 0 -0.2339717787795495 0.03907512126457495 0 -0.23221277569169441 0.046744752475224617 0 -0.23871483651574499 0.044097780735851549 0 -0.2339717787795495 0.03907512126457495 0 -0.23871483651574499 0.044097780735851549 0 -0.23945383182654911 0.037323817151462629 0 -0.23871483651574499 0.044097780735851549 0 -0.23945383182654911 0.037323817151462629 0 -0.2457861938291763 0.040328193419476743 0 -0.2339717787795495 0.03907512126457495 0 -0.23626357635786621 0.032048925432981608 0 -0.23945383182654911 0.037323817151462629 0 -0.24253277365040829 0.03106906490442831 0 -0.23626357635786621 0.032048925432981608 0 -0.23945383182654911 0.037323817151462629 0 -0.25203054700984578 0.033247391100786353 0 -0.24253277365040829 0.03106906490442831 0 -0.2457861938291763 0.040328193419476743 0 -0.24253277365040829 0.03106906490442831 0 -0.23945383182654911 0.037323817151462629 0 -0.2457861938291763 0.040328193419476743 0 -0.25318973409114109 0.043378185924719433 0 -0.24489476081586881 0.046841421437599798 0 -0.2457861938291763 0.040328193419476743 0 -0.23871483651574499 0.044097780735851549 0 -0.24489476081586881 0.046841421437599798 0 -0.2457861938291763 0.040328193419476743 0 -0.25318973409114109 0.043378185924719433 0 -0.24489476081586881 0.046841421437599798 0 -0.24843752021348331 0.054448440502992933 0 -0.24489476081586881 0.046841421437599798 0 -0.24843752021348331 0.054448440502992933 0 -0.23834551942979831 0.051954506604958373 0 -0.23221277569169441 0.046744752475224617 0 -0.23871483651574499 0.044097780735851549 0 -0.23834551942979831 0.051954506604958373 0 -0.23871483651574499 0.044097780735851549 0 -0.24489476081586881 0.046841421437599798 0 -0.23834551942979831 0.051954506604958373 0 -0.24843752021348331 0.054448440502992933 0 -0.23834551942979831 0.051954506604958373 0 -0.23862505639291781 0.063756311063410856 0 -0.2308493329637315 0.055340738421001012 0 -0.23834551942979831 0.051954506604958373 0 -0.23862505639291781 0.063756311063410856 0 -0.25040868369117097 0.065706762161028068 0 -0.24843752021348331 0.054448440502992933 0 -0.23862505639291781 0.063756311063410856 0 -0.25040868369117097 0.065706762161028068 0 -0.24868923350182959 0.076305769476465432 0 -0.23862505639291781 0.063756311063410856 0 -0.24868923350182959 0.076305769476465432 0 -0.2363934888137896 0.075879062781245912 0 -0.23862505639291781 0.063756311063410856 0 -0.25493693273238438 0.08810109825235421 0 -0.24868923350182959 0.076305769476465432 0 -0.23650506487868991 0.089213833976632767 0 -0.24868923350182959 0.076305769476465432 0 -0.2363934888137896 0.075879062781245912 0 -0.23650506487868991 0.089213833976632767 0 -0.23650506487868991 0.089213833976632767 0 -0.22801380808310859 0.081020268680718571 0 -0.2194172384543446 0.088993760286044943 0 -0.2363934888137896 0.075879062781245912 0 -0.23650506487868991 0.089213833976632767 0 -0.22801380808310859 0.081020268680718571 0 -0.22801380808310859 0.081020268680718571 0 -0.2194172384543446 0.088993760286044943 0 -0.21744368726186489 0.078389974945614671 0 -0.2363934888137896 0.075879062781245912 0 -0.23862505639291781 0.063756311063410856 0 -0.227336185914186 0.069949823845457282 0 -0.22943697446332381 0.062270069511464153 0 -0.23862505639291781 0.063756311063410856 0 -0.227336185914186 0.069949823845457282 0 -0.2363934888137896 0.075879062781245912 0 -0.22801380808310859 0.081020268680718571 0 -0.227336185914186 0.069949823845457282 0 -0.22801380808310859 0.081020268680718571 0 -0.227336185914186 0.069949823845457282 0 -0.21744368726186489 0.078389974945614671 0 -0.227336185914186 0.069949823845457282 0 -0.21495613630358229 0.065954108724826821 0 -0.21744368726186489 0.078389974945614671 0 -0.22275906759788719 0.059298098540720739 0 -0.227336185914186 0.069949823845457282 0 -0.21495613630358229 0.065954108724826821 0 -0.22943697446332381 0.062270069511464153 0 -0.22275906759788719 0.059298098540720739 0 -0.227336185914186 0.069949823845457282 0 -0.21495613630358229 0.065954108724826821 0 -0.20517207455807379 0.06462718450777509 0 -0.20920668750359581 0.074050879696444472 0 -0.20517207455807379 0.06462718450777509 0 -0.20920668750359581 0.074050879696444472 0 -0.20205171329774679 0.077249386995433059 0 -0.21495613630358229 0.065954108724826821 0 -0.20920668750359581 0.074050879696444472 0 -0.21744368726186489 0.078389974945614671 0 -0.20920668750359581 0.074050879696444472 0 -0.21744368726186489 0.078389974945614671 0 -0.20640982609671099 0.084033743308572745 0 -0.2194172384543446 0.088993760286044943 0 -0.21744368726186489 0.078389974945614671 0 -0.20640982609671099 0.084033743308572745 0 -0.2194172384543446 0.088993760286044943 0 -0.20640982609671099 0.084033743308572745 0 -0.20490599035920321 0.097546248180567854 0 -0.20920668750359581 0.074050879696444472 0 -0.20640982609671099 0.084033743308572745 0 -0.20205171329774679 0.077249386995433059 0 -0.19655201042805601 0.086904831305538804 0 -0.20205171329774679 0.077249386995433059 0 -0.1953219806392342 0.077723332481873533 0 -0.18391855426453321 0.079091890642684917 0 -0.19021311611246819 0.084829920428026256 0 -0.19052195906119709 0.10474945742124921 0 -0.19655201042805601 0.086904831305538804 0 -0.19021311611246819 0.084829920428026256 0 -0.19052195906119709 0.10474945742124921 0 -0.20640982609671099 0.084033743308572745 0 -0.19655201042805601 0.086904831305538804 0 -0.20205171329774679 0.077249386995433059 0 -0.20640982609671099 0.084033743308572745 0 -0.19655201042805601 0.086904831305538804 0 -0.20490599035920321 0.097546248180567854 0 -0.19655201042805601 0.086904831305538804 0 -0.19021311611246819 0.084829920428026256 0 -0.1953219806392342 0.077723332481873533 0 -0.18688116353881479 0.07635484140497531 0 -0.19021311611246819 0.084829920428026256 0 -0.1953219806392342 0.077723332481873533 0 -0.18493118631575459 0.064467564849653047 0 -0.18688116353881479 0.07635484140497531 0 -0.20517207455807379 0.06462718450777509 0 -0.18688116353881479 0.07635484140497531 0 -0.20517207455807379 0.06462718450777509 0 -0.1953219806392342 0.077723332481873533 0 -0.18688116353881479 0.07635484140497531 0 -0.20517207455807379 0.06462718450777509 0 -0.20517207455807379 0.06462718450777509 0 -0.20205171329774679 0.077249386995433059 0 -0.1953219806392342 0.077723332481873533 0 -0.19052195906119709 0.10474945742124921 0 -0.20599832258711781 0.1151096072919921 0 -0.19712536385786061 0.13040702419981359 0 -0.19052195906119709 0.10474945742124921 0 -0.19712536385786061 0.13040702419981359 0 -0.19655201042805601 0.086904831305538804 0 -0.19052195906119709 0.10474945742124921 0 -0.20490599035920321 0.097546248180567854 0 -0.19052195906119709 0.10474945742124921 0 -0.20490599035920321 0.097546248180567854 0 -0.20599832258711781 0.1151096072919921 0 -0.20490599035920321 0.097546248180567854 0 -0.20599832258711781 0.1151096072919921 0 -0.22301577933557601 0.10357022632569771 0 -0.2194172384543446 0.088993760286044943 0 -0.20490599035920321 0.097546248180567854 0 -0.22301577933557601 0.10357022632569771 0 -0.20599832258711781 0.1151096072919921 0 -0.23025784732857271 0.1217384484612878 0 -0.20599832258711781 0.1151096072919921 0 -0.19712536385786061 0.13040702419981359 0 -0.2135592078582445 0.12829190523594861 0 -0.20599832258711781 0.1151096072919921 0 -0.23025784732857271 0.1217384484612878 0 -0.2135592078582445 0.12829190523594861 0 -0.20599832258711781 0.1151096072919921 0 -0.23025784732857271 0.1217384484612878 0 -0.22301577933557601 0.10357022632569771 0 -0.23025784732857271 0.1217384484612878 0 -0.22301577933557601 0.10357022632569771 0 -0.24718529483595381 0.1067075401313953 0 -0.23650506487868991 0.089213833976632767 0 -0.2194172384543446 0.088993760286044943 0 -0.22301577933557601 0.10357022632569771 0 -0.25493693273238438 0.08810109825235421 0 -0.23650506487868991 0.089213833976632767 0 -0.24718529483595381 0.1067075401313953 0 -0.23650506487868991 0.089213833976632767 0 -0.22301577933557601 0.10357022632569771 0 -0.24718529483595381 0.1067075401313953 0 -0.25451737207002773 0.1283672896305835 0 -0.23025784732857271 0.1217384484612878 0 -0.24718529483595381 0.1067075401313953 0 -0.25451737207002773 0.1283672896305835 0 -0.23025784732857271 0.1217384484612878 0 -0.24288581740547799 0.14220227665763371 0 -0.25451737207002773 0.1283672896305835 0 -0.23025784732857271 0.1217384484612878 0 -0.23025784732857271 0.1217384484612878 0 -0.2208552976594263 0.14591254099070089 0 -0.2135592078582445 0.12829190523594861 0 -0.23025784732857271 0.1217384484612878 0 -0.2208552976594263 0.14591254099070089 0 -0.24288581740547799 0.14220227665763371 0 -0.2208552976594263 0.14591254099070089 0 -0.24458523146099179 0.1614180577815883 0 -0.2208552976594263 0.14591254099070089 0 -0.22310067540104789 0.15463696893700149 0 -0.24458523146099179 0.1614180577815883 0 -0.2208552976594263 0.14591254099070089 0 -0.24288581740547799 0.14220227665763371 0 -0.24458523146099179 0.1614180577815883 0 -0.25896209078480609 0.15381364755373589 0 -0.24288581740547799 0.14220227665763371 0 -0.24458523146099179 0.1614180577815883 0 -0.22310067540104789 0.15463696893700149 0 -0.24246839025979169 0.16130750875992439 0 -0.24458523146099179 0.1614180577815883 0 -0.25228443981064808 0.1664488431744337 0 -0.24458523146099179 0.1614180577815883 0 -0.24246839025979169 0.16130750875992439 0 -0.24458523146099179 0.1614180577815883 0 -0.24371155588266169 0.1755493575260316 0 -0.25228443981064808 0.1664488431744337 0 -0.24458523146099179 0.1614180577815883 0 -0.24371155588266169 0.1755493575260316 0 -0.24371155588266169 0.1755493575260316 0 -0.23001487305892501 0.18481496787916291 0 -0.24439286566741861 0.19851284602870861 0 -0.24246839025979169 0.16130750875992439 0 -0.23001487305892501 0.18481496787916291 0 -0.24246839025979169 0.16130750875992439 0 -0.24371155588266169 0.1755493575260316 0 -0.23001487305892501 0.18481496787916291 0 -0.25491400997276542 0.18014227642440839 0 -0.24371155588266169 0.1755493575260316 0 -0.24439286566741861 0.19851284602870861 0 -0.23001487305892501 0.18481496787916291 0 -0.21541376857255959 0.17090453159302549 0 -0.21207435847905901 0.18849142756087239 0 -0.24246839025979169 0.16130750875992439 0 -0.23001487305892501 0.18481496787916291 0 -0.23028979741113831 0.1699081425378626 0 -0.23001487305892501 0.18481496787916291 0 -0.23028979741113831 0.1699081425378626 0 -0.21541376857255959 0.17090453159302549 0 -0.23001487305892501 0.18481496787916291 0 -0.21541376857255959 0.17090453159302549 0 -0.22310067540104789 0.15463696893700149 0 -0.24246839025979169 0.16130750875992439 0 -0.23028979741113831 0.1699081425378626 0 -0.22310067540104789 0.15463696893700149 0 -0.24458523146099179 0.1614180577815883 0 -0.23028979741113831 0.1699081425378626 0 -0.22069513333017529 0.164059625152185 0 -0.21541376857255959 0.17090453159302549 0 -0.22310067540104789 0.15463696893700149 0 -0.23028979741113831 0.1699081425378626 0 -0.22069513333017529 0.164059625152185 0 -0.22310067540104789 0.15463696893700149 0 -0.22069513333017529 0.164059625152185 0 -0.21397629193595549 0.16078885754085051 0 -0.20684523891008141 0.16817365382664351 0 -0.2016161193411041 0.1478558800924146 0 -0.21397629193595549 0.16078885754085051 0 -0.20684523891008141 0.16817365382664351 0 -0.2016161193411041 0.1478558800924146 0 -0.21397629193595549 0.16078885754085051 0 -0.21541376857255959 0.17090453159302549 0 -0.20684523891008141 0.16817365382664351 0 -0.22069513333017529 0.164059625152185 0 -0.21397629193595549 0.16078885754085051 0 -0.21541376857255959 0.17090453159302549 0 -0.20684523891008141 0.16817365382664351 0 -0.21207435847905901 0.18849142756087239 0 -0.20684523891008141 0.16817365382664351 0 -0.19268221723787671 0.17789191527436621 0 -0.21207435847905901 0.18849142756087239 0 -0.21541376857255959 0.17090453159302549 0 -0.20684523891008141 0.16817365382664351 0 -0.21207435847905901 0.18849142756087239 0 -0.19268221723787671 0.17789191527436621 0 -0.21207435847905901 0.18849142756087239 0 -0.187719118112394 0.19471668077770121 0 -0.20684523891008141 0.16817365382664351 0 -0.19268221723787671 0.17789191527436621 0 -0.18591316218560189 0.16162708856000921 0 -0.20684523891008141 0.16817365382664351 0 -0.2016161193411041 0.1478558800924146 0 -0.18591316218560189 0.16162708856000921 0 -0.2016161193411041 0.1478558800924146 0 -0.17668863865139281 0.1399881140209599 0 -0.2016161193411041 0.1478558800924146 0 -0.17668863865139281 0.1399881140209599 0 -0.18591316218560189 0.16162708856000921 0 -0.2016161193411041 0.1478558800924146 0 -0.19712536385786061 0.13040702419981359 0 -0.17668863865139281 0.1399881140209599 0 -0.2016161193411041 0.1478558800924146 0 -0.19712536385786061 0.13040702419981359 0 -0.2208552976594263 0.14591254099070089 0 -0.19712536385786061 0.13040702419981359 0 -0.2208552976594263 0.14591254099070089 0 -0.19712536385786061 0.13040702419981359 0 -0.2135592078582445 0.12829190523594861 0 -0.22310067540104789 0.15463696893700149 0 -0.21397629193595549 0.16078885754085051 0 -0.2016161193411041 0.1478558800924146 0 -0.22310067540104789 0.15463696893700149 0 -0.2016161193411041 0.1478558800924146 0 -0.2208552976594263 0.14591254099070089 0 -0.22310067540104789 0.15463696893700149 0 -0.2016161193411041 0.1478558800924146 0 -0.2208552976594263 0.14591254099070089 0 -0.2016161193411041 0.1478558800924146 0 -0.19712536385786061 0.13040702419981359 0 -0.2294257499030683 0.25591035732078021 0 -0.23840205524030439 0.2464716818085162 0 -0.22324405051579019 0.23189132930143869 0 -0.2294257499030683 0.25591035732078021 0 -0.22324405051579019 0.23189132930143869 0 -0.2294257499030683 0.25591035732078021 0 -0.22324405051579019 0.23189132930143869 0 -0.21227254561210221 0.2481350162727371 0 -0.25134226460388293 0.2408818595827053 0 -0.23840205524030439 0.2464716818085162 0 -0.22324405051579019 0.23189132930143869 0 -0.25315328476864257 0.23341677664415891 0 -0.25134226460388293 0.2408818595827053 0 -0.22324405051579019 0.23189132930143869 0 -0.25134226460388293 0.2408818595827053 0 -0.22324405051579019 0.23189132930143869 0 -0.25134226460388293 0.2408818595827053 0 -0.23840205524030439 0.2464716818085162 0 -0.2499887504339155 0.2461058346380591 0 -0.24813231691776619 0.25327085927943482 0 -0.2499887504339155 0.2461058346380591 0 -0.25315328476864257 0.23341677664415891 0 -0.22324405051579019 0.23189132930143869 0 -0.2391931840162978 0.21805810922534169 0 -0.22324405051579019 0.23189132930143869 0 -0.2173034780480369 0.2088092012951013 0 -0.22324405051579019 0.23189132930143869 0 -0.2391931840162978 0.21805810922534169 0 -0.2173034780480369 0.2088092012951013 0 -0.2391931840162978 0.21805810922534169 0 -0.24439286566741861 0.19851284602870861 0 -0.2173034780480369 0.2088092012951013 0 -0.25877085827591839 0.21221072417824779 0 -0.2391931840162978 0.21805810922534169 0 -0.24439286566741861 0.19851284602870861 0 -0.23001487305892501 0.18481496787916291 0 -0.24439286566741861 0.19851284602870861 0 -0.23001487305892501 0.18481496787916291 0 -0.2173034780480369 0.2088092012951013 0 -0.23001487305892501 0.18481496787916291 0 -0.24439286566741861 0.19851284602870861 0 -0.2173034780480369 0.2088092012951013 0 -0.23001487305892501 0.18481496787916291 0 -0.21207435847905901 0.18849142756087239 0 -0.2173034780480369 0.2088092012951013 0 -0.21207435847905901 0.18849142756087239 0 -0.2173034780480369 0.2088092012951013 0 -0.21207435847905901 0.18849142756087239 0 -0.19962855546527761 0.20988338676653581 0 -0.2173034780480369 0.2088092012951013 0 -0.21207435847905901 0.18849142756087239 0 -0.187719118112394 0.19471668077770121 0 -0.19962855546527761 0.20988338676653581 0 -0.187719118112394 0.19471668077770121 0 -0.19962855546527761 0.20988338676653581 0 -0.18246849710627019 0.21884445569895791 0 -0.19962855546527761 0.20988338676653581 0 -0.20770867495272441 0.22692050574687389 0 -0.18246849710627019 0.21884445569895791 0 -0.2173034780480369 0.2088092012951013 0 -0.20770867495272441 0.22692050574687389 0 -0.19962855546527761 0.20988338676653581 0 -0.2173034780480369 0.2088092012951013 0 -0.20770867495272441 0.22692050574687389 0 -0.22324405051579019 0.23189132930143869 0 -0.2173034780480369 0.2088092012951013 0 -0.20770867495272441 0.22692050574687389 0 -0.22324405051579019 0.23189132930143869 0 -0.20770867495272441 0.22692050574687389 0 -0.20770867495272441 0.22692050574687389 0 -0.18149288088794771 0.2371295439379254 0 -0.18246849710627019 0.21884445569895791 0 -0.20770867495272441 0.22692050574687389 0 -0.18246849710627019 0.21884445569895791 0 -0.20770867495272441 0.22692050574687389 0 -0.19578237057084041 0.24943278947995479 0 -0.18149288088794771 0.2371295439379254 0 -0.20770867495272441 0.22692050574687389 0 -0.19578237057084041 0.24943278947995479 0 -0.22324405051579019 0.23189132930143869 0 -0.20770867495272441 0.22692050574687389 0 -0.21227254561210221 0.2481350162727371 0 -0.20770867495272441 0.22692050574687389 0 -0.19578237057084041 0.24943278947995479 0 -0.21227254561210221 0.2481350162727371 0 -0.1692147041367538 0.24942294167756821 0 -0.18149288088794771 0.2371295439379254 0 -0.16256350754525459 0.23184944144797481 0 -0.1692147041367538 0.24942294167756821 0 -0.16256350754525459 0.23184944144797481 0 -0.14824908046117191 0.2455952354061374 0 -0.19578237057084041 0.24943278947995479 0 -0.1692147041367538 0.24942294167756821 0 -0.18149288088794771 0.2371295439379254 0 -0.18149288088794771 0.2371295439379254 0 -0.18246849710627019 0.21884445569895791 0 -0.16256350754525459 0.23184944144797481 0 -0.18246849710627019 0.21884445569895791 0 -0.16256350754525459 0.23184944144797481 0 -0.15722831925981609 0.21076840565104149 0 -0.18246849710627019 0.21884445569895791 0 -0.15722831925981609 0.21076840565104149 0 -0.18246849710627019 0.21884445569895791 0 -0.15722831925981609 0.21076840565104149 0 -0.16879900488908381 0.19549833445526471 0 -0.187719118112394 0.19471668077770121 0 -0.16879900488908381 0.19549833445526471 0 -0.17085920850224709 0.17645072564660449 0 -0.187719118112394 0.19471668077770121 0 -0.18246849710627019 0.21884445569895791 0 -0.16879900488908381 0.19549833445526471 0 -0.15722831925981609 0.21076840565104149 0 -0.16879900488908381 0.19549833445526471 0 -0.14754033215713111 0.1825228947665235 0 -0.15722831925981609 0.21076840565104149 0 -0.13358570736384751 0.2090111203236466 0 -0.14754033215713111 0.1825228947665235 0 -0.13358570736384751 0.2090111203236466 0 -0.14754033215713111 0.1825228947665235 0 -0.1179695448107449 0.19022336494705441 0 -0.15722831925981609 0.21076840565104149 0 -0.13358570736384751 0.2090111203236466 0 -0.13925578421214069 0.22876277800099429 0 -0.16256350754525459 0.23184944144797481 0 -0.15722831925981609 0.21076840565104149 0 -0.13925578421214069 0.22876277800099429 0 -0.13358570736384751 0.2090111203236466 0 -0.13925578421214069 0.22876277800099429 0 -0.1246945384020836 0.227132527776751 0 -0.13925578421214069 0.22876277800099429 0 -0.13100370659156599 0.23954196620053261 0 -0.1246945384020836 0.227132527776751 0 -0.13925578421214069 0.22876277800099429 0 -0.13100370659156599 0.23954196620053261 0 -0.14824908046117191 0.2455952354061374 0 -0.1329423768225505 0.25720180978670898 0 -0.13100370659156599 0.23954196620053261 0 -0.1116819058715933 0.23909013665197529 0 -0.1329423768225505 0.25720180978670898 0 -0.13100370659156599 0.23954196620053261 0 -0.14824908046117191 0.2455952354061374 0 -0.16256350754525459 0.23184944144797481 0 -0.13925578421214069 0.22876277800099429 0 -0.14824908046117191 0.2455952354061374 0 -0.17668863865139281 0.1399881140209599 0 -0.16307818655847589 0.157697169862205 0 -0.15176115796168119 0.13212034794950589 0 -0.17668863865139281 0.1399881140209599 0 -0.15176115796168119 0.13212034794950589 0 -0.173712352679078 0.1151085896995938 0 -0.17668863865139281 0.1399881140209599 0 -0.15176115796168119 0.13212034794950589 0 -0.173712352679078 0.1151085896995938 0 -0.19712536385786061 0.13040702419981359 0 -0.17668863865139281 0.1399881140209599 0 -0.17668863865139281 0.1399881140209599 0 -0.18591316218560189 0.16162708856000921 0 -0.16307818655847589 0.157697169862205 0 -0.18591316218560189 0.16162708856000921 0 -0.17085920850224709 0.17645072564660449 0 -0.16307818655847589 0.157697169862205 0 -0.19268221723787671 0.17789191527436621 0 -0.187719118112394 0.19471668077770121 0 -0.17085920850224709 0.17645072564660449 0 -0.19268221723787671 0.17789191527436621 0 -0.18591316218560189 0.16162708856000921 0 -0.17085920850224709 0.17645072564660449 0 -0.16879900488908381 0.19549833445526471 0 -0.17085920850224709 0.17645072564660449 0 -0.14754033215713111 0.1825228947665235 0 -0.17085920850224709 0.17645072564660449 0 -0.16307818655847589 0.157697169862205 0 -0.14754033215713111 0.1825228947665235 0 -0.16307818655847589 0.157697169862205 0 -0.14754033215713111 0.1825228947665235 0 -0.14186978147621671 0.15571097015581051 0 -0.14754033215713111 0.1825228947665235 0 -0.121113364280321 0.16578997909459389 0 -0.1179695448107449 0.19022336494705441 0 -0.14754033215713111 0.1825228947665235 0 -0.14186978147621671 0.15571097015581051 0 -0.121113364280321 0.16578997909459389 0 -0.14186978147621671 0.15571097015581051 0 -0.15176115796168119 0.13212034794950589 0 -0.12425718374989719 0.14135659324213351 0 -0.14186978147621671 0.15571097015581051 0 -0.12425718374989719 0.14135659324213351 0 -0.121113364280321 0.16578997909459389 0 -0.16307818655847589 0.157697169862205 0 -0.14186978147621671 0.15571097015581051 0 -0.15176115796168119 0.13212034794950589 0 -0.12782805850827511 0.1142181579879102 0 -0.15176115796168119 0.13212034794950589 0 -0.12425718374989719 0.14135659324213351 0 -0.12782805850827511 0.1142181579879102 0 -0.10535677551625371 0.12862616077644459 0 -0.12425718374989719 0.14135659324213351 0 -0.10535677551625371 0.12862616077644459 0 -0.082885492524232218 0.14303416356497889 0 -0.10535677551625371 0.12862616077644459 0 -0.10453006239795171 0.1545195943966253 0 -0.082885492524232218 0.14303416356497889 0 -0.10535677551625371 0.12862616077644459 0 -0.10453006239795171 0.1545195943966253 0 -0.12425718374989719 0.14135659324213351 0 -0.10453006239795171 0.1545195943966253 0 -0.12425718374989719 0.14135659324213351 0 -0.121113364280321 0.16578997909459389 0 -0.12425718374989719 0.14135659324213351 0 -0.121113364280321 0.16578997909459389 0 -0.10453006239795171 0.1545195943966253 0 -0.121113364280321 0.16578997909459389 0 -0.10560595021884051 0.17506794487287111 0 -0.121113364280321 0.16578997909459389 0 -0.10560595021884051 0.17506794487287111 0 -0.1179695448107449 0.19022336494705441 0 -0.121113364280321 0.16578997909459389 0 -0.1179695448107449 0.19022336494705441 0 -0.10560595021884051 0.17506794487287111 0 -0.1179695448107449 0.19022336494705441 0 -0.096440106379850982 0.19041646302355941 0 -0.10560595021884051 0.17506794487287111 0 -0.087946542970997146 0.17209512675493679 0 -0.096440106379850982 0.19041646302355941 0 -0.10453006239795171 0.1545195943966253 0 -0.10560595021884051 0.17506794487287111 0 -0.087946542970997146 0.17209512675493679 0 -0.10453006239795171 0.1545195943966253 0 -0.087946542970997146 0.17209512675493679 0 -0.082885492524232218 0.14303416356497889 0 -0.087946542970997146 0.17209512675493679 0 -0.067234450728153261 0.16620754717587599 0 -0.082885492524232218 0.14303416356497889 0 -0.087946542970997146 0.17209512675493679 0 -0.096440106379850982 0.19041646302355941 0 -0.076269945638683542 0.19195775406400931 0 -0.087946542970997146 0.17209512675493679 0 -0.067234450728153261 0.16620754717587599 0 -0.076269945638683542 0.19195775406400931 0 -0.067234450728153261 0.16620754717587599 0 -0.076269945638683542 0.19195775406400931 0 -0.057063425896269518 0.19256096715657209 0 -0.067234450728153261 0.16620754717587599 0 -0.062571931123585778 0.14178146774877379 0 -0.082885492524232218 0.14303416356497889 0 -0.062571931123585778 0.14178146774877379 0 -0.056282456865911802 0.12285304112754331 0 -0.082160631208621618 0.1240779954163323 0 -0.062571931123585778 0.14178146774877379 0 -0.082885492524232218 0.14303416356497889 0 -0.082160631208621618 0.1240779954163323 0 -0.10535677551625371 0.12862616077644459 0 -0.082885492524232218 0.14303416356497889 0 -0.082160631208621618 0.1240779954163323 0 -0.1016060430604164 0.25172526059100397 0 -0.094430068240738768 0.24606220954010971 0 -0.1035971326877899 0.24386935915995051 0 -0.094430068240738768 0.24606220954010971 0 -0.09857191343006276 0.23812107729121271 0 -0.1035971326877899 0.24386935915995051 0 -0.09857191343006276 0.23812107729121271 0 -0.1035971326877899 0.24386935915995051 0 -0.1116819058715933 0.23909013665197529 0 -0.1016060430604164 0.25172526059100397 0 -0.1128060493370544 0.25365098694052829 0 -0.1035971326877899 0.24386935915995051 0 -0.1035971326877899 0.24386935915995051 0 -0.1110409392292048 0.24407165211225321 0 -0.1116819058715933 0.23909013665197529 0 -0.1128060493370544 0.25365098694052829 0 -0.1035971326877899 0.24386935915995051 0 -0.1110409392292048 0.24407165211225321 0 -0.13100370659156599 0.23954196620053261 0 -0.1116819058715933 0.23909013665197529 0 -0.1246945384020836 0.227132527776751 0 -0.1329423768225505 0.25720180978670898 0 -0.1116819058715933 0.23909013665197529 0 -0.1329423768225505 0.25720180978670898 0 -0.1110409392292048 0.24407165211225321 0 -0.1116819058715933 0.23909013665197529 0 -0.1110409392292048 0.24407165211225321 0 -0.1116819058715933 0.23909013665197529 0 -0.1116819058715933 0.23909013665197529 0 -0.1246945384020836 0.227132527776751 0 -0.11482572534116869 0.21465675079951479 0 -0.1116819058715933 0.23909013665197529 0 -0.11482572534116869 0.21465675079951479 0 -0.09857191343006276 0.23812107729121271 0 -0.1116819058715933 0.23909013665197529 0 -0.095781231388607058 0.22554444335468071 0 -0.1116819058715933 0.23909013665197529 0 -0.095781231388607058 0.22554444335468071 0 -0.11482572534116869 0.21465675079951479 0 -0.1116819058715933 0.23909013665197529 0 -0.095781231388607058 0.22554444335468071 0 -0.09857191343006276 0.23812107729121271 0 -0.095781231388607058 0.22554444335468071 0 -0.087684909063605598 0.23523651125718459 0 -0.095781231388607058 0.22554444335468071 0 -0.100932718908538 0.20657120260246881 0 -0.091523016978228067 0.21443758131086171 0 -0.095781231388607058 0.22554444335468071 0 -0.100932718908538 0.20657120260246881 0 -0.11482572534116869 0.21465675079951479 0 -0.100932718908538 0.20657120260246881 0 -0.08905668855262816 0.2041486121791419 0 -0.091523016978228067 0.21443758131086171 0 -0.100932718908538 0.20657120260246881 0 -0.11482572534116869 0.21465675079951479 0 -0.1179695448107449 0.19022336494705441 0 -0.13358570736384751 0.2090111203236466 0 -0.11482572534116869 0.21465675079951479 0 -0.1179695448107449 0.19022336494705441 0 -0.13358570736384751 0.2090111203236466 0 -0.1246945384020836 0.227132527776751 0 -0.11482572534116869 0.21465675079951479 0 -0.11482572534116869 0.21465675079951479 0 -0.1179695448107449 0.19022336494705441 0 -0.100932718908538 0.20657120260246881 0 -0.1179695448107449 0.19022336494705441 0 -0.096440106379850982 0.19041646302355941 0 -0.100932718908538 0.20657120260246881 0 -0.096440106379850982 0.19041646302355941 0 -0.08905668855262816 0.2041486121791419 0 -0.076269945638683542 0.19195775406400931 0 -0.080446862959693818 0.21010011816025179 0 -0.08905668855262816 0.2041486121791419 0 -0.096440106379850982 0.19041646302355941 0 -0.076269945638683542 0.19195775406400931 0 -0.08905668855262816 0.2041486121791419 0 -0.076269945638683542 0.19195775406400931 0 -0.080446862959693818 0.21010011816025179 0 -0.057063425896269518 0.19256096715657209 0 -0.079880556905620681 0.2119987500573863 0 -0.057063425896269518 0.19256096715657209 0 -0.079880556905620681 0.2119987500573863 0 -0.080446862959693818 0.21010011816025179 0 -0.057063425896269518 0.19256096715657209 0 -0.079880556905620681 0.2119987500573863 0 -0.066880145293396601 0.21880448068662731 0 -0.057063425896269518 0.19256096715657209 0 -0.095781231388607058 0.22554444335468071 0 -0.079880556905620681 0.2119987500573863 0 -0.091523016978228067 0.21443758131086171 0 -0.079880556905620681 0.2119987500573863 0 -0.085226781349042671 0.21017126542691039 0 -0.091523016978228067 0.21443758131086171 0 -0.079880556905620681 0.2119987500573863 0 -0.080446862959693818 0.21010011816025179 0 -0.080446862959693818 0.21010011816025179 0 -0.085226781349042671 0.21017126542691039 0 -0.08905668855262816 0.2041486121791419 0 -0.079880556905620681 0.2119987500573863 0 -0.080446862959693818 0.21010011816025179 0 -0.085226781349042671 0.21017126542691039 0 -0.085226781349042671 0.21017126542691039 0 -0.08905668855262816 0.2041486121791419 0 -0.091523016978228067 0.21443758131086171 0 -0.095781231388607058 0.22554444335468071 0 -0.079880556905620681 0.2119987500573863 0 -0.084182345443297044 0.22597586399737879 0 -0.079880556905620681 0.2119987500573863 0 -0.084182345443297044 0.22597586399737879 0 -0.074028147747571355 0.2316198906449608 0 -0.095781231388607058 0.22554444335468071 0 -0.079880556905620681 0.2119987500573863 0 -0.095781231388607058 0.22554444335468071 0 -0.084182345443297044 0.22597586399737879 0 -0.087684909063605598 0.23523651125718459 0 -0.084182345443297044 0.22597586399737879 0 -0.074028147747571355 0.2316198906449608 0 -0.087684909063605598 0.23523651125718459 0 -0.079880556905620681 0.2119987500573863 0 -0.066880145293396601 0.21880448068662731 0 -0.074028147747571355 0.2316198906449608 0 -0.079880556905620681 0.2119987500573863 0 -0.074028147747571355 0.2316198906449608 0 -0.066880145293396601 0.21880448068662731 0 -0.074028147747571355 0.2316198906449608 0 -0.052342969572636032 0.22080427906365699 0 -0.068175738589521639 0.25124103123253522 0 -0.074028147747571355 0.2316198906449608 0 -0.068175738589521639 0.25124103123253522 0 -0.074028147747571355 0.2316198906449608 0 -0.082503833694728107 0.24565447940816099 0 -0.068175738589521639 0.25124103123253522 0 -0.074028147747571355 0.2316198906449608 0 -0.057333149502053232 0.2458332254418833 0 -0.074028147747571355 0.2316198906449608 0 -0.082503833694728107 0.24565447940816099 0 -0.087684909063605598 0.23523651125718459 0 -0.094430068240738768 0.24606220954010971 0 -0.09857191343006276 0.23812107729121271 0 -0.087684909063605598 0.23523651125718459 0 -0.094430068240738768 0.24606220954010971 0 -0.082503833694728107 0.24565447940816099 0 -0.087684909063605598 0.23523651125718459 0 -0.090717026101902534 0.25428510242803559 0 -0.094430068240738768 0.24606220954010971 0 -0.082503833694728107 0.24565447940816099 0 -0.041655654539160709 0.2395582786192445 0 -0.02982408264187918 0.22840883566356779 0 -0.02831389987001931 0.2499099156050987 0 -0.041655654539160709 0.2395582786192445 0 -0.042813132900127497 0.24912307242277609 0 -0.02831389987001931 0.2499099156050987 0 -0.041655654539160709 0.2395582786192445 0 -0.057333149502053232 0.2458332254418833 0 -0.052342969572636032 0.22080427906365699 0 -0.041655654539160709 0.2395582786192445 0 -0.042813132900127497 0.24912307242277609 0 -0.057333149502053232 0.2458332254418833 0 -0.074028147747571355 0.2316198906449608 0 -0.057333149502053232 0.2458332254418833 0 -0.052342969572636032 0.22080427906365699 0 -0.057333149502053232 0.2458332254418833 0 -0.052342969572636032 0.22080427906365699 0 -0.041655654539160709 0.2395582786192445 0 -0.052342969572636032 0.22080427906365699 0 -0.02982408264187918 0.22840883566356779 0 -0.052342969572636032 0.22080427906365699 0 -0.039471658688371387 0.20857390039827439 0 -0.02982408264187918 0.22840883566356779 0 -0.039471658688371387 0.20857390039827439 0 -0.035863846328702008 0.19316443532463909 0 -0.02226396900237021 0.2079309847829362 0 -0.052342969572636032 0.22080427906365699 0 -0.039471658688371387 0.20857390039827439 0 -0.057063425896269518 0.19256096715657209 0 -0.066880145293396601 0.21880448068662731 0 -0.052342969572636032 0.22080427906365699 0 -0.057063425896269518 0.19256096715657209 0 -0.039471658688371387 0.20857390039827439 0 -0.057063425896269518 0.19256096715657209 0 -0.035863846328702008 0.19316443532463909 0 -0.035863846328702008 0.19316443532463909 0 -0.020464304933671691 0.1905976481599754 0 -0.02226396900237021 0.2079309847829362 0 -0.020464304933671691 0.1905976481599754 0 -0.0060287360930813601 0.19612075402129189 0 -0.02226396900237021 0.2079309847829362 0 -0.020464304933671691 0.1905976481599754 0 -0.0060287360930813601 0.19612075402129189 0 -0.010542369930173811 0.17763627883944949 0 -0.0080592332765982884 0.21332394826364551 0 -0.02226396900237021 0.2079309847829362 0 -0.0146707019072948 0.2249877078493529 0 -0.0060287360930813601 0.19612075402129189 0 -0.0080592332765982884 0.21332394826364551 0 0.00020597546088703869 0.20558248659696229 0 -0.0060287360930813601 0.19612075402129189 0 -0.0080592332765982884 0.21332394826364551 0 -0.02226396900237021 0.2079309847829362 0 -0.0080592332765982884 0.21332394826364551 0 0.0015373392354008811 0.21470272910690341 0 0.00020597546088703869 0.20558248659696229 0 -0.039471658688371387 0.20857390039827439 0 -0.02226396900237021 0.2079309847829362 0 -0.02982408264187918 0.22840883566356779 0 -0.02982408264187918 0.22840883566356779 0 -0.0146707019072948 0.2249877078493529 0 -0.011427920884168269 0.24050173449290099 0 -0.02226396900237021 0.2079309847829362 0 -0.02982408264187918 0.22840883566356779 0 -0.0146707019072948 0.2249877078493529 0 -0.0080592332765982884 0.21332394826364551 0 -0.00047259289341652558 0.22862568107262751 0 0.0015373392354008811 0.21470272910690341 0 -0.0080592332765982884 0.21332394826364551 0 -0.0146707019072948 0.2249877078493529 0 -0.00047259289341652558 0.22862568107262751 0 -0.0146707019072948 0.2249877078493529 0 -0.00047259289341652558 0.22862568107262751 0 -0.011427920884168269 0.24050173449290099 0 -0.011427920884168269 0.24050173449290099 0 -0.0060663621197512346 0.24927777650849131 0 -0.02831389987001931 0.2499099156050987 0 -0.00047259289341652558 0.22862568107262751 0 -0.011427920884168269 0.24050173449290099 0 -0.00047259289341652558 0.22862568107262751 0 -0.011427920884168269 0.24050173449290099 0 0.00090010739120855875 0.2423724903609927 0 -0.011427920884168269 0.24050173449290099 0 -0.0060663621197512346 0.24927777650849131 0 0.00090010739120855875 0.2423724903609927 0 -0.0060663621197512346 0.24927777650849131 0 0.00090010739120855875 0.2423724903609927 0 0.0032882937976513949 0.25334643695700099 0 -0.02982408264187918 0.22840883566356779 0 -0.011427920884168269 0.24050173449290099 0 -0.02831389987001931 0.2499099156050987 0 -0.038869645234531083 0.13817600877022451 0 -0.047998910180064733 0.15634005043768751 0 -0.0268118173476906 0.16058683573945889 0 -0.038869645234531083 0.13817600877022451 0 -0.027827325561421219 0.1165039819603001 0 -0.056282456865911802 0.12285304112754331 0 -0.062571931123585778 0.14178146774877379 0 -0.038869645234531083 0.13817600877022451 0 -0.056282456865911802 0.12285304112754331 0 -0.067234450728153261 0.16620754717587599 0 -0.062571931123585778 0.14178146774877379 0 -0.047998910180064733 0.15634005043768751 0 -0.062571931123585778 0.14178146774877379 0 -0.038869645234531083 0.13817600877022451 0 -0.047998910180064733 0.15634005043768751 0 -0.067234450728153261 0.16620754717587599 0 -0.047998910180064733 0.15634005043768751 0 -0.044496374827979933 0.17483476861345471 0 -0.067234450728153261 0.16620754717587599 0 -0.057063425896269518 0.19256096715657209 0 -0.044496374827979933 0.17483476861345471 0 -0.057063425896269518 0.19256096715657209 0 -0.035863846328702008 0.19316443532463909 0 -0.044496374827979933 0.17483476861345471 0 -0.035863846328702008 0.19316443532463909 0 -0.044496374827979933 0.17483476861345471 0 -0.027622603314031081 0.17813578783156009 0 -0.044496374827979933 0.17483476861345471 0 -0.0268118173476906 0.16058683573945889 0 -0.027622603314031081 0.17813578783156009 0 -0.047998910180064733 0.15634005043768751 0 -0.044496374827979933 0.17483476861345471 0 -0.0268118173476906 0.16058683573945889 0 -0.020464304933671691 0.1905976481599754 0 -0.027622603314031081 0.17813578783156009 0 -0.010542369930173811 0.17763627883944949 0 -0.0268118173476906 0.16058683573945889 0 -0.027622603314031081 0.17813578783156009 0 -0.010542369930173811 0.17763627883944949 0 -0.035863846328702008 0.19316443532463909 0 -0.020464304933671691 0.1905976481599754 0 -0.027622603314031081 0.17813578783156009 0 -0.010542369930173811 0.17763627883944949 0 -0.0027363713365503978 0.16019200437487979 0 0.0098091057758850266 0.1820360155821697 0 -0.0060287360930813601 0.19612075402129189 0 -0.010542369930173811 0.17763627883944949 0 0.0098091057758850266 0.1820360155821697 0 -0.0268118173476906 0.16058683573945889 0 -0.010542369930173811 0.17763627883944949 0 -0.0027363713365503978 0.16019200437487979 0 -0.0268118173476906 0.16058683573945889 0 -0.0027363713365503978 0.16019200437487979 0 -0.01528184844898583 0.13834799316758989 0 -0.0027363713365503978 0.16019200437487979 0 -0.01528184844898583 0.13834799316758989 0 -0.0027363713365503978 0.16019200437487979 0 -0.01528184844898583 0.13834799316758989 0 0.0074899840850697376 0.13814575431282169 0 -0.038869645234531083 0.13817600877022451 0 -0.0268118173476906 0.16058683573945889 0 -0.01528184844898583 0.13834799316758989 0 -0.038869645234531083 0.13817600877022451 0 -0.01528184844898583 0.13834799316758989 0 -0.027827325561421219 0.1165039819603001 0 -0.01528184844898583 0.13834799316758989 0 -0.027827325561421219 0.1165039819603001 0 -0.01528184844898583 0.13834799316758989 0 -0.01067379153055562 0.1224245975185192 0 -0.027827325561421219 0.1165039819603001 0 -0.01528184844898583 0.13834799316758989 0 -0.01067379153055562 0.1224245975185192 0 0.0074899840850697376 0.13814575431282169 0 -0.01067379153055562 0.1224245975185192 0 -0.0091392656019166456 0.10729277714133149 0 0.0051296572039527932 0.1172467250433227 0 -0.0091392656019166456 0.10729277714133149 0 -0.024673334558686269 0.099572058115462214 0 -0.0020343296066761482 0.089020108600608966 0 -0.0091392656019166456 0.10729277714133149 0 -0.0020343296066761482 0.089020108600608966 0 0.0075301239935254951 0.10354844902441469 0 -0.0091392656019166456 0.10729277714133149 0 -0.024673334558686269 0.099572058115462214 0 -0.027827325561421219 0.1165039819603001 0 -0.01067379153055562 0.1224245975185192 0 -0.0091392656019166456 0.10729277714133149 0 -0.027827325561421219 0.1165039819603001 0 -0.0087319838208438968 0.0741359235405991 0 -0.018851651331910808 0.062961852501747073 0 -0.003671917733919523 0.058211893093348323 0 -0.0087319838208438968 0.0741359235405991 0 -0.003671917733919523 0.058211893093348323 0 0.0096837695449562937 0.0766973301498097 0 -0.0087319838208438968 0.0741359235405991 0 -0.0020343296066761482 0.089020108600608966 0 -0.02710811603718442 0.082857449994947055 0 -0.0087319838208438968 0.0741359235405991 0 -0.0020343296066761482 0.089020108600608966 0 0.0096837695449562937 0.0766973301498097 0 -0.0020343296066761482 0.089020108600608966 0 -0.02710811603718442 0.082857449994947055 0 -0.024673334558686269 0.099572058115462214 0 -0.0020343296066761482 0.089020108600608966 0 -0.02710811603718442 0.082857449994947055 0 -0.02710811603718442 0.082857449994947055 0 -0.018851651331910808 0.062961852501747073 0 -0.034363286175839947 0.058015573117884203 0 -0.0087319838208438968 0.0741359235405991 0 -0.02710811603718442 0.082857449994947055 0 -0.018851651331910808 0.062961852501747073 0 -0.02710811603718442 0.082857449994947055 0 -0.052181902467692692 0.076694791389285144 0 -0.034363286175839947 0.058015573117884203 0 -0.02710811603718442 0.082857449994947055 0 -0.052181902467692692 0.076694791389285144 0 -0.047567825453753369 0.10000062445698039 0 -0.02710811603718442 0.082857449994947055 0 -0.052181902467692692 0.076694791389285144 0 -0.052181902467692692 0.076694791389285144 0 -0.047567825453753369 0.10000062445698039 0 -0.067711797430819939 0.087759272347545395 0 -0.027827325561421219 0.1165039819603001 0 -0.047567825453753369 0.10000062445698039 0 -0.056282456865911802 0.12285304112754331 0 -0.024673334558686269 0.099572058115462214 0 -0.027827325561421219 0.1165039819603001 0 -0.047567825453753369 0.10000062445698039 0 -0.024673334558686269 0.099572058115462214 0 -0.02710811603718442 0.082857449994947055 0 -0.047567825453753369 0.10000062445698039 0 -0.047567825453753369 0.10000062445698039 0 -0.056282456865911802 0.12285304112754331 0 -0.073981636943677792 0.1048706223854451 0 -0.056282456865911802 0.12285304112754331 0 -0.082160631208621618 0.1240779954163323 0 -0.073981636943677792 0.1048706223854451 0 -0.082160631208621618 0.1240779954163323 0 -0.073981636943677792 0.1048706223854451 0 -0.1013892480889802 0.10377022036571321 0 -0.073981636943677792 0.1048706223854451 0 -0.086697849644583269 0.087873505351582518 0 -0.1013892480889802 0.10377022036571321 0 -0.047567825453753369 0.10000062445698039 0 -0.073981636943677792 0.1048706223854451 0 -0.067711797430819939 0.087759272347545395 0 -0.067711797430819939 0.087759272347545395 0 -0.078129772644392539 0.069356818154433772 0 -0.086697849644583269 0.087873505351582518 0 -0.073981636943677792 0.1048706223854451 0 -0.067711797430819939 0.087759272347545395 0 -0.086697849644583269 0.087873505351582518 0 -0.052181902467692692 0.076694791389285144 0 -0.067711797430819939 0.087759272347545395 0 -0.078129772644392539 0.069356818154433772 0 -0.052181902467692692 0.076694791389285144 0 -0.078129772644392539 0.069356818154433772 0 -0.066269970709802353 0.05265211234314715 0 -0.078129772644392539 0.069356818154433772 0 -0.094696199517024043 0.074655690037456632 0 -0.099487779000648452 0.059049848496699413 0 -0.078129772644392539 0.069356818154433772 0 -0.086697849644583269 0.087873505351582518 0 -0.094696199517024043 0.074655690037456632 0 -0.086697849644583269 0.087873505351582518 0 -0.1060439890943661 0.085382602031131266 0 -0.1013892480889802 0.10377022036571321 0 -0.086697849644583269 0.087873505351582518 0 -0.1060439890943661 0.085382602031131266 0 -0.094696199517024043 0.074655690037456632 0 -0.094696199517024043 0.074655690037456632 0 -0.1095478638754231 0.071460482047131541 0 -0.099487779000648452 0.059049848496699413 0 -0.1060439890943661 0.085382602031131266 0 -0.094696199517024043 0.074655690037456632 0 -0.1095478638754231 0.071460482047131541 0 -0.1095478638754231 0.071460482047131541 0 -0.11394410979680859 0.058982499381380407 0 -0.099487779000648452 0.059049848496699413 0 -0.1095478638754231 0.071460482047131541 0 -0.12403962172299959 0.066764256472053529 0 -0.11394410979680859 0.058982499381380407 0 -0.1095478638754231 0.071460482047131541 0 -0.12403962172299959 0.066764256472053529 0 -0.122575609538368 0.081166001661021794 0 -0.1060439890943661 0.085382602031131266 0 -0.1095478638754231 0.071460482047131541 0 -0.122575609538368 0.081166001661021794 0 -0.1060439890943661 0.085382602031131266 0 -0.122575609538368 0.081166001661021794 0 -0.1197165229953847 0.095331580138812849 0 -0.12782805850827511 0.1142181579879102 0 -0.1197165229953847 0.095331580138812849 0 -0.1013892480889802 0.10377022036571321 0 -0.12782805850827511 0.1142181579879102 0 -0.10535677551625371 0.12862616077644459 0 -0.12782805850827511 0.1142181579879102 0 -0.10535677551625371 0.12862616077644459 0 -0.1013892480889802 0.10377022036571321 0 -0.10535677551625371 0.12862616077644459 0 -0.082160631208621618 0.1240779954163323 0 -0.1013892480889802 0.10377022036571321 0 -0.1060439890943661 0.085382602031131266 0 -0.1197165229953847 0.095331580138812849 0 -0.1013892480889802 0.10377022036571321 0 -0.096040295391353586 0.024174611770343132 0 -0.1065329268258359 0.0035667873329377829 0 -0.1125226120662873 0.024059957199145821 0 -0.096040295391353586 0.024174611770343132 0 -0.1125226120662873 0.024059957199145821 0 -0.1078446993175914 0.042617031715521163 0 -0.096040295391353586 0.024174611770343132 0 -0.1065329268258359 0.0035667873329377829 0 -0.08334299909884689 0.001000011329486466 0 -0.12673546701018451 0.01034125548388224 0 -0.1065329268258359 0.0035667873329377829 0 -0.1125226120662873 0.024059957199145821 0 -0.11635159352012391 -0.0059891795221502014 0 -0.12673546701018451 0.01034125548388224 0 -0.1065329268258359 0.0035667873329377829 0 -0.12545967178647149 0.039600099693044809 0 -0.12673546701018451 0.01034125548388224 0 -0.1125226120662873 0.024059957199145821 0 -0.12545967178647149 0.039600099693044809 0 -0.118571662195223 0.04870123850792387 0 -0.1078446993175914 0.042617031715521163 0 -0.12545967178647149 0.039600099693044809 0 -0.1125226120662873 0.024059957199145821 0 -0.1078446993175914 0.042617031715521163 0 -0.118571662195223 0.04870123850792387 0 -0.11394410979680859 0.058982499381380407 0 -0.1078446993175914 0.042617031715521163 0 -0.12703816788002059 0.053605323241749117 0 -0.12403962172299959 0.066764256472053529 0 -0.11394410979680859 0.058982499381380407 0 -0.12703816788002059 0.053605323241749117 0 -0.12545967178647149 0.039600099693044809 0 -0.118571662195223 0.04870123850792387 0 -0.12703816788002059 0.053605323241749117 0 -0.118571662195223 0.04870123850792387 0 -0.11394410979680859 0.058982499381380407 0 -0.099487779000648452 0.059049848496699413 0 -0.1078446993175914 0.042617031715521163 0 -0.085283764860106775 0.04519916443702629 0 -0.11394410979680859 0.058982499381380407 0 -0.099487779000648452 0.059049848496699413 0 -0.1078446993175914 0.042617031715521163 0 -0.096040295391353586 0.024174611770343132 0 -0.1078446993175914 0.042617031715521163 0 -0.085283764860106775 0.04519916443702629 0 -0.078129772644392539 0.069356818154433772 0 -0.099487779000648452 0.059049848496699413 0 -0.085283764860106775 0.04519916443702629 0 -0.078129772644392539 0.069356818154433772 0 -0.085283764860106775 0.04519916443702629 0 -0.066269970709802353 0.05265211234314715 0 -0.066269970709802353 0.05265211234314715 0 -0.071297332833780494 0.023824798900834419 0 -0.050028020822730147 0.047284933095549313 0 -0.085283764860106775 0.04519916443702629 0 -0.066269970709802353 0.05265211234314715 0 -0.071297332833780494 0.023824798900834419 0 -0.096040295391353586 0.024174611770343132 0 -0.071297332833780494 0.023824798900834419 0 -0.08334299909884689 0.001000011329486466 0 -0.096040295391353586 0.024174611770343132 0 -0.085283764860106775 0.04519916443702629 0 -0.071297332833780494 0.023824798900834419 0 -0.071297332833780494 0.023824798900834419 0 -0.08334299909884689 0.001000011329486466 0 -0.064125795047066378 0.00492495997940835 0 -0.071297332833780494 0.023824798900834419 0 -0.064125795047066378 0.00492495997940835 0 -0.04850962448436761 0.01519078481429054 0 -0.051148780133142453 -0.0032631718930513079 0 -0.064125795047066378 0.00492495997940835 0 -0.04850962448436761 0.01519078481429054 0 -0.071297332833780494 0.023824798900834419 0 -0.044162468923288678 0.031775627468861672 0 -0.071297332833780494 0.023824798900834419 0 -0.04850962448436761 0.01519078481429054 0 -0.044162468923288678 0.031775627468861672 0 -0.04850962448436761 0.01519078481429054 0 -0.044162468923288678 0.031775627468861672 0 -0.029827520358402911 0.02201025585125492 0 -0.051148780133142453 -0.0032631718930513079 0 -0.04850962448436761 0.01519078481429054 0 -0.032234938083946847 0.0063729739465510507 0 -0.04850962448436761 0.01519078481429054 0 -0.032234938083946847 0.0063729739465510507 0 -0.029827520358402911 0.02201025585125492 0 -0.052181902467692692 0.076694791389285144 0 -0.066269970709802353 0.05265211234314715 0 -0.050028020822730147 0.047284933095549313 0 -0.071297332833780494 0.023824798900834419 0 -0.050028020822730147 0.047284933095549313 0 -0.044162468923288678 0.031775627468861672 0 -0.044162468923288678 0.031775627468861672 0 -0.036395345233663827 0.04420064742979575 0 -0.017027605012796539 0.039726456036887813 0 -0.050028020822730147 0.047284933095549313 0 -0.044162468923288678 0.031775627468861672 0 -0.036395345233663827 0.04420064742979575 0 -0.050028020822730147 0.047284933095549313 0 -0.036395345233663827 0.04420064742979575 0 -0.034363286175839947 0.058015573117884203 0 -0.052181902467692692 0.076694791389285144 0 -0.050028020822730147 0.047284933095549313 0 -0.034363286175839947 0.058015573117884203 0 -0.036395345233663827 0.04420064742979575 0 -0.034363286175839947 0.058015573117884203 0 -0.017027605012796539 0.039726456036887813 0 -0.018851651331910808 0.062961852501747073 0 -0.034363286175839947 0.058015573117884203 0 -0.017027605012796539 0.039726456036887813 0 -0.044162468923288678 0.031775627468861672 0 -0.017027605012796539 0.039726456036887813 0 -0.017027605012796539 0.039726456036887813 0 -0.01097514548744315 0.023046906141470529 0 -0.00043483951336556671 0.031099298898128049 0 -0.017027605012796539 0.039726456036887813 0 -0.00055290866356245104 0.044553732370949353 0 -0.017027605012796539 0.039726456036887813 0 -0.00055290866356245104 0.044553732370949353 0 -0.00043483951336556671 0.031099298898128049 0 -0.018851651331910808 0.062961852501747073 0 -0.017027605012796539 0.039726456036887813 0 -0.003671917733919523 0.058211893093348323 0 -0.017027605012796539 0.039726456036887813 0 -0.00055290866356245104 0.044553732370949353 0 -0.003671917733919523 0.058211893093348323 0 -0.017027605012796539 0.039726456036887813 0 -0.003671917733919523 0.058211893093348323 0 -0.032234938083946847 0.0063729739465510507 0 -0.029827520358402911 0.02201025585125492 0 -0.015568138524556321 0.009851375479863738 0 -0.019302571708327099 -0.0022185226390531842 0 -0.032234938083946847 0.0063729739465510507 0 -0.015568138524556321 0.009851375479863738 0 -0.017027605012796539 0.039726456036887813 0 -0.029827520358402911 0.02201025585125492 0 -0.01097514548744315 0.023046906141470529 0 -0.044162468923288678 0.031775627468861672 0 -0.017027605012796539 0.039726456036887813 0 -0.029827520358402911 0.02201025585125492 0 -0.029827520358402911 0.02201025585125492 0 -0.01097514548744315 0.023046906141470529 0 -0.015568138524556321 0.009851375479863738 0 -0.017027605012796539 0.039726456036887813 0 -0.029827520358402911 0.02201025585125492 0 -0.01097514548744315 0.023046906141470529 0 -0.00043483951336556671 0.031099298898128049 0 0.003526768133771591 0.01346504212581231 0 -0.01097514548744315 0.023046906141470529 0 -0.015568138524556321 0.009851375479863738 0 0.003526768133771591 0.01346504212581231 0 -0.0045954236429895266 -0.003568402546853186 0 -0.015568138524556321 0.009851375479863738 0 0.003526768133771591 0.01346504212581231 0 -0.019302571708327099 -0.0022185226390531842 0 -0.0045954236429895266 -0.003568402546853186 0 -0.015568138524556321 0.009851375479863738 0 0.003526768133771591 0.01346504212581231 0 0.02098551705476627 0.012783393481052049 0 0.012339883056802319 -0.0037844581566305819 0 -0.0045954236429895266 -0.003568402546853186 0 0.003526768133771591 0.01346504212581231 0 0.012339883056802319 -0.0037844581566305819 0 -0.00043483951336556671 0.031099298898128049 0 0.003526768133771591 0.01346504212581231 0 0.012691739601965339 0.02632619331756348 0 0.003526768133771591 0.01346504212581231 0 0.012691739601965339 0.02632619331756348 0 0.02098551705476627 0.012783393481052049 0 0.012691739601965339 0.02632619331756348 0 0.023928551712654501 0.024873338796174749 0 0.02098551705476627 0.012783393481052049 0 0.012691739601965339 0.02632619331756348 0 0.023928551712654501 0.024873338796174749 0 0.020799654470221099 0.035770472363809189 0 0.023928551712654501 0.024873338796174749 0 0.020799654470221099 0.035770472363809189 0 0.033024807730125533 0.03057841999584018 0 0.023928551712654501 0.024873338796174749 0 0.032141039706194238 0.018908214822608859 0 0.033024807730125533 0.03057841999584018 0 0.023928551712654501 0.024873338796174749 0 0.02098551705476627 0.012783393481052049 0 0.032141039706194238 0.018908214822608859 0 0.02098551705476627 0.012783393481052049 0 0.037841228797650422 0.0072588189931981888 0 0.032141039706194238 0.018908214822608859 0 0.02098551705476627 0.012783393481052049 0 0.037841228797650422 0.0072588189931981888 0 0.029428946888795219 -0.0051571684712338299 0 0.02098551705476627 0.012783393481052049 0 0.029428946888795219 -0.0051571684712338299 0 0.012339883056802319 -0.0037844581566305819 0 -0.00055290866356245104 0.044553732370949353 0 0.01062169118348028 0.061274068703086271 0 0.015921787685671891 0.049381008705009749 0 -0.00055290866356245104 0.044553732370949353 0 -0.003671917733919523 0.058211893093348323 0 0.01062169118348028 0.061274068703086271 0 -0.00055290866356245104 0.044553732370949353 0 0.015921787685671891 0.049381008705009749 0 -0.00055290866356245104 0.044553732370949353 0 0.0096850867161860626 0.03742614113109196 0 0.015921787685671891 0.049381008705009749 0 0.0096850867161860626 0.03742614113109196 0 0.020799654470221099 0.035770472363809189 0 0.015921787685671891 0.049381008705009749 0 -0.00043483951336556671 0.031099298898128049 0 0.012691739601965339 0.02632619331756348 0 0.0096850867161860626 0.03742614113109196 0 -0.00055290866356245104 0.044553732370949353 0 -0.00043483951336556671 0.031099298898128049 0 0.0096850867161860626 0.03742614113109196 0 0.012691739601965339 0.02632619331756348 0 0.0096850867161860626 0.03742614113109196 0 0.020799654470221099 0.035770472363809189 0 0.020799654470221099 0.035770472363809189 0 0.031015536684965209 0.044682044952940522 0 0.033024807730125533 0.03057841999584018 0 0.020799654470221099 0.035770472363809189 0 0.031015536684965209 0.044682044952940522 0 0.015921787685671891 0.049381008705009749 0 0.01062169118348028 0.061274068703086271 0 0.015921787685671891 0.049381008705009749 0 0.026647192474648359 0.058185118404673289 0 0.031015536684965209 0.044682044952940522 0 0.015921787685671891 0.049381008705009749 0 0.026647192474648359 0.058185118404673289 0 0.026647192474648359 0.058185118404673289 0 0.043674792387690897 0.055332765007500347 0 0.035910060997468088 0.068320538166905601 0 0.031015536684965209 0.044682044952940522 0 0.026647192474648359 0.058185118404673289 0 0.043674792387690897 0.055332765007500347 0 0.031015536684965209 0.044682044952940522 0 0.043674792387690897 0.055332765007500347 0 0.045932135182417608 0.037749836082332247 0 0.031015536684965209 0.044682044952940522 0 0.045932135182417608 0.037749836082332247 0 0.033024807730125533 0.03057841999584018 0 0.045932135182417608 0.037749836082332247 0 0.057160936441861127 0.046648955900823477 0 0.06261425778805696 0.033833009960568497 0 0.043674792387690897 0.055332765007500347 0 0.045932135182417608 0.037749836082332247 0 0.057160936441861127 0.046648955900823477 0 0.043674792387690897 0.055332765007500347 0 0.059987605710088307 0.057542457668878048 0 0.051167259823371572 0.069036945991366255 0 0.043674792387690897 0.055332765007500347 0 0.057160936441861127 0.046648955900823477 0 0.059987605710088307 0.057542457668878048 0 0.037841228797650422 0.0072588189931981888 0 0.045834199505119612 0.021516328873812249 0 0.049330781028274727 0.0078771476920460465 0 0.037841228797650422 0.0072588189931981888 0 0.049330781028274727 0.0078771476920460465 0 0.046364458183610048 -0.00486021171305797 0 0.037841228797650422 0.0072588189931981888 0 0.032141039706194238 0.018908214822608859 0 0.045834199505119612 0.021516328873812249 0 0.045932135182417608 0.037749836082332247 0 0.033024807730125533 0.03057841999584018 0 0.045834199505119612 0.021516328873812249 0 0.032141039706194238 0.018908214822608859 0 0.033024807730125533 0.03057841999584018 0 0.045834199505119612 0.021516328873812249 0 0.045834199505119612 0.021516328873812249 0 0.059746816967468482 0.01386773407241086 0 0.06261425778805696 0.033833009960568497 0 0.045932135182417608 0.037749836082332247 0 0.045834199505119612 0.021516328873812249 0 0.06261425778805696 0.033833009960568497 0 0.045834199505119612 0.021516328873812249 0 0.059746816967468482 0.01386773407241086 0 0.049330781028274727 0.0078771476920460465 0 0.049330781028274727 0.0078771476920460465 0 0.056867201687525071 0.001603068233866904 0 0.046364458183610048 -0.00486021171305797 0 0.059746816967468482 0.01386773407241086 0 0.056867201687525071 0.001603068233866904 0 0.069300466910597755 0.00065198380139983567 0 0.059746816967468482 0.01386773407241086 0 0.049330781028274727 0.0078771476920460465 0 0.056867201687525071 0.001603068233866904 0 0.059746816967468482 0.01386773407241086 0 0.069300466910597755 0.00065198380139983567 0 0.074807168364752041 0.01905700912310471 0 0.069300466910597755 0.00065198380139983567 0 0.085940305132592446 0.0054706021851735273 0 0.074807168364752041 0.01905700912310471 0 0.085940305132592446 0.0054706021851735273 0 0.08900173872618819 0.022019845049817351 0 0.074807168364752041 0.01905700912310471 0 0.085940305132592446 0.0054706021851735273 0 0.08900173872618819 0.022019845049817351 0 0.098395424426120065 0.010828164567125089 0 0.085940305132592446 0.0054706021851735273 0 0.098395424426120065 0.010828164567125089 0 0.096404115562213621 -0.0020531939796058591 0 0.08900173872618819 0.022019845049817351 0 0.078805777479379988 0.032251754148872151 0 0.094009831376850816 0.037562195826031979 0 0.08900173872618819 0.022019845049817351 0 0.074807168364752041 0.01905700912310471 0 0.078805777479379988 0.032251754148872151 0 0.059746816967468482 0.01386773407241086 0 0.074807168364752041 0.01905700912310471 0 0.06261425778805696 0.033833009960568497 0 0.074807168364752041 0.01905700912310471 0 0.06261425778805696 0.033833009960568497 0 0.078805777479379988 0.032251754148872151 0 0.06261425778805696 0.033833009960568497 0 0.073595891141051861 0.048786710784838219 0 0.078805777479379988 0.032251754148872151 0 0.057160936441861127 0.046648955900823477 0 0.06261425778805696 0.033833009960568497 0 0.073595891141051861 0.048786710784838219 0 0.057160936441861127 0.046648955900823477 0 0.059987605710088307 0.057542457668878048 0 0.073595891141051861 0.048786710784838219 0 0.059987605710088307 0.057542457668878048 0 0.073595891141051861 0.048786710784838219 0 0.07250133430724226 0.070317323909993582 0 0.073595891141051861 0.048786710784838219 0 0.094253789105751051 0.05963293661276417 0 0.07250133430724226 0.070317323909993582 0 0.073595891141051861 0.048786710784838219 0 0.094009831376850816 0.037562195826031979 0 0.094253789105751051 0.05963293661276417 0 0.073595891141051861 0.048786710784838219 0 0.078805777479379988 0.032251754148872151 0 0.094009831376850816 0.037562195826031979 0 0.094009831376850816 0.037562195826031979 0 0.10846162113896229 0.035952026641132832 0 0.1089755199076836 0.051087658002423347 0 0.094009831376850816 0.037562195826031979 0 0.10846162113896229 0.035952026641132832 0 0.10275254914181341 0.023585095837998341 0 0.094009831376850816 0.037562195826031979 0 0.094253789105751051 0.05963293661276417 0 0.1089755199076836 0.051087658002423347 0 0.094253789105751051 0.05963293661276417 0 0.1089755199076836 0.051087658002423347 0 0.1208112500120648 0.067041918886858551 0 0.1213080043343957 0.041416056264792493 0 0.1208112500120648 0.067041918886858551 0 0.1089755199076836 0.051087658002423347 0 0.1213080043343957 0.041416056264792493 0 0.1208112500120648 0.067041918886858551 0 0.10846162113896229 0.035952026641132832 0 0.1213080043343957 0.041416056264792493 0 0.11313919852222699 0.025813618918625349 0 0.10846162113896229 0.035952026641132832 0 0.1089755199076836 0.051087658002423347 0 0.1213080043343957 0.041416056264792493 0 0.1213080043343957 0.041416056264792493 0 0.1218047586567266 0.015790193642726411 0 0.1213080043343957 0.041416056264792493 0 0.1218047586567266 0.015790193642726411 0 0.1295614189419213 0.02782939967021433 0 0.1213080043343957 0.041416056264792493 0 0.11313919852222699 0.025813618918625349 0 0.1218047586567266 0.015790193642726411 0 0.11313919852222699 0.025813618918625349 0 0.1218047586567266 0.015790193642726411 0 0.11010028559015719 0.01331315029693823 0 0.1218047586567266 0.015790193642726411 0 0.1184492845065812 0.001094690671418761 0 0.1278820481066294 0.0059606448014834978 0 0.1184492845065812 0.001094690671418761 0 0.11010028559015719 0.01331315029693823 0 0.1061735524037556 0.0026334880124289739 0 0.1218047586567266 0.015790193642726411 0 0.1184492845065812 0.001094690671418761 0 0.11010028559015719 0.01331315029693823 0 0.11010028559015719 0.01331315029693823 0 0.1061735524037556 0.0026334880124289739 0 0.098395424426120065 0.010828164567125089 0 0.1061735524037556 0.0026334880124289739 0 0.098395424426120065 0.010828164567125089 0 0.096404115562213621 -0.0020531939796058591 0 0.08900173872618819 0.022019845049817351 0 0.098395424426120065 0.010828164567125089 0 0.10275254914181341 0.023585095837998341 0 0.08900173872618819 0.022019845049817351 0 0.094009831376850816 0.037562195826031979 0 0.10275254914181341 0.023585095837998341 0 0.10846162113896229 0.035952026641132832 0 0.11313919852222699 0.025813618918625349 0 0.10275254914181341 0.023585095837998341 0 0.11313919852222699 0.025813618918625349 0 0.11010028559015719 0.01331315029693823 0 0.10275254914181341 0.023585095837998341 0 0.11010028559015719 0.01331315029693823 0 0.098395424426120065 0.010828164567125089 0 0.10275254914181341 0.023585095837998341 0 0.1133365358620238 0.1151127218614694 0 0.1203144956897339 0.092667781508924602 0 0.0930101996319216 0.102553034346872 0 0.1133365358620238 0.1151127218614694 0 0.0930101996319216 0.102553034346872 0 0.092665908465489666 0.1237854779988911 0 0.1133365358620238 0.1151127218614694 0 0.1203144956897339 0.092667781508924602 0 0.1391042278669492 0.1093928181731583 0 0.1203144956897339 0.092667781508924602 0 0.1208112500120648 0.067041918886858551 0 0.094304003055034613 0.080527224531676184 0 0.1203144956897339 0.092667781508924602 0 0.1208112500120648 0.067041918886858551 0 0.094253789105751051 0.05963293661276417 0 0.1208112500120648 0.067041918886858551 0 0.094304003055034613 0.080527224531676184 0 0.1203144956897339 0.092667781508924602 0 0.094304003055034613 0.080527224531676184 0 0.0930101996319216 0.102553034346872 0 0.094304003055034613 0.080527224531676184 0 0.064932949583494146 0.090950351924644263 0 0.0930101996319216 0.102553034346872 0 0.094253789105751051 0.05963293661276417 0 0.094304003055034613 0.080527224531676184 0 0.07250133430724226 0.070317323909993582 0 0.07250133430724226 0.070317323909993582 0 0.064932949583494146 0.090950351924644263 0 0.07250133430724226 0.070317323909993582 0 0.064932949583494146 0.090950351924644263 0 0.055685199777625698 0.080891939035876451 0 0.094304003055034613 0.080527224531676184 0 0.07250133430724226 0.070317323909993582 0 0.064932949583494146 0.090950351924644263 0 0.064932949583494146 0.090950351924644263 0 0.0930101996319216 0.102553034346872 0 0.074712336935336632 0.1127871047090165 0 0.064932949583494146 0.090950351924644263 0 0.074712336935336632 0.1127871047090165 0 0.057364564859746052 0.1115833799392949 0 0.0930101996319216 0.102553034346872 0 0.092665908465489666 0.1237854779988911 0 0.074712336935336632 0.1127871047090165 0 0.092665908465489666 0.1237854779988911 0 0.074712336935336632 0.1127871047090165 0 0.075097104110273288 0.13070702935427869 0 0.074712336935336632 0.1127871047090165 0 0.064390624696436222 0.124804695835697 0 0.057364564859746052 0.1115833799392949 0 0.074712336935336632 0.1127871047090165 0 0.064390624696436222 0.124804695835697 0 0.075097104110273288 0.13070702935427869 0 0.057364564859746052 0.1115833799392949 0 0.036417818479914592 0.11369958758010849 0 0.049796180135997577 0.13221640795394549 0 0.057364564859746052 0.1115833799392949 0 0.049796180135997577 0.13221640795394549 0 0.064390624696436222 0.124804695835697 0 0.057364564859746052 0.1115833799392949 0 0.049796180135997577 0.13221640795394549 0 0.064932949583494146 0.090950351924644263 0 0.057364564859746052 0.1115833799392949 0 0.048446254208649793 0.093350683960916198 0 0.057364564859746052 0.1115833799392949 0 0.040238678016983227 0.1021249072592641 0 0.048446254208649793 0.093350683960916198 0 0.064932949583494146 0.090950351924644263 0 0.057364564859746052 0.1115833799392949 0 0.057364564859746052 0.1115833799392949 0 0.040238678016983227 0.1021249072592641 0 0.036417818479914592 0.11369958758010849 0 0.040238678016983227 0.1021249072592641 0 0.036417818479914592 0.11369958758010849 0 0.026651797943669869 0.096070611774559445 0 0.040238678016983227 0.1021249072592641 0 0.048446254208649793 0.093350683960916198 0 0.035339079379005947 0.090940630585643029 0 0.040238678016983227 0.1021249072592641 0 0.035339079379005947 0.090940630585643029 0 0.026651797943669869 0.096070611774559445 0 0.036417818479914592 0.11369958758010849 0 0.049796180135997577 0.13221640795394549 0 0.059987605710088307 0.057542457668878048 0 0.07250133430724226 0.070317323909993582 0 0.051167259823371572 0.069036945991366255 0 0.07250133430724226 0.070317323909993582 0 0.051167259823371572 0.069036945991366255 0 0.055685199777625698 0.080891939035876451 0 0.051167259823371572 0.069036945991366255 0 0.055685199777625698 0.080891939035876451 0 0.041378200965370697 0.08080438939246197 0 0.064932949583494146 0.090950351924644263 0 0.055685199777625698 0.080891939035876451 0 0.048446254208649793 0.093350683960916198 0 0.055685199777625698 0.080891939035876451 0 0.048446254208649793 0.093350683960916198 0 0.041378200965370697 0.08080438939246197 0 0.048446254208649793 0.093350683960916198 0 0.035339079379005947 0.090940630585643029 0 0.041378200965370697 0.08080438939246197 0 0.035339079379005947 0.090940630585643029 0 0.034236168421518859 0.083864456374307381 0 0.029208425203499061 0.084721362444358364 0 0.034236168421518859 0.083864456374307381 0 0.041378200965370697 0.08080438939246197 0 0.030410500652628032 0.077726972411342937 0 0.035339079379005947 0.090940630585643029 0 0.034236168421518859 0.083864456374307381 0 0.041378200965370697 0.08080438939246197 0 0.034236168421518859 0.083864456374307381 0 0.030410500652628032 0.077726972411342937 0 0.029208425203499061 0.084721362444358364 0 0.051167259823371572 0.069036945991366255 0 0.041378200965370697 0.08080438939246197 0 0.035910060997468088 0.068320538166905601 0 0.041378200965370697 0.08080438939246197 0 0.035910060997468088 0.068320538166905601 0 0.030410500652628032 0.077726972411342937 0 0.043674792387690897 0.055332765007500347 0 0.051167259823371572 0.069036945991366255 0 0.035910060997468088 0.068320538166905601 0 0.01062169118348028 0.061274068703086271 0 0.026647192474648359 0.058185118404673289 0 0.022804027495525001 0.070710930924801532 0 0.026647192474648359 0.058185118404673289 0 0.035910060997468088 0.068320538166905601 0 0.022804027495525001 0.070710930924801532 0 0.035910060997468088 0.068320538166905601 0 0.030410500652628032 0.077726972411342937 0 0.022804027495525001 0.070710930924801532 0 0.030410500652628032 0.077726972411342937 0 0.022804027495525001 0.070710930924801532 0 0.02355095011996897 0.082061557712991451 0 0.022804027495525001 0.070710930924801532 0 0.02355095011996897 0.082061557712991451 0 0.0096837695449562937 0.0766973301498097 0 0.0096837695449562937 0.0766973301498097 0 0.023039456823832159 0.09518276720627096 0 0.02355095011996897 0.082061557712991451 0 0.0096837695449562937 0.0766973301498097 0 0.023039456823832159 0.09518276720627096 0 0.030410500652628032 0.077726972411342937 0 0.029208425203499061 0.084721362444358364 0 0.02355095011996897 0.082061557712991451 0 0.029208425203499061 0.084721362444358364 0 0.02355095011996897 0.082061557712991451 0 0.026781128813799331 0.089203876272078042 0 0.02355095011996897 0.082061557712991451 0 0.026781128813799331 0.089203876272078042 0 0.023039456823832159 0.09518276720627096 0 0.035339079379005947 0.090940630585643029 0 0.029208425203499061 0.084721362444358364 0 0.026781128813799331 0.089203876272078042 0 0.035339079379005947 0.090940630585643029 0 0.026781128813799331 0.089203876272078042 0 0.026651797943669869 0.096070611774559445 0 0.026781128813799331 0.089203876272078042 0 0.026651797943669869 0.096070611774559445 0 0.023039456823832159 0.09518276720627096 0 -0.0020343296066761482 0.089020108600608966 0 0.0096837695449562937 0.0766973301498097 0 0.023039456823832159 0.09518276720627096 0 -0.0020343296066761482 0.089020108600608966 0 0.023039456823832159 0.09518276720627096 0 -0.003671917733919523 0.058211893093348323 0 0.0096837695449562937 0.0766973301498097 0 -0.003671917733919523 0.058211893093348323 0 0.01062169118348028 0.061274068703086271 0 0.0096837695449562937 0.0766973301498097 0 0.01062169118348028 0.061274068703086271 0 0.022804027495525001 0.070710930924801532 0 0.0096837695449562937 0.0766973301498097 0 0.036417818479914592 0.11369958758010849 0 0.0183305543654378 0.1258925620465729 0 0.032555503907633343 0.13393098435420001 0 0.036417818479914592 0.11369958758010849 0 0.020920736451308378 0.1108048664776662 0 0.0183305543654378 0.1258925620465729 0 0.036417818479914592 0.11369958758010849 0 0.020920736451308378 0.1108048664776662 0 0.023039456823832159 0.09518276720627096 0 0.036417818479914592 0.11369958758010849 0 0.026651797943669869 0.096070611774559445 0 0.023039456823832159 0.09518276720627096 0 0.036417818479914592 0.11369958758010849 0 0.023039456823832159 0.09518276720627096 0 0.026651797943669869 0.096070611774559445 0 0.023039456823832159 0.09518276720627096 0 0.020920736451308378 0.1108048664776662 0 0.023039456823832159 0.09518276720627096 0 0.0075301239935254951 0.10354844902441469 0 -0.0020343296066761482 0.089020108600608966 0 0.023039456823832159 0.09518276720627096 0 0.0075301239935254951 0.10354844902441469 0 -0.0091392656019166456 0.10729277714133149 0 0.0075301239935254951 0.10354844902441469 0 0.0051296572039527932 0.1172467250433227 0 0.020920736451308378 0.1108048664776662 0 0.0051296572039527932 0.1172467250433227 0 0.0183305543654378 0.1258925620465729 0 0.020920736451308378 0.1108048664776662 0 0.0075301239935254951 0.10354844902441469 0 0.0051296572039527932 0.1172467250433227 0 -0.01067379153055562 0.1224245975185192 0 0.0051296572039527932 0.1172467250433227 0 0.0074899840850697376 0.13814575431282169 0 0.0051296572039527932 0.1172467250433227 0 0.0074899840850697376 0.13814575431282169 0 0.0183305543654378 0.1258925620465729 0 0.0074899840850697376 0.13814575431282169 0 0.0183305543654378 0.1258925620465729 0 0.021856353321453911 0.1402133563371164 0 0.0183305543654378 0.1258925620465729 0 0.021856353321453911 0.1402133563371164 0 0.032555503907633343 0.13393098435420001 0 0.021856353321453911 0.1402133563371164 0 0.031211798317607339 0.14760911774959981 0 0.032555503907633343 0.13393098435420001 0 0.0074899840850697376 0.13814575431282169 0 0.021856353321453911 0.1402133563371164 0 0.019693925931521319 0.1554883632223876 0 0.031211798317607339 0.14760911774959981 0 0.019693925931521319 0.1554883632223876 0 0.031727473248225613 0.15964436579731831 0 0.021856353321453911 0.1402133563371164 0 0.031211798317607339 0.14760911774959981 0 0.019693925931521319 0.1554883632223876 0 -0.0027363713365503978 0.16019200437487979 0 0.0074899840850697376 0.13814575431282169 0 0.019693925931521319 0.1554883632223876 0 -0.0027363713365503978 0.16019200437487979 0 0.019693925931521319 0.1554883632223876 0 0.01811234284160888 0.17050003486935589 0 -0.0027363713365503978 0.16019200437487979 0 0.0098091057758850266 0.1820360155821697 0 0.01811234284160888 0.17050003486935589 0 -0.0027363713365503978 0.16019200437487979 0 0.0098091057758850266 0.1820360155821697 0 0.0098091057758850266 0.1820360155821697 0 0.025887048076367419 0.1818656836455467 0 0.01811234284160888 0.17050003486935589 0 0.026547682123512311 0.17293841877604529 0 0.025887048076367419 0.1818656836455467 0 0.01811234284160888 0.17050003486935589 0 0.026547682123512311 0.17293841877604529 0 0.025887048076367419 0.1818656836455467 0 0.035004286976149768 0.17254225780129859 0 0.019693925931521319 0.1554883632223876 0 0.01811234284160888 0.17050003486935589 0 0.027187050599923171 0.1668456987879802 0 0.026547682123512311 0.17293841877604529 0 0.01811234284160888 0.17050003486935589 0 0.027187050599923171 0.1668456987879802 0 0.026547682123512311 0.17293841877604529 0 0.027187050599923171 0.1668456987879802 0 0.035004286976149768 0.17254225780129859 0 0.019693925931521319 0.1554883632223876 0 0.027187050599923171 0.1668456987879802 0 0.031727473248225613 0.15964436579731831 0 0.039297697753449497 0.1725254574763164 0 0.051070825199836807 0.16339999820857529 0 0.049387927358520753 0.14859971471224401 0 0.039297697753449497 0.1725254574763164 0 0.049387927358520753 0.14859971471224401 0 0.031727473248225613 0.15964436579731831 0 0.035004286976149768 0.17254225780129859 0 0.042400233556073849 0.15237933287762209 0 0.035004286976149768 0.17254225780129859 0 0.042400233556073849 0.15237933287762209 0 0.039297697753449497 0.1725254574763164 0 0.049387927358520753 0.14859971471224401 0 0.042400233556073849 0.15237933287762209 0 0.035004286976149768 0.17254225780129859 0 0.039297697753449497 0.1725254574763164 0 0.042400233556073849 0.15237933287762209 0 0.027187050599923171 0.1668456987879802 0 0.031727473248225613 0.15964436579731831 0 0.035004286976149768 0.17254225780129859 0 0.039297697753449497 0.1725254574763164 0 0.051070825199836807 0.16339999820857529 0 0.04844997760335553 0.17128082898722191 0 0.039297697753449497 0.1725254574763164 0 0.02920746814837823 0.19645120024038851 0 0.025887048076367419 0.1818656836455467 0 0.039297697753449497 0.1725254574763164 0 0.02920746814837823 0.19645120024038851 0 0.039297697753449497 0.1725254574763164 0 0.046591464947114351 0.17760618940968231 0 0.02920746814837823 0.19645120024038851 0 0.046591464947114351 0.17760618940968231 0 0.02920746814837823 0.19645120024038851 0 0.025887048076367419 0.1818656836455467 0 0.035004286976149768 0.17254225780129859 0 0.039297697753449497 0.1725254574763164 0 0.039297697753449497 0.1725254574763164 0 0.046591464947114351 0.17760618940968231 0 0.04844997760335553 0.17128082898722191 0 0.046591464947114351 0.17760618940968231 0 0.061146426749420293 0.18597202031261609 0 0.046237342066067437 0.19452042321552809 0 0.046591464947114351 0.17760618940968231 0 0.059782881703269612 0.1739562905923708 0 0.04844997760335553 0.17128082898722191 0 0.046591464947114351 0.17760618940968231 0 0.059782881703269612 0.1739562905923708 0 0.061146426749420293 0.18597202031261609 0 0.059782881703269612 0.1739562905923708 0 0.051070825199836807 0.16339999820857529 0 0.04844997760335553 0.17128082898722191 0 0.059782881703269612 0.1739562905923708 0 0.051070825199836807 0.16339999820857529 0 0.061256394573586163 0.1638670526082262 0 0.051070825199836807 0.16339999820857529 0 0.061256394573586163 0.1638670526082262 0 0.055913402925230712 0.15597809152957859 0 0.061256394573586163 0.1638670526082262 0 0.055913402925230712 0.15597809152957859 0 0.064195161475313234 0.15214585506267569 0 0.049796180135997577 0.13221640795394549 0 0.064195161475313234 0.15214585506267569 0 0.055913402925230712 0.15597809152957859 0 0.049387927358520753 0.14859971471224401 0 0.064195161475313234 0.15214585506267569 0 0.049387927358520753 0.14859971471224401 0 0.049796180135997577 0.13221640795394549 0 0.064195161475313234 0.15214585506267569 0 0.049387927358520753 0.14859971471224401 0 0.049796180135997577 0.13221640795394549 0 0.042400233556073849 0.15237933287762209 0 0.051070825199836807 0.16339999820857529 0 0.055913402925230712 0.15597809152957859 0 0.049387927358520753 0.14859971471224401 0 0.049796180135997577 0.13221640795394549 0 0.064982937440827573 0.13672955722194929 0 0.064195161475313234 0.15214585506267569 0 0.064390624696436222 0.124804695835697 0 0.049796180135997577 0.13221640795394549 0 0.064982937440827573 0.13672955722194929 0 0.036417818479914592 0.11369958758010849 0 0.049796180135997577 0.13221640795394549 0 0.032555503907633343 0.13393098435420001 0 0.049796180135997577 0.13221640795394549 0 0.032555503907633343 0.13393098435420001 0 0.038990928979328023 0.14153396073384181 0 0.031211798317607339 0.14760911774959981 0 0.038990928979328023 0.14153396073384181 0 0.042400233556073849 0.15237933287762209 0 0.049796180135997577 0.13221640795394549 0 0.038990928979328023 0.14153396073384181 0 0.042400233556073849 0.15237933287762209 0 0.049796180135997577 0.13221640795394549 0 0.042400233556073849 0.15237933287762209 0 0.031211798317607339 0.14760911774959981 0 0.032555503907633343 0.13393098435420001 0 0.038990928979328023 0.14153396073384181 0 0.031211798317607339 0.14760911774959981 0 0.031727473248225613 0.15964436579731831 0 0.042400233556073849 0.15237933287762209 0 0.024188406122221649 0.23878624988800981 0 0.018785603132313949 0.24860424061635039 0 0.034787127990412572 0.2445802475458374 0 0.018785603132313949 0.24860424061635039 0 0.014365178300988629 0.23164492950300161 0 0.024188406122221649 0.23878624988800981 0 0.018785603132313949 0.24860424061635039 0 0.014365178300988629 0.23164492950300161 0 0.018785603132313949 0.24860424061635039 0 0.034787127990412572 0.2445802475458374 0 0.028118277550723301 0.25681089790061867 0 0.024188406122221649 0.23878624988800981 0 0.028815715065170461 0.23031558188685011 0 0.034787127990412572 0.2445802475458374 0 0.018785603132313949 0.24860424061635039 0 0.010287840802467691 0.2474845300597478 0 0.01140569373471041 0.23866239780832091 0 0.018785603132313949 0.24860424061635039 0 0.01140569373471041 0.23866239780832091 0 0.014365178300988629 0.23164492950300161 0 0.010287840802467691 0.2474845300597478 0 0.00090010739120855875 0.2423724903609927 0 0.0032882937976513949 0.25334643695700099 0 0.010287840802467691 0.2474845300597478 0 0.00090010739120855875 0.2423724903609927 0 0.01140569373471041 0.23866239780832091 0 -0.00047259289341652558 0.22862568107262751 0 0.00090010739120855875 0.2423724903609927 0 0.01140569373471041 0.23866239780832091 0 0.01140569373471041 0.23866239780832091 0 0.014365178300988629 0.23164492950300161 0 -0.00047259289341652558 0.22862568107262751 0 0.01140569373471041 0.23866239780832091 0 0.014365178300988629 0.23164492950300161 0 -0.00047259289341652558 0.22862568107262751 0 0.010482735097335589 0.2167496276523542 0 -0.00047259289341652558 0.22862568107262751 0 0.010482735097335589 0.2167496276523542 0 0.0015373392354008811 0.21470272910690341 0 0.014365178300988629 0.23164492950300161 0 0.010482735097335589 0.2167496276523542 0 -0.00047259289341652558 0.22862568107262751 0 0.014365178300988629 0.23164492950300161 0 0.010482735097335589 0.2167496276523542 0 0.014365178300988629 0.23164492950300161 0 0.028815715065170461 0.23031558188685011 0 0.028734958710043411 0.21498944891086211 0 0.014365178300988629 0.23164492950300161 0 0.02449947803896876 0.20761468855555551 0 0.024188406122221649 0.23878624988800981 0 0.014365178300988629 0.23164492950300161 0 0.028815715065170461 0.23031558188685011 0 0.014365178300988629 0.23164492950300161 0 0.02449947803896876 0.20761468855555551 0 0.010482735097335589 0.2167496276523542 0 0.014365178300988629 0.23164492950300161 0 0.028734958710043411 0.21498944891086211 0 0.02449947803896876 0.20761468855555551 0 0.028734958710043411 0.21498944891086211 0 0.02449947803896876 0.20761468855555551 0 0.02449947803896876 0.20761468855555551 0 0.02920746814837823 0.19645120024038851 0 0.038244742769318447 0.2067297585974919 0 0.028734958710043411 0.21498944891086211 0 0.02449947803896876 0.20761468855555551 0 0.038244742769318447 0.2067297585974919 0 0.022354582888320051 0.20388002678945991 0 0.010482735097335589 0.2167496276523542 0 0.02449947803896876 0.20761468855555551 0 0.022354582888320051 0.20388002678945991 0 0.010482735097335589 0.2167496276523542 0 0.02449947803896876 0.20761468855555551 0 0.022354582888320051 0.20388002678945991 0 0.010482735097335589 0.2167496276523542 0 0.008426253028348419 0.20885977078614601 0 0.010482735097335589 0.2167496276523542 0 0.0015373392354008811 0.21470272910690341 0 0.008426253028348419 0.20885977078614601 0 0.00020597546088703869 0.20558248659696229 0 0.008426253028348419 0.20885977078614601 0 0.0072459734231503604 0.19850400637738311 0 0.0015373392354008811 0.21470272910690341 0 0.00020597546088703869 0.20558248659696229 0 0.008426253028348419 0.20885977078614601 0 0.022354582888320051 0.20388002678945991 0 0.008426253028348419 0.20885977078614601 0 0.0072459734231503604 0.19850400637738311 0 0.022354582888320051 0.20388002678945991 0 0.010482735097335589 0.2167496276523542 0 0.008426253028348419 0.20885977078614601 0 0.0098091057758850266 0.1820360155821697 0 0.022354582888320051 0.20388002678945991 0 0.0072459734231503604 0.19850400637738311 0 -0.0060287360930813601 0.19612075402129189 0 0.0098091057758850266 0.1820360155821697 0 0.0072459734231503604 0.19850400637738311 0 -0.0060287360930813601 0.19612075402129189 0 0.00020597546088703869 0.20558248659696229 0 0.0072459734231503604 0.19850400637738311 0 0.0098091057758850266 0.1820360155821697 0 0.025887048076367419 0.1818656836455467 0 0.022354582888320051 0.20388002678945991 0 0.0098091057758850266 0.1820360155821697 0 0.022354582888320051 0.20388002678945991 0 0.025887048076367419 0.1818656836455467 0 0.022354582888320051 0.20388002678945991 0 0.02920746814837823 0.19645120024038851 0 0.02449947803896876 0.20761468855555551 0 0.022354582888320051 0.20388002678945991 0 0.02920746814837823 0.19645120024038851 0 0.02449947803896876 0.20761468855555551 0 0.02920746814837823 0.19645120024038851 0 0.022354582888320051 0.20388002678945991 0 0.02920746814837823 0.19645120024038851 0 0.02920746814837823 0.19645120024038851 0 0.046237342066067437 0.19452042321552809 0 0.038244742769318447 0.2067297585974919 0 0.046591464947114351 0.17760618940968231 0 0.02920746814837823 0.19645120024038851 0 0.046237342066067437 0.19452042321552809 0 0.061146426749420293 0.18597202031261609 0 0.046237342066067437 0.19452042321552809 0 0.057269068667318818 0.2049752345984214 0 0.046237342066067437 0.19452042321552809 0 0.057269068667318818 0.2049752345984214 0 0.038244742769318447 0.2067297585974919 0 0.057269068667318818 0.2049752345984214 0 0.041893549364615298 0.22172366499571619 0 0.05960586309617983 0.22850237987048139 0 0.057269068667318818 0.2049752345984214 0 0.038244742769318447 0.2067297585974919 0 0.041893549364615298 0.22172366499571619 0 0.028734958710043411 0.21498944891086211 0 0.038244742769318447 0.2067297585974919 0 0.041893549364615298 0.22172366499571619 0 0.041893549364615298 0.22172366499571619 0 0.05960586309617983 0.22850237987048139 0 0.034787127990412572 0.2445802475458374 0 0.028815715065170461 0.23031558188685011 0 0.041893549364615298 0.22172366499571619 0 0.034787127990412572 0.2445802475458374 0 0.028815715065170461 0.23031558188685011 0 0.028734958710043411 0.21498944891086211 0 0.041893549364615298 0.22172366499571619 0 0.05960586309617983 0.22850237987048139 0 0.034787127990412572 0.2445802475458374 0 0.052091199104034591 0.25013440876738641 0 0.05960586309617983 0.22850237987048139 0 0.034787127990412572 0.2445802475458374 0 0.05960586309617983 0.22850237987048139 0 0.084424598201946865 0.21242451219512551 0 0.09789035378164522 0.23371853251049671 0 0.05960586309617983 0.22850237987048139 0 0.09789035378164522 0.23371853251049671 0 0.078032130690699947 0.25427537826295732 0 0.05960586309617983 0.22850237987048139 0 0.052091199104034591 0.25013440876738641 0 0.078032130690699947 0.25427537826295732 0 0.05960586309617983 0.22850237987048139 0 0.084424598201946865 0.21242451219512551 0 0.057269068667318818 0.2049752345984214 0 0.084424598201946865 0.21242451219512551 0 0.07840366029812218 0.19269868188828851 0 0.057269068667318818 0.2049752345984214 0 0.05960586309617983 0.22850237987048139 0 0.084424598201946865 0.21242451219512551 0 0.061146426749420293 0.18597202031261609 0 0.057269068667318818 0.2049752345984214 0 0.07840366029812218 0.19269868188828851 0 0.084424598201946865 0.21242451219512551 0 0.07840366029812218 0.19269868188828851 0 0.10924333330771389 0.19634664451976969 0 0.07840366029812218 0.19269868188828851 0 0.10924333330771389 0.19634664451976969 0 0.093395996596354988 0.18252458519793169 0 0.084424598201946865 0.21242451219512551 0 0.10924333330771389 0.19634664451976969 0 0.09789035378164522 0.23371853251049671 0 0.10924333330771389 0.19634664451976969 0 0.09789035378164522 0.23371853251049671 0 0.123231411911969 0.22388080198713919 0 0.10924333330771389 0.19634664451976969 0 0.1257433940807107 0.18042554522497031 0 0.13590666325369749 0.20196860542624401 0 0.10924333330771389 0.19634664451976969 0 0.123231411911969 0.22388080198713919 0 0.13590666325369749 0.20196860542624401 0 0.084424598201946865 0.21242451219512551 0 0.10924333330771389 0.19634664451976969 0 0.09789035378164522 0.23371853251049671 0 0.078032130690699947 0.25427537826295732 0 0.10992443325655819 0.26092228931128542 0 0.09789035378164522 0.23371853251049671 0 0.123231411911969 0.22388080198713919 0 0.12651619231424621 0.24576035123215559 0 0.09789035378164522 0.23371853251049671 0 0.12651619231424621 0.24576035123215559 0 0.10992443325655819 0.26092228931128542 0 0.087391462890665308 0.14906516216187629 0 0.075097104110273288 0.13070702935427869 0 0.07389526267859664 0.14305701975172441 0 0.092665908465489666 0.1237854779988911 0 0.087391462890665308 0.14906516216187629 0 0.075097104110273288 0.13070702935427869 0 0.075097104110273288 0.13070702935427869 0 0.064982937440827573 0.13672955722194929 0 0.07389526267859664 0.14305701975172441 0 0.064390624696436222 0.124804695835697 0 0.075097104110273288 0.13070702935427869 0 0.064982937440827573 0.13672955722194929 0 0.064982937440827573 0.13672955722194929 0 0.07389526267859664 0.14305701975172441 0 0.064195161475313234 0.15214585506267569 0 0.087391462890665308 0.14906516216187629 0 0.07389526267859664 0.14305701975172441 0 0.064195161475313234 0.15214585506267569 0 0.059782881703269612 0.1739562905923708 0 0.061256394573586163 0.1638670526082262 0 0.078594142814629342 0.1720753021714054 0 0.061256394573586163 0.1638670526082262 0 0.064195161475313234 0.15214585506267569 0 0.078594142814629342 0.1720753021714054 0 0.064195161475313234 0.15214585506267569 0 0.078594142814629342 0.1720753021714054 0 0.087391462890665308 0.14906516216187629 0 0.064195161475313234 0.15214585506267569 0 0.078594142814629342 0.1720753021714054 0 0.059782881703269612 0.1739562905923708 0 0.061146426749420293 0.18597202031261609 0 0.078594142814629342 0.1720753021714054 0 0.061146426749420293 0.18597202031261609 0 0.07840366029812218 0.19269868188828851 0 0.078594142814629342 0.1720753021714054 0 0.078594142814629342 0.1720753021714054 0 0.093395996596354988 0.18252458519793169 0 0.10559702974892041 0.16895410779304801 0 0.07840366029812218 0.19269868188828851 0 0.078594142814629342 0.1720753021714054 0 0.093395996596354988 0.18252458519793169 0 0.087391462890665308 0.14906516216187629 0 0.078594142814629342 0.1720753021714054 0 0.10559702974892041 0.16895410779304801 0 0.10924333330771389 0.19634664451976969 0 0.093395996596354988 0.18252458519793169 0 0.10559702974892041 0.16895410779304801 0 0.10924333330771389 0.19634664451976969 0 0.10559702974892041 0.16895410779304801 0 0.1257433940807107 0.18042554522497031 0 0.10559702974892041 0.16895410779304801 0 0.13241211733372449 0.15565737945146199 0 0.1257433940807107 0.18042554522497031 0 0.10559702974892041 0.16895410779304801 0 0.10981510582693491 0.14019605598934951 0 0.13241211733372449 0.15565737945146199 0 0.10981510582693491 0.14019605598934951 0 0.12912007960498731 0.13066493100682619 0 0.13241211733372449 0.15565737945146199 0 0.087391462890665308 0.14906516216187629 0 0.10559702974892041 0.16895410779304801 0 0.10981510582693491 0.14019605598934951 0 0.092665908465489666 0.1237854779988911 0 0.087391462890665308 0.14906516216187629 0 0.10981510582693491 0.14019605598934951 0 0.1133365358620238 0.1151127218614694 0 0.092665908465489666 0.1237854779988911 0 0.10981510582693491 0.14019605598934951 0 0.1133365358620238 0.1151127218614694 0 0.10981510582693491 0.14019605598934951 0 0.12912007960498731 0.13066493100682619 0 0.12912007960498731 0.13066493100682619 0 0.15131570642523839 0.133785993765038 0 0.13241211733372449 0.15565737945146199 0 0.15131570642523839 0.133785993765038 0 0.15543382048099191 0.15599509425201119 0 0.13241211733372449 0.15565737945146199 0 0.13241211733372449 0.15565737945146199 0 0.1257433940807107 0.18042554522497031 0 0.1477575671177247 0.17877816233303739 0 0.1257433940807107 0.18042554522497031 0 0.1477575671177247 0.17877816233303739 0 0.13590666325369749 0.20196860542624401 0 0.15543382048099191 0.15599509425201119 0 0.13241211733372449 0.15565737945146199 0 0.1477575671177247 0.17877816233303739 0 0.15543382048099191 0.15599509425201119 0 0.1477575671177247 0.17877816233303739 0 0.17236259703490561 0.16818262372828771 0 0.1477575671177247 0.17877816233303739 0 0.17090371916701039 0.18698958617063319 0 0.17236259703490561 0.16818262372828771 0 0.17090371916701039 0.18698958617063319 0 0.17236259703490561 0.16818262372828771 0 0.19083057721544749 0.1805804270213634 0 0.17236259703490561 0.16818262372828771 0 0.18747102300251589 0.1605457500732809 0 0.17332111449336629 0.143571311982231 0 0.17236259703490561 0.16818262372828771 0 0.18747102300251589 0.1605457500732809 0 0.19083057721544749 0.1805804270213634 0 0.18747102300251589 0.1605457500732809 0 0.17332111449336629 0.143571311982231 0 0.19463987838074651 0.1466311843291471 0 0.17332111449336629 0.143571311982231 0 0.1863063012760299 0.13452447328124051 0 0.19463987838074651 0.1466311843291471 0 0.17332111449336629 0.143571311982231 0 0.1863063012760299 0.13452447328124051 0 0.17783643260735749 0.1225127171859311 0 0.17332111449336629 0.143571311982231 0 0.16552636854877889 0.12814546198180379 0 0.17783643260735749 0.1225127171859311 0 0.15131570642523839 0.133785993765038 0 0.17332111449336629 0.143571311982231 0 0.16552636854877889 0.12814546198180379 0 0.15131570642523839 0.133785993765038 0 0.16552636854877889 0.12814546198180379 0 0.16135270630448981 0.11360970200104729 0 0.15543382048099191 0.15599509425201119 0 0.17236259703490561 0.16818262372828771 0 0.17332111449336629 0.143571311982231 0 0.15131570642523839 0.133785993765038 0 0.15543382048099191 0.15599509425201119 0 0.17332111449336629 0.143571311982231 0 0.12651619231424621 0.24576035123215559 0 0.14837713614835291 0.22855168860960659 0 0.14769841845077999 0.25452448218607071 0 0.14837713614835291 0.22855168860960659 0 0.16556865526627371 0.24620973951318789 0 0.14769841845077999 0.25452448218607071 0 0.123231411911969 0.22388080198713919 0 0.12651619231424621 0.24576035123215559 0 0.14837713614835291 0.22855168860960659 0 0.14837713614835291 0.22855168860960659 0 0.13590666325369749 0.20196860542624401 0 0.1615454161970116 0.20374070100767211 0 0.123231411911969 0.22388080198713919 0 0.14837713614835291 0.22855168860960659 0 0.13590666325369749 0.20196860542624401 0 0.1477575671177247 0.17877816233303739 0 0.1615454161970116 0.20374070100767211 0 0.1477575671177247 0.17877816233303739 0 0.13590666325369749 0.20196860542624401 0 0.1615454161970116 0.20374070100767211 0 0.17090371916701039 0.18698958617063319 0 0.18202243826996259 0.2036660167628056 0 0.1615454161970116 0.20374070100767211 0 0.1477575671177247 0.17877816233303739 0 0.17090371916701039 0.18698958617063319 0 0.1615454161970116 0.20374070100767211 0 0.17090371916701039 0.18698958617063319 0 0.18202243826996259 0.2036660167628056 0 0.19083057721544749 0.1805804270213634 0 0.18202243826996259 0.2036660167628056 0 0.1615454161970116 0.20374070100767211 0 0.17533326527629839 0.2287032396823068 0 0.18202243826996259 0.2036660167628056 0 0.17533326527629839 0.2287032396823068 0 0.19304648862950019 0.21924891751071779 0 0.1615454161970116 0.20374070100767211 0 0.17533326527629839 0.2287032396823068 0 0.17533326527629839 0.2287032396823068 0 0.19304648862950019 0.21924891751071779 0 0.18912111435558529 0.25366577835694148 0 0.14837713614835291 0.22855168860960659 0 0.1615454161970116 0.20374070100767211 0 0.17533326527629839 0.2287032396823068 0 0.17533326527629839 0.2287032396823068 0 0.18912111435558529 0.25366577835694148 0 0.17533326527629839 0.2287032396823068 0 0.16556865526627371 0.24620973951318789 0 0.18912111435558529 0.25366577835694148 0 0.14837713614835291 0.22855168860960659 0 0.17533326527629839 0.2287032396823068 0 0.16556865526627371 0.24620973951318789 0 0.19304648862950019 0.21924891751071779 0 0.21247055335618151 0.23108025617467501 0 0.18912111435558529 0.25366577835694148 0 0.21247055335618151 0.23108025617467501 0 0.18912111435558529 0.25366577835694148 0 0.21195126078018589 0.26214046876334168 0 0.21247055335618151 0.23108025617467501 0 0.2029909252336411 0.20360894432657409 0 0.22288150717631519 0.2071769144987255 0 0.19304648862950019 0.21924891751071779 0 0.21247055335618151 0.23108025617467501 0 0.2029909252336411 0.20360894432657409 0 0.18202243826996259 0.2036660167628056 0 0.19304648862950019 0.21924891751071779 0 0.2029909252336411 0.20360894432657409 0 0.18202243826996259 0.2036660167628056 0 0.2029909252336411 0.20360894432657409 0 0.19083057721544749 0.1805804270213634 0 0.2029909252336411 0.20360894432657409 0 0.22288150717631519 0.2071769144987255 0 0.21778451836414511 0.18269123600831791 0 0.2029909252336411 0.20360894432657409 0 0.19083057721544749 0.1805804270213634 0 0.21778451836414511 0.18269123600831791 0 0.24005542745915909 0.19450794910137281 0 0.22288150717631519 0.2071769144987255 0 0.21778451836414511 0.18269123600831791 0 0.24005542745915909 0.19450794910137281 0 0.2383134903200122 0.2219180175230398 0 0.24005542745915909 0.19450794910137281 0 0.2383134903200122 0.2219180175230398 0 0.26085984776825122 0.2153934978547708 0 0.24005542745915909 0.19450794910137281 0 0.22288150717631519 0.2071769144987255 0 0.2383134903200122 0.2219180175230398 0 0.21247055335618151 0.23108025617467501 0 0.2383134903200122 0.2219180175230398 0 0.2365715531808652 0.24932808594470679 0 0.21247055335618151 0.23108025617467501 0 0.22288150717631519 0.2071769144987255 0 0.2383134903200122 0.2219180175230398 0 0.2383134903200122 0.2219180175230398 0 0.2365715531808652 0.24932808594470679 0 0.2383134903200122 0.2219180175230398 0 0.2365715531808652 0.24932808594470679 0 0.25774491792626453 0.23885010948040991 0 0.21247055335618151 0.23108025617467501 0 0.2365715531808652 0.24932808594470679 0 0.21195126078018589 0.26214046876334168 0 0.20391305378989941 0.1631134317742568 0 0.2204845872089132 0.14498117869825719 0 0.19463987838074651 0.1466311843291471 0 0.20391305378989941 0.1631134317742568 0 0.2204845872089132 0.14498117869825719 0 0.21777002854948041 0.12832434332492651 0 0.19463987838074651 0.1466311843291471 0 0.2204845872089132 0.14498117869825719 0 0.21777002854948041 0.12832434332492651 0 0.19892842684255529 0.12825776903863451 0 0.19463987838074651 0.1466311843291471 0 0.21777002854948041 0.12832434332492651 0 0.19463987838074651 0.1466311843291471 0 0.1863063012760299 0.13452447328124051 0 0.19892842684255529 0.12825776903863451 0 0.19463987838074651 0.1466311843291471 0 0.1863063012760299 0.13452447328124051 0 0.19892842684255529 0.12825776903863451 0 0.18955202507108351 0.1171413593379248 0 0.18747102300251589 0.1605457500732809 0 0.19083057721544749 0.1805804270213634 0 0.20391305378989941 0.1631134317742568 0 0.18747102300251589 0.1605457500732809 0 0.19463987838074651 0.1466311843291471 0 0.20391305378989941 0.1631134317742568 0 0.19083057721544749 0.1805804270213634 0 0.21778451836414511 0.18269123600831791 0 0.20391305378989941 0.1631134317742568 0 0.21778451836414511 0.18269123600831791 0 0.20391305378989941 0.1631134317742568 0 0.22135587498226331 0.16159125371265659 0 0.20391305378989941 0.1631134317742568 0 0.22135587498226331 0.16159125371265659 0 0.2204845872089132 0.14498117869825719 0 0.21778451836414511 0.18269123600831791 0 0.22135587498226331 0.16159125371265659 0 0.24179736459830611 0.16709788067970571 0 0.22135587498226331 0.16159125371265659 0 0.24179736459830611 0.16709788067970571 0 0.23158851654131449 0.1509114302679461 0 0.24005542745915909 0.19450794910137281 0 0.21778451836414511 0.18269123600831791 0 0.24179736459830611 0.16709788067970571 0 0.24005542745915909 0.19450794910137281 0 0.24179736459830611 0.16709788067970571 0 0.25694516065145878 0.17565583277781349 0 0.24005542745915909 0.19450794910137281 0 0.24179736459830611 0.16709788067970571 0 0.24179736459830611 0.16709788067970571 0 0.24353930173745389 0.1396878122580387 0 0.25839559362281889 0.1571334514241145 0 0.24179736459830611 0.16709788067970571 0 0.24353930173745389 0.1396878122580387 0 0.24179736459830611 0.16709788067970571 0 0.23158851654131449 0.1509114302679461 0 0.24353930173745389 0.1396878122580387 0 0.23158851654131449 0.1509114302679461 0 0.2331671315289022 0.14060733671162479 0 0.24353930173745389 0.1396878122580387 0 0.22135587498226331 0.16159125371265659 0 0.23158851654131449 0.1509114302679461 0 0.2204845872089132 0.14498117869825719 0 0.23158851654131449 0.1509114302679461 0 0.2204845872089132 0.14498117869825719 0 0.2331671315289022 0.14060733671162479 0 0.2204845872089132 0.14498117869825719 0 0.22652410555413161 0.12908340785485789 0 0.23705612062792669 0.12684892562225741 0 0.21777002854948041 0.12832434332492651 0 0.2204845872089132 0.14498117869825719 0 0.22652410555413161 0.12908340785485789 0 0.2204845872089132 0.14498117869825719 0 0.23705612062792669 0.12684892562225741 0 0.2204845872089132 0.14498117869825719 0 0.2331671315289022 0.14060733671162479 0 0.23705612062792669 0.12684892562225741 0 0.21777002854948041 0.12832434332492651 0 0.22652410555413161 0.12908340785485789 0 0.22936871780713411 0.124738482733887 0 0.22652410555413161 0.12908340785485789 0 0.23705612062792669 0.12684892562225741 0 0.22936871780713411 0.124738482733887 0 0.23705612062792669 0.12684892562225741 0 0.24353930173745389 0.1396878122580387 0 0.24430493663131109 0.12764024500940299 0 0.23705612062792669 0.12684892562225741 0 0.23910220146196859 0.124610143334658 0 0.23705612062792669 0.12684892562225741 0 0.24430493663131109 0.12764024500940299 0 0.23910220146196859 0.124610143334658 0 0.24430493663131109 0.12764024500940299 0 0.23910220146196859 0.124610143334658 0 0.23705612062792669 0.12684892562225741 0 0.24353930173745389 0.1396878122580387 0 0.2331671315289022 0.14060733671162479 0 0.23705612062792669 0.12684892562225741 0 0.24353930173745389 0.1396878122580387 0 0.24353930173745389 0.1396878122580387 0 0.24430493663131109 0.12764024500940299 0 0.24430493663131109 0.12764024500940299 0 0.24490070925302559 0.1182655276571563 0 0.25666891798780611 0.1253238900148779 0 0.24430493663131109 0.12764024500940299 0 0.24490070925302559 0.1182655276571563 0 0.23910220146196859 0.124610143334658 0 0.24430493663131109 0.12764024500940299 0 0.24490070925302559 0.1182655276571563 0 0.24490070925302559 0.1182655276571563 0 0.23930860869814211 0.1183033631952958 0 0.24566451995244071 0.10624666482815601 0 0.24490070925302559 0.1182655276571563 0 0.24566451995244071 0.10624666482815601 0 0.24566451995244071 0.10624666482815601 0 0.23208140335563729 0.1169973064826771 0 0.23930860869814211 0.1183033631952958 0 0.24566451995244071 0.10624666482815601 0 0.23208140335563729 0.1169973064826771 0 0.23460218787876899 0.1219893105897604 0 0.23930860869814211 0.1183033631952958 0 0.23208140335563729 0.1169973064826771 0 0.23705612062792669 0.12684892562225741 0 0.23460218787876899 0.1219893105897604 0 0.23910220146196859 0.124610143334658 0 0.23460218787876899 0.1219893105897604 0 0.23910220146196859 0.124610143334658 0 0.23930860869814211 0.1183033631952958 0 0.23705612062792669 0.12684892562225741 0 0.23460218787876899 0.1219893105897604 0 0.23460218787876899 0.1219893105897604 0 0.23910220146196859 0.124610143334658 0 0.24490070925302559 0.1182655276571563 0 0.23910220146196859 0.124610143334658 0 0.24490070925302559 0.1182655276571563 0 0.23910220146196859 0.124610143334658 0 0.23930860869814211 0.1183033631952958 0 0.24566451995244071 0.10624666482815601 0 0.24663004553639259 0.091053738674726797 0 0.25702412168979683 0.085002971587395657 0 0.24566451995244071 0.10624666482815601 0 0.2352920921395856 0.093165233268494824 0 0.24663004553639259 0.091053738674726797 0 0.24566451995244071 0.10624666482815601 0 0.24663004553639259 0.091053738674726797 0 0.24566451995244071 0.10624666482815601 0 0.23388731708796981 0.10361359582341211 0 0.23208140335563729 0.1169973064826771 0 0.24566451995244071 0.10624666482815601 0 0.23388731708796981 0.10361359582341211 0 0.2352920921395856 0.093165233268494824 0 0.22251125290421431 0.098045178714318781 0 0.23208140335563729 0.1169973064826771 0 0.21523518073688011 0.1107098587504121 0 0.22251125290421431 0.098045178714318781 0 0.23208140335563729 0.1169973064826771 0 0.23388731708796981 0.10361359582341211 0 0.22251125290421431 0.098045178714318781 0 0.23208140335563729 0.1169973064826771 0 0.23388731708796981 0.10361359582341211 0 0.22251125290421431 0.098045178714318781 0 0.2352920921395856 0.093165233268494824 0 0.22951648178353659 0.11902736729361919 0 0.23208140335563729 0.1169973064826771 0 0.21523518073688011 0.1107098587504121 0 0.23705612062792669 0.12684892562225741 0 0.23460218787876899 0.1219893105897604 0 0.22936871780713411 0.124738482733887 0 0.23460218787876899 0.1219893105897604 0 0.22951648178353659 0.11902736729361919 0 0.22936871780713411 0.124738482733887 0 0.23460218787876899 0.1219893105897604 0 0.23208140335563729 0.1169973064826771 0 0.23460218787876899 0.1219893105897604 0 0.22951648178353659 0.11902736729361919 0 0.23208140335563729 0.1169973064826771 0 0.23460218787876899 0.1219893105897604 0 0.22951648178353659 0.11902736729361919 0 0.22951648178353659 0.11902736729361919 0 0.23208140335563729 0.1169973064826771 0 0.22951648178353659 0.11902736729361919 0 0.21523518073688011 0.1107098587504121 0 0.22951648178353659 0.11902736729361919 0 0.21878146547383279 0.1185568264928195 0 0.21523518073688011 0.1107098587504121 0 0.21777002854948041 0.12832434332492651 0 0.22951648178353659 0.11902736729361919 0 0.22936871780713411 0.124738482733887 0 0.21777002854948041 0.12832434332492651 0 0.22951648178353659 0.11902736729361919 0 0.21777002854948041 0.12832434332492651 0 0.22951648178353659 0.11902736729361919 0 0.21878146547383279 0.1185568264928195 0 0.21777002854948041 0.12832434332492651 0 0.19892842684255529 0.12825776903863451 0 0.20439567155482491 0.11293585965188251 0 0.21777002854948041 0.12832434332492651 0 0.21878146547383279 0.1185568264928195 0 0.20439567155482491 0.11293585965188251 0 0.21777002854948041 0.12832434332492651 0 0.20439567155482491 0.11293585965188251 0 0.21878146547383279 0.1185568264928195 0 0.20439567155482491 0.11293585965188251 0 0.21523518073688011 0.1107098587504121 0 0.22251125290421431 0.098045178714318781 0 0.20738496730761191 0.1001143240000523 0 0.20552372107529909 0.088779158019484744 0 0.22251125290421431 0.098045178714318781 0 0.21523518073688011 0.1107098587504121 0 0.20738496730761191 0.1001143240000523 0 0.20439567155482491 0.11293585965188251 0 0.21523518073688011 0.1107098587504121 0 0.20738496730761191 0.1001143240000523 0 0.20439567155482491 0.11293585965188251 0 0.19102131456016919 0.097547375978838585 0 0.18955202507108351 0.1171413593379248 0 0.20439567155482491 0.11293585965188251 0 0.20738496730761191 0.1001143240000523 0 0.19102131456016919 0.097547375978838585 0 0.20738496730761191 0.1001143240000523 0 0.19102131456016919 0.097547375978838585 0 0.20552372107529909 0.088779158019484744 0 0.20439567155482491 0.11293585965188251 0 0.19102131456016919 0.097547375978838585 0 0.19892842684255529 0.12825776903863451 0 0.20439567155482491 0.11293585965188251 0 0.18955202507108351 0.1171413593379248 0 0.20110305557861219 0.071294116547025707 0 0.1940495628216059 0.071357440250487625 0 0.19727837981219859 0.079562084326462335 0 0.20110305557861219 0.071294116547025707 0 0.20025316454097 0.0665914131762885 0 0.20387569066390221 0.064468996212013546 0 0.1976031738723483 0.06422099192222204 0 0.20387569066390221 0.064468996212013546 0 0.19354495102542321 0.059375571711423117 0 0.20110305557861219 0.071294116547025707 0 0.20025316454097 0.0665914131762885 0 0.19776095448495651 0.067807420722666115 0 0.20025316454097 0.0665914131762885 0 0.1976031738723483 0.06422099192222204 0 0.20387569066390221 0.064468996212013546 0 0.20025316454097 0.0665914131762885 0 0.1976031738723483 0.06422099192222204 0 0.19776095448495651 0.067807420722666115 0 0.1976031738723483 0.06422099192222204 0 0.1953772008837083 0.066464312154040112 0 0.19454211305006061 0.063853192185250499 0 0.1976031738723483 0.06422099192222204 0 0.19776095448495651 0.067807420722666115 0 0.1953772008837083 0.066464312154040112 0 0.19776095448495651 0.067807420722666115 0 0.1953772008837083 0.066464312154040112 0 0.1940495628216059 0.071357440250487625 0 0.20110305557861219 0.071294116547025707 0 0.19776095448495651 0.067807420722666115 0 0.1940495628216059 0.071357440250487625 0 0.1953772008837083 0.066464312154040112 0 0.1936445092080491 0.065845853636186419 0 0.1940495628216059 0.071357440250487625 0 0.1936445092080491 0.065845853636186419 0 0.19109871272577969 0.062881261380471093 0 0.1940495628216059 0.071357440250487625 0 0.1953772008837083 0.066464312154040112 0 0.19454211305006061 0.063853192185250499 0 0.1936445092080491 0.065845853636186419 0 0.19454211305006061 0.063853192185250499 0 0.1929271771407654 0.062586693366586565 0 0.19109871272577969 0.062881261380471093 0 0.19454211305006061 0.063853192185250499 0 0.1936445092080491 0.065845853636186419 0 0.19109871272577969 0.062881261380471093 0 0.19109871272577969 0.062881261380471093 0 0.1940495628216059 0.071357440250487625 0 0.18676016297485939 0.078142941332178556 0 0.1940495628216059 0.071357440250487625 0 0.19727837981219859 0.079562084326462335 0 0.18676016297485939 0.078142941332178556 0 0.19102131456016919 0.097547375978838585 0 0.19727837981219859 0.079562084326462335 0 0.18676016297485939 0.078142941332178556 0 0.19102131456016919 0.097547375978838585 0 0.19727837981219859 0.079562084326462335 0 0.20552372107529909 0.088779158019484744 0 0.22251125290421431 0.098045178714318781 0 0.20552372107529909 0.088779158019484744 0 0.2129411024527918 0.079093050945960322 0 0.19727837981219859 0.079562084326462335 0 0.20552372107529909 0.088779158019484744 0 0.2129411024527918 0.079093050945960322 0 0.22251125290421431 0.098045178714318781 0 0.2129411024527918 0.079093050945960322 0 0.2129411024527918 0.079093050945960322 0 0.20387569066390221 0.064468996212013546 0 0.20337095200136929 0.060140923177601863 0 0.2129411024527918 0.079093050945960322 0 0.21660828721526329 0.064499628286285735 0 0.2251189551314145 0.071225548321917159 0 0.2129411024527918 0.079093050945960322 0 0.20337095200136929 0.060140923177601863 0 0.20110305557861219 0.071294116547025707 0 0.19727837981219859 0.079562084326462335 0 0.2129411024527918 0.079093050945960322 0 0.2129411024527918 0.079093050945960322 0 0.21660828721526329 0.064499628286285735 0 0.20337095200136929 0.060140923177601863 0 0.20110305557861219 0.071294116547025707 0 0.2129411024527918 0.079093050945960322 0 0.20387569066390221 0.064468996212013546 0 0.2129411024527918 0.079093050945960322 0 0.2251189551314145 0.071225548321917159 0 0.23164993018670291 0.082683127869551759 0 0.21660828721526329 0.064499628286285735 0 0.2251189551314145 0.071225548321917159 0 0.22744092064016519 0.058621025509948889 0 0.2251189551314145 0.071225548321917159 0 0.23164993018670291 0.082683127869551759 0 0.23766097065704869 0.067709165809129404 0 0.2251189551314145 0.071225548321917159 0 0.23766097065704869 0.067709165809129404 0 0.22744092064016519 0.058621025509948889 0 0.22251125290421431 0.098045178714318781 0 0.2129411024527918 0.079093050945960322 0 0.23164993018670291 0.082683127869551759 0 0.22251125290421431 0.098045178714318781 0 0.23164993018670291 0.082683127869551759 0 0.2352920921395856 0.093165233268494824 0 0.23164993018670291 0.082683127869551759 0 0.24663004553639259 0.091053738674726797 0 0.24759557112034389 0.075860812521297616 0 0.23164993018670291 0.082683127869551759 0 0.2352920921395856 0.093165233268494824 0 0.24663004553639259 0.091053738674726797 0 0.24663004553639259 0.091053738674726797 0 0.24759557112034389 0.075860812521297616 0 0.23164993018670291 0.082683127869551759 0 0.23766097065704869 0.067709165809129404 0 0.24759557112034389 0.075860812521297616 0 0.23766097065704869 0.067709165809129404 0 0.24759557112034389 0.075860812521297616 0 0.25019694532165282 0.065924950906555244 0 0.23766097065704869 0.067709165809129404 0 0.2448710902685006 0.052379175832879467 0 0.25019694532165282 0.065924950906555244 0 0.23766097065704869 0.067709165809129404 0 0.2448710902685006 0.052379175832879467 0 0.22744092064016519 0.058621025509948889 0 0.2448710902685006 0.052379175832879467 0 0.24199570558805189 0.034709280333182387 0 0.2285392084685727 0.038900587820666833 0 0.2448710902685006 0.052379175832879467 0 0.24199570558805189 0.034709280333182387 0 0.25400108682872402 0.038730358553432653 0 0.24199570558805189 0.034709280333182387 0 0.2519818386451988 0.02734813411344621 0 0.25400108682872402 0.038730358553432653 0 0.24199570558805189 0.034709280333182387 0 0.2285392084685727 0.038900587820666833 0 0.23361156877947761 0.026369634273329771 0 0.2285392084685727 0.038900587820666833 0 0.22108843975091361 0.019903160585904231 0 0.20731669538816841 0.03963936614866366 0 0.2285392084685727 0.038900587820666833 0 0.22744092064016519 0.058621025509948889 0 0.21529986978777829 0.051913130156786919 0 0.2448710902685006 0.052379175832879467 0 0.2285392084685727 0.038900587820666833 0 0.22744092064016519 0.058621025509948889 0 0.21660828721526329 0.064499628286285735 0 0.22744092064016519 0.058621025509948889 0 0.21529986978777829 0.051913130156786919 0 0.24366403529044059 0.002495366349431846 0 0.24786140975085211 0.01520204014510221 0 0.25635755174959812 0.01093073813975445 0 0.24366403529044059 0.002495366349431846 0 0.24786140975085211 0.01520204014510221 0 0.23470244327078349 0.01500263793427899 0 0.24786140975085211 0.01520204014510221 0 0.23470244327078349 0.01500263793427899 0 0.24173204681906649 0.02333250469261642 0 0.23470244327078349 0.01500263793427899 0 0.24173204681906649 0.02333250469261642 0 0.23361156877947761 0.026369634273329771 0 0.24786140975085211 0.01520204014510221 0 0.24173204681906649 0.02333250469261642 0 0.2519818386451988 0.02734813411344621 0 0.24199570558805189 0.034709280333182387 0 0.24173204681906649 0.02333250469261642 0 0.2519818386451988 0.02734813411344621 0 0.24199570558805189 0.034709280333182387 0 0.24173204681906649 0.02333250469261642 0 0.23361156877947761 0.026369634273329771 0 0.2285392084685727 0.038900587820666833 0 0.23361156877947761 0.026369634273329771 0 0.22108843975091361 0.019903160585904231 0 0.23470244327078349 0.01500263793427899 0 0.23361156877947761 0.026369634273329771 0 0.22108843975091361 0.019903160585904231 0 0.24366403529044059 0.002495366349431846 0 0.23470244327078349 0.01500263793427899 0 0.2233522756610696 0.0037124091872116709 0 0.24366403529044059 0.002495366349431846 0 0.2233522756610696 0.0037124091872116709 0 0.23470244327078349 0.01500263793427899 0 0.22108843975091361 0.019903160585904231 0 0.2233522756610696 0.0037124091872116709 0 0.2233522756610696 0.0037124091872116709 0 0.20248571281073449 0.017021212667237991 0 0.2233522756610696 0.0037124091872116709 0 0.19548714095255301 0.0053820362032720361 0 0.2233522756610696 0.0037124091872116709 0 0.20248571281073449 0.017021212667237991 0 0.19548714095255301 0.0053820362032720361 0 0.22108843975091361 0.019903160585904231 0 0.2233522756610696 0.0037124091872116709 0 0.20248571281073449 0.017021212667237991 0 0.22108843975091361 0.019903160585904231 0 0.20731669538816841 0.03963936614866366 0 0.22108843975091361 0.019903160585904231 0 0.20248571281073449 0.017021212667237991 0 0.20731669538816841 0.03963936614866366 0 0.20248571281073449 0.017021212667237991 0 0.19523523394721989 0.031327930994981087 0 0.18161914996040091 0.030330016147266659 0 0.1882239564870285 0.017673037826181431 0 0.20248571281073449 0.017021212667237991 0 0.18161914996040091 0.030330016147266659 0 0.20248571281073449 0.017021212667237991 0 0.20731669538816841 0.03963936614866366 0 0.19523523394721989 0.031327930994981087 0 0.20248571281073449 0.017021212667237991 0 0.18161914996040091 0.030330016147266659 0 0.19548714095255301 0.0053820362032720361 0 0.1866460532171032 0.0080809249767251137 0 0.19380918725667809 -0.0079263992677468011 0 0.1882239564870285 0.017673037826181431 0 0.20248571281073449 0.017021212667237991 0 0.19548714095255301 0.0053820362032720361 0 0.1882239564870285 0.017673037826181431 0 0.19548714095255301 0.0053820362032720361 0 0.1866460532171032 0.0080809249767251137 0 0.20337095200136929 0.060140923177601863 0 0.21529986978777829 0.051913130156786919 0 0.20731669538816841 0.03963936614866366 0 0.21660828721526329 0.064499628286285735 0 0.20337095200136929 0.060140923177601863 0 0.21529986978777829 0.051913130156786919 0 0.2285392084685727 0.038900587820666833 0 0.21529986978777829 0.051913130156786919 0 0.20731669538816841 0.03963936614866366 0 0.20731669538816841 0.03963936614866366 0 0.19523523394721989 0.031327930994981087 0 0.1934095333162936 0.04336188318293905 0 0.19523523394721989 0.031327930994981087 0 0.18779937477773059 0.036518268563849127 0 0.1934095333162936 0.04336188318293905 0 0.19523523394721989 0.031327930994981087 0 0.18779937477773059 0.036518268563849127 0 0.18161914996040091 0.030330016147266659 0 0.18779937477773059 0.036518268563849127 0 0.1934095333162936 0.04336188318293905 0 0.18755732067932271 0.041674227819260008 0 0.1934095333162936 0.04336188318293905 0 0.18755732067932271 0.041674227819260008 0 0.18866760794175991 0.047760982021683253 0 0.20337095200136929 0.060140923177601863 0 0.20731669538816841 0.03963936614866366 0 0.19354495102542321 0.059375571711423117 0 0.18866760794175991 0.047760982021683253 0 0.19354495102542321 0.059375571711423117 0 0.18855593229580181 0.056915806861995821 0 0.20731669538816841 0.03963936614866366 0 0.1934095333162936 0.04336188318293905 0 0.19354495102542321 0.059375571711423117 0 0.20731669538816841 0.03963936614866366 0 0.19354495102542321 0.059375571711423117 0 0.1934095333162936 0.04336188318293905 0 0.18866760794175991 0.047760982021683253 0 0.19354495102542321 0.059375571711423117 0 0.20387569066390221 0.064468996212013546 0 0.20337095200136929 0.060140923177601863 0 0.19354495102542321 0.059375571711423117 0 0.20387569066390221 0.064468996212013546 0 0.19354495102542321 0.059375571711423117 0 0.1976031738723483 0.06422099192222204 0 0.19454211305006061 0.063853192185250499 0 0.19354495102542321 0.059375571711423117 0 0.19454211305006061 0.063853192185250499 0 0.1929271771407654 0.062586693366586565 0 0.19354495102542321 0.059375571711423117 0 0.19109871272577969 0.062881261380471093 0 0.19354495102542321 0.059375571711423117 0 0.1929271771407654 0.062586693366586565 0 0.19109871272577969 0.062881261380471093 0 0.19354495102542321 0.059375571711423117 0 0.19354495102542321 0.059375571711423117 0 0.18855593229580181 0.056915806861995821 0 0.19109871272577969 0.062881261380471093 0 0.19354495102542321 0.059375571711423117 0 0.18855593229580181 0.056915806861995821 0 0.19109871272577969 0.062881261380471093 0 0.18855593229580181 0.056915806861995821 0 0.16889109451117579 0.047220337798066739 0 0.17371466567401059 0.064597790717582038 0 0.18116516464729979 0.06263327335945082 0 0.18855593229580181 0.056915806861995821 0 0.16889109451117579 0.047220337798066739 0 0.18116516464729979 0.06263327335945082 0 0.18855593229580181 0.056915806861995821 0 0.16889109451117579 0.047220337798066739 0 0.19109871272577969 0.062881261380471093 0 0.18855593229580181 0.056915806861995821 0 0.18116516464729979 0.06263327335945082 0 0.18866760794175991 0.047760982021683253 0 0.18855593229580181 0.056915806861995821 0 0.1802703023919604 0.037477420532797318 0 0.18855593229580181 0.056915806861995821 0 0.1802703023919604 0.037477420532797318 0 0.16889109451117579 0.047220337798066739 0 0.18855593229580181 0.056915806861995821 0 0.1802703023919604 0.037477420532797318 0 0.18755732067932271 0.041674227819260008 0 0.18866760794175991 0.047760982021683253 0 0.1802703023919604 0.037477420532797318 0 0.18779937477773059 0.036518268563849127 0 0.18755732067932271 0.041674227819260008 0 0.1802703023919604 0.037477420532797318 0 0.18779937477773059 0.036518268563849127 0 0.1802703023919604 0.037477420532797318 0 0.18161914996040091 0.030330016147266659 0 0.16889109451117579 0.047220337798066739 0 0.15074547391437149 0.051206148774896307 0 0.1492262567265486 0.03752486873414055 0 0.16889109451117579 0.047220337798066739 0 0.1492262567265486 0.03752486873414055 0 0.16889109451117579 0.047220337798066739 0 0.16372072046916669 0.031042697272874231 0 0.1492262567265486 0.03752486873414055 0 0.1802703023919604 0.037477420532797318 0 0.16889109451117579 0.047220337798066739 0 0.16372072046916669 0.031042697272874231 0 0.16889109451117579 0.047220337798066739 0 0.17371466567401059 0.064597790717582038 0 0.1641962157399425 0.066682520540345513 0 0.16889109451117579 0.047220337798066739 0 0.15074547391437149 0.051206148774896307 0 0.1641962157399425 0.066682520540345513 0 0.15074547391437149 0.051206148774896307 0 0.1641962157399425 0.066682520540345513 0 0.1719846724881213 0.018039034203597849 0 0.18032625338237379 -2.2130443606615402e-06 0 0.16369904258428211 -0.001399352125601633 0 0.1866460532171032 0.0080809249767251137 0 0.1719846724881213 0.018039034203597849 0 0.18032625338237379 -2.2130443606615402e-06 0 0.1882239564870285 0.017673037826181431 0 0.1866460532171032 0.0080809249767251137 0 0.1719846724881213 0.018039034203597849 0 0.1866460532171032 0.0080809249767251137 0 0.18032625338237379 -2.2130443606615402e-06 0 0.19380918725667809 -0.0079263992677468011 0 0.1882239564870285 0.017673037826181431 0 0.1719846724881213 0.018039034203597849 0 0.18161914996040091 0.030330016147266659 0 0.1802703023919604 0.037477420532797318 0 0.1719846724881213 0.018039034203597849 0 0.18161914996040091 0.030330016147266659 0 0.1802703023919604 0.037477420532797318 0 0.1719846724881213 0.018039034203597849 0 0.16372072046916669 0.031042697272874231 0 0.1802703023919604 0.037477420532797318 0 0.1719846724881213 0.018039034203597849 0 0.16372072046916669 0.031042697272874231 0 0.15776046367859689 0.017096262492902761 0 0.15411366430021131 0.02709904900700737 0 0.1719846724881213 0.018039034203597849 0 0.16372072046916669 0.031042697272874231 0 0.15776046367859689 0.017096262492902761 0 0.15776046367859689 0.017096262492902761 0 0.15444781805377419 0.0056107538890258699 0 0.16369904258428211 -0.001399352125601633 0 0.1719846724881213 0.018039034203597849 0 0.16369904258428211 -0.001399352125601633 0 0.1719846724881213 0.018039034203597849 0 0.15776046367859689 0.017096262492902761 0 0.16369904258428211 -0.001399352125601633 0 0.15444781805377419 0.0056107538890258699 0 0.15339352971485529 -0.0012026143491344189 0 0.16369904258428211 -0.001399352125601633 0 0.15444781805377419 0.0056107538890258699 0 0.16369904258428211 -0.001399352125601633 0 0.14651915138539101 0.0022875994110858389 0 0.15444781805377419 0.0056107538890258699 0 0.15339352971485529 -0.0012026143491344189 0 0.14651915138539101 0.0022875994110858389 0 0.15444781805377419 0.0056107538890258699 0 0.14902001108883839 0.012515336602435929 0 0.15776046367859689 0.017096262492902761 0 0.15444781805377419 0.0056107538890258699 0 0.14902001108883839 0.012515336602435929 0 0.14651915138539101 0.0022875994110858389 0 0.14902001108883839 0.012515336602435929 0 0.1361974983678132 0.012661310688862171 0 0.14574721632653309 0.02273236752811195 0 0.1295614189419213 0.02782939967021433 0 0.1492262567265486 0.03752486873414055 0 0.14902001108883839 0.012515336602435929 0 0.14574721632653309 0.02273236752811195 0 0.1361974983678132 0.012661310688862171 0 0.15776046367859689 0.017096262492902761 0 0.14902001108883839 0.012515336602435929 0 0.14574721632653309 0.02273236752811195 0 0.15776046367859689 0.017096262492902761 0 0.14574721632653309 0.02273236752811195 0 0.15411366430021131 0.02709904900700737 0 0.14574721632653309 0.02273236752811195 0 0.15411366430021131 0.02709904900700737 0 0.1492262567265486 0.03752486873414055 0 0.14574721632653309 0.02273236752811195 0 0.1295614189419213 0.02782939967021433 0 0.1361974983678132 0.012661310688862171 0 0.1218047586567266 0.015790193642726411 0 0.1295614189419213 0.02782939967021433 0 0.1361974983678132 0.012661310688862171 0 0.1218047586567266 0.015790193642726411 0 0.1361974983678132 0.012661310688862171 0 0.1278820481066294 0.0059606448014834978 0 0.14651915138539101 0.0022875994110858389 0 0.1361974983678132 0.012661310688862171 0 0.13594642572117441 -0.0019479341080785239 0 0.1361974983678132 0.012661310688862171 0 0.1278820481066294 0.0059606448014834978 0 0.13594642572117441 -0.0019479341080785239 0 0.15074547391437149 0.051206148774896307 0 0.13494998742426759 0.048071966300038883 0 0.13804752061630379 0.063413405469331052 0 0.15074547391437149 0.051206148774896307 0 0.13804752061630379 0.063413405469331052 0 0.15053140112957031 0.069034046643129177 0 0.15074547391437149 0.051206148774896307 0 0.15053140112957031 0.069034046643129177 0 0.1641962157399425 0.066682520540345513 0 0.15074547391437149 0.051206148774896307 0 0.1492262567265486 0.03752486873414055 0 0.13494998742426759 0.048071966300038883 0 0.16372072046916669 0.031042697272874231 0 0.15411366430021131 0.02709904900700737 0 0.1492262567265486 0.03752486873414055 0 0.1213080043343957 0.041416056264792493 0 0.1295614189419213 0.02782939967021433 0 0.13494998742426759 0.048071966300038883 0 0.1295614189419213 0.02782939967021433 0 0.1492262567265486 0.03752486873414055 0 0.13494998742426759 0.048071966300038883 0 0.1295614189419213 0.02782939967021433 0 0.1492262567265486 0.03752486873414055 0 0.1208112500120648 0.067041918886858551 0 0.13494998742426759 0.048071966300038883 0 0.13804752061630379 0.063413405469331052 0 0.1213080043343957 0.041416056264792493 0 0.1208112500120648 0.067041918886858551 0 0.13494998742426759 0.048071966300038883 0 0.1208112500120648 0.067041918886858551 0 0.13804752061630379 0.063413405469331052 0 0.1406342203632894 0.08233279381172609 0 0.13804752061630379 0.063413405469331052 0 0.15053140112957031 0.069034046643129177 0 0.1406342203632894 0.08233279381172609 0 0.15053140112957031 0.069034046643129177 0 0.1406342203632894 0.08233279381172609 0 0.15903357501394419 0.081535364619346878 0 0.1406342203632894 0.08233279381172609 0 0.15361275353357379 0.096588386594316039 0 0.15903357501394419 0.081535364619346878 0 0.1203144956897339 0.092667781508924602 0 0.1208112500120648 0.067041918886858551 0 0.1406342203632894 0.08233279381172609 0 0.1203144956897339 0.092667781508924602 0 0.1406342203632894 0.08233279381172609 0 0.1391042278669492 0.1093928181731583 0 0.12912007960498731 0.13066493100682619 0 0.15131570642523839 0.133785993765038 0 0.1391042278669492 0.1093928181731583 0 0.1133365358620238 0.1151127218614694 0 0.12912007960498731 0.13066493100682619 0 0.1391042278669492 0.1093928181731583 0 0.15131570642523839 0.133785993765038 0 0.1391042278669492 0.1093928181731583 0 0.16135270630448981 0.11360970200104729 0 0.1406342203632894 0.08233279381172609 0 0.1391042278669492 0.1093928181731583 0 0.15361275353357379 0.096588386594316039 0 0.1391042278669492 0.1093928181731583 0 0.15361275353357379 0.096588386594316039 0 0.16135270630448981 0.11360970200104729 0 0.15361275353357379 0.096588386594316039 0 0.16793903811919611 0.09607125436630172 0 0.16135270630448981 0.11360970200104729 0 0.16793903811919611 0.09607125436630172 0 0.16135270630448981 0.11360970200104729 0 0.17790707483334639 0.108717475807441 0 0.16552636854877889 0.12814546198180379 0 0.16135270630448981 0.11360970200104729 0 0.17783643260735749 0.1225127171859311 0 0.16135270630448981 0.11360970200104729 0 0.17783643260735749 0.1225127171859311 0 0.17790707483334639 0.108717475807441 0 0.1863063012760299 0.13452447328124051 0 0.18955202507108351 0.1171413593379248 0 0.17783643260735749 0.1225127171859311 0 0.18955202507108351 0.1171413593379248 0 0.17783643260735749 0.1225127171859311 0 0.17790707483334639 0.108717475807441 0 0.19102131456016919 0.097547375978838585 0 0.16793903811919611 0.09607125436630172 0 0.17790707483334639 0.108717475807441 0 0.19102131456016919 0.097547375978838585 0 0.18955202507108351 0.1171413593379248 0 0.17790707483334639 0.108717475807441 0 0.19102131456016919 0.097547375978838585 0 0.16793903811919611 0.09607125436630172 0 0.17764695756551541 0.082158892305793055 0 0.19102131456016919 0.097547375978838585 0 0.17764695756551541 0.082158892305793055 0 0.18676016297485939 0.078142941332178556 0 0.19102131456016919 0.097547375978838585 0 0.17764695756551541 0.082158892305793055 0 0.16793903811919611 0.09607125436630172 0 0.17764695756551541 0.082158892305793055 0 0.19109871272577969 0.062881261380471093 0 0.17764695756551541 0.082158892305793055 0 0.18116516464729979 0.06263327335945082 0 0.19109871272577969 0.062881261380471093 0 0.17764695756551541 0.082158892305793055 0 0.19109871272577969 0.062881261380471093 0 0.17764695756551541 0.082158892305793055 0 0.18676016297485939 0.078142941332178556 0 0.17764695756551541 0.082158892305793055 0 0.17371466567401059 0.064597790717582038 0 0.18116516464729979 0.06263327335945082 0 0.17764695756551541 0.082158892305793055 0 0.17371466567401059 0.064597790717582038 0 0.1641962157399425 0.066682520540345513 0 0.17764695756551541 0.082158892305793055 0 0.1641962157399425 0.066682520540345513 0 0.15903357501394419 0.081535364619346878 0 0.17764695756551541 0.082158892305793055 0 0.1641962157399425 0.066682520540345513 0 0.15053140112957031 0.069034046643129177 0 0.1641962157399425 0.066682520540345513 0 0.15903357501394419 0.081535364619346878 0 0.16793903811919611 0.09607125436630172 0 0.17764695756551541 0.082158892305793055 0 0.15903357501394419 0.081535364619346878 0 0.15361275353357379 0.096588386594316039 0 0.16793903811919611 0.09607125436630172 0 0.15903357501394419 0.081535364619346878 0 0.1068493768411113 0.48603830588319208 0 0.12323836067178991 0.47065116695772818 0 0.092925284705564659 0.47172856711693623 0 0.1068493768411113 0.48603830588319208 0 0.092925284705564659 0.47172856711693623 0 0.09097957402571627 0.5 0 0.1068493768411113 0.48603830588319208 0 0.1178816768867553 0.5 0 0.09097957402571627 0.5 0 0.1068493768411113 0.48603830588319208 0 0.1241007714524457 0.48680295532603451 0 0.1178816768867553 0.5 0 0.1068493768411113 0.48603830588319208 0 0.1241007714524457 0.48680295532603451 0 0.12323836067178991 0.47065116695772818 0 0.12323836067178991 0.47065116695772818 0 0.10614221313263141 0.44736306204676518 0 0.12892636665970561 0.43902645550605951 0 0.12323836067178991 0.47065116695772818 0 0.10614221313263141 0.44736306204676518 0 0.12323836067178991 0.47065116695772818 0 0.10614221313263141 0.44736306204676518 0 0.092925284705564659 0.47172856711693623 0 0.10614221313263141 0.44736306204676518 0 0.083719483497858252 0.45118312193164989 0 0.092925284705564659 0.47172856711693623 0 0.083719483497858252 0.45118312193164989 0 0.065615406261383943 0.46486531289913008 0 0.092925284705564659 0.47172856711693623 0 0.10614221313263141 0.44736306204676518 0 0.083719483497858252 0.45118312193164989 0 0.08595819210311241 0.43754561178221119 0 0.083719483497858252 0.45118312193164989 0 0.08595819210311241 0.43754561178221119 0 0.073952964552302575 0.43069959025518129 0 0.083719483497858252 0.45118312193164989 0 0.064973590431780137 0.44649614021131812 0 0.073952964552302575 0.43069959025518129 0 0.083719483497858252 0.45118312193164989 0 0.064973590431780137 0.44649614021131812 0 0.065615406261383943 0.46486531289913008 0 0.065615406261383943 0.46486531289913008 0 0.074503304229032646 0.48287358155265941 0 0.092925284705564659 0.47172856711693623 0 0.065615406261383943 0.46486531289913008 0 0.074503304229032646 0.48287358155265941 0 0.053468112371306359 0.48252734349861548 0 0.074503304229032646 0.48287358155265941 0 0.092925284705564659 0.47172856711693623 0 0.09097957402571627 0.5 0 0.074503304229032646 0.48287358155265941 0 0.09097957402571627 0.5 0 0.064077471164677158 0.5 0 0.074503304229032646 0.48287358155265941 0 0.064077471164677158 0.5 0 0.053468112371306359 0.48252734349861548 0 0.064077471164677158 0.5 0 0.053468112371306359 0.48252734349861548 0 0.03717536830363799 0.5 0 0.065615406261383943 0.46486531289913008 0 0.053468112371306359 0.48252734349861548 0 0.042389384991155153 0.46607370932769832 0 0.053468112371306359 0.48252734349861548 0 0.032011379105342547 0.48467472368740888 0 0.042389384991155153 0.46607370932769832 0 0.053468112371306359 0.48252734349861548 0 0.032011379105342547 0.48467472368740888 0 0.03717536830363799 0.5 0 0.032011379105342547 0.48467472368740888 0 0.03717536830363799 0.5 0 0.010273265442598991 0.5 0 0.032011379105342547 0.48467472368740888 0 0.016750764418014309 0.4747725656107305 0 0.010273265442598991 0.5 0 0.032011379105342547 0.48467472368740888 0 0.016750764418014309 0.4747725656107305 0 0.042389384991155153 0.46607370932769832 0 -0.004340580209444023 0.46220129804778243 0 -0.0054350175871107336 0.48279382027766488 0 0.016750764418014309 0.4747725656107305 0 -0.0054350175871107336 0.48279382027766488 0 0.016750764418014309 0.4747725656107305 0 0.010273265442598991 0.5 0 0.0020241585882910021 0.44491362090450992 0 0.018417958664884371 0.45481460013077563 0 0.019116556413342811 0.43315035466918378 0 -0.004340580209444023 0.46220129804778243 0 0.016750764418014309 0.4747725656107305 0 0.018417958664884371 0.45481460013077563 0 -0.004340580209444023 0.46220129804778243 0 0.0020241585882910021 0.44491362090450992 0 0.018417958664884371 0.45481460013077563 0 0.016750764418014309 0.4747725656107305 0 0.018417958664884371 0.45481460013077563 0 0.042389384991155153 0.46607370932769832 0 0.018417958664884371 0.45481460013077563 0 0.035255548186014347 0.44703765783754812 0 0.019116556413342811 0.43315035466918378 0 0.035255548186014347 0.44703765783754812 0 0.050136711950347593 0.45054322624500581 0 0.040485175124080112 0.43362854988458421 0 0.035255548186014347 0.44703765783754812 0 0.040485175124080112 0.43362854988458421 0 0.019116556413342811 0.43315035466918378 0 0.035255548186014347 0.44703765783754812 0 0.042389384991155153 0.46607370932769832 0 0.050136711950347593 0.45054322624500581 0 0.018417958664884371 0.45481460013077563 0 0.035255548186014347 0.44703765783754812 0 0.042389384991155153 0.46607370932769832 0 0.064973590431780137 0.44649614021131812 0 0.065615406261383943 0.46486531289913008 0 0.050136711950347593 0.45054322624500581 0 0.065615406261383943 0.46486531289913008 0 0.042389384991155153 0.46607370932769832 0 0.050136711950347593 0.45054322624500581 0 0.050136711950347593 0.45054322624500581 0 0.05529070097563242 0.4337958631047521 0 0.040485175124080112 0.43362854988458421 0 0.064973590431780137 0.44649614021131812 0 0.050136711950347593 0.45054322624500581 0 0.05529070097563242 0.4337958631047521 0 0.05529070097563242 0.4337958631047521 0 0.057622911559693728 0.42385895048710692 0 0.073952964552302575 0.43069959025518129 0 0.05529070097563242 0.4337958631047521 0 0.046290549618092883 0.42124018655273943 0 0.040485175124080112 0.43362854988458421 0 0.05529070097563242 0.4337958631047521 0 0.057622911559693728 0.42385895048710692 0 0.046290549618092883 0.42124018655273943 0 0.057622911559693728 0.42385895048710692 0 0.054957431092747082 0.40970016203575521 0 0.073952964552302575 0.43069959025518129 0 0.057622911559693728 0.42385895048710692 0 0.054957431092747082 0.40970016203575521 0 0.046290549618092883 0.42124018655273943 0 0.054957431092747082 0.40970016203575521 0 0.046290549618092883 0.42124018655273943 0 0.036378262296082153 0.40837542559582563 0 0.046290549618092883 0.42124018655273943 0 0.032976114095761677 0.42162608086505798 0 0.036378262296082153 0.40837542559582563 0 0.046290549618092883 0.42124018655273943 0 0.032976114095761677 0.42162608086505798 0 0.040485175124080112 0.43362854988458421 0 0.032976114095761677 0.42162608086505798 0 0.040485175124080112 0.43362854988458421 0 0.019116556413342811 0.43315035466918378 0 0.032976114095761677 0.42162608086505798 0 0.019116556413342811 0.43315035466918378 0 0.02026388090191614 0.41463605775173829 0 0.032976114095761677 0.42162608086505798 0 0.036378262296082153 0.40837542559582563 0 0.02026388090191614 0.41463605775173829 0 0.036378262296082153 0.40837542559582563 0 0.02026388090191614 0.41463605775173829 0 0.021573695797976071 0.40158244853968339 0 0.02026388090191614 0.41463605775173829 0 0.0054087579384110166 0.40598461484861859 0 0.021573695797976071 0.40158244853968339 0 0.019116556413342811 0.43315035466918378 0 0.02026388090191614 0.41463605775173829 0 0.0065717754234813699 0.41741688270778893 0 -0.0091804382033371483 0.41222952278972169 0 0.0065717754234813699 0.41741688270778893 0 0.0054087579384110166 0.40598461484861859 0 0.02026388090191614 0.41463605775173829 0 0.0065717754234813699 0.41741688270778893 0 0.0054087579384110166 0.40598461484861859 0 -0.0064344957635735804 0.43040173333671339 0 0.019116556413342811 0.43315035466918378 0 0.0065717754234813699 0.41741688270778893 0 -0.0064344957635735804 0.43040173333671339 0 0.0020241585882910021 0.44491362090450992 0 0.019116556413342811 0.43315035466918378 0 0.012569122975408289 0.37952543266275501 0 0.0023555539128062089 0.3839002311270559 0 0.0037264626103119878 0.37407226519092718 0 -0.0060300236740785012 0.37371420799543331 0 0.0023555539128062089 0.3839002311270559 0 0.0037264626103119878 0.37407226519092718 0 0.012569122975408289 0.37952543266275501 0 0.0023555539128062089 0.3839002311270559 0 0.0068759618994304614 0.3940424653362482 0 -0.0067579059378530208 0.39025638595133549 0 0.0023555539128062089 0.3839002311270559 0 0.0068759618994304614 0.3940424653362482 0 0.012569122975408289 0.37952543266275501 0 0.0068759618994304614 0.3940424653362482 0 0.021573695797976071 0.40158244853968339 0 0.0068759618994304614 0.3940424653362482 0 0.0054087579384110166 0.40598461484861859 0 0.021573695797976071 0.40158244853968339 0 -0.0061185097014542231 0.40144698938540729 0 0.0068759618994304614 0.3940424653362482 0 0.0054087579384110166 0.40598461484861859 0 0.035961897633191582 0.38870073381632908 0 0.016966364173636089 0.36770130559690301 0 0.012569122975408289 0.37952543266275501 0 0.035961897633191582 0.38870073381632908 0 0.016966364173636089 0.36770130559690301 0 0.012569122975408289 0.37952543266275501 0 0.021573695797976071 0.40158244853968339 0 0.035961897633191582 0.38870073381632908 0 0.012569122975408289 0.37952543266275501 0 0.021573695797976071 0.40158244853968339 0 0.035961897633191582 0.38870073381632908 0 0.05269873789976199 0.37393461431249408 0 0.039260696913718349 0.36662558082912922 0 0.036378262296082153 0.40837542559582563 0 0.021573695797976071 0.40158244853968339 0 0.035961897633191582 0.38870073381632908 0 0.054957431092747082 0.40970016203575521 0 0.035961897633191582 0.38870073381632908 0 0.054957431092747082 0.40970016203575521 0 0.036378262296082153 0.40837542559582563 0 0.035961897633191582 0.38870073381632908 0 0.054957431092747082 0.40970016203575521 0 0.035961897633191582 0.38870073381632908 0 0.058245084766789863 0.39678448602365007 0 0.054957431092747082 0.40970016203575521 0 0.058245084766789863 0.39678448602365007 0 0.063590410093674138 0.40885489307880551 0 0.035961897633191582 0.38870073381632908 0 0.058079597628565023 0.3860895790689749 0 0.05269873789976199 0.37393461431249408 0 0.035961897633191582 0.38870073381632908 0 0.058245084766789863 0.39678448602365007 0 0.058079597628565023 0.3860895790689749 0 0.058079597628565023 0.3860895790689749 0 0.065982613689184177 0.37575479291178748 0 0.05269873789976199 0.37393461431249408 0 0.058079597628565023 0.3860895790689749 0 0.065982613689184177 0.37575479291178748 0 0.078520784679780603 0.38542896102401358 0 0.058245084766789863 0.39678448602365007 0 0.058079597628565023 0.3860895790689749 0 0.078520784679780603 0.38542896102401358 0 0.065982613689184177 0.37575479291178748 0 0.078520784679780603 0.38542896102401358 0 0.075882453191489563 0.3689563039773775 0 0.078520784679780603 0.38542896102401358 0 0.09627127728601137 0.38724721813177038 0 0.093451159265887068 0.36200302896922171 0 0.086756266054913822 0.40044676569325388 0 0.09627127728601137 0.38724721813177038 0 0.097993284660989999 0.40469583994984393 0 0.078520784679780603 0.38542896102401358 0 0.086756266054913822 0.40044676569325388 0 0.09627127728601137 0.38724721813177038 0 0.078520784679780603 0.38542896102401358 0 0.086756266054913822 0.40044676569325388 0 0.071949918054314332 0.40078685222483917 0 0.078520784679780603 0.38542896102401358 0 0.063590410093674138 0.40885489307880551 0 0.058245084766789863 0.39678448602365007 0 0.078520784679780603 0.38542896102401358 0 0.063590410093674138 0.40885489307880551 0 0.078520784679780603 0.38542896102401358 0 0.071949918054314332 0.40078685222483917 0 0.063590410093674138 0.40885489307880551 0 0.071949918054314332 0.40078685222483917 0 0.063590410093674138 0.40885489307880551 0 0.089046065593472834 0.42407495713580212 0 0.054957431092747082 0.40970016203575521 0 0.073952964552302575 0.43069959025518129 0 0.063590410093674138 0.40885489307880551 0 0.073952964552302575 0.43069959025518129 0 0.089046065593472834 0.42407495713580212 0 0.054957431092747082 0.40970016203575521 0 0.063590410093674138 0.40885489307880551 0 0.073952964552302575 0.43069959025518129 0 0.064973590431780137 0.44649614021131812 0 0.05529070097563242 0.4337958631047521 0 0.073952964552302575 0.43069959025518129 0 0.10614221313263141 0.44736306204676518 0 0.08595819210311241 0.43754561178221119 0 0.089046065593472834 0.42407495713580212 0 0.08595819210311241 0.43754561178221119 0 0.073952964552302575 0.43069959025518129 0 0.089046065593472834 0.42407495713580212 0 0.071949918054314332 0.40078685222483917 0 0.089046065593472834 0.42407495713580212 0 0.086756266054913822 0.40044676569325388 0 0.071949918054314332 0.40078685222483917 0 0.089046065593472834 0.42407495713580212 0 0.086756266054913822 0.40044676569325388 0 0.089046065593472834 0.42407495713580212 0 0.097993284660989999 0.40469583994984393 0 0.1097443067324924 0.4197014882286465 0 0.11247009477842219 0.398190675978638 0 0.097993284660989999 0.40469583994984393 0 0.089046065593472834 0.42407495713580212 0 0.1097443067324924 0.4197014882286465 0 0.097993284660989999 0.40469583994984393 0 0.10614221313263141 0.44736306204676518 0 0.089046065593472834 0.42407495713580212 0 0.1097443067324924 0.4197014882286465 0 0.10614221313263141 0.44736306204676518 0 0.089046065593472834 0.42407495713580212 0 0.10614221313263141 0.44736306204676518 0 0.1097443067324924 0.4197014882286465 0 0.12892636665970561 0.43902645550605951 0 0.1097443067324924 0.4197014882286465 0 0.12750571582707829 0.40867207836759473 0 0.12892636665970561 0.43902645550605951 0 0.1097443067324924 0.4197014882286465 0 0.11247009477842219 0.398190675978638 0 0.12750571582707829 0.40867207836759473 0 0.11247009477842219 0.398190675978638 0 0.12598177383210971 0.38861039990777979 0 0.12750571582707829 0.40867207836759473 0 0.11247009477842219 0.398190675978638 0 0.11145727532920451 0.37642029770903063 0 0.12598177383210971 0.38861039990777979 0 0.11145727532920451 0.37642029770903063 0 0.13080935520494461 0.36829697561937191 0 0.12598177383210971 0.38861039990777979 0 0.11247009477842219 0.398190675978638 0 0.11145727532920451 0.37642029770903063 0 0.09627127728601137 0.38724721813177038 0 0.11145727532920451 0.37642029770903063 0 0.09627127728601137 0.38724721813177038 0 0.093451159265887068 0.36200302896922171 0 0.11247009477842219 0.398190675978638 0 0.09627127728601137 0.38724721813177038 0 0.097993284660989999 0.40469583994984393 0 0.1083815338519936 0.33857709691442961 0 0.093451159265887068 0.36200302896922171 0 0.094607416876361136 0.34507513914581911 0 0.1027710116108648 0.34076492523418922 0 0.093451159265887068 0.36200302896922171 0 0.1027710116108648 0.34076492523418922 0 0.1083815338519936 0.33857709691442961 0 0.093451159265887068 0.36200302896922171 0 0.1100364723137766 0.35610271933789223 0 0.1083815338519936 0.33857709691442961 0 0.093451159265887068 0.36200302896922171 0 0.11145727532920451 0.37642029770903063 0 0.1100364723137766 0.35610271933789223 0 0.093451159265887068 0.36200302896922171 0 0.11145727532920451 0.37642029770903063 0 0.1100364723137766 0.35610271933789223 0 0.13080935520494461 0.36829697561937191 0 0.1100364723137766 0.35610271933789223 0 0.12651701675666119 0.34991580431437957 0 0.13080935520494461 0.36829697561937191 0 0.1100364723137766 0.35610271933789223 0 0.11633778764978139 0.34602419869862272 0 0.12651701675666119 0.34991580431437957 0 0.1100364723137766 0.35610271933789223 0 0.11633778764978139 0.34602419869862272 0 0.1083815338519936 0.33857709691442961 0 0.11633778764978139 0.34602419869862272 0 0.1226995370225899 0.33650739931762869 0 0.12651701675666119 0.34991580431437957 0 0.11633778764978139 0.34602419869862272 0 0.1226995370225899 0.33650739931762869 0 0.1155999946629265 0.33486595372987121 0 0.1226995370225899 0.33650739931762869 0 0.1155999946629265 0.33486595372987121 0 0.1203477469969694 0.32304693779630522 0 0.1155999946629265 0.33486595372987121 0 0.1102333677932983 0.3301741359223696 0 0.1083815338519936 0.33857709691442961 0 0.1155999946629265 0.33486595372987121 0 0.1102333677932983 0.3301741359223696 0 0.1203477469969694 0.32304693779630522 0 0.11633778764978139 0.34602419869862272 0 0.1155999946629265 0.33486595372987121 0 0.1083815338519936 0.33857709691442961 0 0.1203477469969694 0.32304693779630522 0 0.1050334533955328 0.31551276974034848 0 0.1201507345630866 0.3058554142571176 0 0.1102333677932983 0.3301741359223696 0 0.1203477469969694 0.32304693779630522 0 0.1050334533955328 0.31551276974034848 0 0.1203477469969694 0.32304693779630522 0 0.1050334533955328 0.31551276974034848 0 0.1050334533955328 0.31551276974034848 0 0.094986204012973141 0.33422315807191488 0 0.086855258957734077 0.32675007072193218 0 0.1050334533955328 0.31551276974034848 0 0.1027710116108648 0.34076492523418922 0 0.1050334533955328 0.31551276974034848 0 0.1027710116108648 0.34076492523418922 0 0.094986204012973141 0.33422315807191488 0 0.1102333677932983 0.3301741359223696 0 0.1050334533955328 0.31551276974034848 0 0.1027710116108648 0.34076492523418922 0 0.1102333677932983 0.3301741359223696 0 0.1027710116108648 0.34076492523418922 0 0.1083815338519936 0.33857709691442961 0 0.094607416876361136 0.34507513914581911 0 0.1027710116108648 0.34076492523418922 0 0.094986204012973141 0.33422315807191488 0 0.094607416876361136 0.34507513914581911 0 0.094986204012973141 0.33422315807191488 0 0.087221292615719551 0.34330944430795057 0 0.094986204012973141 0.33422315807191488 0 0.087221292615719551 0.34330944430795057 0 0.086855258957734077 0.32675007072193218 0 0.087221292615719551 0.34330944430795057 0 0.086855258957734077 0.32675007072193218 0 0.073153016976213833 0.34043170397105371 0 0.1050334533955328 0.31551276974034848 0 0.086855258957734077 0.32675007072193218 0 0.078723637633447308 0.30256913821338449 0 0.086855258957734077 0.32675007072193218 0 0.073146668494898981 0.32567563928039611 0 0.078723637633447308 0.30256913821338449 0 0.073146668494898981 0.32567563928039611 0 0.061204150540803477 0.31916498031985552 0 0.078723637633447308 0.30256913821338449 0 0.073146668494898981 0.32567563928039611 0 0.0582678690639125 0.33362835995259382 0 0.061204150540803477 0.31916498031985552 0 0.086855258957734077 0.32675007072193218 0 0.073146668494898981 0.32567563928039611 0 0.073153016976213833 0.34043170397105371 0 0.073146668494898981 0.32567563928039611 0 0.073153016976213833 0.34043170397105371 0 0.0582678690639125 0.33362835995259382 0 0.073153016976213833 0.34043170397105371 0 0.05944769809612363 0.34896290742509928 0 0.0582678690639125 0.33362835995259382 0 0.076122952819057982 0.35486287453603499 0 0.064731495046323737 0.36436450617607707 0 0.05944769809612363 0.34896290742509928 0 0.073153016976213833 0.34043170397105371 0 0.076122952819057982 0.35486287453603499 0 0.05944769809612363 0.34896290742509928 0 0.094607416876361136 0.34507513914581911 0 0.087221292615719551 0.34330944430795057 0 0.093451159265887068 0.36200302896922171 0 0.087221292615719551 0.34330944430795057 0 0.073153016976213833 0.34043170397105371 0 0.076122952819057982 0.35486287453603499 0 0.087221292615719551 0.34330944430795057 0 0.076122952819057982 0.35486287453603499 0 0.093451159265887068 0.36200302896922171 0 0.078520784679780603 0.38542896102401358 0 0.093451159265887068 0.36200302896922171 0 0.075882453191489563 0.3689563039773775 0 0.078520784679780603 0.38542896102401358 0 0.093451159265887068 0.36200302896922171 0 0.076122952819057982 0.35486287453603499 0 0.093451159265887068 0.36200302896922171 0 0.075882453191489563 0.3689563039773775 0 0.076122952819057982 0.35486287453603499 0 0.075882453191489563 0.3689563039773775 0 0.064731495046323737 0.36436450617607707 0 0.065982613689184177 0.37575479291178748 0 0.075882453191489563 0.3689563039773775 0 0.064731495046323737 0.36436450617607707 0 0.065982613689184177 0.37575479291178748 0 0.064731495046323737 0.36436450617607707 0 0.05269873789976199 0.37393461431249408 0 0.064731495046323737 0.36436450617607707 0 0.051998631255521927 0.35973415456614383 0 0.05269873789976199 0.37393461431249408 0 0.051998631255521927 0.35973415456614383 0 0.05269873789976199 0.37393461431249408 0 0.039260696913718349 0.36662558082912922 0 0.064731495046323737 0.36436450617607707 0 0.051998631255521927 0.35973415456614383 0 0.05944769809612363 0.34896290742509928 0 0.051998631255521927 0.35973415456614383 0 0.05944769809612363 0.34896290742509928 0 0.043854528321681921 0.34478316408791898 0 0.043854528321681921 0.34478316408791898 0 0.039260696913718349 0.36662558082912922 0 0.029725856468755151 0.3469403677860245 0 0.039260696913718349 0.36662558082912922 0 0.0277984210909103 0.36063281827994992 0 0.029725856468755151 0.3469403677860245 0 0.051998631255521927 0.35973415456614383 0 0.043854528321681921 0.34478316408791898 0 0.039260696913718349 0.36662558082912922 0 0.035961897633191582 0.38870073381632908 0 0.039260696913718349 0.36662558082912922 0 0.016966364173636089 0.36770130559690301 0 0.039260696913718349 0.36662558082912922 0 0.016966364173636089 0.36770130559690301 0 0.0277984210909103 0.36063281827994992 0 0.016966364173636089 0.36770130559690301 0 0.0277984210909103 0.36063281827994992 0 0.0121761688193305 0.3600824395648734 0 0.0277984210909103 0.36063281827994992 0 0.029725856468755151 0.3469403677860245 0 0.018704093785987759 0.35273862570492431 0 0.029725856468755151 0.3469403677860245 0 0.018704093785987759 0.35273862570492431 0 0.01519852152060535 0.34545793732595759 0 0.0277984210909103 0.36063281827994992 0 0.018704093785987759 0.35273862570492431 0 0.0121761688193305 0.3600824395648734 0 0.018704093785987759 0.35273862570492431 0 0.01094810780095355 0.3517280093466984 0 0.0121761688193305 0.3600824395648734 0 0.01094810780095355 0.3517280093466984 0 0.0035645501528404591 0.35746841678582641 0 0.0121761688193305 0.3600824395648734 0 -0.0054400226697274047 0.33541140090889782 0 0.0035645501528404591 0.35746841678582641 0 0.0060876749424014047 0.34357184967201992 0 0.01094810780095355 0.3517280093466984 0 0.01519852152060535 0.34545793732595759 0 0.0060876749424014047 0.34357184967201992 0 0.018704093785987759 0.35273862570492431 0 0.01094810780095355 0.3517280093466984 0 0.01519852152060535 0.34545793732595759 0 0.01094810780095355 0.3517280093466984 0 0.0035645501528404591 0.35746841678582641 0 0.0060876749424014047 0.34357184967201992 0 -0.0001281653365701346 0.36623232152712493 0 0.0035645501528404591 0.35746841678582641 0 0.0037264626103119878 0.37407226519092718 0 0.012569122975408289 0.37952543266275501 0 0.0035645501528404591 0.35746841678582641 0 0.0037264626103119878 0.37407226519092718 0 0.012569122975408289 0.37952543266275501 0 0.0035645501528404591 0.35746841678582641 0 0.012569122975408289 0.37952543266275501 0 0.0035645501528404591 0.35746841678582641 0 0.0121761688193305 0.3600824395648734 0 0.012569122975408289 0.37952543266275501 0 0.016966364173636089 0.36770130559690301 0 0.0121761688193305 0.3600824395648734 0 -0.0001281653365701346 0.36623232152712493 0 -0.003086416064761489 0.35769091366622108 0 0.0035645501528404591 0.35746841678582641 0 0.0074894939598918369 0.31694079125964209 0 0.017836370091575699 0.32223746574438439 0 0.017590980223564069 0.3062627576846596 0 0.0074894939598918369 0.31694079125964209 0 0.0070395580998945549 0.33000477848004139 0 0.017836370091575699 0.32223746574438439 0 -0.00031268786957370712 0.30599346904104952 0 -0.0022319124022550829 0.32047502819239498 0 0.0074894939598918369 0.31694079125964209 0 -0.0022319124022550829 0.32047502819239498 0 0.0074894939598918369 0.31694079125964209 0 0.0070395580998945549 0.33000477848004139 0 0.0070395580998945549 0.33000477848004139 0 0.01916377489191709 0.33823365275147688 0 0.017836370091575699 0.32223746574438439 0 -0.0054400226697274047 0.33541140090889782 0 0.0070395580998945549 0.33000477848004139 0 0.0060876749424014047 0.34357184967201992 0 0.0070395580998945549 0.33000477848004139 0 0.0060876749424014047 0.34357184967201992 0 0.01916377489191709 0.33823365275147688 0 0.01519852152060535 0.34545793732595759 0 0.0060876749424014047 0.34357184967201992 0 0.01916377489191709 0.33823365275147688 0 0.029725856468755151 0.3469403677860245 0 0.01916377489191709 0.33823365275147688 0 0.037937687584213751 0.32208273444509722 0 0.029725856468755151 0.3469403677860245 0 0.01519852152060535 0.34545793732595759 0 0.01916377489191709 0.33823365275147688 0 0.017836370091575699 0.32223746574438439 0 0.037937687584213751 0.32208273444509722 0 0.017590980223564069 0.3062627576846596 0 0.01916377489191709 0.33823365275147688 0 0.017836370091575699 0.32223746574438439 0 0.037937687584213751 0.32208273444509722 0 0.043854528321681921 0.34478316408791898 0 0.037937687584213751 0.32208273444509722 0 0.043854528321681921 0.34478316408791898 0 0.029725856468755151 0.3469403677860245 0 0.037937687584213751 0.32208273444509722 0 0.043854528321681921 0.34478316408791898 0 0.037937687584213751 0.32208273444509722 0 0.0582678690639125 0.33362835995259382 0 0.05944769809612363 0.34896290742509928 0 0.043854528321681921 0.34478316408791898 0 0.0582678690639125 0.33362835995259382 0 0.037937687584213751 0.32208273444509722 0 0.061204150540803477 0.31916498031985552 0 0.052460028895314481 0.30656493289340631 0 0.037937687584213751 0.32208273444509722 0 0.0582678690639125 0.33362835995259382 0 0.061204150540803477 0.31916498031985552 0 0.052460028895314481 0.30656493289340631 0 0.052413821871362301 0.28962550668641901 0 0.078723637633447308 0.30256913821338449 0 0.052413821871362301 0.28962550668641901 0 0.026104006109277319 0.27668187515945353 0 0.052413821871362301 0.28962550668641901 0 0.032020846846745568 0.29938230480227529 0 0.026104006109277319 0.27668187515945353 0 0.052460028895314481 0.30656493289340631 0 0.052413821871362301 0.28962550668641901 0 0.032020846846745568 0.29938230480227529 0 0.037937687584213751 0.32208273444509722 0 0.032020846846745568 0.29938230480227529 0 0.037937687584213751 0.32208273444509722 0 0.052460028895314481 0.30656493289340631 0 0.032020846846745568 0.29938230480227529 0 0.037937687584213751 0.32208273444509722 0 0.032020846846745568 0.29938230480227529 0 0.017590980223564069 0.3062627576846596 0 0.032020846846745568 0.29938230480227529 0 0.017590980223564069 0.3062627576846596 0 0.019188541388420261 0.29131240361513522 0 0.032020846846745568 0.29938230480227529 0 0.026104006109277319 0.27668187515945353 0 0.032020846846745568 0.29938230480227529 0 0.019188541388420261 0.29131240361513522 0 0.026104006109277319 0.27668187515945353 0 0.019188541388420261 0.29131240361513522 0 0.01253933821368285 0.28182976273277849 0 0.026104006109277319 0.27668187515945353 0 0.017590980223564069 0.3062627576846596 0 0.019188541388420261 0.29131240361513522 0 0.007687535548831493 0.29240531769650913 0 0.019188541388420261 0.29131240361513522 0 0.01253933821368285 0.28182976273277849 0 0.007687535548831493 0.29240531769650913 0 -0.00058824932322706057 0.28049934236947061 0 0.01253933821368285 0.28182976273277849 0 0.007687535548831493 0.29240531769650913 0 -0.00031268786957370712 0.30599346904104952 0 0.017590980223564069 0.3062627576846596 0 0.007687535548831493 0.29240531769650913 0 -0.00031268786957370712 0.30599346904104952 0 0.0074894939598918369 0.31694079125964209 0 0.017590980223564069 0.3062627576846596 0 -0.0097045602921192395 0.25906514636135641 0 0.0032882937976513949 0.25334643695700099 0 0.0089047792857808797 0.26822037711761382 0 0.014545634462657 0.25876512841444788 0 0.0032882937976513949 0.25334643695700099 0 0.0089047792857808797 0.26822037711761382 0 0.014545634462657 0.25876512841444788 0 0.0089047792857808797 0.26822037711761382 0 0.023206027963639238 0.26556355172969931 0 0.010287840802467691 0.2474845300597478 0 0.014545634462657 0.25876512841444788 0 0.0032882937976513949 0.25334643695700099 0 0.018785603132313949 0.24860424061635039 0 0.010287840802467691 0.2474845300597478 0 0.014545634462657 0.25876512841444788 0 -0.00058824932322706057 0.28049934236947061 0 0.01253933821368285 0.28182976273277849 0 0.0089047792857808797 0.26822037711761382 0 0.0089047792857808797 0.26822037711761382 0 0.026104006109277319 0.27668187515945353 0 0.0089047792857808797 0.26822037711761382 0 0.026104006109277319 0.27668187515945353 0 0.023206027963639238 0.26556355172969931 0 0.01253933821368285 0.28182976273277849 0 0.0089047792857808797 0.26822037711761382 0 0.026104006109277319 0.27668187515945353 0 0.0089047792857808797 0.26822037711761382 0 0.023206027963639238 0.26556355172969931 0 0.026104006109277319 0.27668187515945353 0 0.023206027963639238 0.26556355172969931 0 0.026104006109277319 0.27668187515945353 0 0.030999868421506298 0.26934868629517089 0 0.023206027963639238 0.26556355172969931 0 0.030999868421506298 0.26934868629517089 0 0.02601876707736011 0.26504101297415089 0 0.023206027963639238 0.26556355172969931 0 0.018785603132313949 0.24860424061635039 0 0.023206027963639238 0.26556355172969931 0 0.028118277550723301 0.25681089790061867 0 0.018785603132313949 0.24860424061635039 0 0.023206027963639238 0.26556355172969931 0 0.02601876707736011 0.26504101297415089 0 0.023206027963639238 0.26556355172969931 0 0.028118277550723301 0.25681089790061867 0 0.02601876707736011 0.26504101297415089 0 0.028118277550723301 0.25681089790061867 0 0.037793861589890662 0.26026543663705581 0 0.018785603132313949 0.24860424061635039 0 0.014545634462657 0.25876512841444788 0 0.023206027963639238 0.26556355172969931 0 0.02601876707736011 0.26504101297415089 0 0.023206027963639238 0.26556355172969931 0 0.034787127990412572 0.2445802475458374 0 0.028118277550723301 0.25681089790061867 0 0.037793861589890662 0.26026543663705581 0 0.034787127990412572 0.2445802475458374 0 0.037793861589890662 0.26026543663705581 0 0.052091199104034591 0.25013440876738641 0 0.030999868421506298 0.26934868629517089 0 0.02601876707736011 0.26504101297415089 0 0.037793861589890662 0.26026543663705581 0 0.052413821871362301 0.28962550668641901 0 0.026104006109277319 0.27668187515945353 0 0.040445899805915557 0.27211436976329378 0 0.037793861589890662 0.26026543663705581 0 0.040445899805915557 0.27211436976329378 0 0.055366350339306758 0.26578330071495909 0 0.030999868421506298 0.26934868629517089 0 0.037793861589890662 0.26026543663705581 0 0.040445899805915557 0.27211436976329378 0 0.026104006109277319 0.27668187515945353 0 0.030999868421506298 0.26934868629517089 0 0.040445899805915557 0.27211436976329378 0 0.052413821871362301 0.28962550668641901 0 0.055366350339306758 0.26578330071495909 0 0.071678942509617358 0.27709867939161281 0 0.052413821871362301 0.28962550668641901 0 0.040445899805915557 0.27211436976329378 0 0.055366350339306758 0.26578330071495909 0 0.037793861589890662 0.26026543663705581 0 0.055366350339306758 0.26578330071495909 0 0.052091199104034591 0.25013440876738641 0 0.055366350339306758 0.26578330071495909 0 0.052091199104034591 0.25013440876738641 0 0.078032130690699947 0.25427537826295732 0 0.078032130690699947 0.25427537826295732 0 0.090507947348987081 0.27565188012367797 0 0.10992443325655819 0.26092228931128542 0 0.078032130690699947 0.25427537826295732 0 0.090507947348987081 0.27565188012367797 0 0.071678942509617358 0.27709867939161281 0 0.055366350339306758 0.26578330071495909 0 0.078032130690699947 0.25427537826295732 0 0.071678942509617358 0.27709867939161281 0 0.052413821871362301 0.28962550668641901 0 0.071678942509617358 0.27709867939161281 0 0.078723637633447308 0.30256913821338449 0 0.052413821871362301 0.28962550668641901 0 0.078723637633447308 0.30256913821338449 0 0.061204150540803477 0.31916498031985552 0 0.052460028895314481 0.30656493289340631 0 0.078723637633447308 0.30256913821338449 0 0.1050334533955328 0.31551276974034848 0 0.078723637633447308 0.30256913821338449 0 0.090507947348987081 0.27565188012367797 0 0.078723637633447308 0.30256913821338449 0 0.10747894332604579 0.28821752952581697 0 0.090507947348987081 0.27565188012367797 0 0.071678942509617358 0.27709867939161281 0 0.078723637633447308 0.30256913821338449 0 0.1050334533955328 0.31551276974034848 0 0.078723637633447308 0.30256913821338449 0 0.10747894332604579 0.28821752952581697 0 0.1050334533955328 0.31551276974034848 0 0.10747894332604579 0.28821752952581697 0 0.1050334533955328 0.31551276974034848 0 0.10747894332604579 0.28821752952581697 0 0.1201507345630866 0.3058554142571176 0 0.10747894332604579 0.28821752952581697 0 0.13197540033617189 0.27296431278833477 0 0.13055559397334141 0.29271680185437232 0 0.10747894332604579 0.28821752952581697 0 0.1201507345630866 0.3058554142571176 0 0.13055559397334141 0.29271680185437232 0 0.10747894332604579 0.28821752952581697 0 0.10992443325655819 0.26092228931128542 0 0.13197540033617189 0.27296431278833477 0 0.12651619231424621 0.24576035123215559 0 0.10992443325655819 0.26092228931128542 0 0.13197540033617189 0.27296431278833477 0 0.090507947348987081 0.27565188012367797 0 0.10747894332604579 0.28821752952581697 0 0.10992443325655819 0.26092228931128542 0 0.10747894332604579 0.28821752952581697 0 0.10992443325655819 0.26092228931128542 0 0.15154017670524861 0.27310435428272661 0 0.13197540033617189 0.27296431278833477 0 0.15048719814122299 0.29419407290978422 0 0.15154017670524861 0.27310435428272661 0 0.14769841845077999 0.25452448218607071 0 0.13197540033617189 0.27296431278833477 0 0.15154017670524861 0.27310435428272661 0 0.14769841845077999 0.25452448218607071 0 0.16924321799238021 0.26491489671432622 0 0.12651619231424621 0.24576035123215559 0 0.14769841845077999 0.25452448218607071 0 0.13197540033617189 0.27296431278833477 0 0.13197540033617189 0.27296431278833477 0 0.13055559397334141 0.29271680185437232 0 0.15048719814122299 0.29419407290978422 0 0.13055559397334141 0.29271680185437232 0 0.1366452203079172 0.31074551327262301 0 0.15048719814122299 0.29419407290978422 0 0.1201507345630866 0.3058554142571176 0 0.13055559397334141 0.29271680185437232 0 0.1366452203079172 0.31074551327262301 0 0.1366452203079172 0.31074551327262301 0 0.15048719814122299 0.29419407290978422 0 0.15386608762522311 0.31490508855545851 0 0.15154017670524861 0.27310435428272661 0 0.15048719814122299 0.29419407290978422 0 0.17572647432834121 0.28944518265857522 0 0.15048719814122299 0.29419407290978422 0 0.16740433099307311 0.30716709132898262 0 0.15386608762522311 0.31490508855545851 0 0.15048719814122299 0.29419407290978422 0 0.16740433099307311 0.30716709132898262 0 0.17572647432834121 0.28944518265857522 0 0.16740433099307311 0.30716709132898262 0 0.17572647432834121 0.28944518265857522 0 0.18367037401917921 0.31476808899076708 0 0.17572647432834121 0.28944518265857522 0 0.20081471654358249 0.30551211930423988 0 0.18367037401917921 0.31476808899076708 0 0.17572647432834121 0.28944518265857522 0 0.16924321799238021 0.26491489671432622 0 0.18784361231806129 0.27267665327429219 0 0.15154017670524861 0.27310435428272661 0 0.17572647432834121 0.28944518265857522 0 0.16924321799238021 0.26491489671432622 0 0.16556865526627371 0.24620973951318789 0 0.14769841845077999 0.25452448218607071 0 0.16924321799238021 0.26491489671432622 0 0.16924321799238021 0.26491489671432622 0 0.18912111435558529 0.25366577835694148 0 0.18784361231806129 0.27267665327429219 0 0.16556865526627371 0.24620973951318789 0 0.16924321799238021 0.26491489671432622 0 0.18912111435558529 0.25366577835694148 0 0.18912111435558529 0.25366577835694148 0 0.18784361231806129 0.27267665327429219 0 0.21195126078018589 0.26214046876334168 0 0.18784361231806129 0.27267665327429219 0 0.21195126078018589 0.26214046876334168 0 0.20471831883303859 0.28463956031358412 0 0.21195126078018589 0.26214046876334168 0 0.23482961604171829 0.27673815436637378 0 0.20471831883303859 0.28463956031358412 0 0.2365715531808652 0.24932808594470679 0 0.21195126078018589 0.26214046876334168 0 0.23482961604171829 0.27673815436637378 0 0.23482961604171829 0.27673815436637378 0 0.25149971695118623 0.28521009657621649 0 0.25661403247326953 0.26420222917996627 0 0.2365715531808652 0.24932808594470679 0 0.23482961604171829 0.27673815436637378 0 0.25661403247326953 0.26420222917996627 0 0.2365715531808652 0.24932808594470679 0 0.23482961604171829 0.27673815436637378 0 0.23308767890257129 0.30414822278804088 0 0.25149971695118623 0.28521009657621649 0 0.25332419955554281 0.30222715689358071 0 0.23308767890257129 0.30414822278804088 0 0.2437612008273625 0.31570273796245441 0 0.25332419955554281 0.30222715689358071 0 0.23482961604171829 0.27673815436637378 0 0.23308767890257129 0.30414822278804088 0 0.25149971695118623 0.28521009657621649 0 0.23482961604171829 0.27673815436637378 0 0.23308767890257129 0.30414822278804088 0 0.23482961604171829 0.27673815436637378 0 0.21723394331906659 0.29824149020201812 0 0.20471831883303859 0.28463956031358412 0 0.23482961604171829 0.27673815436637378 0 0.23308767890257129 0.30414822278804088 0 0.21723394331906659 0.29824149020201812 0 0.23308767890257129 0.30414822278804088 0 0.21723394331906659 0.29824149020201812 0 0.21369250758541081 0.31663750882359182 0 0.21723394331906659 0.29824149020201812 0 0.20081471654358249 0.30551211930423988 0 0.21369250758541081 0.31663750882359182 0 0.21723394331906659 0.29824149020201812 0 0.20471831883303859 0.28463956031358412 0 0.20081471654358249 0.30551211930423988 0 0.17572647432834121 0.28944518265857522 0 0.18784361231806129 0.27267665327429219 0 0.20471831883303859 0.28463956031358412 0 0.17572647432834121 0.28944518265857522 0 0.20471831883303859 0.28463956031358412 0 0.20081471654358249 0.30551211930423988 0 0.1978085693063158 0.32100381666250832 0 0.18619878480455679 0.33735490577321869 0 0.18367037401917921 0.31476808899076708 0 0.20081471654358249 0.30551211930423988 0 0.1978085693063158 0.32100381666250832 0 0.18367037401917921 0.31476808899076708 0 0.1978085693063158 0.32100381666250832 0 0.20520447950225609 0.3328511207224748 0 0.18619878480455679 0.33735490577321869 0 0.20520447950225609 0.3328511207224748 0 0.20417358296861099 0.34794698948654001 0 0.18619878480455679 0.33735490577321869 0 0.20520447950225609 0.3328511207224748 0 0.21966268675744141 0.34492582013431611 0 0.20417358296861099 0.34794698948654001 0 0.20520447950225609 0.3328511207224748 0 0.2178284024977076 0.33074736557884699 0 0.21966268675744141 0.34492582013431611 0 0.20520447950225609 0.3328511207224748 0 0.2178284024977076 0.33074736557884699 0 0.21369250758541081 0.31663750882359182 0 0.20081471654358249 0.30551211930423988 0 0.1978085693063158 0.32100381666250832 0 0.21369250758541081 0.31663750882359182 0 0.1978085693063158 0.32100381666250832 0 0.20520447950225609 0.3328511207224748 0 0.21369250758541081 0.31663750882359182 0 0.2178284024977076 0.33074736557884699 0 0.21369250758541081 0.31663750882359182 0 0.2240892919293816 0.32267080984775792 0 0.23308767890257129 0.30414822278804088 0 0.2342036159823401 0.32718444537053593 0 0.2313457417634244 0.33155829120970792 0 0.23308767890257129 0.30414822278804088 0 0.2240892919293816 0.32267080984775792 0 0.2313457417634244 0.33155829120970792 0 0.23308767890257129 0.30414822278804088 0 0.2313457417634244 0.33155829120970792 0 0.23308767890257129 0.30414822278804088 0 0.21369250758541081 0.31663750882359182 0 0.2240892919293816 0.32267080984775792 0 0.2178284024977076 0.33074736557884699 0 0.2240892919293816 0.32267080984775792 0 0.2244921288977938 0.33026266083860217 0 0.2178284024977076 0.33074736557884699 0 0.22497853646699251 0.33536927803281857 0 0.2244921288977938 0.33026266083860217 0 0.2178284024977076 0.33074736557884699 0 0.22497853646699251 0.33536927803281857 0 0.21966268675744141 0.34492582013431611 0 0.22497853646699251 0.33536927803281857 0 0.23104309886212249 0.33937475087765562 0 0.21966268675744141 0.34492582013431611 0 0.23104309886212249 0.33937475087765562 0 0.2313457417634244 0.33155829120970792 0 0.23715380129226349 0.33752187487945717 0 0.23104309886212249 0.33937475087765562 0 0.23715380129226349 0.33752187487945717 0 0.23467770854012751 0.34781814846528908 0 0.2342036159823401 0.32718444537053593 0 0.2313457417634244 0.33155829120970792 0 0.23715380129226349 0.33752187487945717 0 0.22497853646699251 0.33536927803281857 0 0.23104309886212249 0.33937475087765562 0 0.2313457417634244 0.33155829120970792 0 0.2240892919293816 0.32267080984775792 0 0.2244921288977938 0.33026266083860217 0 0.2313457417634244 0.33155829120970792 0 0.22497853646699251 0.33536927803281857 0 0.2244921288977938 0.33026266083860217 0 0.2313457417634244 0.33155829120970792 0 0.2342036159823401 0.32718444537053593 0 0.24968129952137899 0.33994165754885408 0 0.2342036159823401 0.32718444537053593 0 0.23715380129226349 0.33752187487945717 0 0.24968129952137899 0.33994165754885408 0 0.23715380129226349 0.33752187487945717 0 0.24968129952137899 0.33994165754885408 0 0.23467770854012751 0.34781814846528908 0 0.2342036159823401 0.32718444537053593 0 0.24968129952137899 0.33994165754885408 0 0.24803326784264729 0.32568600464393133 0 0.23308767890257129 0.30414822278804088 0 0.2342036159823401 0.32718444537053593 0 0.2437612008273625 0.31570273796245441 0 0.24803326784264729 0.32568600464393133 0 0.2437612008273625 0.31570273796245441 0 0.25485871403888177 0.31656429123597951 0 0.2342036159823401 0.32718444537053593 0 0.24803326784264729 0.32568600464393133 0 0.2437612008273625 0.31570273796245441 0 0.24767035102701049 0.35597035844164499 0 0.23018534944297489 0.36127813385809981 0 0.25278330101459429 0.37477242137885319 0 0.23018534944297489 0.36127813385809981 0 0.2282325653979059 0.38114315662589049 0 0.25278330101459429 0.37477242137885319 0 0.24968129952137899 0.33994165754885408 0 0.24767035102701049 0.35597035844164499 0 0.23467770854012751 0.34781814846528908 0 0.24767035102701049 0.35597035844164499 0 0.23467770854012751 0.34781814846528908 0 0.23018534944297489 0.36127813385809981 0 0.21966268675744141 0.34492582013431611 0 0.23018534944297489 0.36127813385809981 0 0.2118869272070171 0.36260118566752908 0 0.23467770854012751 0.34781814846528908 0 0.21966268675744141 0.34492582013431611 0 0.23018534944297489 0.36127813385809981 0 0.23104309886212249 0.33937475087765562 0 0.23467770854012751 0.34781814846528908 0 0.21966268675744141 0.34492582013431611 0 0.23018534944297489 0.36127813385809981 0 0.2118869272070171 0.36260118566752908 0 0.2282325653979059 0.38114315662589049 0 0.2118869272070171 0.36260118566752908 0 0.19487898381442581 0.36100959447736758 0 0.20561731243694961 0.38144503565142462 0 0.2118869272070171 0.36260118566752908 0 0.20417358296861099 0.34794698948654001 0 0.19487898381442581 0.36100959447736758 0 0.21966268675744141 0.34492582013431611 0 0.2118869272070171 0.36260118566752908 0 0.20417358296861099 0.34794698948654001 0 0.20417358296861099 0.34794698948654001 0 0.19487898381442581 0.36100959447736758 0 0.18619878480455679 0.33735490577321869 0 0.19487898381442581 0.36100959447736758 0 0.18606326378002969 0.37946497221598591 0 0.20561731243694961 0.38144503565142462 0 0.19487898381442581 0.36100959447736758 0 0.17469275098302081 0.36065430633829149 0 0.18606326378002969 0.37946497221598591 0 0.17469275098302081 0.36065430633829149 0 0.16578866856660149 0.37655666449025182 0 0.18606326378002969 0.37946497221598591 0 0.17469275098302081 0.36065430633829149 0 0.15057612659885361 0.36580276674940959 0 0.16578866856660149 0.37655666449025182 0 0.17469275098302081 0.36065430633829149 0 0.16465067833365729 0.34373693432351549 0 0.15057612659885361 0.36580276674940959 0 0.19487898381442581 0.36100959447736758 0 0.17469275098302081 0.36065430633829149 0 0.18619878480455679 0.33735490577321869 0 0.17469275098302081 0.36065430633829149 0 0.18619878480455679 0.33735490577321869 0 0.16465067833365729 0.34373693432351549 0 0.18619878480455679 0.33735490577321869 0 0.16933261496601429 0.32616617046884822 0 0.16465067833365729 0.34373693432351549 0 0.18619878480455679 0.33735490577321869 0 0.18367037401917921 0.31476808899076708 0 0.16933261496601429 0.32616617046884822 0 0.16740433099307311 0.30716709132898262 0 0.18367037401917921 0.31476808899076708 0 0.16933261496601429 0.32616617046884822 0 0.16933261496601429 0.32616617046884822 0 0.15251820174692529 0.33092360765822648 0 0.15386608762522311 0.31490508855545851 0 0.16740433099307311 0.30716709132898262 0 0.16933261496601429 0.32616617046884822 0 0.15386608762522311 0.31490508855545851 0 0.16933261496601429 0.32616617046884822 0 0.16465067833365729 0.34373693432351549 0 0.15251820174692529 0.33092360765822648 0 0.16465067833365729 0.34373693432351549 0 0.15251820174692529 0.33092360765822648 0 0.14574825564551069 0.34782608067846732 0 0.15251820174692529 0.33092360765822648 0 0.1356620405984067 0.33058110585226042 0 0.14574825564551069 0.34782608067846732 0 0.1366452203079172 0.31074551327262301 0 0.1447254520611658 0.32144819187175228 0 0.15386608762522311 0.31490508855545851 0 0.15251820174692529 0.33092360765822648 0 0.1447254520611658 0.32144819187175228 0 0.1356620405984067 0.33058110585226042 0 0.15251820174692529 0.33092360765822648 0 0.1447254520611658 0.32144819187175228 0 0.15386608762522311 0.31490508855545851 0 0.1366452203079172 0.31074551327262301 0 0.1447254520611658 0.32144819187175228 0 0.1356620405984067 0.33058110585226042 0 0.1203477469969694 0.32304693779630522 0 0.1201507345630866 0.3058554142571176 0 0.1366452203079172 0.31074551327262301 0 0.1203477469969694 0.32304693779630522 0 0.1366452203079172 0.31074551327262301 0 0.1356620405984067 0.33058110585226042 0 0.1203477469969694 0.32304693779630522 0 0.1356620405984067 0.33058110585226042 0 0.1226995370225899 0.33650739931762869 0 0.1356620405984067 0.33058110585226042 0 0.12651701675666119 0.34991580431437957 0 0.1356620405984067 0.33058110585226042 0 0.12651701675666119 0.34991580431437957 0 0.14574825564551069 0.34782608067846732 0 0.1226995370225899 0.33650739931762869 0 0.1203477469969694 0.32304693779630522 0 0.1356620405984067 0.33058110585226042 0 0.12651701675666119 0.34991580431437957 0 0.13080935520494461 0.36829697561937191 0 0.14574825564551069 0.34782608067846732 0 0.13080935520494461 0.36829697561937191 0 0.15057612659885361 0.36580276674940959 0 0.14574825564551069 0.34782608067846732 0 0.16465067833365729 0.34373693432351549 0 0.15057612659885361 0.36580276674940959 0 0.14574825564551069 0.34782608067846732 0 0.13080935520494461 0.36829697561937191 0 0.15057612659885361 0.36580276674940959 0 0.14766642802089899 0.39147197186426402 0 0.15057612659885361 0.36580276674940959 0 0.14766642802089899 0.39147197186426402 0 0.16578866856660149 0.37655666449025182 0 0.13080935520494461 0.36829697561937191 0 0.14766642802089899 0.39147197186426402 0 0.12598177383210971 0.38861039990777979 0 0.14766642802089899 0.39147197186426402 0 0.12598177383210971 0.38861039990777979 0 0.12750571582707829 0.40867207836759473 0 0.14766642802089899 0.39147197186426402 0 0.12750571582707829 0.40867207836759473 0 0.14593242979214849 0.42363279219254929 0 0.14766642802089899 0.39147197186426402 0 0.14593242979214849 0.42363279219254929 0 0.1653032825019857 0.41076039406085457 0 0.12750571582707829 0.40867207836759473 0 0.14593242979214849 0.42363279219254929 0 0.12892636665970561 0.43902645550605951 0 0.14593242979214849 0.42363279219254929 0 0.16455042121829849 0.43093378368812069 0 0.14926732751230951 0.443602183875766 0 0.14593242979214849 0.42363279219254929 0 0.14926732751230951 0.443602183875766 0 0.12892636665970561 0.43902645550605951 0 0.14593242979214849 0.42363279219254929 0 0.1653032825019857 0.41076039406085457 0 0.16455042121829849 0.43093378368812069 0 0.16455042121829849 0.43093378368812069 0 0.18673907840918419 0.43102963164907171 0 0.16462756880409651 0.44756259004275378 0 0.1653032825019857 0.41076039406085457 0 0.16455042121829849 0.43093378368812069 0 0.18673907840918419 0.43102963164907171 0 0.1653032825019857 0.41076039406085457 0 0.18673907840918419 0.43102963164907171 0 0.19419326688984781 0.4050225958168302 0 0.1653032825019857 0.41076039406085457 0 0.17439273919349771 0.39402978748007139 0 0.19419326688984781 0.4050225958168302 0 0.17439273919349771 0.39402978748007139 0 0.18606326378002969 0.37946497221598591 0 0.19419326688984781 0.4050225958168302 0 0.14766642802089899 0.39147197186426402 0 0.1653032825019857 0.41076039406085457 0 0.17439273919349771 0.39402978748007139 0 0.14766642802089899 0.39147197186426402 0 0.17439273919349771 0.39402978748007139 0 0.16578866856660149 0.37655666449025182 0 0.17439273919349771 0.39402978748007139 0 0.16578866856660149 0.37655666449025182 0 0.18606326378002969 0.37946497221598591 0 0.18606326378002969 0.37946497221598591 0 0.19419326688984781 0.4050225958168302 0 0.20561731243694961 0.38144503565142462 0 0.19419326688984781 0.4050225958168302 0 0.21830345092121969 0.40042421581201731 0 0.20561731243694961 0.38144503565142462 0 0.2118869272070171 0.36260118566752908 0 0.20561731243694961 0.38144503565142462 0 0.2282325653979059 0.38114315662589049 0 0.21830345092121969 0.40042421581201731 0 0.20561731243694961 0.38144503565142462 0 0.2282325653979059 0.38114315662589049 0 0.21830345092121969 0.40042421581201731 0 0.2404076189687713 0.39684597303053443 0 0.22803193692294829 0.41891952468221538 0 0.21830345092121969 0.40042421581201731 0 0.2282325653979059 0.38114315662589049 0 0.2404076189687713 0.39684597303053443 0 0.2404076189687713 0.39684597303053443 0 0.25278330101459429 0.37477242137885319 0 0.2282325653979059 0.38114315662589049 0 0.2404076189687713 0.39684597303053443 0 0.25278330101459429 0.37477242137885319 0 0.22803193692294829 0.41891952468221538 0 0.23662950305351529 0.43824583636240733 0 0.25509106714857549 0.4209255273478375 0 0.2404076189687713 0.39684597303053443 0 0.22803193692294829 0.41891952468221538 0 0.25509106714857549 0.4209255273478375 0 0.2404076189687713 0.39684597303053443 0 0.22803193692294829 0.41891952468221538 0 0.22803193692294829 0.41891952468221538 0 0.21565625487712531 0.44099307633389662 0 0.23662950305351529 0.43824583636240733 0 0.22803193692294829 0.41891952468221538 0 0.21565625487712531 0.44099307633389662 0 0.20639321888346721 0.42388104045408942 0 0.19543532528047841 0.44689719843050568 0 0.21565625487712531 0.44099307633389662 0 0.22803193692294829 0.41891952468221538 0 0.20639321888346721 0.42388104045408942 0 0.21565625487712531 0.44099307633389662 0 0.19419326688984781 0.4050225958168302 0 0.21830345092121969 0.40042421581201731 0 0.20639321888346721 0.42388104045408942 0 0.21830345092121969 0.40042421581201731 0 0.22803193692294829 0.41891952468221538 0 0.20639321888346721 0.42388104045408942 0 0.18673907840918419 0.43102963164907171 0 0.19419326688984781 0.4050225958168302 0 0.18673907840918419 0.43102963164907171 0 0.19419326688984781 0.4050225958168302 0 0.20639321888346721 0.42388104045408942 0 0.18673907840918419 0.43102963164907171 0 0.20639321888346721 0.42388104045408942 0 0.19543532528047841 0.44689719843050568 0 0.19543532528047841 0.44689719843050568 0 0.1898019130405311 0.46406215018423541 0 0.20328057283130219 0.46306662798557757 0 0.19543532528047841 0.44689719843050568 0 0.1898019130405311 0.46406215018423541 0 0.17928488992852051 0.45703666748131322 0 0.1898019130405311 0.46406215018423541 0 0.20328057283130219 0.46306662798557757 0 0.19577864860588351 0.47475932119625308 0 0.20328057283130219 0.46306662798557757 0 0.2197265957639086 0.46647493907895038 0 0.19577864860588351 0.47475932119625308 0 0.20328057283130219 0.46306662798557757 0 0.21565625487712531 0.44099307633389662 0 0.2197265957639086 0.46647493907895038 0 0.20328057283130219 0.46306662798557757 0 0.21565625487712531 0.44099307633389662 0 0.19543532528047841 0.44689719843050568 0 0.20328057283130219 0.46306662798557757 0 0.21565625487712531 0.44099307633389662 0 0.21565625487712531 0.44099307633389662 0 0.22892172415412071 0.45097610218422551 0 0.2197265957639086 0.46647493907895038 0 0.21565625487712531 0.44099307633389662 0 0.22892172415412071 0.45097610218422551 0 0.23662950305351529 0.43824583636240733 0 0.22892172415412071 0.45097610218422551 0 0.2197265957639086 0.46647493907895038 0 0.2436745429219338 0.45819055696164779 0 0.2197265957639086 0.46647493907895038 0 0.2436745429219338 0.45819055696164779 0 0.23739745349920599 0.48009524162999578 0 0.2197265957639086 0.46647493907895038 0 0.2436745429219338 0.45819055696164779 0 0.2436745429219338 0.45819055696164779 0 0.23662950305351529 0.43824583636240733 0 0.26762249007995897 0.44990617484434509 0 0.22892172415412071 0.45097610218422551 0 0.2436745429219338 0.45819055696164779 0 0.23662950305351529 0.43824583636240733 0 0.23739745349920599 0.48009524162999578 0 0.22770123317057531 0.5 0 0.2553403843115023 0.5 0 0.2436745429219338 0.45819055696164779 0 0.23739745349920599 0.48009524162999578 0 0.26180942821198788 0.47661657988674089 0 0.2197265957639086 0.46647493907895038 0 0.23739745349920599 0.48009524162999578 0 0.21140022317437951 0.48504986101038389 0 0.23739745349920599 0.48009524162999578 0 0.22770123317057531 0.5 0 0.21140022317437951 0.48504986101038389 0 0.22770123317057531 0.5 0 0.21140022317437951 0.48504986101038389 0 0.20006208202964831 0.5 0 0.2197265957639086 0.46647493907895038 0 0.21140022317437951 0.48504986101038389 0 0.19577864860588351 0.47475932119625308 0 0.2197265957639086 0.46647493907895038 0 0.19577864860588351 0.47475932119625308 0 0.21140022317437951 0.48504986101038389 0 0.19577864860588351 0.47475932119625308 0 0.18735764099302041 0.48917219267582601 0 0.21140022317437951 0.48504986101038389 0 0.20006208202964831 0.5 0 0.18735764099302041 0.48917219267582601 0 0.20006208202964831 0.5 0 0.18735764099302041 0.48917219267582601 0 0.17242293088872129 0.5 0 0.18735764099302041 0.48917219267582601 0 0.17503198560817351 0.49142038334062271 0 0.17183070144785809 0.48304370331355501 0 0.18735764099302041 0.48917219267582601 0 0.17503198560817351 0.49142038334062271 0 0.17242293088872129 0.5 0 0.17503198560817351 0.49142038334062271 0 0.17242293088872129 0.5 0 0.16787941184741301 0.49682941995982299 0 0.16787941184741301 0.49682941995982299 0 0.17183070144785809 0.48304370331355501 0 0.15608260482940481 0.48849148759112182 0 0.17183070144785809 0.48304370331355501 0 0.15608260482940481 0.48849148759112182 0 0.17242293088872129 0.5 0 0.16787941184741301 0.49682941995982299 0 0.14478377974779441 0.4999999999999955 0 0.17503198560817351 0.49142038334062271 0 0.16787941184741301 0.49682941995982299 0 0.17183070144785809 0.48304370331355501 0 0.16787941184741301 0.49682941995982299 0 0.17183070144785809 0.48304370331355501 0 0.16191102060121529 0.47277068690310731 0 0.17183070144785809 0.48304370331355501 0 0.15608260482940481 0.48849148759112182 0 0.16191102060121529 0.47277068690310731 0 0.17183070144785809 0.48304370331355501 0 0.17928488992852051 0.45703666748131322 0 0.17183070144785809 0.48304370331355501 0 0.17928488992852051 0.45703666748131322 0 0.1898019130405311 0.46406215018423541 0 0.19577864860588351 0.47475932119625308 0 0.17183070144785809 0.48304370331355501 0 0.19577864860588351 0.47475932119625308 0 0.18735764099302041 0.48917219267582601 0 0.17183070144785809 0.48304370331355501 0 0.19577864860588351 0.47475932119625308 0 0.17183070144785809 0.48304370331355501 0 0.1898019130405311 0.46406215018423541 0 0.17183070144785809 0.48304370331355501 0 0.17928488992852051 0.45703666748131322 0 0.18673907840918419 0.43102963164907171 0 0.17928488992852051 0.45703666748131322 0 0.16462756880409651 0.44756259004275378 0 0.18673907840918419 0.43102963164907171 0 0.17928488992852051 0.45703666748131322 0 0.18673907840918419 0.43102963164907171 0 0.19543532528047841 0.44689719843050568 0 0.17928488992852051 0.45703666748131322 0 0.16455042121829849 0.43093378368812069 0 0.16462756880409651 0.44756259004275378 0 0.14926732751230951 0.443602183875766 0 0.16462756880409651 0.44756259004275378 0 0.15613966689252859 0.46032088792105019 0 0.14926732751230951 0.443602183875766 0 0.17928488992852051 0.45703666748131322 0 0.16462756880409651 0.44756259004275378 0 0.15613966689252859 0.46032088792105019 0 0.16191102060121529 0.47277068690310731 0 0.17928488992852051 0.45703666748131322 0 0.15613966689252859 0.46032088792105019 0 0.12323836067178991 0.47065116695772818 0 0.14075779232881969 0.45771227649382001 0 0.12892636665970561 0.43902645550605951 0 0.14075779232881969 0.45771227649382001 0 0.15613966689252859 0.46032088792105019 0 0.14926732751230951 0.443602183875766 0 0.14075779232881969 0.45771227649382001 0 0.15613966689252859 0.46032088792105019 0 0.1462172399077647 0.47496068820849652 0 0.14075779232881969 0.45771227649382001 0 0.14926732751230951 0.443602183875766 0 0.12892636665970561 0.43902645550605951 0 0.12323836067178991 0.47065116695772818 0 0.14075779232881969 0.45771227649382001 0 0.1462172399077647 0.47496068820849652 0 0.12323836067178991 0.47065116695772818 0 0.1403345082109517 0.49393927186868891 0 0.1462172399077647 0.47496068820849652 0 0.12323836067178991 0.47065116695772818 0 0.1403345082109517 0.49393927186868891 0 0.1241007714524457 0.48680295532603451 0 0.12323836067178991 0.47065116695772818 0 0.1403345082109517 0.49393927186868891 0 0.1241007714524457 0.48680295532603451 0 0.13595771427461281 0.49545334876129399 0 0.1403345082109517 0.49393927186868891 0 0.1241007714524457 0.48680295532603451 0 0.1178816768867553 0.5 0 0.13595771427461281 0.49545334876129399 0 0.1178816768867553 0.5 0 0.13595771427461281 0.49545334876129399 0 0.14478377974779441 0.4999999999999955 0 0.13595771427461281 0.49545334876129399 0 0.1403345082109517 0.49393927186868891 0 0.14478377974779441 0.4999999999999955 0 0.13595771427461281 0.49545334876129399 0 0.1403345082109517 0.49393927186868891 0 0.16787941184741301 0.49682941995982299 0 0.15608260482940481 0.48849148759112182 0 0.14478377974779441 0.4999999999999955 0 0.1403345082109517 0.49393927186868891 0 0.15608260482940481 0.48849148759112182 0 0.14478377974779441 0.4999999999999955 0 0.1403345082109517 0.49393927186868891 0 0.15608260482940481 0.48849148759112182 0 0.1462172399077647 0.47496068820849652 0 0.1403345082109517 0.49393927186868891 0 0.15608260482940481 0.48849148759112182 0 0.1403345082109517 0.49393927186868891 0 0.14478377974779441 0.4999999999999955 0 0.16191102060121529 0.47277068690310731 0 0.15608260482940481 0.48849148759112182 0 0.1462172399077647 0.47496068820849652 0 0.16191102060121529 0.47277068690310731 0 0.15613966689252859 0.46032088792105019 0 0.1462172399077647 0.47496068820849652 0 0.35093996754229201 0.48986715344454662 0 0.36782735318710619 0.48503144211566329 0 0.34211856635807469 0.47006288423132708 0 0.36782735318710619 0.48503144211566329 0 0.34211856635807469 0.47006288423132708 0 0.36782735318710619 0.48503144211566329 0 0.35941020028126941 0.46614468894416211 0 0.34211856635807469 0.47006288423132708 0 0.35093996754229201 0.48986715344454662 0 0.36589698887521072 0.5 0 0.33825783773428358 0.5 0 0.35093996754229201 0.48986715344454662 0 0.36782735318710619 0.48503144211566329 0 0.36589698887521072 0.5 0 0.36782735318710619 0.48503144211566329 0 0.37470864988024549 0.47268869712343542 0 0.35941020028126941 0.46614468894416211 0 0.37470864988024549 0.47268869712343542 0 0.37140457843294922 0.45913705749059669 0 0.35941020028126941 0.46614468894416211 0 0.37140457843294922 0.45913705749059669 0 0.35941020028126941 0.46614468894416211 0 0.3618660753183276 0.44971373845850071 0 0.37140457843294922 0.45913705749059669 0 0.37132077086473281 0.45024795909245502 0 0.37928003560790741 0.45114939371661272 0 0.37140457843294922 0.45913705749059669 0 0.37132077086473281 0.45024795909245502 0 0.3618660753183276 0.44971373845850071 0 0.37214248614770562 0.4413896530282635 0 0.37132077086473281 0.45024795909245502 0 0.3618660753183276 0.44971373845850071 0 0.37214248614770562 0.4413896530282635 0 0.37132077086473281 0.45024795909245502 0 0.37928003560790741 0.45114939371661272 0 0.37214248614770562 0.4413896530282635 0 0.3618660753183276 0.44971373845850071 0 0.35776387688213179 0.4350117812660359 0 0.3618660753183276 0.44971373845850071 0 0.33918706177383767 0.44799206206522041 0 0.35776387688213179 0.4350117812660359 0 0.35941020028126941 0.46614468894416211 0 0.33918706177383767 0.44799206206522041 0 0.34211856635807469 0.47006288423132708 0 0.35941020028126941 0.46614468894416211 0 0.3618660753183276 0.44971373845850071 0 0.33918706177383767 0.44799206206522041 0 0.33918706177383767 0.44799206206522041 0 0.34211856635807469 0.47006288423132708 0 0.31007021398156759 0.46788222714490579 0 0.33918706177383767 0.44799206206522041 0 0.31374435524335581 0.44354528922370817 0 0.3252667182984359 0.42625147883686798 0 0.33918706177383767 0.44799206206522041 0 0.31374435524335581 0.44354528922370817 0 0.31007021398156759 0.46788222714490579 0 0.34211856635807469 0.47006288423132708 0 0.32516376231393468 0.48532458237859799 0 0.31007021398156759 0.46788222714490579 0 0.35093996754229201 0.48986715344454662 0 0.34211856635807469 0.47006288423132708 0 0.32516376231393468 0.48532458237859799 0 0.35093996754229201 0.48986715344454662 0 0.33825783773428358 0.5 0 0.32516376231393468 0.48532458237859799 0 0.33825783773428358 0.5 0 0.32516376231393468 0.48532458237859799 0 0.31061868659335651 0.5 0 0.31061868659335651 0.5 0 0.29897730167403402 0.48413522945080878 0 0.28297953545242932 0.5 0 0.32516376231393468 0.48532458237859799 0 0.31061868659335651 0.5 0 0.29897730167403402 0.48413522945080878 0 0.29897730167403402 0.48413522945080878 0 0.28384216300689719 0.47150750588445661 0 0.31007021398156759 0.46788222714490579 0 0.32516376231393468 0.48532458237859799 0 0.29897730167403402 0.48413522945080878 0 0.31007021398156759 0.46788222714490579 0 0.29897730167403402 0.48413522945080878 0 0.28384216300689719 0.47150750588445661 0 0.28297953545242932 0.5 0 0.28297953545242932 0.5 0 0.26180942821198788 0.47661657988674089 0 0.2553403843115023 0.5 0 0.28384216300689719 0.47150750588445661 0 0.28297953545242932 0.5 0 0.26180942821198788 0.47661657988674089 0 0.23739745349920599 0.48009524162999578 0 0.26180942821198788 0.47661657988674089 0 0.2553403843115023 0.5 0 0.2436745429219338 0.45819055696164779 0 0.26762249007995897 0.44990617484434509 0 0.2436745429219338 0.45819055696164779 0 0.26180942821198788 0.47661657988674089 0 0.26762249007995897 0.44990617484434509 0 0.28384216300689719 0.47150750588445661 0 0.26180942821198788 0.47661657988674089 0 0.26762249007995897 0.44990617484434509 0 0.28384216300689719 0.47150750588445661 0 0.26762249007995897 0.44990617484434509 0 0.2915704372379842 0.44162179272704249 0 0.26762249007995897 0.44990617484434509 0 0.2915704372379842 0.44162179272704249 0 0.27823249432293901 0.42769290547767169 0 0.26762249007995897 0.44990617484434509 0 0.2915704372379842 0.44162179272704249 0 0.28384216300689719 0.47150750588445661 0 0.2915704372379842 0.44162179272704249 0 0.31007021398156759 0.46788222714490579 0 0.31374435524335581 0.44354528922370817 0 0.2915704372379842 0.44162179272704249 0 0.31007021398156759 0.46788222714490579 0 0.31374435524335581 0.44354528922370817 0 0.2915704372379842 0.44162179272704249 0 0.3004207358627905 0.41720319277719958 0 0.3004207358627905 0.41720319277719958 0 0.27823249432293901 0.42769290547767169 0 0.27645774128538542 0.40880783969193379 0 0.3004207358627905 0.41720319277719958 0 0.27645774128538542 0.40880783969193379 0 0.28878095934386039 0.39276471997207718 0 0.2915704372379842 0.44162179272704249 0 0.3004207358627905 0.41720319277719958 0 0.27823249432293901 0.42769290547767169 0 0.26762249007995897 0.44990617484434509 0 0.27823249432293901 0.42769290547767169 0 0.25509106714857549 0.4209255273478375 0 0.27823249432293901 0.42769290547767169 0 0.27645774128538542 0.40880783969193379 0 0.25509106714857549 0.4209255273478375 0 0.27645774128538542 0.40880783969193379 0 0.25509106714857549 0.4209255273478375 0 0.26209890739737218 0.39385880662242428 0 0.23662950305351529 0.43824583636240733 0 0.26762249007995897 0.44990617484434509 0 0.25509106714857549 0.4209255273478375 0 0.26209890739737218 0.39385880662242428 0 0.27185781103136791 0.37712454512329902 0 0.25278330101459429 0.37477242137885319 0 0.2404076189687713 0.39684597303053443 0 0.26209890739737218 0.39385880662242428 0 0.25278330101459429 0.37477242137885319 0 0.2404076189687713 0.39684597303053443 0 0.25509106714857549 0.4209255273478375 0 0.26209890739737218 0.39385880662242428 0 0.27645774128538542 0.40880783969193379 0 0.26209890739737218 0.39385880662242428 0 0.28878095934386039 0.39276471997207718 0 0.26209890739737218 0.39385880662242428 0 0.27185781103136791 0.37712454512329902 0 0.28878095934386039 0.39276471997207718 0 0.28878095934386039 0.39276471997207718 0 0.31159239514786641 0.3909708041977773 0 0.28837568910414219 0.37183483696247482 0 0.27185781103136791 0.37712454512329902 0 0.28878095934386039 0.39276471997207718 0 0.28837568910414219 0.37183483696247482 0 0.3004207358627905 0.41720319277719958 0 0.28878095934386039 0.39276471997207718 0 0.31159239514786641 0.3909708041977773 0 0.31159239514786641 0.3909708041977773 0 0.31611871697662769 0.36480432512602229 0 0.28837568910414219 0.37183483696247482 0 0.31159239514786641 0.3909708041977773 0 0.28837568910414219 0.37183483696247482 0 0.31159239514786641 0.3909708041977773 0 0.33549761164779868 0.37635054466400542 0 0.33291948769780089 0.40365447740285493 0 0.3004207358627905 0.41720319277719958 0 0.31159239514786641 0.3909708041977773 0 0.33291948769780089 0.40365447740285493 0 0.31159239514786641 0.3909708041977773 0 0.33549761164779868 0.37635054466400542 0 0.31611871697662769 0.36480432512602229 0 0.33549761164779868 0.37635054466400542 0 0.33291948769780089 0.40365447740285493 0 0.35143413442851118 0.3895764191064115 0 0.3004207358627905 0.41720319277719958 0 0.33291948769780089 0.40365447740285493 0 0.3252667182984359 0.42625147883686798 0 0.31374435524335581 0.44354528922370817 0 0.3004207358627905 0.41720319277719958 0 0.3252667182984359 0.42625147883686798 0 0.33918706177383767 0.44799206206522041 0 0.3252667182984359 0.42625147883686798 0 0.34300523524582083 0.42623351949858668 0 0.33291948769780089 0.40365447740285493 0 0.3252667182984359 0.42625147883686798 0 0.34300523524582083 0.42623351949858668 0 0.33291948769780089 0.40365447740285493 0 0.34300523524582083 0.42623351949858668 0 0.3587013056642735 0.41408606460146968 0 0.34300523524582083 0.42623351949858668 0 0.3587013056642735 0.41408606460146968 0 0.35776387688213179 0.4350117812660359 0 0.33918706177383767 0.44799206206522041 0 0.34300523524582083 0.42623351949858668 0 0.35776387688213179 0.4350117812660359 0 0.3587013056642735 0.41408606460146968 0 0.35776387688213179 0.4350117812660359 0 0.37288247205555158 0.42983700063187541 0 0.37214248614770562 0.4413896530282635 0 0.37288247205555158 0.42983700063187541 0 0.37820738901154671 0.43600749322785559 0 0.37214248614770562 0.4413896530282635 0 0.35776387688213179 0.4350117812660359 0 0.37288247205555158 0.42983700063187541 0 0.3587013056642735 0.41408606460146968 0 0.37288247205555158 0.42983700063187541 0 0.37790057235679458 0.41795237462896939 0 0.3587013056642735 0.41408606460146968 0 0.37440949802699169 0.39425101301531229 0 0.37790057235679458 0.41795237462896939 0 0.3587013056642735 0.41408606460146968 0 0.37440949802699169 0.39425101301531229 0 0.35143413442851118 0.3895764191064115 0 0.37440949802699169 0.39425101301531229 0 0.35143413442851118 0.3895764191064115 0 0.35986125742465158 0.36631045888696973 0 0.37440949802699169 0.39425101301531229 0 0.35986125742465158 0.36631045888696973 0 0.385070303258987 0.36900194608380732 0 0.33549761164779868 0.37635054466400542 0 0.35143413442851118 0.3895764191064115 0 0.35986125742465158 0.36631045888696973 0 0.33291948769780089 0.40365447740285493 0 0.3587013056642735 0.41408606460146968 0 0.35143413442851118 0.3895764191064115 0 0.35986125742465158 0.36631045888696973 0 0.37081319201176838 0.33832522279327543 0 0.33891649123668549 0.35118692063406559 0 0.33549761164779868 0.37635054466400542 0 0.35986125742465158 0.36631045888696973 0 0.33891649123668549 0.35118692063406559 0 0.35986125742465158 0.36631045888696973 0 0.37081319201176838 0.33832522279327543 0 0.385070303258987 0.36900194608380732 0 0.37081319201176838 0.33832522279327543 0 0.33675186601156448 0.32210008350356317 0 0.33891649123668549 0.35118692063406559 0 0.37081319201176838 0.33832522279327543 0 0.33675186601156448 0.32210008350356317 0 0.36261307847646629 0.31133956486758829 0 0.37081319201176838 0.33832522279327543 0 0.36261307847646629 0.31133956486758829 0 0.38740934765212381 0.31095224278887901 0 0.33675186601156448 0.32210008350356317 0 0.33891649123668549 0.35118692063406559 0 0.33675186601156448 0.32210008350356317 0 0.32106675492356501 0.33015647813677751 0 0.33891649123668549 0.35118692063406559 0 0.33675186601156448 0.32210008350356317 0 0.32106675492356501 0.33015647813677751 0 0.31006394943473081 0.31592961218467119 0 0.32106675492356501 0.33015647813677751 0 0.31335132443988539 0.34511535022318762 0 0.33891649123668549 0.35118692063406559 0 0.32106675492356501 0.33015647813677751 0 0.31335132443988539 0.34511535022318762 0 0.3053416365223523 0.33060012930656762 0 0.31335132443988539 0.34511535022318762 0 0.33891649123668549 0.35118692063406559 0 0.31611871697662769 0.36480432512602229 0 0.33549761164779868 0.37635054466400542 0 0.33891649123668549 0.35118692063406559 0 0.31611871697662769 0.36480432512602229 0 0.31611871697662769 0.36480432512602229 0 0.29988000509873358 0.35516774186914868 0 0.28837568910414219 0.37183483696247482 0 0.31335132443988539 0.34511535022318762 0 0.31611871697662769 0.36480432512602229 0 0.29988000509873358 0.35516774186914868 0 0.31335132443988539 0.34511535022318762 0 0.29988000509873358 0.35516774186914868 0 0.2969896311981397 0.34211251656245573 0 0.2851720608829863 0.35139518500951339 0 0.28521330371247278 0.33945455161201898 0 0.2969896311981397 0.34211251656245573 0 0.29988000509873358 0.35516774186914868 0 0.2851720608829863 0.35139518500951339 0 0.2969896311981397 0.34211251656245573 0 0.2851720608829863 0.35139518500951339 0 0.27617647333982331 0.34578503992339038 0 0.28521330371247278 0.33945455161201898 0 0.29988000509873358 0.35516774186914868 0 0.2851720608829863 0.35139518500951339 0 0.28837568910414219 0.37183483696247482 0 0.27185781103136791 0.37712454512329902 0 0.28837568910414219 0.37183483696247482 0 0.26515898306041791 0.35269886972717229 0 0.28837568910414219 0.37183483696247482 0 0.26515898306041791 0.35269886972717229 0 0.2851720608829863 0.35139518500951339 0 0.27617647333982331 0.34578503992339038 0 0.26515898306041791 0.35269886972717229 0 0.2851720608829863 0.35139518500951339 0 0.28837568910414219 0.37183483696247482 0 0.26515898306041791 0.35269886972717229 0 0.27617647333982331 0.34578503992339038 0 0.26515898306041791 0.35269886972717229 0 0.27578185119078391 0.33375167736262812 0 0.24968129952137899 0.33994165754885408 0 0.24767035102701049 0.35597035844164499 0 0.26515898306041791 0.35269886972717229 0 0.24968129952137899 0.33994165754885408 0 0.26515898306041791 0.35269886972717229 0 0.24767035102701049 0.35597035844164499 0 0.26515898306041791 0.35269886972717229 0 0.25278330101459429 0.37477242137885319 0 0.27185781103136791 0.37712454512329902 0 0.26515898306041791 0.35269886972717229 0 0.25278330101459429 0.37477242137885319 0 0.26515898306041791 0.35269886972717229 0 0.25278330101459429 0.37477242137885319 0 0.25900214573153751 0.32753613778729351 0 0.25485871403888177 0.31656429123597951 0 0.26715551589938402 0.31937348788527697 0 0.25900214573153751 0.32753613778729351 0 0.26827988826365701 0.32375291390718919 0 0.26715551589938402 0.31937348788527697 0 0.25485871403888177 0.31656429123597951 0 0.26715551589938402 0.31937348788527697 0 0.26423513083642669 0.3086691724572897 0 0.24803326784264729 0.32568600464393133 0 0.25900214573153751 0.32753613778729351 0 0.25485871403888177 0.31656429123597951 0 0.24968129952137899 0.33994165754885408 0 0.26515898306041791 0.35269886972717229 0 0.26702706194968928 0.33545525740384802 0 0.24968129952137899 0.33994165754885408 0 0.25900214573153751 0.32753613778729351 0 0.26702706194968928 0.33545525740384802 0 0.24968129952137899 0.33994165754885408 0 0.24803326784264729 0.32568600464393133 0 0.25900214573153751 0.32753613778729351 0 0.25900214573153751 0.32753613778729351 0 0.26702706194968928 0.33545525740384802 0 0.26827988826365701 0.32375291390718919 0 0.26515898306041791 0.35269886972717229 0 0.27578185119078391 0.33375167736262812 0 0.26515898306041791 0.35269886972717229 0 0.26702706194968928 0.33545525740384802 0 0.27578185119078391 0.33375167736262812 0 0.27617647333982331 0.34578503992339038 0 0.27578185119078391 0.33375167736262812 0 0.28521330371247278 0.33945455161201898 0 0.26702706194968928 0.33545525740384802 0 0.27578185119078391 0.33375167736262812 0 0.27993482947401738 0.31264677255233869 0 0.26702706194968928 0.33545525740384802 0 0.27993482947401738 0.31264677255233869 0 0.27578185119078391 0.33375167736262812 0 0.27993482947401738 0.31264677255233869 0 0.2864047193211503 0.31480448499808411 0 0.26702706194968928 0.33545525740384802 0 0.26827988826365701 0.32375291390718919 0 0.27993482947401738 0.31264677255233869 0 0.27578185119078391 0.33375167736262812 0 0.2864047193211503 0.31480448499808411 0 0.26827988826365701 0.32375291390718919 0 0.26715551589938402 0.31937348788527697 0 0.27993482947401738 0.31264677255233869 0 0.26715551589938402 0.31937348788527697 0 0.27087404253069081 0.31158892274703381 0 0.26423513083642669 0.3086691724572897 0 0.26715551589938402 0.31937348788527697 0 0.27993482947401738 0.31264677255233869 0 0.27087404253069081 0.31158892274703381 0 0.27578185119078391 0.33375167736262812 0 0.2864047193211503 0.31480448499808411 0 0.28835335876677848 0.32400560289104419 0 0.28835335876677848 0.32400560289104419 0 0.29297945653240798 0.33094214135429811 0 0.29810191313407058 0.32039085452695398 0 0.2864047193211503 0.31480448499808411 0 0.28835335876677848 0.32400560289104419 0 0.29394967736309863 0.31292248119814642 0 0.28835335876677848 0.32400560289104419 0 0.29394967736309863 0.31292248119814642 0 0.29810191313407058 0.32039085452695398 0 0.28835335876677848 0.32400560289104419 0 0.28478774623880859 0.33216425399773852 0 0.29297945653240798 0.33094214135429811 0 0.27578185119078391 0.33375167736262812 0 0.28521330371247278 0.33945455161201898 0 0.28478774623880859 0.33216425399773852 0 0.28521330371247278 0.33945455161201898 0 0.28478774623880859 0.33216425399773852 0 0.29297945653240798 0.33094214135429811 0 0.27578185119078391 0.33375167736262812 0 0.28835335876677848 0.32400560289104419 0 0.28478774623880859 0.33216425399773852 0 0.28521330371247278 0.33945455161201898 0 0.29297945653240798 0.33094214135429811 0 0.2969896311981397 0.34211251656245573 0 0.31335132443988539 0.34511535022318762 0 0.2969896311981397 0.34211251656245573 0 0.3053416365223523 0.33060012930656762 0 0.29297945653240798 0.33094214135429811 0 0.2969896311981397 0.34211251656245573 0 0.3053416365223523 0.33060012930656762 0 0.32106675492356501 0.33015647813677751 0 0.3053416365223523 0.33060012930656762 0 0.31006394943473081 0.31592961218467119 0 0.29810191313407058 0.32039085452695398 0 0.31006394943473081 0.31592961218467119 0 0.29986080814197691 0.30955417094110937 0 0.29394967736309863 0.31292248119814642 0 0.29810191313407058 0.32039085452695398 0 0.29986080814197691 0.30955417094110937 0 0.29297945653240798 0.33094214135429811 0 0.3053416365223523 0.33060012930656762 0 0.29810191313407058 0.32039085452695398 0 0.3053416365223523 0.33060012930656762 0 0.29810191313407058 0.32039085452695398 0 0.31006394943473081 0.31592961218467119 0 0.31006394943473081 0.31592961218467119 0 0.30551453623476782 0.30165883279887229 0 0.31711309069597798 0.29802547372948268 0 0.31006394943473081 0.31592961218467119 0 0.30551453623476782 0.30165883279887229 0 0.29986080814197691 0.30955417094110937 0 0.29394967736309863 0.31292248119814642 0 0.29986080814197691 0.30955417094110937 0 0.29702758745151681 0.29585729263354021 0 0.30551453623476782 0.30165883279887229 0 0.29986080814197691 0.30955417094110937 0 0.29702758745151681 0.29585729263354021 0 0.30350724544963659 0.28892761450555771 0 0.29284259699834558 0.28983828770082948 0 0.30575036452267379 0.2670298028493201 0 0.31104644792254171 0.28204917441815119 0 0.30350724544963659 0.28892761450555771 0 0.31711309069597798 0.29802547372948268 0 0.30551453623476782 0.30165883279887229 0 0.30350724544963659 0.28892761450555771 0 0.31711309069597798 0.29802547372948268 0 0.29702758745151681 0.29585729263354021 0 0.30350724544963659 0.28892761450555771 0 0.29284259699834558 0.28983828770082948 0 0.30551453623476782 0.30165883279887229 0 0.29702758745151681 0.29585729263354021 0 0.30350724544963659 0.28892761450555771 0 0.29284259699834558 0.28983828770082948 0 0.28053608004243069 0.2817483352285845 0 0.29018781080454942 0.27305473623947879 0 0.29284259699834558 0.28983828770082948 0 0.27734905525474601 0.29612681093333448 0 0.28053608004243069 0.2817483352285845 0 0.27993482947401738 0.31264677255233869 0 0.29284259699834558 0.28983828770082948 0 0.27734905525474601 0.29612681093333448 0 0.27993482947401738 0.31264677255233869 0 0.2864047193211503 0.31480448499808411 0 0.29702758745151681 0.29585729263354021 0 0.2864047193211503 0.31480448499808411 0 0.29702758745151681 0.29585729263354021 0 0.27993482947401738 0.31264677255233869 0 0.29702758745151681 0.29585729263354021 0 0.29284259699834558 0.28983828770082948 0 0.27993482947401738 0.31264677255233869 0 0.29284259699834558 0.28983828770082948 0 0.2864047193211503 0.31480448499808411 0 0.29394967736309863 0.31292248119814642 0 0.29702758745151681 0.29585729263354021 0 0.27993482947401738 0.31264677255233869 0 0.27217069391293508 0.30566625809322973 0 0.27734905525474601 0.29612681093333448 0 0.27993482947401738 0.31264677255233869 0 0.27087404253069081 0.31158892274703381 0 0.27217069391293508 0.30566625809322973 0 0.27087404253069081 0.31158892274703381 0 0.27217069391293508 0.30566625809322973 0 0.26423513083642669 0.3086691724572897 0 0.27217069391293508 0.30566625809322973 0 0.26660164156382798 0.29944325969666291 0 0.26423513083642669 0.3086691724572897 0 0.27217069391293508 0.30566625809322973 0 0.26660164156382798 0.29944325969666291 0 0.27734905525474601 0.29612681093333448 0 0.27734905525474601 0.29612681093333448 0 0.28053608004243069 0.2817483352285845 0 0.2634485228618853 0.28812746171291059 0 0.28053608004243069 0.2817483352285845 0 0.2634485228618853 0.28812746171291059 0 0.26769425187212997 0.27581735451642692 0 0.26660164156382798 0.29944325969666291 0 0.27734905525474601 0.29612681093333448 0 0.2634485228618853 0.28812746171291059 0 0.26660164156382798 0.29944325969666291 0 0.2634485228618853 0.28812746171291059 0 0.25332419955554281 0.30222715689358071 0 0.25149971695118623 0.28521009657621649 0 0.2634485228618853 0.28812746171291059 0 0.25332419955554281 0.30222715689358071 0 0.25149971695118623 0.28521009657621649 0 0.2634485228618853 0.28812746171291059 0 0.26769425187212997 0.27581735451642692 0 0.2437612008273625 0.31570273796245441 0 0.25485871403888177 0.31656429123597951 0 0.25332419955554281 0.30222715689358071 0 0.25485871403888177 0.31656429123597951 0 0.25332419955554281 0.30222715689358071 0 0.26423513083642669 0.3086691724572897 0 0.26660164156382798 0.29944325969666291 0 0.25332419955554281 0.30222715689358071 0 0.26423513083642669 0.3086691724572897 0 0.25661403247326953 0.26420222917996627 0 0.27611630823112532 0.25034987501196942 0 0.25774491792626453 0.23885010948040991 0 0.2365715531808652 0.24932808594470679 0 0.25661403247326953 0.26420222917996627 0 0.25774491792626453 0.23885010948040991 0 0.25149971695118623 0.28521009657621649 0 0.25661403247326953 0.26420222917996627 0 0.26769425187212997 0.27581735451642692 0 0.25661403247326953 0.26420222917996627 0 0.26769425187212997 0.27581735451642692 0 0.27923135138819788 0.26707879625395331 0 0.28053608004243069 0.2817483352285845 0 0.26769425187212997 0.27581735451642692 0 0.27923135138819788 0.26707879625395331 0 0.25661403247326953 0.26420222917996627 0 0.27923135138819788 0.26707879625395331 0 0.27611630823112532 0.25034987501196942 0 0.27923135138819788 0.26707879625395331 0 0.27611630823112532 0.25034987501196942 0 0.29148945248502839 0.2581789258152179 0 0.27611630823112532 0.25034987501196942 0 0.29148945248502839 0.2581789258152179 0 0.29275898725571131 0.24155450829943659 0 0.29284259699834558 0.28983828770082948 0 0.29018781080454942 0.27305473623947879 0 0.30575036452267379 0.2670298028493201 0 0.28053608004243069 0.2817483352285845 0 0.27923135138819788 0.26707879625395331 0 0.29018781080454942 0.27305473623947879 0 0.27923135138819788 0.26707879625395331 0 0.29148945248502839 0.2581789258152179 0 0.29018781080454942 0.27305473623947879 0 0.29148945248502839 0.2581789258152179 0 0.29018781080454942 0.27305473623947879 0 0.30575036452267379 0.2670298028493201 0 0.29284259699834558 0.28983828770082948 0 0.30575036452267379 0.2670298028493201 0 0.31104644792254171 0.28204917441815119 0 0.30350724544963659 0.28892761450555771 0 0.30575036452267379 0.2670298028493201 0 0.31104644792254171 0.28204917441815119 0 0.30575036452267379 0.2670298028493201 0 0.31918353759640561 0.26880120432108412 0 0.30575036452267379 0.2670298028493201 0 0.31865813204700372 0.24422131799781169 0 0.29148945248502839 0.2581789258152179 0 0.30575036452267379 0.2670298028493201 0 0.30304152559527803 0.24919160782908051 0 0.30575036452267379 0.2670298028493201 0 0.30304152559527803 0.24919160782908051 0 0.31865813204700372 0.24422131799781169 0 0.32143377938568429 0.25455768360781611 0 0.33242261556132252 0.26392640924255861 0 0.33025799033620151 0.23483957211205619 0 0.30575036452267379 0.2670298028493201 0 0.32143377938568429 0.25455768360781611 0 0.31918353759640561 0.26880120432108412 0 0.30575036452267379 0.2670298028493201 0 0.32143377938568429 0.25455768360781611 0 0.31865813204700372 0.24422131799781169 0 0.32143377938568429 0.25455768360781611 0 0.33242261556132252 0.26392640924255861 0 0.31918353759640561 0.26880120432108412 0 0.33242261556132252 0.26392640924255861 0 0.3393024263072546 0.25486968300571211 0 0.33584602081098541 0.24493814862543431 0 0.33242261556132252 0.26392640924255861 0 0.3393024263072546 0.25486968300571211 0 0.34430690754572119 0.2610365754534284 0 0.3393024263072546 0.25486968300571211 0 0.34430690754572119 0.2610365754534284 0 0.34463416131098951 0.24957759870142701 0 0.33242261556132252 0.26392640924255861 0 0.33458724078644347 0.29301324637306092 0 0.33242261556132252 0.26392640924255861 0 0.3228705865125383 0.28116310161686747 0 0.33458724078644347 0.29301324637306092 0 0.33242261556132252 0.26392640924255861 0 0.33458724078644347 0.29301324637306092 0 0.3447624745737829 0.27604345488633042 0 0.33242261556132252 0.26392640924255861 0 0.34430690754572119 0.2610365754534284 0 0.3447624745737829 0.27604345488633042 0 0.33242261556132252 0.26392640924255861 0 0.3228705865125383 0.28116310161686747 0 0.31918353759640561 0.26880120432108412 0 0.31104644792254171 0.28204917441815119 0 0.3228705865125383 0.28116310161686747 0 0.31918353759640561 0.26880120432108412 0 0.3228705865125383 0.28116310161686747 0 0.31711309069597798 0.29802547372948268 0 0.33458724078644347 0.29301324637306092 0 0.31104644792254171 0.28204917441815119 0 0.3228705865125383 0.28116310161686747 0 0.31711309069597798 0.29802547372948268 0 0.33675186601156448 0.32210008350356317 0 0.31006394943473081 0.31592961218467119 0 0.31711309069597798 0.29802547372948268 0 0.33675186601156448 0.32210008350356317 0 0.33458724078644347 0.29301324637306092 0 0.33675186601156448 0.32210008350356317 0 0.31711309069597798 0.29802547372948268 0 0.33458724078644347 0.29301324637306092 0 0.33458724078644347 0.29301324637306092 0 0.35759591138209113 0.28807306343462191 0 0.3447624745737829 0.27604345488633042 0 0.33675186601156448 0.32210008350356317 0 0.33458724078644347 0.29301324637306092 0 0.36261307847646629 0.31133956486758829 0 0.33458724078644347 0.29301324637306092 0 0.35759591138209113 0.28807306343462191 0 0.36261307847646629 0.31133956486758829 0 0.35759591138209113 0.28807306343462191 0 0.3703605991215852 0.27647244999965997 0 0.38098366156498559 0.29023313782057869 0 0.35759591138209113 0.28807306343462191 0 0.36261307847646629 0.31133956486758829 0 0.38098366156498559 0.29023313782057869 0 0.35759591138209113 0.28807306343462191 0 0.3703605991215852 0.27647244999965997 0 0.35663733406380232 0.27091518392976782 0 0.3703605991215852 0.27647244999965997 0 0.37203207648899961 0.26230545903728592 0 0.35663733406380232 0.27091518392976782 0 0.37203207648899961 0.26230545903728592 0 0.3553080265667255 0.25676155079522461 0 0.36451816682204768 0.24691391366032131 0 0.37203207648899961 0.26230545903728592 0 0.3553080265667255 0.25676155079522461 0 0.35663733406380232 0.27091518392976782 0 0.37203207648899961 0.26230545903728592 0 0.36451816682204768 0.24691391366032131 0 0.37730968576069318 0.24835803322296729 0 0.3553080265667255 0.25676155079522461 0 0.34430690754572119 0.2610365754534284 0 0.35663733406380232 0.27091518392976782 0 0.3553080265667255 0.25676155079522461 0 0.34430690754572119 0.2610365754534284 0 0.34463416131098951 0.24957759870142701 0 0.3553080265667255 0.25676155079522461 0 0.35442329487332658 0.24487309713985861 0 0.34463416131098951 0.24957759870142701 0 0.35759591138209113 0.28807306343462191 0 0.3447624745737829 0.27604345488633042 0 0.35663733406380232 0.27091518392976782 0 0.34430690754572119 0.2610365754534284 0 0.3447624745737829 0.27604345488633042 0 0.35663733406380232 0.27091518392976782 0 0.39778417779600228 0.27701535230554569 0 0.39857768014843858 0.26189259244125668 0 0.38455401210804729 0.27083540577604592 0 0.39778417779600228 0.27701535230554569 0 0.39857768014843858 0.26189259244125668 0 0.4097294751602758 0.27153689613549531 0 0.39857768014843858 0.26189259244125668 0 0.41245162688483672 0.2550927395464086 0 0.39773986756716062 0.24823657383458919 0 0.39857768014843858 0.26189259244125668 0 0.38778447029367241 0.25447881071691802 0 0.39773986756716062 0.24823657383458919 0 0.37203207648899961 0.26230545903728592 0 0.38778447029367241 0.25447881071691802 0 0.38455401210804729 0.27083540577604592 0 0.39857768014843858 0.26189259244125668 0 0.38778447029367241 0.25447881071691802 0 0.38455401210804729 0.27083540577604592 0 0.37203207648899961 0.26230545903728592 0 0.38778447029367241 0.25447881071691802 0 0.37730968576069318 0.24835803322296729 0 0.39778417779600228 0.27701535230554569 0 0.38455401210804729 0.27083540577604592 0 0.38098366156498559 0.29023313782057869 0 0.3703605991215852 0.27647244999965997 0 0.38455401210804729 0.27083540577604592 0 0.38098366156498559 0.29023313782057869 0 0.3703605991215852 0.27647244999965997 0 0.37203207648899961 0.26230545903728592 0 0.38455401210804729 0.27083540577604592 0 0.38098366156498559 0.29023313782057869 0 0.38740934765212381 0.31095224278887901 0 0.39756933419054752 0.29290017177355121 0 0.36261307847646629 0.31133956486758829 0 0.38098366156498559 0.29023313782057869 0 0.38740934765212381 0.31095224278887901 0 0.38740934765212381 0.31095224278887901 0 0.39756933419054752 0.29290017177355121 0 0.40924998892944031 0.3053260462877378 0 0.39778417779600228 0.27701535230554569 0 0.38098366156498559 0.29023313782057869 0 0.39756933419054752 0.29290017177355121 0 0.39778417779600228 0.27701535230554569 0 0.39756933419054752 0.29290017177355121 0 0.41241249315288031 0.28514970770980957 0 0.41241249315288031 0.28514970770980957 0 0.40924998892944031 0.3053260462877378 0 0.42344673308850861 0.29770645957545327 0 0.41241249315288031 0.28514970770980957 0 0.42344673308850861 0.29770645957545327 0 0.42742139781922101 0.27853408867445573 0 0.39756933419054752 0.29290017177355121 0 0.41241249315288031 0.28514970770980957 0 0.40924998892944031 0.3053260462877378 0 0.40924998892944031 0.3053260462877378 0 0.42344673308850861 0.29770645957545327 0 0.4257586167873959 0.31754701740276048 0 0.42344673308850861 0.29770645957545327 0 0.44239116875360529 0.30197543780250302 0 0.4257586167873959 0.31754701740276048 0 0.42742139781922101 0.27853408867445573 0 0.44239116875360529 0.30197543780250302 0 0.42344673308850861 0.29770645957545327 0 0.42742139781922101 0.27853408867445573 0 0.44239116875360529 0.30197543780250302 0 0.42742139781922101 0.27853408867445573 0 0.44242388668059007 0.28503573437100899 0 0.44239116875360529 0.30197543780250302 0 0.43090410143112662 0.26852851347484102 0 0.42742139781922101 0.27853408867445573 0 0.43959944804205692 0.27655829824826789 0 0.42742139781922101 0.27853408867445573 0 0.43959944804205692 0.27655829824826789 0 0.44242388668059007 0.28503573437100899 0 0.43090410143112662 0.26852851347484102 0 0.42628666009446858 0.25762147256573009 0 0.44876137431504959 0.27483596833934271 0 0.43090410143112662 0.26852851347484102 0 0.42742139781922101 0.27853408867445573 0 0.41245162688483672 0.2550927395464086 0 0.41241249315288031 0.28514970770980957 0 0.42742139781922101 0.27853408867445573 0 0.4097294751602758 0.27153689613549531 0 0.42742139781922101 0.27853408867445573 0 0.4097294751602758 0.27153689613549531 0 0.41245162688483672 0.2550927395464086 0 0.42742139781922101 0.27853408867445573 0 0.41245162688483672 0.2550927395464086 0 0.39778417779600228 0.27701535230554569 0 0.41241249315288031 0.28514970770980957 0 0.4097294751602758 0.27153689613549531 0 0.41245162688483672 0.2550927395464086 0 0.42628666009446858 0.25762147256573009 0 0.40328721450366972 0.24074207305178011 0 0.39857768014843858 0.26189259244125668 0 0.4097294751602758 0.27153689613549531 0 0.41245162688483672 0.2550927395464086 0 0.43090410143112662 0.26852851347484102 0 0.41245162688483672 0.2550927395464086 0 0.42628666009446858 0.25762147256573009 0 0.42628666009446858 0.25762147256573009 0 0.43961366946745511 0.25604109277309223 0 0.43498187500785951 0.2463782510463528 0 0.44876137431504959 0.27483596833934271 0 0.44842476845244278 0.24532867914094311 0 0.42628666009446858 0.25762147256573009 0 0.43961366946745511 0.25604109277309223 0 0.44876137431504959 0.27483596833934271 0 0.44876137431504959 0.27483596833934271 0 0.4603464422887712 0.257752051129926 0 0.44842476845244278 0.24532867914094311 0 0.43961366946745511 0.25604109277309223 0 0.44876137431504959 0.27483596833934271 0 0.44842476845244278 0.24532867914094311 0 0.43090410143112662 0.26852851347484102 0 0.43959944804205692 0.27655829824826789 0 0.44876137431504959 0.27483596833934271 0 0.42628666009446858 0.25762147256573009 0 0.44876137431504959 0.27483596833934271 0 0.43959944804205692 0.27655829824826789 0 0.44878003710317887 0.27647197159354903 0 0.44242388668059007 0.28503573437100899 0 0.43959944804205692 0.27655829824826789 0 0.44878003710317887 0.27647197159354903 0 0.44876137431504959 0.27483596833934271 0 0.44878003710317887 0.27647197159354903 0 0.44876137431504959 0.27483596833934271 0 0.44876137431504959 0.27483596833934271 0 0.46576097863835431 0.27174065022716343 0 0.4603464422887712 0.257752051129926 0 0.44876137431504959 0.27483596833934271 0 0.46576097863835431 0.27174065022716343 0 0.46584091621003171 0.28791803465087501 0 0.44878003710317887 0.27647197159354903 0 0.44876137431504959 0.27483596833934271 0 0.46584091621003171 0.28791803465087501 0 0.4603464422887712 0.257752051129926 0 0.47482936523059738 0.25947901760693698 0 0.47040969671131738 0.235661435153809 0 0.46576097863835431 0.27174065022716343 0 0.4603464422887712 0.257752051129926 0 0.47482936523059738 0.25947901760693698 0 0.46576097863835431 0.27174065022716343 0 0.4817572372407446 0.27719957741561452 0 0.46584091621003171 0.28791803465087501 0 0.46576097863835431 0.27174065022716343 0 0.47482936523059738 0.25947901760693698 0 0.4817572372407446 0.27719957741561452 0 0.4817572372407446 0.27719957741561452 0 0.5 0.25628755922904312 0 0.5 0.28518486325149078 0 0.47482936523059738 0.25947901760693698 0 0.5 0.25628755922904312 0 0.48490518659253251 0.24688228151073441 0 0.47482936523059738 0.25947901760693698 0 0.4817572372407446 0.27719957741561452 0 0.5 0.25628755922904312 0 0.48292045810501338 0.3010001009624077 0 0.49999999999999639 0.31408216727393867 0 0.5 0.28518486325149078 0 0.48292045810501338 0.3010001009624077 0 0.49999999999999639 0.31408216727393867 0 0.4817572372407446 0.27719957741561452 0 0.5 0.28518486325149078 0 0.48292045810501338 0.3010001009624077 0 0.4817572372407446 0.27719957741561452 0 0.48292045810501338 0.3010001009624077 0 0.46584091621003171 0.28791803465087501 0 0.48292045810501338 0.3010001009624077 0 0.46584091621003171 0.28791803465087501 0 0.48292045810501338 0.3010001009624077 0 0.46138731084658302 0.3060548157687078 0 0.47291862497311021 0.32317318419347518 0 0.48292045810501338 0.3010001009624077 0 0.46138731084658302 0.3060548157687078 0 0.46584091621003171 0.28791803465087501 0 0.46138731084658302 0.3060548157687078 0 0.46584091621003171 0.28791803465087501 0 0.45219264359849698 0.29154206189066251 0 0.44876137431504959 0.27483596833934271 0 0.46584091621003171 0.28791803465087501 0 0.44878003710317887 0.27647197159354903 0 0.46584091621003171 0.28791803465087501 0 0.45219264359849698 0.29154206189066251 0 0.45219264359849698 0.29154206189066251 0 0.44242388668059007 0.28503573437100899 0 0.44239116875360529 0.30197543780250302 0 0.44878003710317887 0.27647197159354903 0 0.45219264359849698 0.29154206189066251 0 0.44242388668059007 0.28503573437100899 0 0.46138731084658302 0.3060548157687078 0 0.44239116875360529 0.30197543780250302 0 0.44968179984218182 0.32624567734361309 0 0.46138731084658302 0.3060548157687078 0 0.45219264359849698 0.29154206189066251 0 0.44239116875360529 0.30197543780250302 0 0.44239116875360529 0.30197543780250302 0 0.44968179984218182 0.32624567734361309 0 0.4257586167873959 0.31754701740276048 0 0.49999999999999639 0.31408216727393867 0 0.48066704381281761 0.34764781648305232 0 0.5 0.38130869306814619 0 0.44968179984218182 0.32624567734361309 0 0.4620408337282827 0.34278090971323971 0 0.44275504755392581 0.34814536582580741 0 0.44968179984218182 0.32624567734361309 0 0.44275504755392581 0.34814536582580741 0 0.42364909575310611 0.3406055034846569 0 0.44968179984218182 0.32624567734361309 0 0.44275504755392581 0.34814536582580741 0 0.44968179984218182 0.32624567734361309 0 0.4620408337282827 0.34278090971323971 0 0.47291862497311021 0.32317318419347518 0 0.46138731084658302 0.3060548157687078 0 0.44968179984218182 0.32624567734361309 0 0.47291862497311021 0.32317318419347518 0 0.47291862497311021 0.32317318419347518 0 0.49999999999999639 0.31408216727393867 0 0.48066704381281761 0.34764781648305232 0 0.4620408337282827 0.34278090971323971 0 0.47291862497311021 0.32317318419347518 0 0.48066704381281761 0.34764781648305232 0 0.48292045810501338 0.3010001009624077 0 0.47291862497311021 0.32317318419347518 0 0.49999999999999639 0.31408216727393867 0 0.48066704381281761 0.34764781648305232 0 0.46418165245937809 0.36869250472025028 0 0.5 0.38130869306814619 0 0.4620408337282827 0.34278090971323971 0 0.48066704381281761 0.34764781648305232 0 0.46418165245937809 0.36869250472025028 0 0.4620408337282827 0.34278090971323971 0 0.46418165245937809 0.36869250472025028 0 0.44275504755392581 0.34814536582580741 0 0.44275504755392581 0.34814536582580741 0 0.4358282952656698 0.3700450543080015 0 0.46418165245937809 0.36869250472025028 0 0.44275504755392581 0.34814536582580741 0 0.4358282952656698 0.3700450543080015 0 0.46418165245937809 0.36869250472025028 0 0.4358282952656698 0.3700450543080015 0 0.44871739284289819 0.38616709699658569 0 0.4358282952656698 0.3700450543080015 0 0.40835506765973489 0.35583176937582639 0 0.41171804508054632 0.37841179115999601 0 0.44275504755392581 0.34814536582580741 0 0.4358282952656698 0.3700450543080015 0 0.42364909575310611 0.3406055034846569 0 0.4358282952656698 0.3700450543080015 0 0.40835506765973489 0.35583176937582639 0 0.42364909575310611 0.3406055034846569 0 0.44968179984218182 0.32624567734361309 0 0.42364909575310611 0.3406055034846569 0 0.4257586167873959 0.31754701740276048 0 0.40924998892944031 0.3053260462877378 0 0.4257586167873959 0.31754701740276048 0 0.40322332981088221 0.32967712721294062 0 0.40835506765973489 0.35583176937582639 0 0.42364909575310611 0.3406055034846569 0 0.40322332981088221 0.32967712721294062 0 0.42364909575310611 0.3406055034846569 0 0.4257586167873959 0.31754701740276048 0 0.40322332981088221 0.32967712721294062 0 0.37081319201176838 0.33832522279327543 0 0.38740934765212381 0.31095224278887901 0 0.40322332981088221 0.32967712721294062 0 0.37081319201176838 0.33832522279327543 0 0.40322332981088221 0.32967712721294062 0 0.39186547318534309 0.3482090163664624 0 0.38740934765212381 0.31095224278887901 0 0.40924998892944031 0.3053260462877378 0 0.40322332981088221 0.32967712721294062 0 0.37081319201176838 0.33832522279327543 0 0.385070303258987 0.36900194608380732 0 0.39186547318534309 0.3482090163664624 0 0.40835506765973489 0.35583176937582639 0 0.385070303258987 0.36900194608380732 0 0.41171804508054632 0.37841179115999601 0 0.40835506765973489 0.35583176937582639 0 0.40322332981088221 0.32967712721294062 0 0.39186547318534309 0.3482090163664624 0 0.40835506765973489 0.35583176937582639 0 0.385070303258987 0.36900194608380732 0 0.39186547318534309 0.3482090163664624 0 0.39606382512775168 0.39494996891851353 0 0.38534447607506878 0.40474814200113501 0 0.39447216983133898 0.41587579247425449 0 0.39606382512775168 0.39494996891851353 0 0.40750062457041408 0.40807030105904529 0 0.41336885015851021 0.39557878131106788 0 0.385070303258987 0.36900194608380732 0 0.39606382512775168 0.39494996891851353 0 0.41171804508054632 0.37841179115999601 0 0.37440949802699169 0.39425101301531229 0 0.385070303258987 0.36900194608380732 0 0.39606382512775168 0.39494996891851353 0 0.37440949802699169 0.39425101301531229 0 0.39606382512775168 0.39494996891851353 0 0.38534447607506878 0.40474814200113501 0 0.37440949802699169 0.39425101301531229 0 0.38534447607506878 0.40474814200113501 0 0.37790057235679458 0.41795237462896939 0 0.38534447607506878 0.40474814200113501 0 0.37790057235679458 0.41795237462896939 0 0.39447216983133898 0.41587579247425449 0 0.37790057235679458 0.41795237462896939 0 0.38731537345440048 0.43182626639460631 0 0.39447216983133898 0.41587579247425449 0 0.37288247205555158 0.42983700063187541 0 0.37820738901154671 0.43600749322785559 0 0.38550045824051338 0.43252253419122477 0 0.37820738901154671 0.43600749322785559 0 0.38550045824051338 0.43252253419122477 0 0.38230413960241622 0.44028078506005902 0 0.37288247205555158 0.42983700063187541 0 0.37790057235679458 0.41795237462896939 0 0.38550045824051338 0.43252253419122477 0 0.37790057235679458 0.41795237462896939 0 0.38731537345440048 0.43182626639460631 0 0.37790057235679458 0.41795237462896939 0 0.38550045824051338 0.43252253419122477 0 0.38731537345440048 0.43182626639460631 0 0.38550045824051338 0.43252253419122477 0 0.38731537345440048 0.43182626639460631 0 0.38230413960241622 0.44028078506005902 0 0.38550045824051338 0.43252253419122477 0 0.38731537345440048 0.43182626639460631 0 0.38731537345440048 0.43182626639460631 0 0.40217829110245767 0.43648043750825127 0 0.41011465826947258 0.42307962760890733 0 0.38731537345440048 0.43182626639460631 0 0.41011465826947258 0.42307962760890733 0 0.38731537345440048 0.43182626639460631 0 0.39447216983133898 0.41587579247425449 0 0.41011465826947258 0.42307962760890733 0 0.39606382512775168 0.39494996891851353 0 0.39447216983133898 0.41587579247425449 0 0.40750062457041408 0.40807030105904529 0 0.39447216983133898 0.41587579247425449 0 0.40750062457041408 0.40807030105904529 0 0.41011465826947258 0.42307962760890733 0 0.41011465826947258 0.42307962760890733 0 0.43291394308454301 0.41433298882320391 0 0.41011465826947258 0.42307962760890733 0 0.42197479068915777 0.4138444312723899 0 0.43291394308454301 0.41433298882320391 0 0.40750062457041408 0.40807030105904529 0 0.41011465826947258 0.42307962760890733 0 0.42197479068915777 0.4138444312723899 0 0.41011465826947258 0.42307962760890733 0 0.42569871451748809 0.43493525535637639 0 0.42639541166131961 0.42521173687316838 0 0.40217829110245767 0.43648043750825127 0 0.41011465826947258 0.42307962760890733 0 0.41357721665049052 0.44068618799451409 0 0.41011465826947258 0.42307962760890733 0 0.42569871451748809 0.43493525535637639 0 0.41357721665049052 0.44068618799451409 0 0.42569871451748809 0.43493525535637639 0 0.43685433077377461 0.42849907570418611 0 0.43569070816450572 0.44467636839216129 0 0.42569871451748809 0.43493525535637639 0 0.42639541166131961 0.42521173687316838 0 0.43685433077377461 0.42849907570418611 0 0.42639541166131961 0.42521173687316838 0 0.43685433077377461 0.42849907570418611 0 0.43291394308454301 0.41433298882320391 0 0.41011465826947258 0.42307962760890733 0 0.42639541166131961 0.42521173687316838 0 0.43291394308454301 0.41433298882320391 0 0.42197479068915777 0.4138444312723899 0 0.43291394308454301 0.41433298882320391 0 0.42890154297741379 0.3919447427901957 0 0.43291394308454301 0.41433298882320391 0 0.42890154297741379 0.3919447427901957 0 0.44156152670111698 0.39950779466187147 0 0.42197479068915777 0.4138444312723899 0 0.42890154297741379 0.3919447427901957 0 0.40750062457041408 0.40807030105904529 0 0.42197479068915777 0.4138444312723899 0 0.41336885015851021 0.39557878131106788 0 0.42197479068915777 0.4138444312723899 0 0.42890154297741379 0.3919447427901957 0 0.41336885015851021 0.39557878131106788 0 0.42890154297741379 0.3919447427901957 0 0.41336885015851021 0.39557878131106788 0 0.41171804508054632 0.37841179115999601 0 0.39606382512775168 0.39494996891851353 0 0.41336885015851021 0.39557878131106788 0 0.41171804508054632 0.37841179115999601 0 0.4358282952656698 0.3700450543080015 0 0.42890154297741379 0.3919447427901957 0 0.41171804508054632 0.37841179115999601 0 0.4358282952656698 0.3700450543080015 0 0.42890154297741379 0.3919447427901957 0 0.4358282952656698 0.3700450543080015 0 0.42890154297741379 0.3919447427901957 0 0.44871739284289819 0.38616709699658569 0 0.44871739284289819 0.38616709699658569 0 0.44156152670111698 0.39950779466187147 0 0.45571322789961322 0.40558635003750049 0 0.42890154297741379 0.3919447427901957 0 0.44871739284289819 0.38616709699658569 0 0.44156152670111698 0.39950779466187147 0 0.44871739284289819 0.38616709699658569 0 0.45571322789961322 0.40558635003750049 0 0.47851251271468348 0.39683971125179712 0 0.45571322789961322 0.40558635003750049 0 0.47851251271468348 0.39683971125179712 0 0.46418165245937809 0.36869250472025028 0 0.44871739284289819 0.38616709699658569 0 0.47851251271468348 0.39683971125179712 0 0.5 0.38130869306814619 0 0.47851251271468348 0.39683971125179712 0 0.5 0.43227676751261618 0 0.46418165245937809 0.36869250472025028 0 0.5 0.38130869306814619 0 0.47851251271468348 0.39683971125179712 0 0.5 0.43227676751261618 0 0.46647907682862128 0.42465833016060178 0 0.46562648329703199 0.45341837230758381 0 0.47851251271468348 0.39683971125179712 0 0.5 0.43227676751261618 0 0.46647907682862128 0.42465833016060178 0 0.46647907682862128 0.42465833016060178 0 0.44850454085808827 0.4208839555907784 0 0.45051769620231108 0.43894482426333542 0 0.45571322789961322 0.40558635003750049 0 0.46647907682862128 0.42465833016060178 0 0.44850454085808827 0.4208839555907784 0 0.45571322789961322 0.40558635003750049 0 0.47851251271468348 0.39683971125179712 0 0.46647907682862128 0.42465833016060178 0 0.43291394308454301 0.41433298882320391 0 0.44156152670111698 0.39950779466187147 0 0.45571322789961322 0.40558635003750049 0 0.43291394308454301 0.41433298882320391 0 0.45571322789961322 0.40558635003750049 0 0.44850454085808827 0.4208839555907784 0 0.43291394308454301 0.41433298882320391 0 0.45571322789961322 0.40558635003750049 0 0.43685433077377461 0.42849907570418611 0 0.43291394308454301 0.41433298882320391 0 0.44850454085808827 0.4208839555907784 0 0.43685433077377461 0.42849907570418611 0 0.44850454085808827 0.4208839555907784 0 0.45051769620231108 0.43894482426333542 0 0.43685433077377461 0.42849907570418611 0 0.45051769620231108 0.43894482426333542 0 0.43569070816450572 0.44467636839216129 0 0.5 0.43227676751261618 0 0.5 0.5 0 0.47626805096161712 0.47307584523677743 0 0.45051769620231108 0.43894482426333542 0 0.44307822870490632 0.46172083208106168 0 0.43569070816450572 0.44467636839216129 0 0.45051769620231108 0.43894482426333542 0 0.44307822870490632 0.46172083208106168 0 0.46562648329703199 0.45341837230758381 0 0.44307822870490632 0.46172083208106168 0 0.46562648329703199 0.45341837230758381 0 0.45357083425388639 0.47968408636368642 0 0.46562648329703199 0.45341837230758381 0 0.47626805096161712 0.47307584523677743 0 0.45357083425388639 0.47968408636368642 0 0.46647907682862128 0.42465833016060178 0 0.45051769620231108 0.43894482426333542 0 0.46562648329703199 0.45341837230758381 0 0.5 0.43227676751261618 0 0.46562648329703199 0.45341837230758381 0 0.47626805096161712 0.47307584523677743 0 0.5 0.5 0 0.47626805096161712 0.47307584523677743 0 0.46214293725716699 0.5 0 0.47626805096161712 0.47307584523677743 0 0.46214293725716699 0.5 0 0.45357083425388639 0.47968408636368642 0 0.44307822870490632 0.46172083208106168 0 0.45357083425388639 0.47968408636368642 0 0.43592792594583618 0.48192662704516082 0 0.45357083425388639 0.47968408636368642 0 0.43357796168979379 0.50000000000000067 0 0.43592792594583618 0.48192662704516082 0 0.46214293725716699 0.5 0 0.45357083425388639 0.47968408636368642 0 0.43357796168979379 0.50000000000000067 0 0.43357796168979379 0.50000000000000067 0 0.42840809491025061 0.49238155204783413 0 0.43592792594583618 0.48192662704516082 0 0.43357796168979379 0.50000000000000067 0 0.42908797352586248 0.50000000000000155 0 0.42840809491025061 0.49238155204783413 0 0.43357796168979379 0.50000000000000067 0 0.42840809491025061 0.49238155204783413 0 0.42908797352586248 0.50000000000000155 0 0.42840809491025061 0.49238155204783413 0 0.42018552173291879 0.49477534778903332 0 0.42908797352586248 0.50000000000000155 0 0.42840809491025061 0.49238155204783413 0 0.42908797352586248 0.50000000000000155 0 0.42018552173291879 0.49477534778903332 0 0.41131205677100019 0.5 0 0.42018552173291879 0.49477534778903332 0 0.41607083283153501 0.48776347052118729 0 0.41131205677100019 0.5 0 0.42840809491025061 0.49238155204783413 0 0.42018552173291879 0.49477534778903332 0 0.41607083283153501 0.48776347052118729 0 0.41607083283153501 0.48776347052118729 0 0.41131205677100019 0.5 0 0.40418661128440059 0.48501957624683512 0 0.42840809491025061 0.49238155204783413 0 0.41471052109163481 0.47219645683009093 0 0.42840809491025061 0.49238155204783413 0 0.41607083283153501 0.48776347052118729 0 0.41471052109163481 0.47219645683009093 0 0.41607083283153501 0.48776347052118729 0 0.41471052109163481 0.47219645683009093 0 0.40418661128440059 0.48501957624683512 0 0.42840809491025061 0.49238155204783413 0 0.41471052109163481 0.47219645683009093 0 0.42667564966131322 0.47296846321711478 0 0.42840809491025061 0.49238155204783413 0 0.42667564966131322 0.47296846321711478 0 0.43592792594583618 0.48192662704516082 0 0.42840809491025061 0.49238155204783413 0 0.42667564966131322 0.47296846321711478 0 0.44307822870490632 0.46172083208106168 0 0.42667564966131322 0.47296846321711478 0 0.43592792594583618 0.48192662704516082 0 0.44307822870490632 0.46172083208106168 0 0.42494320441237687 0.45355537438639532 0 0.43569070816450572 0.44467636839216129 0 0.42667564966131322 0.47296846321711478 0 0.42494320441237687 0.45355537438639532 0 0.44307822870490632 0.46172083208106168 0 0.42667564966131322 0.47296846321711478 0 0.42494320441237687 0.45355537438639532 0 0.41471052109163481 0.47219645683009093 0 0.42667564966131322 0.47296846321711478 0 0.42494320441237687 0.45355537438639532 0 0.42569871451748809 0.43493525535637639 0 0.42494320441237687 0.45355537438639532 0 0.43569070816450572 0.44467636839216129 0 0.42569871451748809 0.43493525535637639 0 0.42494320441237687 0.45355537438639532 0 0.41357721665049052 0.44068618799451409 0 0.42494320441237687 0.45355537438639532 0 0.41357721665049052 0.44068618799451409 0 0.40101294727301812 0.45201136161234817 0 0.41471052109163481 0.47219645683009093 0 0.42494320441237687 0.45355537438639532 0 0.40101294727301812 0.45201136161234817 0 0.41471052109163481 0.47219645683009093 0 0.40101294727301812 0.45201136161234817 0 0.40101294727301812 0.45201136161234817 0 0.38899548352466151 0.46075886788106302 0 0.39960107219081897 0.46908640852915301 0 0.41471052109163481 0.47219645683009093 0 0.40101294727301812 0.45201136161234817 0 0.39960107219081897 0.46908640852915301 0 0.40101294727301812 0.45201136161234817 0 0.3877715776333085 0.44683547227880771 0 0.38899548352466151 0.46075886788106302 0 0.38899548352466151 0.46075886788106302 0 0.38909979778038001 0.47544578007542809 0 0.39960107219081897 0.46908640852915301 0 0.38731537345440048 0.43182626639460631 0 0.40217829110245767 0.43648043750825127 0 0.40101294727301812 0.45201136161234817 0 0.38731537345440048 0.43182626639460631 0 0.40101294727301812 0.45201136161234817 0 0.3877715776333085 0.44683547227880771 0 0.38731537345440048 0.43182626639460631 0 0.40101294727301812 0.45201136161234817 0 0.40217829110245767 0.43648043750825127 0 0.41357721665049052 0.44068618799451409 0 0.40101294727301812 0.45201136161234817 0 0.38731537345440048 0.43182626639460631 0 0.3877715776333085 0.44683547227880771 0 0.38230413960241622 0.44028078506005902 0 0.3877715776333085 0.44683547227880771 0 0.37928003560790741 0.45114939371661272 0 0.38230413960241622 0.44028078506005902 0 0.3877715776333085 0.44683547227880771 0 0.37928003560790741 0.45114939371661272 0 0.38899548352466151 0.46075886788106302 0 0.37214248614770562 0.4413896530282635 0 0.37820738901154671 0.43600749322785559 0 0.38230413960241622 0.44028078506005902 0 0.37214248614770562 0.4413896530282635 0 0.37928003560790741 0.45114939371661272 0 0.38230413960241622 0.44028078506005902 0 0.38899548352466151 0.46075886788106302 0 0.3799705875487126 0.46428506250821611 0 0.38909979778038001 0.47544578007542809 0 0.37928003560790741 0.45114939371661272 0 0.38899548352466151 0.46075886788106302 0 0.3799705875487126 0.46428506250821611 0 0.37140457843294922 0.45913705749059669 0 0.37928003560790741 0.45114939371661272 0 0.3799705875487126 0.46428506250821611 0 0.37470864988024549 0.47268869712343542 0 0.37140457843294922 0.45913705749059669 0 0.3799705875487126 0.46428506250821611 0 0.36782735318710619 0.48503144211566329 0 0.37470864988024549 0.47268869712343542 0 0.38353486297982953 0.48412355871476043 0 0.37470864988024549 0.47268869712343542 0 0.3799705875487126 0.46428506250821611 0 0.38909979778038001 0.47544578007542809 0 0.38909979778038001 0.47544578007542809 0 0.38353486297982953 0.48412355871476043 0 0.39258935301518699 0.48614722875925592 0 0.37470864988024549 0.47268869712343542 0 0.38909979778038001 0.47544578007542809 0 0.38353486297982953 0.48412355871476043 0 0.38353486297982953 0.48412355871476043 0 0.39258935301518699 0.48614722875925592 0 0.3935361400161379 0.49999999999999978 0 0.36782735318710619 0.48503144211566329 0 0.3935361400161379 0.49999999999999978 0 0.36782735318710619 0.48503144211566329 0 0.38353486297982953 0.48412355871476043 0 0.3935361400161379 0.49999999999999978 0 0.36782735318710619 0.48503144211566329 0 0.36589698887521072 0.5 0 0.3935361400161379 0.49999999999999978 0 0.41131205677100019 0.5 0 0.3935361400161379 0.49999999999999978 0 0.40418661128440059 0.48501957624683512 0 0.39258935301518699 0.48614722875925592 0 0.3935361400161379 0.49999999999999978 0 0.40418661128440059 0.48501957624683512 0 0.38909979778038001 0.47544578007542809 0 0.40418661128440059 0.48501957624683512 0 0.39960107219081897 0.46908640852915301 0 0.41471052109163481 0.47219645683009093 0 0.40418661128440059 0.48501957624683512 0 0.39960107219081897 0.46908640852915301 0 0.38909979778038001 0.47544578007542809 0 0.39258935301518699 0.48614722875925592 0 0.40418661128440059 0.48501957624683512 0 0.33101729780121519 0.079703642621695284 0 0.32263300127853062 0.1144446447781249 0 0.30952538876605101 0.082005697658094193 0 0.33101729780121519 0.079703642621695284 0 0.3461851654666559 0.09483527556507565 0 0.34806806688548392 0.075471415428337879 0 0.33101729780121519 0.079703642621695284 0 0.33954218786051421 0.064567127142944922 0 0.34806806688548392 0.075471415428337879 0 0.33101729780121519 0.079703642621695284 0 0.33954218786051421 0.064567127142944922 0 0.32403938511670799 0.055222081905662468 0 0.33101729780121519 0.079703642621695284 0 0.32403938511670799 0.055222081905662468 0 0.30952538876605101 0.082005697658094193 0 0.33101729780121519 0.079703642621695284 0 0.32403938511670799 0.055222081905662468 0 0.33101729780121519 0.079703642621695284 0 0.32263300127853062 0.1144446447781249 0 0.3461851654666559 0.09483527556507565 0 0.32263300127853062 0.1144446447781249 0 0.3037366169229932 0.1223224621543625 0 0.3195652006409927 0.13766872526251989 0 0.32263300127853062 0.1144446447781249 0 0.34900886384631652 0.1159085470742887 0 0.3376027722129149 0.13788599390617221 0 0.32263300127853062 0.1144446447781249 0 0.3461851654666559 0.09483527556507565 0 0.34900886384631652 0.1159085470742887 0 0.3461851654666559 0.09483527556507565 0 0.34900886384631652 0.1159085470742887 0 0.36628158596540289 0.099765856983088749 0 0.34900886384631652 0.1159085470742887 0 0.36664570042558758 0.1169585614222745 0 0.35829835983586278 0.12939313447260431 0 0.36664570042558758 0.1169585614222745 0 0.37246131752587341 0.12921510994492849 0 0.3840727166403502 0.1150721880386167 0 0.34900886384631652 0.1159085470742887 0 0.36664570042558758 0.1169585614222745 0 0.36628158596540289 0.099765856983088749 0 0.36664570042558758 0.1169585614222745 0 0.36628158596540289 0.099765856983088749 0 0.3840727166403502 0.1150721880386167 0 0.36628158596540289 0.099765856983088749 0 0.36010217702298619 0.083717546504918278 0 0.37507870318529818 0.078566506346050238 0 0.3461851654666559 0.09483527556507565 0 0.36010217702298619 0.083717546504918278 0 0.34806806688548392 0.075471415428337879 0 0.3461851654666559 0.09483527556507565 0 0.36628158596540289 0.099765856983088749 0 0.36010217702298619 0.083717546504918278 0 0.33954218786051421 0.064567127142944922 0 0.34806806688548392 0.075471415428337879 0 0.35204356967924211 0.060526521786620803 0 0.36010217702298619 0.083717546504918278 0 0.34806806688548392 0.075471415428337879 0 0.36334889546072963 0.068362082162567103 0 0.34806806688548392 0.075471415428337879 0 0.36334889546072963 0.068362082162567103 0 0.35204356967924211 0.060526521786620803 0 0.36010217702298619 0.083717546504918278 0 0.36334889546072963 0.068362082162567103 0 0.37507870318529818 0.078566506346050238 0 0.36010217702298619 0.083717546504918278 0 0.36334889546072963 0.068362082162567103 0 0.36334889546072963 0.068362082162567103 0 0.37472307650597247 0.063719826244887715 0 0.37507870318529818 0.078566506346050238 0 0.36334889546072963 0.068362082162567103 0 0.37472307650597247 0.063719826244887715 0 0.36659561389847711 0.053006617820216678 0 0.36334889546072963 0.068362082162567103 0 0.36659561389847711 0.053006617820216678 0 0.35204356967924211 0.060526521786620803 0 0.36334889546072963 0.068362082162567103 0 0.36659561389847711 0.053006617820216678 0 0.36659561389847711 0.053006617820216678 0 0.37059505239189178 0.034091138590115852 0 0.36659561389847711 0.053006617820216678 0 0.37479632440849803 0.039249542261527749 0 0.37059505239189178 0.034091138590115852 0 0.36659561389847711 0.053006617820216678 0 0.37059505239189178 0.034091138590115852 0 0.35656941263066311 0.042935448097077673 0 0.36659561389847711 0.053006617820216678 0 0.37479632440849803 0.039249542261527749 0 0.38130272765905332 0.040637537843627079 0 0.37479632440849803 0.039249542261527749 0 0.37059505239189178 0.034091138590115852 0 0.37886772351693482 0.029194873629646831 0 0.37059505239189178 0.034091138590115852 0 0.35656941263066311 0.042935448097077673 0 0.35835284622584418 0.031674638371727487 0 0.35656941263066311 0.042935448097077673 0 0.34254261981992162 0.051911973972408217 0 0.34199939182358202 0.034564336625174413 0 0.35656941263066311 0.042935448097077673 0 0.35835284622584418 0.031674638371727487 0 0.34199939182358202 0.034564336625174413 0 0.36659561389847711 0.053006617820216678 0 0.35656941263066311 0.042935448097077673 0 0.35204356967924211 0.060526521786620803 0 0.35656941263066311 0.042935448097077673 0 0.35204356967924211 0.060526521786620803 0 0.34254261981992162 0.051911973972408217 0 0.33954218786051421 0.064567127142944922 0 0.35204356967924211 0.060526521786620803 0 0.34254261981992162 0.051911973972408217 0 0.36659561389847711 0.053006617820216678 0 0.35204356967924211 0.060526521786620803 0 0.37459449088530999 0.01517565936001576 0 0.35692959741939528 0.02132119630675108 0 0.3523948236202864 0.003175896306015143 0 0.37459449088530999 0.01517565936001576 0 0.3523948236202864 0.003175896306015143 0 0.36692943227511748 0.0011015127040547731 0 0.37459449088530999 0.01517565936001576 0 0.37889488087720169 -0.0051631801312783943 0 0.36692943227511748 0.0011015127040547731 0 0.37459449088530999 0.01517565936001576 0 0.3523948236202864 0.003175896306015143 0 0.37059505239189178 0.034091138590115852 0 0.37459449088530999 0.01517565936001576 0 0.37059505239189178 0.034091138590115852 0 0.37459449088530999 0.01517565936001576 0 0.37886772351693482 0.029194873629646831 0 0.37459449088530999 0.01517565936001576 0 0.36567077686368848 0.025461072239518451 0 0.35692959741939528 0.02132119630675108 0 0.37059505239189178 0.034091138590115852 0 0.37459449088530999 0.01517565936001576 0 0.36567077686368848 0.025461072239518451 0 0.35835284622584418 0.031674638371727487 0 0.36567077686368848 0.025461072239518451 0 0.35692959741939528 0.02132119630675108 0 0.37059505239189178 0.034091138590115852 0 0.35835284622584418 0.031674638371727487 0 0.36567077686368848 0.025461072239518451 0 0.35835284622584418 0.031674638371727487 0 0.35692959741939528 0.02132119630675108 0 0.34199939182358202 0.034564336625174413 0 0.35692959741939528 0.02132119630675108 0 0.3523948236202864 0.003175896306015143 0 0.33229077420334852 0.013833893230211379 0 0.3523948236202864 0.003175896306015143 0 0.33419492787585958 0.002001405262558 0 0.33229077420334852 0.013833893230211379 0 0.33419492787585958 0.002001405262558 0 0.33229077420334852 0.013833893230211379 0 0.32355532810202448 0.0032160433559077742 0 0.33419492787585958 0.002001405262558 0 0.32355532810202448 0.0032160433559077742 0 0.32851037824121793 -0.0017592904080261081 0 0.33229077420334852 0.013833893230211379 0 0.31706147243220079 0.0307405211896296 0 0.34199939182358202 0.034564336625174413 0 0.35692959741939528 0.02132119630675108 0 0.33229077420334852 0.013833893230211379 0 0.34199939182358202 0.034564336625174413 0 0.33229077420334852 0.013833893230211379 0 0.31706147243220079 0.0307405211896296 0 0.31008355974769358 0.0062589604735967599 0 0.31706147243220079 0.0307405211896296 0 0.31008355974769358 0.0062589604735967599 0 0.33229077420334852 0.013833893230211379 0 0.32355532810202448 0.0032160433559077742 0 0.31008355974769358 0.0062589604735967599 0 0.32355532810202448 0.0032160433559077742 0 0.31008355974769358 0.0062589604735967599 0 0.31527893302627791 -0.0077633937468102841 0 0.33954218786051421 0.064567127142944922 0 0.34254261981992162 0.051911973972408217 0 0.32403938511670799 0.055222081905662468 0 0.34254261981992162 0.051911973972408217 0 0.34199939182358202 0.034564336625174413 0 0.32403938511670799 0.055222081905662468 0 0.31706147243220079 0.0307405211896296 0 0.32403938511670799 0.055222081905662468 0 0.31706147243220079 0.0307405211896296 0 0.34199939182358202 0.034564336625174413 0 0.32403938511670799 0.055222081905662468 0 0.31706147243220079 0.0307405211896296 0 0.32403938511670799 0.055222081905662468 0 0.30300672499628523 0.053841537434611612 0 0.31706147243220079 0.0307405211896296 0 0.30300672499628523 0.053841537434611612 0 0.29224164683709231 0.034678960194092993 0 0.30300672499628523 0.053841537434611612 0 0.29224164683709231 0.034678960194092993 0 0.28351779916417891 0.050555154979076339 0 0.29224164683709231 0.034678960194092993 0 0.28351779916417891 0.050555154979076339 0 0.27700098472057322 0.036700441801726512 0 0.28351779916417891 0.050555154979076339 0 0.27302480360274201 0.065055794153343477 0 0.29165465766148069 0.069846808681114092 0 0.30300672499628523 0.053841537434611612 0 0.28351779916417891 0.050555154979076339 0 0.29165465766148069 0.069846808681114092 0 0.31008355974769358 0.0062589604735967599 0 0.29625727288302212 0.017857702215974779 0 0.29470669975848007 0.0018412655843019891 0 0.31008355974769358 0.0062589604735967599 0 0.29470669975848007 0.0018412655843019891 0 0.2991165412784364 -0.0071193526778691226 0 0.31706147243220079 0.0307405211896296 0 0.29224164683709231 0.034678960194092993 0 0.29625727288302212 0.017857702215974779 0 0.31706147243220079 0.0307405211896296 0 0.31008355974769358 0.0062589604735967599 0 0.29625727288302212 0.017857702215974779 0 0.29224164683709231 0.034678960194092993 0 0.29625727288302212 0.017857702215974779 0 0.27871896942116697 0.021888727494546879 0 0.29625727288302212 0.017857702215974779 0 0.28601242450813752 0.010360586209675979 0 0.27871896942116697 0.021888727494546879 0 0.29224164683709231 0.034678960194092993 0 0.27871896942116697 0.021888727494546879 0 0.27700098472057322 0.036700441801726512 0 0.29625727288302212 0.017857702215974779 0 0.28601242450813752 0.010360586209675979 0 0.29470669975848007 0.0018412655843019891 0 0.28601242450813752 0.010360586209675979 0 0.2842875545491822 6.1280673865913085e-05 0 0.29470669975848007 0.0018412655843019891 0 0.28601242450813752 0.010360586209675979 0 0.2842875545491822 6.1280673865913085e-05 0 0.27609162592883602 0.010153955079690359 0 0.2842875545491822 6.1280673865913085e-05 0 0.27609162592883602 0.010153955079690359 0 0.26397579491981138 0.0012783235116488789 0 0.2842875545491822 6.1280673865913085e-05 0 0.26397579491981138 0.0012783235116488789 0 0.28601242450813752 0.010360586209675979 0 0.27609162592883602 0.010153955079690359 0 0.27871896942116697 0.021888727494546879 0 0.27609162592883602 0.010153955079690359 0 0.26721763250641312 0.016114083743290899 0 0.26397579491981138 0.0012783235116488789 0 0.26721763250641312 0.016114083743290899 0 0.27871896942116697 0.021888727494546879 0 0.2644228601017361 0.029251129210641061 0 0.27609162592883602 0.010153955079690359 0 0.26721763250641312 0.016114083743290899 0 0.27871896942116697 0.021888727494546879 0 0.27871896942116697 0.021888727494546879 0 0.2644228601017361 0.029251129210641061 0 0.27700098472057322 0.036700441801726512 0 0.2644228601017361 0.029251129210641061 0 0.2519818386451988 0.02734813411344621 0 0.25808777144079792 0.018803845000944341 0 0.24786140975085211 0.01520204014510221 0 0.2519818386451988 0.02734813411344621 0 0.25808777144079792 0.018803845000944341 0 0.26721763250641312 0.016114083743290899 0 0.2644228601017361 0.029251129210641061 0 0.25808777144079792 0.018803845000944341 0 0.24366403529044059 0.002495366349431846 0 0.26397579491981138 0.0012783235116488789 0 0.24366403529044059 0.002495366349431846 0 0.25635755174959812 0.01093073813975445 0 0.26397579491981138 0.0012783235116488789 0 0.26721763250641312 0.016114083743290899 0 0.25635755174959812 0.01093073813975445 0 0.26397579491981138 0.0012783235116488789 0 0.26721763250641312 0.016114083743290899 0 0.25808777144079792 0.018803845000944341 0 0.25635755174959812 0.01093073813975445 0 0.24786140975085211 0.01520204014510221 0 0.25808777144079792 0.018803845000944341 0 0.25635755174959812 0.01093073813975445 0 0.26610364807869191 0.047128237130275287 0 0.26022126544721419 0.060252142652289661 0 0.27302480360274201 0.065055794153343477 0 0.28351779916417891 0.050555154979076339 0 0.26610364807869191 0.047128237130275287 0 0.27302480360274201 0.065055794153343477 0 0.2644228601017361 0.029251129210641061 0 0.26610364807869191 0.047128237130275287 0 0.27700098472057322 0.036700441801726512 0 0.28351779916417891 0.050555154979076339 0 0.26610364807869191 0.047128237130275287 0 0.27700098472057322 0.036700441801726512 0 0.2644228601017361 0.029251129210641061 0 0.26610364807869191 0.047128237130275287 0 0.25400108682872402 0.038730358553432653 0 0.2448710902685006 0.052379175832879467 0 0.26610364807869191 0.047128237130275287 0 0.25400108682872402 0.038730358553432653 0 0.2644228601017361 0.029251129210641061 0 0.2519818386451988 0.02734813411344621 0 0.25400108682872402 0.038730358553432653 0 0.2448710902685006 0.052379175832879467 0 0.26610364807869191 0.047128237130275287 0 0.26022126544721419 0.060252142652289661 0 0.2448710902685006 0.052379175832879467 0 0.26022126544721419 0.060252142652289661 0 0.25019694532165282 0.065924950906555244 0 0.26022126544721419 0.060252142652289661 0 0.25019694532165282 0.065924950906555244 0 0.26063582911515648 0.073423457717180132 0 0.24759557112034389 0.075860812521297616 0 0.26063582911515648 0.073423457717180132 0 0.25702412168979683 0.085002971587395657 0 0.24759557112034389 0.075860812521297616 0 0.25019694532165282 0.065924950906555244 0 0.26063582911515648 0.073423457717180132 0 0.26022126544721419 0.060252142652289661 0 0.26063582911515648 0.073423457717180132 0 0.27302480360274201 0.065055794153343477 0 0.24566451995244071 0.10624666482815601 0 0.25702412168979683 0.085002971587395657 0 0.2686595888069605 0.088046736754634966 0 0.24663004553639259 0.091053738674726797 0 0.24759557112034389 0.075860812521297616 0 0.25702412168979683 0.085002971587395657 0 0.26063582911515648 0.073423457717180132 0 0.25702412168979683 0.085002971587395657 0 0.2686595888069605 0.088046736754634966 0 0.2686595888069605 0.088046736754634966 0 0.29165465766148069 0.069846808681114092 0 0.2686595888069605 0.088046736754634966 0 0.29165465766148069 0.069846808681114092 0 0.28088037229359542 0.097081494886407507 0 0.2686595888069605 0.088046736754634966 0 0.27302480360274201 0.065055794153343477 0 0.29165465766148069 0.069846808681114092 0 0.26063582911515648 0.073423457717180132 0 0.2686595888069605 0.088046736754634966 0 0.27302480360274201 0.065055794153343477 0 0.29165465766148069 0.069846808681114092 0 0.29888610551585593 0.099061317899563031 0 0.28088037229359542 0.097081494886407507 0 0.29165465766148069 0.069846808681114092 0 0.30952538876605101 0.082005697658094193 0 0.29888610551585593 0.099061317899563031 0 0.32403938511670799 0.055222081905662468 0 0.30300672499628523 0.053841537434611612 0 0.30952538876605101 0.082005697658094193 0 0.30300672499628523 0.053841537434611612 0 0.29165465766148069 0.069846808681114092 0 0.30952538876605101 0.082005697658094193 0 0.32263300127853062 0.1144446447781249 0 0.30952538876605101 0.082005697658094193 0 0.29888610551585593 0.099061317899563031 0 0.32263300127853062 0.1144446447781249 0 0.3037366169229932 0.1223224621543625 0 0.29888610551585593 0.099061317899563031 0 0.3037366169229932 0.1223224621543625 0 0.29888610551585593 0.099061317899563031 0 0.28810831445616081 0.11290814816463229 0 0.29888610551585593 0.099061317899563031 0 0.28810831445616081 0.11290814816463229 0 0.28088037229359542 0.097081494886407507 0 0.28810831445616081 0.11290814816463229 0 0.27535344742825602 0.11085159574185489 0 0.28088037229359542 0.097081494886407507 0 0.3037366169229932 0.1223224621543625 0 0.28810831445616081 0.11290814816463229 0 0.28704173158071289 0.12648349520668581 0 0.28810831445616081 0.11290814816463229 0 0.27593233783878962 0.1227711000054266 0 0.28704173158071289 0.12648349520668581 0 0.27535344742825602 0.11085159574185489 0 0.26552061339895761 0.1230732373235657 0 0.25879943789296961 0.1151407262210737 0 0.28810831445616081 0.11290814816463229 0 0.27593233783878962 0.1227711000054266 0 0.27535344742825602 0.11085159574185489 0 0.27593233783878962 0.1227711000054266 0 0.27535344742825602 0.11085159574185489 0 0.26552061339895761 0.1230732373235657 0 0.27535344742825602 0.11085159574185489 0 0.28088037229359542 0.097081494886407507 0 0.25959748089076562 0.10218460285692391 0 0.2686595888069605 0.088046736754634966 0 0.28088037229359542 0.097081494886407507 0 0.25959748089076562 0.10218460285692391 0 0.24490070925302559 0.1182655276571563 0 0.24566451995244071 0.10624666482815601 0 0.25959748089076562 0.10218460285692391 0 0.24566451995244071 0.10624666482815601 0 0.2686595888069605 0.088046736754634966 0 0.25959748089076562 0.10218460285692391 0 0.24566451995244071 0.10624666482815601 0 0.2686595888069605 0.088046736754634966 0 0.24490070925302559 0.1182655276571563 0 0.25959748089076562 0.10218460285692391 0 0.25879943789296961 0.1151407262210737 0 0.24490070925302559 0.1182655276571563 0 0.25959748089076562 0.10218460285692391 0 0.27535344742825602 0.11085159574185489 0 0.25959748089076562 0.10218460285692391 0 0.25879943789296961 0.1151407262210737 0 0.26552061339895761 0.1230732373235657 0 0.25879943789296961 0.1151407262210737 0 0.25666891798780611 0.1253238900148779 0 0.24490070925302559 0.1182655276571563 0 0.25879943789296961 0.1151407262210737 0 0.25666891798780611 0.1253238900148779 0 0.24430493663131109 0.12764024500940299 0 0.25666891798780611 0.1253238900148779 0 0.26981889276276122 0.14249971386319041 0 0.24430493663131109 0.12764024500940299 0 0.26981889276276122 0.14249971386319041 0 0.24353930173745389 0.1396878122580387 0 0.24430493663131109 0.12764024500940299 0 0.26981889276276122 0.14249971386319041 0 0.26552061339895761 0.1230732373235657 0 0.25666891798780611 0.1253238900148779 0 0.26981889276276122 0.14249971386319041 0 0.27593233783878962 0.1227711000054266 0 0.26981889276276122 0.14249971386319041 0 0.28704173158071289 0.12648349520668581 0 0.27593233783878962 0.1227711000054266 0 0.26552061339895761 0.1230732373235657 0 0.26981889276276122 0.14249971386319041 0 0.26981889276276122 0.14249971386319041 0 0.27559531245996649 0.1581759096118871 0 0.29533284889421252 0.1573591827169753 0 0.26981889276276122 0.14249971386319041 0 0.25839559362281889 0.1571334514241145 0 0.27559531245996649 0.1581759096118871 0 0.24353930173745389 0.1396878122580387 0 0.26981889276276122 0.14249971386319041 0 0.25839559362281889 0.1571334514241145 0 0.24179736459830611 0.16709788067970571 0 0.25839559362281889 0.1571334514241145 0 0.25694516065145878 0.17565583277781349 0 0.25839559362281889 0.1571334514241145 0 0.25694516065145878 0.17565583277781349 0 0.26981110921653112 0.16966118218412929 0 0.25694516065145878 0.17565583277781349 0 0.26981110921653112 0.16966118218412929 0 0.26842644748231959 0.19065394921933479 0 0.24005542745915909 0.19450794910137281 0 0.25694516065145878 0.17565583277781349 0 0.26842644748231959 0.19065394921933479 0 0.26981110921653112 0.16966118218412929 0 0.28194652398554421 0.1757683609480872 0 0.26842644748231959 0.19065394921933479 0 0.28194652398554421 0.1757683609480872 0 0.26842644748231959 0.19065394921933479 0 0.28954554699627749 0.1894989787425275 0 0.25839559362281889 0.1571334514241145 0 0.26981110921653112 0.16966118218412929 0 0.27559531245996649 0.1581759096118871 0 0.26981110921653112 0.16966118218412929 0 0.28461811780350932 0.16422601787102509 0 0.28194652398554421 0.1757683609480872 0 0.26981110921653112 0.16966118218412929 0 0.27559531245996649 0.1581759096118871 0 0.28461811780350932 0.16422601787102509 0 0.27559531245996649 0.1581759096118871 0 0.28461811780350932 0.16422601787102509 0 0.29533284889421252 0.1573591827169753 0 0.28461811780350932 0.16422601787102509 0 0.28194652398554421 0.1757683609480872 0 0.29733139842908352 0.16480167672341961 0 0.29533284889421252 0.1573591827169753 0 0.29733139842908352 0.16480167672341961 0 0.28461811780350932 0.16422601787102509 0 0.29533284889421252 0.1573591827169753 0 0.29733139842908352 0.16480167672341961 0 0.28194652398554421 0.1757683609480872 0 0.29733139842908352 0.16480167672341961 0 0.28954554699627749 0.1894989787425275 0 0.29733139842908352 0.16480167672341961 0 0.28954554699627749 0.1894989787425275 0 0.30630653229142718 0.17359280055941531 0 0.30444030963505769 0.19127489048155011 0 0.31378794519695441 0.18242995291433639 0 0.29733139842908352 0.16480167672341961 0 0.28954554699627749 0.1894989787425275 0 0.30444030963505769 0.19127489048155011 0 0.30630653229142718 0.17359280055941531 0 0.29733139842908352 0.16480167672341961 0 0.30444030963505769 0.19127489048155011 0 0.29733139842908352 0.16480167672341961 0 0.30444030963505769 0.19127489048155011 0 0.30630653229142718 0.17359280055941531 0 0.31696933359741669 0.16996039081250841 0 0.31378794519695441 0.18242995291433639 0 0.30630653229142718 0.17359280055941531 0 0.29900367459862298 0.15949709186526301 0 0.31696933359741669 0.16996039081250841 0 0.29900367459862298 0.15949709186526301 0 0.31696933359741669 0.16996039081250841 0 0.29900367459862298 0.15949709186526301 0 0.31472266456521969 0.15316264134260171 0 0.31696933359741669 0.16996039081250841 0 0.29533284889421252 0.1573591827169753 0 0.29900367459862298 0.15949709186526301 0 0.29900367459862298 0.15949709186526301 0 0.29733139842908352 0.16480167672341961 0 0.29533284889421252 0.1573591827169753 0 0.29900367459862298 0.15949709186526301 0 0.29733139842908352 0.16480167672341961 0 0.30630653229142718 0.17359280055941531 0 0.29900367459862298 0.15949709186526301 0 0.29733139842908352 0.16480167672341961 0 0.29900367459862298 0.15949709186526301 0 0.3054784808460439 0.13895852305387629 0 0.29533284889421252 0.1573591827169753 0 0.29900367459862298 0.15949709186526301 0 0.3054784808460439 0.13895852305387629 0 0.29533284889421252 0.1573591827169753 0 0.3054784808460439 0.13895852305387629 0 0.29118729023746348 0.14192133896183029 0 0.29900367459862298 0.15949709186526301 0 0.3054784808460439 0.13895852305387629 0 0.31472266456521969 0.15316264134260171 0 0.3037366169229932 0.1223224621543625 0 0.3054784808460439 0.13895852305387629 0 0.3195652006409927 0.13766872526251989 0 0.3037366169229932 0.1223224621543625 0 0.3054784808460439 0.13895852305387629 0 0.29674385470860132 0.13230635960309109 0 0.3054784808460439 0.13895852305387629 0 0.29674385470860132 0.13230635960309109 0 0.29118729023746348 0.14192133896183029 0 0.29674385470860132 0.13230635960309109 0 0.28704173158071289 0.12648349520668581 0 0.29118729023746348 0.14192133896183029 0 0.3037366169229932 0.1223224621543625 0 0.29674385470860132 0.13230635960309109 0 0.28704173158071289 0.12648349520668581 0 0.26981889276276122 0.14249971386319041 0 0.28704173158071289 0.12648349520668581 0 0.29118729023746348 0.14192133896183029 0 0.28704173158071289 0.12648349520668581 0 0.29118729023746348 0.14192133896183029 0 0.26981889276276122 0.14249971386319041 0 0.29533284889421252 0.1573591827169753 0 0.26981889276276122 0.14249971386319041 0 0.29533284889421252 0.1573591827169753 0 0.29118729023746348 0.14192133896183029 0 0.29533284889421252 0.1573591827169753 0 0.29118729023746348 0.14192133896183029 0 0.27611630823112532 0.25034987501196942 0 0.25774491792626453 0.23885010948040991 0 0.27885910785828028 0.23223468104283229 0 0.2383134903200122 0.2219180175230398 0 0.25774491792626453 0.23885010948040991 0 0.26085984776825122 0.2153934978547708 0 0.25774491792626453 0.23885010948040991 0 0.27885910785828028 0.23223468104283229 0 0.26085984776825122 0.2153934978547708 0 0.27885910785828028 0.23223468104283229 0 0.26085984776825122 0.2153934978547708 0 0.28175969556347169 0.2141962807616353 0 0.26085984776825122 0.2153934978547708 0 0.26842644748231959 0.19065394921933479 0 0.28175969556347169 0.2141962807616353 0 0.24005542745915909 0.19450794910137281 0 0.26085984776825122 0.2153934978547708 0 0.26842644748231959 0.19065394921933479 0 0.26842644748231959 0.19065394921933479 0 0.28954554699627749 0.1894989787425275 0 0.28175969556347169 0.2141962807616353 0 0.28954554699627749 0.1894989787425275 0 0.28175969556347169 0.2141962807616353 0 0.28954554699627749 0.1894989787425275 0 0.30444030963505769 0.19127489048155011 0 0.29667287692424582 0.2067191236327636 0 0.30444030963505769 0.19127489048155011 0 0.31154922084103198 0.21774810423968061 0 0.31813649887669171 0.20560478843764041 0 0.31154922084103198 0.21774810423968061 0 0.29667287692424582 0.2067191236327636 0 0.29495576658661649 0.22334908598365411 0 0.30444030963505769 0.19127489048155011 0 0.31154922084103198 0.21774810423968061 0 0.29667287692424582 0.2067191236327636 0 0.30444030963505769 0.19127489048155011 0 0.31154922084103198 0.21774810423968061 0 0.29667287692424582 0.2067191236327636 0 0.28175969556347169 0.2141962807616353 0 0.29495576658661649 0.22334908598365411 0 0.28954554699627749 0.1894989787425275 0 0.29667287692424582 0.2067191236327636 0 0.28175969556347169 0.2141962807616353 0 0.27885910785828028 0.23223468104283229 0 0.29495576658661649 0.22334908598365411 0 0.29275898725571131 0.24155450829943659 0 0.27885910785828028 0.23223468104283229 0 0.28175969556347169 0.2141962807616353 0 0.29495576658661649 0.22334908598365411 0 0.31154922084103198 0.21774810423968061 0 0.30546148307990162 0.23357395083412691 0 0.31865813204700372 0.24422131799781169 0 0.31154922084103198 0.21774810423968061 0 0.29495576658661649 0.22334908598365411 0 0.30546148307990162 0.23357395083412691 0 0.29495576658661649 0.22334908598365411 0 0.30546148307990162 0.23357395083412691 0 0.29275898725571131 0.24155450829943659 0 0.30546148307990162 0.23357395083412691 0 0.30304152559527803 0.24919160782908051 0 0.29275898725571131 0.24155450829943659 0 0.30546148307990162 0.23357395083412691 0 0.30304152559527803 0.24919160782908051 0 0.31865813204700372 0.24422131799781169 0 0.27611630823112532 0.25034987501196942 0 0.27885910785828028 0.23223468104283229 0 0.29275898725571131 0.24155450829943659 0 0.29148945248502839 0.2581789258152179 0 0.30304152559527803 0.24919160782908051 0 0.29275898725571131 0.24155450829943659 0 0.33242261556132252 0.26392640924255861 0 0.33025799033620151 0.23483957211205619 0 0.33584602081098541 0.24493814862543431 0 0.33242261556132252 0.26392640924255861 0 0.33025799033620151 0.23483957211205619 0 0.3393024263072546 0.25486968300571211 0 0.33584602081098541 0.24493814862543431 0 0.34463416131098951 0.24957759870142701 0 0.33584602081098541 0.24493814862543431 0 0.3448347507249086 0.2372229190407692 0 0.34463416131098951 0.24957759870142701 0 0.33584602081098541 0.24493814862543431 0 0.33698274140632301 0.23422793208792689 0 0.3448347507249086 0.2372229190407692 0 0.33025799033620151 0.23483957211205619 0 0.33584602081098541 0.24493814862543431 0 0.33698274140632301 0.23422793208792689 0 0.32143377938568429 0.25455768360781611 0 0.33025799033620151 0.23483957211205619 0 0.31865813204700372 0.24422131799781169 0 0.32143377938568429 0.25455768360781611 0 0.31865813204700372 0.24422131799781169 0 0.33025799033620151 0.23483957211205619 0 0.31865813204700372 0.24422131799781169 0 0.32703038363102882 0.2294272513191703 0 0.31865813204700372 0.24422131799781169 0 0.32703038363102882 0.2294272513191703 0 0.31154922084103198 0.21774810423968061 0 0.31865813204700372 0.24422131799781169 0 0.32122858625448719 0.2230876781895349 0 0.31154922084103198 0.21774810423968061 0 0.31865813204700372 0.24422131799781169 0 0.31865813204700372 0.24422131799781169 0 0.32703038363102882 0.2294272513191703 0 0.32122858625448719 0.2230876781895349 0 0.32703038363102882 0.2294272513191703 0 0.32122858625448719 0.2230876781895349 0 0.33076869587668012 0.2184369289533713 0 0.33408060441187659 0.22889143511905999 0 0.34055175902830181 0.22548256448847881 0 0.33076869587668012 0.2184369289533713 0 0.32703038363102882 0.2294272513191703 0 0.33408060441187659 0.22889143511905999 0 0.33076869587668012 0.2184369289533713 0 0.33025799033620151 0.23483957211205619 0 0.32703038363102882 0.2294272513191703 0 0.33408060441187659 0.22889143511905999 0 0.33025799033620151 0.23483957211205619 0 0.33408060441187659 0.22889143511905999 0 0.33698274140632301 0.23422793208792689 0 0.33408060441187659 0.22889143511905999 0 0.33698274140632301 0.23422793208792689 0 0.34055175902830181 0.22548256448847881 0 0.33698274140632301 0.23422793208792689 0 0.34055175902830181 0.22548256448847881 0 0.3448347507249086 0.2372229190407692 0 0.34055175902830181 0.22548256448847881 0 0.34087914169520411 0.21224809358219671 0 0.33076869587668012 0.2184369289533713 0 0.34087914169520411 0.21224809358219671 0 0.3305721644104096 0.2053496167218887 0 0.33978139371264782 0.19728051739057789 0 0.34087914169520411 0.21224809358219671 0 0.3305721644104096 0.2053496167218887 0 0.33076869587668012 0.2184369289533713 0 0.32122858625448719 0.2230876781895349 0 0.33076869587668012 0.2184369289533713 0 0.31813649887669171 0.20560478843764041 0 0.31154922084103198 0.21774810423968061 0 0.32122858625448719 0.2230876781895349 0 0.31813649887669171 0.20560478843764041 0 0.3305721644104096 0.2053496167218887 0 0.33076869587668012 0.2184369289533713 0 0.31813649887669171 0.20560478843764041 0 0.30444030963505769 0.19127489048155011 0 0.31813649887669171 0.20560478843764041 0 0.32289193878766659 0.19298732793459231 0 0.30444030963505769 0.19127489048155011 0 0.32289193878766659 0.19298732793459231 0 0.31378794519695441 0.18242995291433639 0 0.3305721644104096 0.2053496167218887 0 0.31813649887669171 0.20560478843764041 0 0.32289193878766659 0.19298732793459231 0 0.32289193878766659 0.19298732793459231 0 0.33978139371264782 0.19728051739057789 0 0.33493499259620979 0.18042368975975501 0 0.3305721644104096 0.2053496167218887 0 0.32289193878766659 0.19298732793459231 0 0.33978139371264782 0.19728051739057789 0 0.33978139371264782 0.19728051739057789 0 0.35290065159500289 0.1908869887070016 0 0.33493499259620979 0.18042368975975501 0 0.33978139371264782 0.19728051739057789 0 0.35290065159500289 0.1908869887070016 0 0.35160911123581617 0.2058932729770015 0 0.35290065159500289 0.1908869887070016 0 0.36362035416944583 0.20221028501978661 0 0.35160911123581617 0.2058932729770015 0 0.36362035416944583 0.20221028501978661 0 0.3675423140816837 0.1847686921622668 0 0.38251208501606798 0.2082100412903142 0 0.35290065159500289 0.1908869887070016 0 0.36362035416944583 0.20221028501978661 0 0.3675423140816837 0.1847686921622668 0 0.36362035416944583 0.20221028501978661 0 0.36241308410139428 0.2144216652181487 0 0.38251208501606798 0.2082100412903142 0 0.36241308410139428 0.2144216652181487 0 0.36827703969270481 0.22482314766496669 0 0.38251208501606798 0.2082100412903142 0 0.36241308410139428 0.2144216652181487 0 0.35160911123581617 0.2058932729770015 0 0.35043333644357749 0.21898661219815169 0 0.36362035416944583 0.20221028501978661 0 0.36241308410139428 0.2144216652181487 0 0.35160911123581617 0.2058932729770015 0 0.34087914169520411 0.21224809358219671 0 0.33978139371264782 0.19728051739057789 0 0.35160911123581617 0.2058932729770015 0 0.34087914169520411 0.21224809358219671 0 0.35160911123581617 0.2058932729770015 0 0.35043333644357749 0.21898661219815169 0 0.34055175902830181 0.22548256448847881 0 0.34087914169520411 0.21224809358219671 0 0.35043333644357749 0.21898661219815169 0 0.34055175902830181 0.22548256448847881 0 0.35043333644357749 0.21898661219815169 0 0.34948099548982831 0.22803707561754469 0 0.34948099548982831 0.22803707561754469 0 0.35365895588845597 0.23460240302273691 0 0.3448347507249086 0.2372229190407692 0 0.34055175902830181 0.22548256448847881 0 0.34948099548982831 0.22803707561754469 0 0.3448347507249086 0.2372229190407692 0 0.3580265780507535 0.22640663215867149 0 0.36424419660196222 0.23525368132624569 0 0.35365895588845597 0.23460240302273691 0 0.34948099548982831 0.22803707561754469 0 0.3580265780507535 0.22640663215867149 0 0.35365895588845597 0.23460240302273691 0 0.36241308410139428 0.2144216652181487 0 0.35043333644357749 0.21898661219815169 0 0.3580265780507535 0.22640663215867149 0 0.35043333644357749 0.21898661219815169 0 0.34948099548982831 0.22803707561754469 0 0.3580265780507535 0.22640663215867149 0 0.36241308410139428 0.2144216652181487 0 0.3580265780507535 0.22640663215867149 0 0.36827703969270481 0.22482314766496669 0 0.36827703969270481 0.22482314766496669 0 0.36424419660196222 0.23525368132624569 0 0.37688439746544478 0.22866016906540901 0 0.3580265780507535 0.22640663215867149 0 0.36827703969270481 0.22482314766496669 0 0.36424419660196222 0.23525368132624569 0 0.36424419660196222 0.23525368132624569 0 0.3727590384511566 0.239437171044217 0 0.36451816682204768 0.24691391366032131 0 0.36424419660196222 0.23525368132624569 0 0.3727590384511566 0.239437171044217 0 0.37688439746544478 0.22866016906540901 0 0.3727590384511566 0.239437171044217 0 0.36451816682204768 0.24691391366032131 0 0.37730968576069318 0.24835803322296729 0 0.36424419660196222 0.23525368132624569 0 0.36451816682204768 0.24691391366032131 0 0.35442329487332658 0.24487309713985861 0 0.3553080265667255 0.25676155079522461 0 0.36451816682204768 0.24691391366032131 0 0.35442329487332658 0.24487309713985861 0 0.36424419660196222 0.23525368132624569 0 0.35442329487332658 0.24487309713985861 0 0.35365895588845597 0.23460240302273691 0 0.35442329487332658 0.24487309713985861 0 0.35365895588845597 0.23460240302273691 0 0.3448347507249086 0.2372229190407692 0 0.35442329487332658 0.24487309713985861 0 0.3448347507249086 0.2372229190407692 0 0.34463416131098951 0.24957759870142701 0 0.3376027722129149 0.13788599390617221 0 0.3195652006409927 0.13766872526251989 0 0.33321766802025421 0.1592380863399816 0 0.3376027722129149 0.13788599390617221 0 0.33321766802025421 0.1592380863399816 0 0.35257254314729919 0.1613273430342195 0 0.32263300127853062 0.1144446447781249 0 0.3376027722129149 0.13788599390617221 0 0.32263300127853062 0.1144446447781249 0 0.3376027722129149 0.13788599390617221 0 0.3195652006409927 0.13766872526251989 0 0.3054784808460439 0.13895852305387629 0 0.3195652006409927 0.13766872526251989 0 0.31472266456521969 0.15316264134260171 0 0.3195652006409927 0.13766872526251989 0 0.31472266456521969 0.15316264134260171 0 0.33321766802025421 0.1592380863399816 0 0.31472266456521969 0.15316264134260171 0 0.31696933359741669 0.16996039081250841 0 0.33321766802025421 0.1592380863399816 0 0.32289193878766659 0.19298732793459231 0 0.31378794519695441 0.18242995291433639 0 0.33493499259620979 0.18042368975975501 0 0.31696933359741669 0.16996039081250841 0 0.31378794519695441 0.18242995291433639 0 0.33493499259620979 0.18042368975975501 0 0.31696933359741669 0.16996039081250841 0 0.33493499259620979 0.18042368975975501 0 0.33493499259620979 0.18042368975975501 0 0.33321766802025421 0.1592380863399816 0 0.34945753301757643 0.17614356308344881 0 0.31696933359741669 0.16996039081250841 0 0.33493499259620979 0.18042368975975501 0 0.33321766802025421 0.1592380863399816 0 0.33321766802025421 0.1592380863399816 0 0.35257254314729919 0.1613273430342195 0 0.34945753301757643 0.17614356308344881 0 0.35257254314729919 0.1613273430342195 0 0.34945753301757643 0.17614356308344881 0 0.3675423140816837 0.1847686921622668 0 0.35290065159500289 0.1908869887070016 0 0.33493499259620979 0.18042368975975501 0 0.35290065159500289 0.1908869887070016 0 0.34945753301757643 0.17614356308344881 0 0.3675423140816837 0.1847686921622668 0 0.35290065159500289 0.1908869887070016 0 0.33493499259620979 0.18042368975975501 0 0.34945753301757643 0.17614356308344881 0 0.3675423140816837 0.1847686921622668 0 0.37089408484599179 0.16517342698797399 0 0.38492111969159482 0.17516895845844641 0 0.35257254314729919 0.1613273430342195 0 0.3675423140816837 0.1847686921622668 0 0.37089408484599179 0.16517342698797399 0 0.36577314516862153 0.14699746001535749 0 0.38381325678270761 0.15708129081262079 0 0.35257254314729919 0.1613273430342195 0 0.37089408484599179 0.16517342698797399 0 0.36577314516862153 0.14699746001535749 0 0.35257254314729919 0.1613273430342195 0 0.3675423140816837 0.1847686921622668 0 0.37089408484599179 0.16517342698797399 0 0.3376027722129149 0.13788599390617221 0 0.35257254314729919 0.1613273430342195 0 0.36577314516862153 0.14699746001535749 0 0.3376027722129149 0.13788599390617221 0 0.35257254314729919 0.1613273430342195 0 0.3376027722129149 0.13788599390617221 0 0.36577314516862153 0.14699746001535749 0 0.35829835983586278 0.12939313447260431 0 0.34900886384631652 0.1159085470742887 0 0.3376027722129149 0.13788599390617221 0 0.35829835983586278 0.12939313447260431 0 0.36577314516862153 0.14699746001535749 0 0.35829835983586278 0.12939313447260431 0 0.37246131752587341 0.12921510994492849 0 0.36664570042558758 0.1169585614222745 0 0.35829835983586278 0.12939313447260431 0 0.37246131752587341 0.12921510994492849 0 0.37246131752587341 0.12921510994492849 0 0.3908514397673819 0.13728051648176609 0 0.3840727166403502 0.1150721880386167 0 0.36577314516862153 0.14699746001535749 0 0.37246131752587341 0.12921510994492849 0 0.3908514397673819 0.13728051648176609 0 0.3908514397673819 0.13728051648176609 0 0.41207956661474893 0.13192344335435741 0 0.40190581789800439 0.1204104086134645 0 0.3908514397673819 0.13728051648176609 0 0.41207956661474893 0.13192344335435741 0 0.409751725225035 0.14850544828789861 0 0.3908514397673819 0.13728051648176609 0 0.39569623737244058 0.1517098147763567 0 0.409751725225035 0.14850544828789861 0 0.39569623737244058 0.1517098147763567 0 0.39836852771463821 0.16397200352314151 0 0.409751725225035 0.14850544828789861 0 0.3908514397673819 0.13728051648176609 0 0.39569623737244058 0.1517098147763567 0 0.38381325678270761 0.15708129081262079 0 0.36577314516862153 0.14699746001535749 0 0.3908514397673819 0.13728051648176609 0 0.38381325678270761 0.15708129081262079 0 0.38381325678270761 0.15708129081262079 0 0.38492111969159482 0.17516895845844641 0 0.39836852771463821 0.16397200352314151 0 0.37089408484599179 0.16517342698797399 0 0.38381325678270761 0.15708129081262079 0 0.38492111969159482 0.17516895845844641 0 0.3675423140816837 0.1847686921622668 0 0.38492111969159482 0.17516895845844641 0 0.38846930347586439 0.19235775617769429 0 0.38492111969159482 0.17516895845844641 0 0.40215511618285321 0.18397682677231969 0 0.38846930347586439 0.19235775617769429 0 0.38492111969159482 0.17516895845844641 0 0.40215511618285321 0.18397682677231969 0 0.39836852771463821 0.16397200352314151 0 0.40215511618285321 0.18397682677231969 0 0.39836852771463821 0.16397200352314151 0 0.41652853261260009 0.16804036287063581 0 0.39569623737244058 0.1517098147763567 0 0.38381325678270761 0.15708129081262079 0 0.39836852771463821 0.16397200352314151 0 0.39836852771463821 0.16397200352314151 0 0.41652853261260009 0.16804036287063581 0 0.409751725225035 0.14850544828789861 0 0.40215511618285321 0.18397682677231969 0 0.41652853261260009 0.16804036287063581 0 0.4250363873977035 0.19328336013317751 0 0.43424505556132598 0.17215993793124421 0 0.4250363873977035 0.19328336013317751 0 0.44775155672723099 0.18631410074414431 0 0.41652853261260009 0.16804036287063581 0 0.43424505556132598 0.17215993793124421 0 0.4250363873977035 0.19328336013317751 0 0.41652853261260009 0.16804036287063581 0 0.43424505556132598 0.17215993793124421 0 0.43263017642415408 0.1513541827836006 0 0.43263017642415408 0.1513541827836006 0 0.42459552117349858 0.13840812943408021 0 0.409751725225035 0.14850544828789861 0 0.43263017642415408 0.1513541827836006 0 0.42459552117349858 0.13840812943408021 0 0.44048727213515459 0.13342401940540999 0 0.42459552117349858 0.13840812943408021 0 0.42802886546840008 0.1268335533391346 0 0.44048727213515459 0.13342401940540999 0 0.42802886546840008 0.1268335533391346 0 0.41207956661474893 0.13192344335435741 0 0.41770651464996861 0.12202070611786101 0 0.42459552117349858 0.13840812943408021 0 0.42802886546840008 0.1268335533391346 0 0.41207956661474893 0.13192344335435741 0 0.42459552117349858 0.13840812943408021 0 0.41207956661474893 0.13192344335435741 0 0.409751725225035 0.14850544828789861 0 0.41652853261260009 0.16804036287063581 0 0.43263017642415408 0.1513541827836006 0 0.409751725225035 0.14850544828789861 0 0.40328721450366972 0.24074207305178011 0 0.39773986756716062 0.24823657383458919 0 0.39748185595045238 0.23165139041836141 0 0.39773986756716062 0.24823657383458919 0 0.38894694137055091 0.2416107385825754 0 0.39748185595045238 0.23165139041836141 0 0.41245162688483672 0.2550927395464086 0 0.40328721450366972 0.24074207305178011 0 0.39773986756716062 0.24823657383458919 0 0.40328721450366972 0.24074207305178011 0 0.39748185595045238 0.23165139041836141 0 0.38894694137055091 0.2416107385825754 0 0.38619479560098752 0.22998152918354631 0 0.39748185595045238 0.23165139041836141 0 0.38778447029367241 0.25447881071691802 0 0.39773986756716062 0.24823657383458919 0 0.38894694137055091 0.2416107385825754 0 0.38778447029367241 0.25447881071691802 0 0.37730968576069318 0.24835803322296729 0 0.38894694137055091 0.2416107385825754 0 0.37730968576069318 0.24835803322296729 0 0.38083874560563491 0.23800005794614151 0 0.38894694137055091 0.2416107385825754 0 0.3727590384511566 0.239437171044217 0 0.37730968576069318 0.24835803322296729 0 0.38083874560563491 0.23800005794614151 0 0.3727590384511566 0.239437171044217 0 0.38083874560563491 0.23800005794614151 0 0.37688439746544478 0.22866016906540901 0 0.38083874560563491 0.23800005794614151 0 0.38894694137055091 0.2416107385825754 0 0.38619479560098752 0.22998152918354631 0 0.38619479560098752 0.22998152918354631 0 0.39748185595045238 0.23165139041836141 0 0.38251208501606798 0.2082100412903142 0 0.39748185595045238 0.23165139041836141 0 0.38251208501606798 0.2082100412903142 0 0.38619479560098752 0.22998152918354631 0 0.37688439746544478 0.22866016906540901 0 0.38251208501606798 0.2082100412903142 0 0.36827703969270481 0.22482314766496669 0 0.37688439746544478 0.22866016906540901 0 0.38251208501606798 0.2082100412903142 0 0.38083874560563491 0.23800005794614151 0 0.38619479560098752 0.22998152918354631 0 0.37688439746544478 0.22866016906540901 0 0.39748185595045238 0.23165139041836141 0 0.4037491391958461 0.20989622241641701 0 0.41079019659598642 0.22869581139489711 0 0.40328721450366972 0.24074207305178011 0 0.39748185595045238 0.23165139041836141 0 0.41079019659598642 0.22869581139489711 0 0.39748185595045238 0.23165139041836141 0 0.4037491391958461 0.20989622241641701 0 0.38251208501606798 0.2082100412903142 0 0.4037491391958461 0.20989622241641701 0 0.38251208501606798 0.2082100412903142 0 0.38846930347586439 0.19235775617769429 0 0.3675423140816837 0.1847686921622668 0 0.38251208501606798 0.2082100412903142 0 0.38846930347586439 0.19235775617769429 0 0.3675423140816837 0.1847686921622668 0 0.38251208501606798 0.2082100412903142 0 0.40215511618285321 0.18397682677231969 0 0.4037491391958461 0.20989622241641701 0 0.38846930347586439 0.19235775617769429 0 0.40215511618285321 0.18397682677231969 0 0.4037491391958461 0.20989622241641701 0 0.4250363873977035 0.19328336013317751 0 0.4250363873977035 0.19328336013317751 0 0.42403117110456823 0.21989953246694041 0 0.44808816258983691 0.21582138994254371 0 0.4037491391958461 0.20989622241641701 0 0.4250363873977035 0.19328336013317751 0 0.42403117110456823 0.21989953246694041 0 0.4037491391958461 0.20989622241641701 0 0.41079019659598642 0.22869581139489711 0 0.42403117110456823 0.21989953246694041 0 0.41079019659598642 0.22869581139489711 0 0.42403117110456823 0.21989953246694041 0 0.42266215811564561 0.2377372429863559 0 0.42403117110456823 0.21989953246694041 0 0.43650995903252943 0.23081731609772579 0 0.42266215811564561 0.2377372429863559 0 0.42403117110456823 0.21989953246694041 0 0.43650995903252943 0.23081731609772579 0 0.44808816258983691 0.21582138994254371 0 0.42628666009446858 0.25762147256573009 0 0.42266215811564561 0.2377372429863559 0 0.43498187500785951 0.2463782510463528 0 0.43650995903252943 0.23081731609772579 0 0.42266215811564561 0.2377372429863559 0 0.43498187500785951 0.2463782510463528 0 0.42628666009446858 0.25762147256573009 0 0.40328721450366972 0.24074207305178011 0 0.42266215811564561 0.2377372429863559 0 0.42628666009446858 0.25762147256573009 0 0.40328721450366972 0.24074207305178011 0 0.40328721450366972 0.24074207305178011 0 0.41079019659598642 0.22869581139489711 0 0.42266215811564561 0.2377372429863559 0 0.41245162688483672 0.2550927395464086 0 0.40328721450366972 0.24074207305178011 0 0.4603464422887712 0.257752051129926 0 0.44842476845244278 0.24532867914094311 0 0.47040969671131738 0.235661435153809 0 0.43961366946745511 0.25604109277309223 0 0.43498187500785951 0.2463782510463528 0 0.44842476845244278 0.24532867914094311 0 0.43650995903252943 0.23081731609772579 0 0.43498187500785951 0.2463782510463528 0 0.44842476845244278 0.24532867914094311 0 0.43650995903252943 0.23081731609772579 0 0.44842476845244278 0.24532867914094311 0 0.44808816258983691 0.21582138994254371 0 0.44842476845244278 0.24532867914094311 0 0.44808816258983691 0.21582138994254371 0 0.44808816258983691 0.21582138994254371 0 0.47489703731960481 0.2077217205443605 0 0.47040969671131738 0.235661435153809 0 0.44842476845244278 0.24532867914094311 0 0.44808816258983691 0.21582138994254371 0 0.47040969671131738 0.235661435153809 0 0.47489703731960481 0.2077217205443605 0 0.44775155672723099 0.18631410074414431 0 0.48313280788924362 0.18265019103492311 0 0.44808816258983691 0.21582138994254371 0 0.47489703731960481 0.2077217205443605 0 0.44775155672723099 0.18631410074414431 0 0.4250363873977035 0.19328336013317751 0 0.44808816258983691 0.21582138994254371 0 0.44775155672723099 0.18631410074414431 0 0.44808816258983691 0.21582138994254371 0 0.44775155672723099 0.18631410074414431 0 0.5 0.19849295118414739 0 0.47489703731960481 0.2077217205443605 0 0.48313280788924362 0.18265019103492311 0 0.5 0.19849295118414739 0 0.47489703731960481 0.2077217205443605 0 0.5 0.22739025520659531 0 0.47489703731960481 0.2077217205443605 0 0.5 0.22739025520659531 0 0.47040969671131738 0.235661435153809 0 0.5 0.25628755922904312 0 0.5 0.22739025520659531 0 0.48490518659253251 0.24688228151073441 0 0.5 0.22739025520659531 0 0.48490518659253251 0.24688228151073441 0 0.47040969671131738 0.235661435153809 0 0.47482936523059738 0.25947901760693698 0 0.48490518659253251 0.24688228151073441 0 0.47040969671131738 0.235661435153809 0 0.45383581529140221 0.1440119527937023 0 0.46892501987986029 0.164467825081208 0 0.47385653373045761 0.13690513233476651 0 0.45383581529140221 0.1440119527937023 0 0.45600449109686753 0.12838850317670719 0 0.47385653373045761 0.13690513233476651 0 0.45600449109686753 0.12838850317670719 0 0.47385653373045761 0.13690513233476651 0 0.46535428024150532 0.11390090082846829 0 0.42802886546840008 0.1268335533391346 0 0.44048727213515459 0.13342401940540999 0 0.44514052125369308 0.11780588845757529 0 0.45383581529140221 0.1440119527937023 0 0.45600449109686753 0.12838850317670719 0 0.44048727213515459 0.13342401940540999 0 0.45600449109686753 0.12838850317670719 0 0.44048727213515459 0.13342401940540999 0 0.44514052125369308 0.11780588845757529 0 0.43263017642415408 0.1513541827836006 0 0.45383581529140221 0.1440119527937023 0 0.44048727213515459 0.13342401940540999 0 0.43263017642415408 0.1513541827836006 0 0.45383581529140221 0.1440119527937023 0 0.44927862464494128 0.1618076831246629 0 0.44775155672723099 0.18631410074414431 0 0.46892501987986029 0.164467825081208 0 0.48313280788924362 0.18265019103492311 0 0.43424505556132598 0.17215993793124421 0 0.43263017642415408 0.1513541827836006 0 0.44927862464494128 0.1618076831246629 0 0.43424505556132598 0.17215993793124421 0 0.44927862464494128 0.1618076831246629 0 0.44775155672723099 0.18631410074414431 0 0.45383581529140221 0.1440119527937023 0 0.44927862464494128 0.1618076831246629 0 0.46892501987986029 0.164467825081208 0 0.44927862464494128 0.1618076831246629 0 0.44775155672723099 0.18631410074414431 0 0.46892501987986029 0.164467825081208 0 0.46892501987986029 0.164467825081208 0 0.48313280788924362 0.18265019103492311 0 0.48494177926651483 0.15460028668693951 0 0.5 0.19849295118414739 0 0.48313280788924362 0.18265019103492311 0 0.5 0.16959564716169959 0 0.48313280788924362 0.18265019103492311 0 0.5 0.16959564716169959 0 0.48494177926651483 0.15460028668693951 0 0.48494177926651483 0.15460028668693951 0 0.5 0.14069834313925189 0 0.47385653373045761 0.13690513233476651 0 0.5 0.16959564716169959 0 0.48494177926651483 0.15460028668693951 0 0.5 0.14069834313925189 0 0.46892501987986029 0.164467825081208 0 0.48494177926651483 0.15460028668693951 0 0.47385653373045761 0.13690513233476651 0 0.5 0.14069834313925189 0 0.47385653373045761 0.13690513233476651 0 0.48309183637392661 0.12090481933362029 0 0.5 0.14069834313925189 0 0.5 0.1118010391168041 0 0.48309183637392661 0.12090481933362029 0 0.5 0.1118010391168041 0 0.48175888776241071 0.10333488293157921 0 0.48309183637392661 0.12090481933362029 0 0.5 0.1118010391168041 0 0.48175888776241071 0.10333488293157921 0 0.50000000000000233 0.082903735094356362 0 0.48175888776241071 0.10333488293157921 0 0.46535428024150532 0.11390090082846829 0 0.46394639012340472 0.098740305639901563 0 0.48175888776241071 0.10333488293157921 0 0.47495429810725631 0.085623284755066781 0 0.46394639012340472 0.098740305639901563 0 0.47385653373045761 0.13690513233476651 0 0.48309183637392661 0.12090481933362029 0 0.46535428024150532 0.11390090082846829 0 0.48175888776241071 0.10333488293157921 0 0.48309183637392661 0.12090481933362029 0 0.46535428024150532 0.11390090082846829 0 0.48814496806767621 0.06767626339437452 0 0.50000000000000233 0.082903735094356362 0 0.5 0.058194966980527507 0 0.48814496806767621 0.06767626339437452 0 0.47357359874978 0.071932078240572253 0 0.49723860128505132 0.055521322065371567 0 0.47357359874978 0.071932078240572253 0 0.49723860128505132 0.055521322065371567 0 0.48814496806767621 0.06767626339437452 0 0.50000000000000233 0.082903735094356362 0 0.47495429810725631 0.085623284755066781 0 0.50000000000000233 0.082903735094356362 0 0.47495429810725631 0.085623284755066781 0 0.48175888776241071 0.10333488293157921 0 0.50000000000000233 0.082903735094356362 0 0.47495429810725631 0.085623284755066781 0 0.48814496806767621 0.06767626339437452 0 0.47495429810725631 0.085623284755066781 0 0.47357359874978 0.071932078240572253 0 0.47357359874978 0.071932078240572253 0 0.48257410320816629 0.058689168032005551 0 0.47333559818290522 0.062007392755030838 0 0.47357359874978 0.071932078240572253 0 0.46290481845890519 0.062307316528455739 0 0.47333559818290522 0.062007392755030838 0 0.47357359874978 0.071932078240572253 0 0.44990859621451001 0.08834283441577491 0 0.44954536077686469 0.072616033961041673 0 0.47357359874978 0.071932078240572253 0 0.44954536077686469 0.072616033961041673 0 0.46290481845890519 0.062307316528455739 0 0.44954536077686469 0.072616033961041673 0 0.45214438793604828 0.060135004001296011 0 0.46290481845890519 0.062307316528455739 0 0.47495429810725631 0.085623284755066781 0 0.44990859621451001 0.08834283441577491 0 0.46394639012340472 0.098740305639901563 0 0.47495429810725631 0.085623284755066781 0 0.47357359874978 0.071932078240572253 0 0.44990859621451001 0.08834283441577491 0 0.47495429810725631 0.085623284755066781 0 0.44990859621451001 0.08834283441577491 0 0.47357359874978 0.071932078240572253 0 0.44990859621451001 0.08834283441577491 0 0.44990859621451001 0.08834283441577491 0 0.43725990741962412 0.081654635087845373 0 0.42876039857483311 0.090639179471783266 0 0.44990859621451001 0.08834283441577491 0 0.42876039857483311 0.090639179471783266 0 0.44990859621451001 0.08834283441577491 0 0.44954536077686469 0.072616033961041673 0 0.43725990741962412 0.081654635087845373 0 0.44954536077686469 0.072616033961041673 0 0.43725990741962412 0.081654635087845373 0 0.43535041249740281 0.073683265680915114 0 0.44954536077686469 0.072616033961041673 0 0.43535041249740281 0.073683265680915114 0 0.43982720029536959 0.061567649126462731 0 0.44954536077686469 0.072616033961041673 0 0.45214438793604828 0.060135004001296011 0 0.43982720029536959 0.061567649126462731 0 0.45600449109686753 0.12838850317670719 0 0.46535428024150532 0.11390090082846829 0 0.44514052125369308 0.11780588845757529 0 0.46535428024150532 0.11390090082846829 0 0.46394639012340472 0.098740305639901563 0 0.44785697588580459 0.1031832448632551 0 0.44990859621451001 0.08834283441577491 0 0.46394639012340472 0.098740305639901563 0 0.44785697588580459 0.1031832448632551 0 0.44990859621451001 0.08834283441577491 0 0.44785697588580459 0.1031832448632551 0 0.43374277008174977 0.099553204270582285 0 0.44990859621451001 0.08834283441577491 0 0.43374277008174977 0.099553204270582285 0 0.46535428024150532 0.11390090082846829 0 0.44785697588580459 0.1031832448632551 0 0.44514052125369308 0.11780588845757529 0 0.44785697588580459 0.1031832448632551 0 0.44514052125369308 0.11780588845757529 0 0.43077280045052863 0.1124117762079412 0 0.42802886546840008 0.1268335533391346 0 0.44514052125369308 0.11780588845757529 0 0.43077280045052863 0.1124117762079412 0 0.42802886546840008 0.1268335533391346 0 0.43077280045052863 0.1124117762079412 0 0.41770651464996861 0.12202070611786101 0 0.41207956661474893 0.13192344335435741 0 0.41770651464996861 0.12202070611786101 0 0.40190581789800439 0.1204104086134645 0 0.41770651464996861 0.12202070611786101 0 0.41697964796751957 0.1111260450560683 0 0.40190581789800439 0.1204104086134645 0 0.43077280045052863 0.1124117762079412 0 0.41770651464996861 0.12202070611786101 0 0.41697964796751957 0.1111260450560683 0 0.41697964796751957 0.1111260450560683 0 0.40190581789800439 0.1204104086134645 0 0.40389915160472217 0.10664299324099839 0 0.42124980447985838 0.1011955359539248 0 0.40761220093515599 0.092935524527789568 0 0.40389915160472217 0.10664299324099839 0 0.41697964796751957 0.1111260450560683 0 0.42124980447985838 0.1011955359539248 0 0.40389915160472217 0.10664299324099839 0 0.42124980447985838 0.1011955359539248 0 0.42876039857483311 0.090639179471783266 0 0.40761220093515599 0.092935524527789568 0 0.44785697588580459 0.1031832448632551 0 0.43077280045052863 0.1124117762079412 0 0.43374277008174977 0.099553204270582285 0 0.42124980447985838 0.1011955359539248 0 0.43374277008174977 0.099553204270582285 0 0.42876039857483311 0.090639179471783266 0 0.43077280045052863 0.1124117762079412 0 0.42124980447985838 0.1011955359539248 0 0.43374277008174977 0.099553204270582285 0 0.43077280045052863 0.1124117762079412 0 0.41697964796751957 0.1111260450560683 0 0.42124980447985838 0.1011955359539248 0 0.44990859621451001 0.08834283441577491 0 0.43374277008174977 0.099553204270582285 0 0.42876039857483311 0.090639179471783266 0 0.43725990741962412 0.081654635087845373 0 0.42649047476069729 0.07927492783033209 0 0.42876039857483311 0.090639179471783266 0 0.43725990741962412 0.081654635087845373 0 0.42649047476069729 0.07927492783033209 0 0.43535041249740281 0.073683265680915114 0 0.42649047476069729 0.07927492783033209 0 0.42876039857483311 0.090639179471783266 0 0.41775436427534052 0.082666880303475174 0 0.43535041249740281 0.073683265680915114 0 0.42752235799516969 0.067019684968681839 0 0.43982720029536959 0.061567649126462731 0 0.42649047476069729 0.07927492783033209 0 0.43535041249740281 0.073683265680915114 0 0.42752235799516969 0.067019684968681839 0 0.42649047476069729 0.07927492783033209 0 0.42752235799516969 0.067019684968681839 0 0.41732106021772192 0.073649846499480115 0 0.42752235799516969 0.067019684968681839 0 0.41732106021772192 0.073649846499480115 0 0.41707350719884512 0.057618474278966048 0 0.41732106021772192 0.073649846499480115 0 0.40690040835797459 0.067834996891916743 0 0.41707350719884512 0.057618474278966048 0 0.41732106021772192 0.073649846499480115 0 0.40690040835797459 0.067834996891916743 0 0.40940318922383168 0.078471384013429221 0 0.42876039857483311 0.090639179471783266 0 0.41775436427534052 0.082666880303475174 0 0.40761220093515599 0.092935524527789568 0 0.42876039857483311 0.090639179471783266 0 0.40761220093515599 0.092935524527789568 0 0.41732106021772192 0.073649846499480115 0 0.41775436427534052 0.082666880303475174 0 0.40940318922383168 0.078471384013429221 0 0.42649047476069729 0.07927492783033209 0 0.41732106021772192 0.073649846499480115 0 0.41775436427534052 0.082666880303475174 0 0.41775436427534052 0.082666880303475174 0 0.40940318922383168 0.078471384013429221 0 0.40761220093515599 0.092935524527789568 0 0.40761220093515599 0.092935524527789568 0 0.39905891700403973 0.078542593495361218 0 0.38646400329547881 0.095231869583795883 0 0.39905891700403973 0.078542593495361218 0 0.38790984240757093 0.076402687141704714 0 0.38646400329547881 0.095231869583795883 0 0.40940318922383168 0.078471384013429221 0 0.40761220093515599 0.092935524527789568 0 0.39905891700403973 0.078542593495361218 0 0.40690040835797459 0.067834996891916743 0 0.39905891700403973 0.078542593495361218 0 0.39485192677726377 0.063704253765073895 0 0.40690040835797459 0.067834996891916743 0 0.39485192677726377 0.063704253765073895 0 0.40450935206168298 0.056659890124628368 0 0.40690040835797459 0.067834996891916743 0 0.40940318922383168 0.078471384013429221 0 0.39905891700403973 0.078542593495361218 0 0.39905891700403973 0.078542593495361218 0 0.39485192677726377 0.063704253765073895 0 0.38790984240757093 0.076402687141704714 0 0.39485192677726377 0.063704253765073895 0 0.38476060606587298 0.064766302930692604 0 0.38790984240757093 0.076402687141704714 0 0.38476060606587298 0.064766302930692604 0 0.38790984240757093 0.076402687141704714 0 0.37507870318529818 0.078566506346050238 0 0.37472307650597247 0.063719826244887715 0 0.38476060606587298 0.064766302930692604 0 0.37507870318529818 0.078566506346050238 0 0.36628158596540289 0.099765856983088749 0 0.37507870318529818 0.078566506346050238 0 0.38646400329547881 0.095231869583795883 0 0.38790984240757093 0.076402687141704714 0 0.37507870318529818 0.078566506346050238 0 0.38646400329547881 0.095231869583795883 0 0.36628158596540289 0.099765856983088749 0 0.38646400329547881 0.095231869583795883 0 0.3840727166403502 0.1150721880386167 0 0.3840727166403502 0.1150721880386167 0 0.40190581789800439 0.1204104086134645 0 0.40389915160472217 0.10664299324099839 0 0.3908514397673819 0.13728051648176609 0 0.3840727166403502 0.1150721880386167 0 0.40190581789800439 0.1204104086134645 0 0.40761220093515599 0.092935524527789568 0 0.38646400329547881 0.095231869583795883 0 0.38646400329547881 0.095231869583795883 0 0.3840727166403502 0.1150721880386167 0 0.40389915160472217 0.10664299324099839 0 0.40761220093515599 0.092935524527789568 0 0.38646400329547881 0.095231869583795883 0 0.40389915160472217 0.10664299324099839 0 0.39534349531679641 0.017560604320033729 0 0.39722531028326541 0.023540050294212661 0 0.38913236986887312 0.021099721829092991 0 0.39263110684673602 0.02611634731446965 0 0.39722531028326541 0.023540050294212661 0 0.38913236986887312 0.021099721829092991 0 0.39263110684673602 0.02611634731446965 0 0.39261510547817507 0.029627085757012981 0 0.39657347003142662 0.027240841294384591 0 0.39263110684673602 0.02611634731446965 0 0.39261510547817507 0.029627085757012981 0 0.38919215654734629 0.029552373077171699 0 0.39261510547817507 0.029627085757012981 0 0.39564474660140941 0.030098435391266502 0 0.39657347003142662 0.027240841294384591 0 0.39564474660140941 0.030098435391266502 0 0.39821222793975541 0.030115242119450009 0 0.39657347003142662 0.027240841294384591 0 0.39821222793975541 0.030115242119450009 0 0.39657347003142662 0.027240841294384591 0 0.39995863007168753 0.027034874164708692 0 0.39263110684673602 0.02611634731446965 0 0.39657347003142662 0.027240841294384591 0 0.39722531028326541 0.023540050294212661 0 0.39657347003142662 0.027240841294384591 0 0.39722531028326541 0.023540050294212661 0 0.39995863007168753 0.027034874164708692 0 0.40377464703471699 0.021781760014622259 0 0.40257036075830038 0.03203181216150057 0 0.41052144280139802 0.021099013008850011 0 0.39995863007168753 0.027034874164708692 0 0.40377464703471699 0.021781760014622259 0 0.40257036075830038 0.03203181216150057 0 0.39722531028326541 0.023540050294212661 0 0.39995863007168753 0.027034874164708692 0 0.40377464703471699 0.021781760014622259 0 0.39564474660140941 0.030098435391266502 0 0.39821222793975541 0.030115242119450009 0 0.40257036075830038 0.03203181216150057 0 0.39821222793975541 0.030115242119450009 0 0.39995863007168753 0.027034874164708692 0 0.40257036075830038 0.03203181216150057 0 0.40377464703471699 0.021781760014622259 0 0.40201482238913089 0.01344394918981363 0 0.41052144280139802 0.021099013008850011 0 0.39534349531679641 0.017560604320033729 0 0.39722531028326541 0.023540050294212661 0 0.40377464703471699 0.021781760014622259 0 0.39534349531679641 0.017560604320033729 0 0.40377464703471699 0.021781760014622259 0 0.40201482238913089 0.01344394918981363 0 0.40201482238913089 0.01344394918981363 0 0.40027224701757808 0.002000671719491386 0 0.4139946163594968 0.0099965027353694485 0 0.40201482238913089 0.01344394918981363 0 0.40027224701757808 0.002000671719491386 0 0.39380904022056018 0.010938683452303409 0 0.40027224701757808 0.002000671719491386 0 0.39380904022056018 0.010938683452303409 0 0.38845780530895041 0.0040654243966753443 0 0.39534349531679641 0.017560604320033729 0 0.39380904022056018 0.010938683452303409 0 0.38693319027104428 0.013753327851908611 0 0.39534349531679641 0.017560604320033729 0 0.40201482238913089 0.01344394918981363 0 0.39380904022056018 0.010938683452303409 0 0.39380904022056018 0.010938683452303409 0 0.38693319027104428 0.013753327851908611 0 0.38845780530895041 0.0040654243966753443 0 0.38693319027104428 0.013753327851908611 0 0.38845780530895041 0.0040654243966753443 0 0.38198395935939772 0.0092981249682589431 0 0.38693319027104428 0.013753327851908611 0 0.38198395935939772 0.0092981249682589431 0 0.38103942945448188 0.0186593933639734 0 0.37459449088530999 0.01517565936001576 0 0.37889488087720169 -0.0051631801312783943 0 0.37459449088530999 0.01517565936001576 0 0.38198395935939772 0.0092981249682589431 0 0.37889488087720169 -0.0051631801312783943 0 0.38845780530895041 0.0040654243966753443 0 0.38198395935939772 0.0092981249682589431 0 0.37889488087720169 -0.0051631801312783943 0 0.37459449088530999 0.01517565936001576 0 0.38198395935939772 0.0092981249682589431 0 0.38103942945448188 0.0186593933639734 0 0.37459449088530999 0.01517565936001576 0 0.38103942945448188 0.0186593933639734 0 0.37886772351693482 0.029194873629646831 0 0.37459449088530999 0.01517565936001576 0 0.38103942945448188 0.0186593933639734 0 0.38103942945448188 0.0186593933639734 0 0.38913236986887312 0.021099721829092991 0 0.38446557351549487 0.024934039989235449 0 0.38693319027104428 0.013753327851908611 0 0.38103942945448188 0.0186593933639734 0 0.38913236986887312 0.021099721829092991 0 0.39534349531679641 0.017560604320033729 0 0.38693319027104428 0.013753327851908611 0 0.38913236986887312 0.021099721829092991 0 0.38919215654734629 0.029552373077171699 0 0.38861451118984902 0.025611828049026172 0 0.38472622797138611 0.030382672161076551 0 0.38919215654734629 0.029552373077171699 0 0.38472622797138611 0.030382672161076551 0 0.38742826406912262 0.032421468521507152 0 0.39263110684673602 0.02611634731446965 0 0.38913236986887312 0.021099721829092991 0 0.38861451118984902 0.025611828049026172 0 0.39263110684673602 0.02611634731446965 0 0.38919215654734629 0.029552373077171699 0 0.38861451118984902 0.025611828049026172 0 0.38913236986887312 0.021099721829092991 0 0.38861451118984902 0.025611828049026172 0 0.38446557351549487 0.024934039989235449 0 0.38861451118984902 0.025611828049026172 0 0.38446557351549487 0.024934039989235449 0 0.38472622797138611 0.030382672161076551 0 0.38446557351549487 0.024934039989235449 0 0.38472622797138611 0.030382672161076551 0 0.37886772351693482 0.029194873629646831 0 0.38103942945448188 0.0186593933639734 0 0.38446557351549487 0.024934039989235449 0 0.37886772351693482 0.029194873629646831 0 0.38130272765905332 0.040637537843627079 0 0.38567640721816798 0.043146440706603909 0 0.40257036075830038 0.03203181216150057 0 0.37479632440849803 0.039249542261527749 0 0.37886772351693482 0.029194873629646831 0 0.38064744345218388 0.035633711979947101 0 0.36659561389847711 0.053006617820216678 0 0.38130272765905332 0.040637537843627079 0 0.38567640721816798 0.043146440706603909 0 0.38472622797138611 0.030382672161076551 0 0.37886772351693482 0.029194873629646831 0 0.38064744345218388 0.035633711979947101 0 0.37479632440849803 0.039249542261527749 0 0.38064744345218388 0.035633711979947101 0 0.38130272765905332 0.040637537843627079 0 0.38064744345218388 0.035633711979947101 0 0.38130272765905332 0.040637537843627079 0 0.38500552869546317 0.034915853128795103 0 0.38567640721816798 0.043146440706603909 0 0.38874575109290987 0.048842218695119968 0 0.39147582605648701 0.046300062802153541 0 0.38130272765905332 0.040637537843627079 0 0.38500552869546317 0.034915853128795103 0 0.39078914306229462 0.034834975718985237 0 0.38919215654734629 0.029552373077171699 0 0.38742826406912262 0.032421468521507152 0 0.39078914306229462 0.034834975718985237 0 0.38742826406912262 0.032421468521507152 0 0.38500552869546317 0.034915853128795103 0 0.39078914306229462 0.034834975718985237 0 0.38472622797138611 0.030382672161076551 0 0.38742826406912262 0.032421468521507152 0 0.38500552869546317 0.034915853128795103 0 0.38472622797138611 0.030382672161076551 0 0.38064744345218388 0.035633711979947101 0 0.38500552869546317 0.034915853128795103 0 0.36659561389847711 0.053006617820216678 0 0.38567640721816798 0.043146440706603909 0 0.37472307650597247 0.063719826244887715 0 0.36659561389847711 0.053006617820216678 0 0.38383156391948481 0.053897621964911907 0 0.36659561389847711 0.053006617820216678 0 0.38567640721816798 0.043146440706603909 0 0.38383156391948481 0.053897621964911907 0 0.37472307650597247 0.063719826244887715 0 0.38476060606587298 0.064766302930692604 0 0.38383156391948481 0.053897621964911907 0 0.38383156391948481 0.053897621964911907 0 0.38874575109290987 0.048842218695119968 0 0.39399920717749992 0.05202474930681053 0 0.38567640721816798 0.043146440706603909 0 0.38383156391948481 0.053897621964911907 0 0.38874575109290987 0.048842218695119968 0 0.39485192677726377 0.063704253765073895 0 0.38476060606587298 0.064766302930692604 0 0.38383156391948481 0.053897621964911907 0 0.39485192677726377 0.063704253765073895 0 0.38383156391948481 0.053897621964911907 0 0.39399920717749992 0.05202474930681053 0 0.39485192677726377 0.063704253765073895 0 0.39399920717749992 0.05202474930681053 0 0.40450935206168298 0.056659890124628368 0 0.38874575109290987 0.048842218695119968 0 0.39399920717749992 0.05202474930681053 0 0.39147582605648701 0.046300062802153541 0 0.39399920717749992 0.05202474930681053 0 0.3964372399600391 0.046933373461365092 0 0.39147582605648701 0.046300062802153541 0 0.39399920717749992 0.05202474930681053 0 0.3964372399600391 0.046933373461365092 0 0.401142437157816 0.050002884250507182 0 0.401142437157816 0.050002884250507182 0 0.40450935206168298 0.056659890124628368 0 0.41045239736604772 0.050866674059532477 0 0.401142437157816 0.050002884250507182 0 0.4048445231718954 0.045268584944136957 0 0.41045239736604772 0.050866674059532477 0 0.39399920717749992 0.05202474930681053 0 0.401142437157816 0.050002884250507182 0 0.40450935206168298 0.056659890124628368 0 0.3964372399600391 0.046933373461365092 0 0.401142437157816 0.050002884250507182 0 0.4000057325947099 0.044864253316698147 0 0.38567640721816798 0.043146440706603909 0 0.39556299681368268 0.041474917630656062 0 0.40475720053785758 0.033286263592988793 0 0.38567640721816798 0.043146440706603909 0 0.40475720053785758 0.033286263592988793 0 0.40257036075830038 0.03203181216150057 0 0.38130272765905332 0.040637537843627079 0 0.40257036075830038 0.03203181216150057 0 0.38130272765905332 0.040637537843627079 0 0.39078914306229462 0.034834975718985237 0 0.40257036075830038 0.03203181216150057 0 0.38567640721816798 0.043146440706603909 0 0.40475720053785758 0.033286263592988793 0 0.39564474660140941 0.030098435391266502 0 0.39078914306229462 0.034834975718985237 0 0.40257036075830038 0.03203181216150057 0 0.39261510547817507 0.029627085757012981 0 0.39564474660140941 0.030098435391266502 0 0.39078914306229462 0.034834975718985237 0 0.39261510547817507 0.029627085757012981 0 0.38919215654734629 0.029552373077171699 0 0.39078914306229462 0.034834975718985237 0 0.38567640721816798 0.043146440706603909 0 0.39147582605648701 0.046300062802153541 0 0.39556299681368268 0.041474917630656062 0 0.3964372399600391 0.046933373461365092 0 0.39147582605648701 0.046300062802153541 0 0.39556299681368268 0.041474917630656062 0 0.3964372399600391 0.046933373461365092 0 0.39556299681368268 0.041474917630656062 0 0.4000057325947099 0.044864253316698147 0 0.39556299681368268 0.041474917630656062 0 0.4000057325947099 0.044864253316698147 0 0.40289343621651402 0.04109821419082757 0 0.39556299681368268 0.041474917630656062 0 0.40289343621651402 0.04109821419082757 0 0.40225871660598439 0.038552622686233072 0 0.401142437157816 0.050002884250507182 0 0.4000057325947099 0.044864253316698147 0 0.4048445231718954 0.045268584944136957 0 0.4000057325947099 0.044864253316698147 0 0.4048445231718954 0.045268584944136957 0 0.40289343621651402 0.04109821419082757 0 0.4048445231718954 0.045268584944136957 0 0.40289343621651402 0.04109821419082757 0 0.40739580699685018 0.041851749493930321 0 0.40289343621651402 0.04109821419082757 0 0.40582123285588328 0.038351095330459828 0 0.40739580699685018 0.041851749493930321 0 0.40289343621651402 0.04109821419082757 0 0.40582123285588328 0.038351095330459828 0 0.40225871660598439 0.038552622686233072 0 0.39556299681368268 0.041474917630656062 0 0.40225871660598439 0.038552622686233072 0 0.40475720053785758 0.033286263592988793 0 0.40582123285588328 0.038351095330459828 0 0.40225871660598439 0.038552622686233072 0 0.40475720053785758 0.033286263592988793 0 0.40475720053785758 0.033286263592988793 0 0.41076197789303281 0.039233981905517128 0 0.42119601566834858 0.034552762227955967 0 0.40582123285588328 0.038351095330459828 0 0.40475720053785758 0.033286263592988793 0 0.41076197789303281 0.039233981905517128 0 0.40739580699685018 0.041851749493930321 0 0.41061039037471059 0.045005988952994368 0 0.41076197789303281 0.039233981905517128 0 0.40582123285588328 0.038351095330459828 0 0.40739580699685018 0.041851749493930321 0 0.41076197789303281 0.039233981905517128 0 0.4048445231718954 0.045268584944136957 0 0.40739580699685018 0.041851749493930321 0 0.41061039037471059 0.045005988952994368 0 0.41061039037471059 0.045005988952994368 0 0.41076197789303281 0.039233981905517128 0 0.41682625409094681 0.045121023472028447 0 0.41076197789303281 0.039233981905517128 0 0.41682625409094681 0.045121023472028447 0 0.42119601566834858 0.034552762227955967 0 0.40450935206168298 0.056659890124628368 0 0.41045239736604772 0.050866674059532477 0 0.41707350719884512 0.057618474278966048 0 0.40690040835797459 0.067834996891916743 0 0.40450935206168298 0.056659890124628368 0 0.41707350719884512 0.057618474278966048 0 0.4048445231718954 0.045268584944136957 0 0.41061039037471059 0.045005988952994368 0 0.41045239736604772 0.050866674059532477 0 0.41061039037471059 0.045005988952994368 0 0.41682625409094681 0.045121023472028447 0 0.41045239736604772 0.050866674059532477 0 0.41682625409094681 0.045121023472028447 0 0.41707350719884512 0.057618474278966048 0 0.4232884586495238 0.050545767516627628 0 0.41682625409094681 0.045121023472028447 0 0.41045239736604772 0.050866674059532477 0 0.41707350719884512 0.057618474278966048 0 0.41707350719884512 0.057618474278966048 0 0.42907149300098102 0.056323946395935007 0 0.4232884586495238 0.050545767516627628 0 0.42752235799516969 0.067019684968681839 0 0.41707350719884512 0.057618474278966048 0 0.42907149300098102 0.056323946395935007 0 0.42907149300098102 0.056323946395935007 0 0.4232884586495238 0.050545767516627628 0 0.42869433549097802 0.044482919351142063 0 0.42907149300098102 0.056323946395935007 0 0.42869433549097802 0.044482919351142063 0 0.43824797367001728 0.047171589550754407 0 0.42907149300098102 0.056323946395935007 0 0.43982720029536959 0.061567649126462731 0 0.43824797367001728 0.047171589550754407 0 0.42752235799516969 0.067019684968681839 0 0.42907149300098102 0.056323946395935007 0 0.43982720029536959 0.061567649126462731 0 0.41682625409094681 0.045121023472028447 0 0.4232884586495238 0.050545767516627628 0 0.42869433549097802 0.044482919351142063 0 0.42119601566834858 0.034552762227955967 0 0.42869433549097802 0.044482919351142063 0 0.43300295487540957 0.038445647387719543 0 0.41682625409094681 0.045121023472028447 0 0.42119601566834858 0.034552762227955967 0 0.42869433549097802 0.044482919351142063 0 0.42869433549097802 0.044482919351142063 0 0.43300295487540957 0.038445647387719543 0 0.43824797367001728 0.047171589550754407 0 0.43300295487540957 0.038445647387719543 0 0.43824797367001728 0.047171589550754407 0 0.44069713347005929 0.038070753093473582 0 0.43300295487540957 0.038445647387719543 0 0.43560592680911692 0.030260460092356809 0 0.44069713347005929 0.038070753093473582 0 0.42119601566834858 0.034552762227955967 0 0.43300295487540957 0.038445647387719543 0 0.43560592680911692 0.030260460092356809 0 0.4238379938575475 0.02342608647937388 0 0.44211586364386951 0.016030137306248561 0 0.43880324159788159 0.023673484209897559 0 0.43560592680911692 0.030260460092356809 0 0.4238379938575475 0.02342608647937388 0 0.43880324159788159 0.023673484209897559 0 0.4238379938575475 0.02342608647937388 0 0.44464394474466168 0.01267441817465869 0 0.4238379938575475 0.02342608647937388 0 0.44464394474466168 0.01267441817465869 0 0.44211586364386951 0.016030137306248561 0 0.4238379938575475 0.02342608647937388 0 0.44211586364386951 0.016030137306248561 0 0.42119601566834858 0.034552762227955967 0 0.43560592680911692 0.030260460092356809 0 0.4238379938575475 0.02342608647937388 0 0.40475720053785758 0.033286263592988793 0 0.40257036075830038 0.03203181216150057 0 0.4238379938575475 0.02342608647937388 0 0.40257036075830038 0.03203181216150057 0 0.4238379938575475 0.02342608647937388 0 0.40475720053785758 0.033286263592988793 0 0.4238379938575475 0.02342608647937388 0 0.40475720053785758 0.033286263592988793 0 0.42119601566834858 0.034552762227955967 0 0.4238379938575475 0.02342608647937388 0 0.40257036075830038 0.03203181216150057 0 0.4238379938575475 0.02342608647937388 0 0.41052144280139802 0.021099013008850011 0 0.4238379938575475 0.02342608647937388 0 0.41052144280139802 0.021099013008850011 0 0.4139946163594968 0.0099965027353694485 0 0.4139946163594968 0.0099965027353694485 0 0.42836614395573003 0.0069547910493651631 0 0.41895504813559642 -0.0069454950346773611 0 0.40027224701757808 0.002000671719491386 0 0.4139946163594968 0.0099965027353694485 0 0.41895504813559642 -0.0069454950346773611 0 0.40201482238913089 0.01344394918981363 0 0.41052144280139802 0.021099013008850011 0 0.4139946163594968 0.0099965027353694485 0 0.4238379938575475 0.02342608647937388 0 0.4139946163594968 0.0099965027353694485 0 0.42836614395573003 0.0069547910493651631 0 0.4238379938575475 0.02342608647937388 0 0.42836614395573003 0.0069547910493651631 0 0.44464394474466168 0.01267441817465869 0 0.44211586364386951 0.016030137306248561 0 0.45289562656897681 0.0167968762847957 0 0.4603937334301913 0.0086341881331230344 0 0.44464394474466168 0.01267441817465869 0 0.46544989563177491 0.001922749869941392 0 0.442202471883686 -0.00251137258236961 0 0.44211586364386951 0.016030137306248561 0 0.4603937334301913 0.0086341881331230344 0 0.44464394474466168 0.01267441817465869 0 0.44211586364386951 0.016030137306248561 0 0.4603937334301913 0.0086341881331230344 0 0.42836614395573003 0.0069547910493651631 0 0.44464394474466168 0.01267441817465869 0 0.442202471883686 -0.00251137258236961 0 0.44211586364386951 0.016030137306248561 0 0.43880324159788159 0.023673484209897559 0 0.44760640372291011 0.021707192592674021 0 0.43560592680911692 0.030260460092356809 0 0.44483316869381639 0.027258750070028599 0 0.44624909304086119 0.033820676333030361 0 0.43560592680911692 0.030260460092356809 0 0.43880324159788159 0.023673484209897559 0 0.44483316869381639 0.027258750070028599 0 0.43880324159788159 0.023673484209897559 0 0.44483316869381639 0.027258750070028599 0 0.44760640372291011 0.021707192592674021 0 0.44483316869381639 0.027258750070028599 0 0.45171752654937852 0.028173097578758421 0 0.44624909304086119 0.033820676333030361 0 0.44483316869381639 0.027258750070028599 0 0.45171752654937852 0.028173097578758421 0 0.44760640372291011 0.021707192592674021 0 0.45171752654937852 0.028173097578758421 0 0.44760640372291011 0.021707192592674021 0 0.45386108370824968 0.021645203401984409 0 0.44211586364386951 0.016030137306248561 0 0.44760640372291011 0.021707192592674021 0 0.45289562656897681 0.0167968762847957 0 0.44760640372291011 0.021707192592674021 0 0.45289562656897681 0.0167968762847957 0 0.45386108370824968 0.021645203401984409 0 0.45289562656897681 0.0167968762847957 0 0.45386108370824968 0.021645203401984409 0 0.46140449082848939 0.017651348288010391 0 0.45737391711111508 0.025095619465605509 0 0.46325326768400199 0.024609570816277411 0 0.46140449082848939 0.017651348288010391 0 0.45386108370824968 0.021645203401984409 0 0.45737391711111508 0.025095619465605509 0 0.46140449082848939 0.017651348288010391 0 0.45171752654937852 0.028173097578758421 0 0.45737391711111508 0.025095619465605509 0 0.45930860662552059 0.031512585593673682 0 0.45171752654937852 0.028173097578758421 0 0.45386108370824968 0.021645203401984409 0 0.45737391711111508 0.025095619465605509 0 0.45737391711111508 0.025095619465605509 0 0.46325326768400199 0.024609570816277411 0 0.45930860662552059 0.031512585593673682 0 0.46743279174462149 0.030556557235884831 0 0.46325326768400199 0.024609570816277411 0 0.46893135533132391 0.02237572151751701 0 0.46743279174462149 0.030556557235884831 0 0.46325326768400199 0.024609570816277411 0 0.45930860662552059 0.031512585593673682 0 0.46140449082848939 0.017651348288010391 0 0.47412450944267792 0.01517876007667991 0 0.46893135533132391 0.02237572151751701 0 0.46325326768400199 0.024609570816277411 0 0.46140449082848939 0.017651348288010391 0 0.46893135533132391 0.02237572151751701 0 0.44464394474466168 0.01267441817465869 0 0.46544989563177491 0.001922749869941392 0 0.46140449082848939 0.017651348288010391 0 0.46897181082908562 0.009750002618431345 0 0.47412450944267792 0.01517876007667991 0 0.46140449082848939 0.017651348288010391 0 0.4603937334301913 0.0086341881331230344 0 0.46897181082908562 0.009750002618431345 0 0.44464394474466168 0.01267441817465869 0 0.46544989563177491 0.001922749869941392 0 0.4603937334301913 0.0086341881331230344 0 0.46544989563177491 0.001922749869941392 0 0.4603937334301913 0.0086341881331230344 0 0.46897181082908562 0.009750002618431345 0 0.45289562656897681 0.0167968762847957 0 0.46140449082848939 0.017651348288010391 0 0.4603937334301913 0.0086341881331230344 0 0.45214438793604828 0.060135004001296011 0 0.43982720029536959 0.061567649126462731 0 0.44880826779546817 0.051090514578947803 0 0.43982720029536959 0.061567649126462731 0 0.43824797367001728 0.047171589550754407 0 0.44880826779546817 0.051090514578947803 0 0.44880826779546817 0.051090514578947803 0 0.44706797093880568 0.04180853874468328 0 0.45476867159344048 0.043926984717620202 0 0.44706797093880568 0.04180853874468328 0 0.45363668606298718 0.03677071419427335 0 0.45476867159344048 0.043926984717620202 0 0.43824797367001728 0.047171589550754407 0 0.44706797093880568 0.04180853874468328 0 0.44069713347005929 0.038070753093473582 0 0.43824797367001728 0.047171589550754407 0 0.44880826779546817 0.051090514578947803 0 0.44706797093880568 0.04180853874468328 0 0.44706797093880568 0.04180853874468328 0 0.44069713347005929 0.038070753093473582 0 0.44624909304086119 0.033820676333030361 0 0.43560592680911692 0.030260460092356809 0 0.44069713347005929 0.038070753093473582 0 0.44624909304086119 0.033820676333030361 0 0.45171752654937852 0.028173097578758421 0 0.44624909304086119 0.033820676333030361 0 0.45363668606298718 0.03677071419427335 0 0.44706797093880568 0.04180853874468328 0 0.44624909304086119 0.033820676333030361 0 0.45363668606298718 0.03677071419427335 0 0.45171752654937852 0.028173097578758421 0 0.45363668606298718 0.03677071419427335 0 0.45930860662552059 0.031512585593673682 0 0.45363668606298718 0.03677071419427335 0 0.45930860662552059 0.031512585593673682 0 0.46225403930006198 0.040302566800154267 0 0.46743279174462149 0.030556557235884831 0 0.46225403930006198 0.040302566800154267 0 0.47303117775432407 0.038732803820311842 0 0.46743279174462149 0.030556557235884831 0 0.45930860662552059 0.031512585593673682 0 0.46225403930006198 0.040302566800154267 0 0.46225403930006198 0.040302566800154267 0 0.46738466144667512 0.046485628127038763 0 0.47303117775432407 0.038732803820311842 0 0.46225403930006198 0.040302566800154267 0 0.46738466144667512 0.046485628127038763 0 0.45987899093893703 0.051163991542186177 0 0.46225403930006198 0.040302566800154267 0 0.45476867159344048 0.043926984717620202 0 0.45987899093893703 0.051163991542186177 0 0.45363668606298718 0.03677071419427335 0 0.46225403930006198 0.040302566800154267 0 0.45476867159344048 0.043926984717620202 0 0.44880826779546817 0.051090514578947803 0 0.45476867159344048 0.043926984717620202 0 0.45987899093893703 0.051163991542186177 0 0.45214438793604828 0.060135004001296011 0 0.44880826779546817 0.051090514578947803 0 0.45987899093893703 0.051163991542186177 0 0.46738466144667512 0.046485628127038763 0 0.45987899093893703 0.051163991542186177 0 0.46976295390835782 0.053549760239793368 0 0.46290481845890519 0.062307316528455739 0 0.47333559818290522 0.062007392755030838 0 0.46976295390835782 0.053549760239793368 0 0.45987899093893703 0.051163991542186177 0 0.46290481845890519 0.062307316528455739 0 0.46976295390835782 0.053549760239793368 0 0.45214438793604828 0.060135004001296011 0 0.45987899093893703 0.051163991542186177 0 0.46290481845890519 0.062307316528455739 0 0.48257410320816629 0.058689168032005551 0 0.47333559818290522 0.062007392755030838 0 0.47807802959024392 0.052519301956959773 0 0.47333559818290522 0.062007392755030838 0 0.46976295390835782 0.053549760239793368 0 0.47807802959024392 0.052519301956959773 0 0.46976295390835782 0.053549760239793368 0 0.47807802959024392 0.052519301956959773 0 0.47422867652982909 0.046261035230220897 0 0.46738466144667512 0.046485628127038763 0 0.46976295390835782 0.053549760239793368 0 0.47422867652982909 0.046261035230220897 0 0.47807802959024392 0.052519301956959773 0 0.48170977993504921 0.044193149851796593 0 0.47422867652982909 0.046261035230220897 0 0.48257410320816629 0.058689168032005551 0 0.47807802959024392 0.052519301956959773 0 0.48685706577715598 0.05041530563291137 0 0.47807802959024392 0.052519301956959773 0 0.48170977993504921 0.044193149851796593 0 0.48685706577715598 0.05041530563291137 0 0.48170977993504921 0.044193149851796593 0 0.47422867652982909 0.046261035230220897 0 0.47303117775432407 0.038732803820311842 0 0.46738466144667512 0.046485628127038763 0 0.47422867652982909 0.046261035230220897 0 0.47303117775432407 0.038732803820311842 0 0.46743279174462149 0.030556557235884831 0 0.47303117775432407 0.038732803820311842 0 0.47670391131798678 0.02594344204912049 0 0.47303117775432407 0.038732803820311842 0 0.48496340134180449 0.034061714157939967 0 0.47670391131798678 0.02594344204912049 0 0.48170977993504921 0.044193149851796593 0 0.47303117775432407 0.038732803820311842 0 0.48496340134180449 0.034061714157939967 0 0.5 0.03348619886669868 0 0.49076253725899732 0.042934488980805971 0 0.49723860128505132 0.055521322065371567 0 0.48496340134180449 0.034061714157939967 0 0.5 0.03348619886669868 0 0.49076253725899732 0.042934488980805971 0 0.48170977993504921 0.044193149851796593 0 0.49076253725899732 0.042934488980805971 0 0.48685706577715598 0.05041530563291137 0 0.48170977993504921 0.044193149851796593 0 0.48496340134180449 0.034061714157939967 0 0.49076253725899732 0.042934488980805971 0 0.5 0.03348619886669868 0 0.49723860128505132 0.055521322065371567 0 0.5 0.058194966980527507 0 0.47357359874978 0.071932078240572253 0 0.48257410320816629 0.058689168032005551 0 0.49723860128505132 0.055521322065371567 0 0.49076253725899732 0.042934488980805971 0 0.48685706577715598 0.05041530563291137 0 0.49723860128505132 0.055521322065371567 0 0.48814496806767621 0.06767626339437452 0 0.49723860128505132 0.055521322065371567 0 0.5 0.058194966980527507 0 0.48257410320816629 0.058689168032005551 0 0.48685706577715598 0.05041530563291137 0 0.49723860128505132 0.055521322065371567 0 0.46544989563177491 0.001922749869941392 0 0.48348642481229398 0.0053629667244019918 0 0.48272494781588782 -0.0070042937455077631 0 0.46544989563177491 0.001922749869941392 0 0.48348642481229398 0.0053629667244019918 0 0.46544989563177491 0.001922749869941392 0 0.48348642481229398 0.0053629667244019918 0 0.46897181082908562 0.009750002618431345 0 0.48348642481229398 0.0053629667244019918 0 0.47412450944267792 0.01517876007667991 0 0.48605108280650772 0.020582824214250461 0 0.48348642481229398 0.0053629667244019918 0 0.46897181082908562 0.009750002618431345 0 0.47412450944267792 0.01517876007667991 0 0.47412450944267792 0.01517876007667991 0 0.46893135533132391 0.02237572151751701 0 0.47670391131798678 0.02594344204912049 0 0.46743279174462149 0.030556557235884831 0 0.46893135533132391 0.02237572151751701 0 0.47670391131798678 0.02594344204912049 0 0.48496340134180449 0.034061714157939967 0 0.47670391131798678 0.02594344204912049 0 0.48605108280650772 0.020582824214250461 0 0.47412450944267792 0.01517876007667991 0 0.47670391131798678 0.02594344204912049 0 0.48605108280650772 0.020582824214250461 0 0.5 0.03348619886669868 0 0.48605108280650772 0.020582824214250461 0 0.5 0.0087774307528697415 0 0.48496340134180449 0.034061714157939967 0 0.5 0.03348619886669868 0 0.48605108280650772 0.020582824214250461 0 0.48348642481229398 0.0053629667244019918 0 0.48605108280650772 0.020582824214250461 0 0.5 0.0087774307528697415 0 0.48348642481229398 0.0053629667244019918 0 0.5 0.0087774307528697415 0 0.48272494781588782 -0.0070042937455077631 0 0.5 0.0087774307528697415 0 0.48272494781588782 -0.0070042937455077631 0 0.49999999999999961 -0.015931337360959089 0 0.48272494781588782 -0.0070042937455077631 0 0.49999999999999961 -0.015931337360959089 0 0.48272494781588782 -0.0070042937455077631 0 0.49999999999999961 -0.015931337360959089 0 0.48561182061750507 -0.023462517241423161 0 0.46544989563177491 0.001922749869941392 0 0.48272494781588782 -0.0070042937455077631 0 0.48272494781588782 -0.0070042937455077631 0 0.47088578217238608 -0.013640690755445221 0 0.48561182061750507 -0.023462517241423161 0 0.48272494781588782 -0.0070042937455077631 0 0.47088578217238608 -0.013640690755445221 0 0.46633691283250489 -0.0075856997904656994 0 0.46544989563177491 0.001922749869941392 0 0.48272494781588782 -0.0070042937455077631 0 0.46633691283250489 -0.0075856997904656994 0 0.47088578217238608 -0.013640690755445221 0 0.47444837309925147 -0.041103101861588262 0 0.47088578217238608 -0.013640690755445221 0 0.48561182061750507 -0.023462517241423161 0 0.47444837309925147 -0.041103101861588262 0 0.47088578217238608 -0.013640690755445221 0 0.47444837309925147 -0.041103101861588262 0 0.4621419881614276 -0.022617552564955679 0 0.49999999999999961 -0.015931337360959089 0 0.48561182061750507 -0.023462517241423161 0 0.4999999999999995 -0.039633162483615467 0 0.48561182061750507 -0.023462517241423161 0 0.4999999999999995 -0.039633162483615467 0 0.47444837309925147 -0.041103101861588262 0 0.4999999999999995 -0.039633162483615467 0 0.48785120872767113 -0.051267518223481148 0 0.47444837309925147 -0.041103101861588262 0 0.4999999999999995 -0.039633162483615467 0 0.5 -0.067717015493363619 0 0.49078677747649052 -0.067830543278745103 0 0.4999999999999995 -0.039633162483615467 0 0.48785120872767113 -0.051267518223481148 0 0.49078677747649052 -0.067830543278745103 0 0.4999999999999995 -0.039633162483615467 0 0.49078677747649052 -0.067830543278745103 0 0.47444837309925147 -0.041103101861588262 0 0.47801096402611692 -0.068565512967731529 0 0.47444837309925147 -0.041103101861588262 0 0.46495903619728052 -0.057406904462865761 0 0.47801096402611692 -0.068565512967731529 0 0.48785120872767113 -0.051267518223481148 0 0.47444837309925147 -0.041103101861588262 0 0.47801096402611692 -0.068565512967731529 0 0.47444837309925147 -0.041103101861588262 0 0.45513509602774982 -0.041585983682992142 0 0.4621419881614276 -0.022617552564955679 0 0.47444837309925147 -0.041103101861588262 0 0.45513509602774982 -0.041585983682992142 0 0.46495903619728052 -0.057406904462865761 0 0.45513509602774982 -0.041585983682992142 0 0.46495903619728052 -0.057406904462865761 0 0.45338922748911781 -0.059857510805833347 0 0.45513509602774982 -0.041585983682992142 0 0.45338922748911781 -0.059857510805833347 0 0.44303997058580841 -0.051187424097911681 0 0.45338922748911781 -0.059857510805833347 0 0.44303997058580841 -0.051187424097911681 0 0.44141986824996032 -0.072271978892388011 0 0.44303997058580841 -0.051187424097911681 0 0.44141986824996032 -0.072271978892388011 0 0.43202526188851609 -0.058994710072395443 0 0.45513509602774982 -0.041585983682992142 0 0.44885101750485629 -0.023185503066025459 0 0.4363906470672545 -0.038146349837377608 0 0.45513509602774982 -0.041585983682992142 0 0.44303997058580841 -0.051187424097911681 0 0.4363906470672545 -0.038146349837377608 0 0.44885101750485629 -0.023185503066025459 0 0.43545516600356238 -0.018542236635354901 0 0.4363906470672545 -0.038146349837377608 0 0.44885101750485629 -0.023185503066025459 0 0.44641516538780129 -0.01298121066637904 0 0.43545516600356238 -0.018542236635354901 0 0.442202471883686 -0.00251137258236961 0 0.44641516538780129 -0.01298121066637904 0 0.43545516600356238 -0.018542236635354901 0 0.44885101750485629 -0.023185503066025459 0 0.44641516538780129 -0.01298121066637904 0 0.45770298453281422 -0.0095140594673826552 0 0.442202471883686 -0.00251137258236961 0 0.44641516538780129 -0.01298121066637904 0 0.45770298453281422 -0.0095140594673826552 0 0.46544989563177491 0.001922749869941392 0 0.442202471883686 -0.00251137258236961 0 0.45770298453281422 -0.0095140594673826552 0 0.46544989563177491 0.001922749869941392 0 0.442202471883686 -0.00251137258236961 0 0.46544989563177491 0.001922749869941392 0 0.45770298453281422 -0.0095140594673826552 0 0.46633691283250489 -0.0075856997904656994 0 0.45770298453281422 -0.0095140594673826552 0 0.46633691283250489 -0.0075856997904656994 0 0.4621419881614276 -0.022617552564955679 0 0.47088578217238608 -0.013640690755445221 0 0.46633691283250489 -0.0075856997904656994 0 0.4621419881614276 -0.022617552564955679 0 0.45513509602774982 -0.041585983682992142 0 0.44885101750485629 -0.023185503066025459 0 0.4621419881614276 -0.022617552564955679 0 0.44885101750485629 -0.023185503066025459 0 0.45770298453281422 -0.0095140594673826552 0 0.4621419881614276 -0.022617552564955679 0 0.47259506378848121 -0.1235069015635832 0 0.48157355495298199 -0.096027924073874782 0 0.47259506378848121 -0.1235069015635832 0 0.49036089659736731 -0.1248283224093974 0 0.47259506378848121 -0.1235069015635832 0 0.49036089659736731 -0.1248283224093974 0 0.48289006499803683 -0.1061763078835391 0 0.5 -0.12388472151285999 0 0.49083694646501669 -0.099985805358220145 0 0.48289006499803683 -0.1061763078835391 0 0.49036089659736731 -0.1248283224093974 0 0.5 -0.12388472151285999 0 0.48289006499803683 -0.1061763078835391 0 0.5 -0.12388472151285999 0 0.5 -0.095800868503111813 0 0.49083694646501669 -0.099985805358220145 0 0.5 -0.095800868503111813 0 0.49083694646501669 -0.099985805358220145 0 0.49263945577889789 -0.085472431341463095 0 0.49083694646501669 -0.099985805358220145 0 0.48157355495298199 -0.096027924073874782 0 0.48289006499803683 -0.1061763078835391 0 0.49083694646501669 -0.099985805358220145 0 0.48157355495298199 -0.096027924073874782 0 0.49263945577889789 -0.085472431341463095 0 0.48157355495298199 -0.096027924073874782 0 0.48289006499803683 -0.1061763078835391 0 0.47259506378848121 -0.1235069015635832 0 0.48157355495298199 -0.096027924073874782 0 0.48289006499803683 -0.1061763078835391 0 0.47259506378848121 -0.1235069015635832 0 0.48157355495298199 -0.096027924073874782 0 0.46979318813070381 -0.1084685341211281 0 0.48157355495298199 -0.096027924073874782 0 0.47034609140909239 -0.09815010644119776 0 0.47309764312594588 -0.091896399529242265 0 0.48157355495298199 -0.096027924073874782 0 0.46979318813070381 -0.1084685341211281 0 0.47034609140909239 -0.09815010644119776 0 0.48157355495298199 -0.096027924073874782 0 0.47288458322805421 -0.084354015540891114 0 0.47801096402611692 -0.068565512967731529 0 0.48157355495298199 -0.096027924073874782 0 0.47801096402611692 -0.068565512967731529 0 0.47034609140909239 -0.09815010644119776 0 0.47309764312594588 -0.091896399529242265 0 0.46758634291365492 -0.089053552061005431 0 0.48157355495298199 -0.096027924073874782 0 0.47309764312594588 -0.091896399529242265 0 0.47288458322805421 -0.084354015540891114 0 0.47309764312594588 -0.091896399529242265 0 0.47288458322805421 -0.084354015540891114 0 0.46758634291365492 -0.089053552061005431 0 0.5 -0.095800868503111813 0 0.49263945577889789 -0.085472431341463095 0 0.5 -0.067717015493363619 0 0.48157355495298199 -0.096027924073874782 0 0.49263945577889789 -0.085472431341463095 0 0.49078677747649052 -0.067830543278745103 0 0.48157355495298199 -0.096027924073874782 0 0.49078677747649052 -0.067830543278745103 0 0.48785120872767113 -0.051267518223481148 0 0.49078677747649052 -0.067830543278745103 0 0.47801096402611692 -0.068565512967731529 0 0.49263945577889789 -0.085472431341463095 0 0.5 -0.067717015493363619 0 0.49078677747649052 -0.067830543278745103 0 0.47288458322805421 -0.084354015540891114 0 0.47801096402611692 -0.068565512967731529 0 0.46272118454120498 -0.075666899874805432 0 0.48157355495298199 -0.096027924073874782 0 0.49078677747649052 -0.067830543278745103 0 0.47801096402611692 -0.068565512967731529 0 0.46495903619728052 -0.057406904462865761 0 0.47801096402611692 -0.068565512967731529 0 0.46272118454120498 -0.075666899874805432 0 0.45338922748911781 -0.059857510805833347 0 0.46272118454120498 -0.075666899874805432 0 0.45202801622065869 -0.073188871622493254 0 0.46495903619728052 -0.057406904462865761 0 0.45338922748911781 -0.059857510805833347 0 0.46272118454120498 -0.075666899874805432 0 0.46272118454120498 -0.075666899874805432 0 0.45202801622065869 -0.073188871622493254 0 0.45058178460235171 -0.084959096916946253 0 0.45338922748911781 -0.059857510805833347 0 0.44141986824996032 -0.072271978892388011 0 0.45202801622065869 -0.073188871622493254 0 0.44141986824996032 -0.072271978892388011 0 0.45202801622065869 -0.073188871622493254 0 0.45058178460235171 -0.084959096916946253 0 0.44141986824996032 -0.072271978892388011 0 0.45058178460235171 -0.084959096916946253 0 0.43552189323735191 -0.088461001163154904 0 0.45058178460235171 -0.084959096916946253 0 0.44464473035156699 -0.093461459354080373 0 0.43552189323735191 -0.088461001163154904 0 0.44464473035156699 -0.093461459354080373 0 0.43490283208080949 -0.098263377056434537 0 0.43552189323735191 -0.088461001163154904 0 0.45058178460235171 -0.084959096916946253 0 0.44464473035156699 -0.093461459354080373 0 0.45384773252532162 -0.096872017447198033 0 0.45058178460235171 -0.084959096916946253 0 0.45880474547572608 -0.090730703254513559 0 0.45384773252532162 -0.096872017447198033 0 0.46272118454120498 -0.075666899874805432 0 0.45058178460235171 -0.084959096916946253 0 0.45880474547572608 -0.090730703254513559 0 0.46272118454120498 -0.075666899874805432 0 0.45880474547572608 -0.090730703254513559 0 0.46758634291365492 -0.089053552061005431 0 0.47288458322805421 -0.084354015540891114 0 0.46272118454120498 -0.075666899874805432 0 0.46758634291365492 -0.089053552061005431 0 0.45880474547572608 -0.090730703254513559 0 0.46758634291365492 -0.089053552061005431 0 0.46264407444464128 -0.095467840391544601 0 0.47034609140909239 -0.09815010644119776 0 0.46758634291365492 -0.089053552061005431 0 0.46264407444464128 -0.095467840391544601 0 0.47034609140909239 -0.09815010644119776 0 0.46264407444464128 -0.095467840391544601 0 0.46263545989941152 -0.10253282275380821 0 0.46979318813070381 -0.1084685341211281 0 0.47034609140909239 -0.09815010644119776 0 0.46263545989941152 -0.10253282275380821 0 0.46979318813070381 -0.1084685341211281 0 0.46263545989941152 -0.10253282275380821 0 0.45514917388795029 -0.1081021535283084 0 0.46263545989941152 -0.10253282275380821 0 0.45514917388795029 -0.1081021535283084 0 0.45384773252532162 -0.096872017447198033 0 0.45880474547572608 -0.090730703254513559 0 0.46264407444464128 -0.095467840391544601 0 0.45384773252532162 -0.096872017447198033 0 0.46264407444464128 -0.095467840391544601 0 0.46263545989941152 -0.10253282275380821 0 0.45384773252532162 -0.096872017447198033 0 0.44464473035156699 -0.093461459354080373 0 0.45384773252532162 -0.096872017447198033 0 0.44356211879523411 -0.1025593549218469 0 0.44464473035156699 -0.093461459354080373 0 0.44356211879523411 -0.1025593549218469 0 0.43490283208080949 -0.098263377056434537 0 0.45514917388795029 -0.1081021535283084 0 0.45384773252532162 -0.096872017447198033 0 0.44356211879523411 -0.1025593549218469 0 0.45514917388795029 -0.1081021535283084 0 0.44356211879523411 -0.1025593549218469 0 0.44443294246958809 -0.1214122058308557 0 0.44356211879523411 -0.1025593549218469 0 0.44443294246958809 -0.1214122058308557 0 0.42868085487920599 -0.1086119698486578 0 0.47259506378848121 -0.1235069015635832 0 0.45514917388795029 -0.1081021535283084 0 0.44443294246958809 -0.1214122058308557 0 0.47259506378848121 -0.1235069015635832 0 0.46979318813070381 -0.1084685341211281 0 0.45514917388795029 -0.1081021535283084 0 0.47259506378848121 -0.1235069015635832 0 0.44443294246958809 -0.1214122058308557 0 0.41097588126231221 -0.1159549127896556 0 0.41703463162541871 -0.1109239155270435 0 0.40916871621234102 -0.1048001018904467 0 0.41097588126231221 -0.1159549127896556 0 0.41703463162541871 -0.1109239155270435 0 0.41627082115069508 -0.11931751009812799 0 0.41703463162541871 -0.1109239155270435 0 0.41627082115069508 -0.11931751009812799 0 0.42868085487920599 -0.1086119698486578 0 0.44443294246958809 -0.1214122058308557 0 0.41627082115069508 -0.11931751009812799 0 0.42864827901521962 -0.13230307691868981 0 0.44443294246958809 -0.1214122058308557 0 0.41627082115069508 -0.11931751009812799 0 0.42868085487920599 -0.1086119698486578 0 0.44443294246958809 -0.1214122058308557 0 0.41627082115069508 -0.11931751009812799 0 0.42868085487920599 -0.1086119698486578 0 0.42528873054273458 -0.099267231547044921 0 0.42007688462253923 -0.1059350830083296 0 0.42868085487920599 -0.1086119698486578 0 0.43490283208080949 -0.098263377056434537 0 0.42528873054273458 -0.099267231547044921 0 0.41703463162541871 -0.1109239155270435 0 0.42868085487920599 -0.1086119698486578 0 0.42007688462253923 -0.1059350830083296 0 0.44356211879523411 -0.1025593549218469 0 0.42868085487920599 -0.1086119698486578 0 0.43490283208080949 -0.098263377056434537 0 0.43490283208080949 -0.098263377056434537 0 0.42528873054273458 -0.099267231547044921 0 0.43552189323735191 -0.088461001163154904 0 0.42528873054273458 -0.099267231547044921 0 0.41556420304267122 -0.09850894623294687 0 0.42007688462253923 -0.1059350830083296 0 0.42528873054273458 -0.099267231547044921 0 0.41556420304267122 -0.09850894623294687 0 0.41842079547705141 -0.089680998921706306 0 0.41703463162541871 -0.1109239155270435 0 0.42007688462253923 -0.1059350830083296 0 0.40916871621234102 -0.1048001018904467 0 0.41556420304267122 -0.09850894623294687 0 0.42007688462253923 -0.1059350830083296 0 0.40916871621234102 -0.1048001018904467 0 0.41556420304267122 -0.09850894623294687 0 0.40916871621234102 -0.1048001018904467 0 0.40486588835868959 -0.092861315797206773 0 0.41556420304267122 -0.09850894623294687 0 0.41842079547705141 -0.089680998921706306 0 0.40486588835868959 -0.092861315797206773 0 0.40691344904270588 -0.079668240613075675 0 0.41842079547705141 -0.089680998921706306 0 0.40486588835868959 -0.092861315797206773 0 0.40691344904270588 -0.079668240613075675 0 0.41842079547705141 -0.089680998921706306 0 0.42150700335437868 -0.077610017985464116 0 0.41842079547705141 -0.089680998921706306 0 0.43552189323735191 -0.088461001163154904 0 0.42150700335437868 -0.077610017985464116 0 0.44141986824996032 -0.072271978892388011 0 0.43552189323735191 -0.088461001163154904 0 0.42150700335437868 -0.077610017985464116 0 0.42528873054273458 -0.099267231547044921 0 0.41842079547705141 -0.089680998921706306 0 0.43552189323735191 -0.088461001163154904 0 0.42150700335437868 -0.077610017985464116 0 0.43202526188851609 -0.058994710072395443 0 0.41848836595095962 -0.059902129065081813 0 0.44141986824996032 -0.072271978892388011 0 0.42150700335437868 -0.077610017985464116 0 0.43202526188851609 -0.058994710072395443 0 0.42150700335437868 -0.077610017985464116 0 0.40628851102428509 -0.065837994681875248 0 0.41848836595095962 -0.059902129065081813 0 0.42150700335437868 -0.077610017985464116 0 0.40628851102428509 -0.065837994681875248 0 0.40691344904270588 -0.079668240613075675 0 0.42150700335437868 -0.077610017985464116 0 0.40628851102428509 -0.065837994681875248 0 0.40691344904270588 -0.079668240613075675 0 0.40628851102428509 -0.065837994681875248 0 0.39323178204057069 -0.068268756381444848 0 0.40691344904270588 -0.079668240613075675 0 0.39323178204057069 -0.068268756381444848 0 0.39200416032747548 -0.081990947608906864 0 0.40628851102428509 -0.065837994681875248 0 0.39323178204057069 -0.068268756381444848 0 0.3910700186941915 -0.054065971378286282 0 0.39323178204057069 -0.068268756381444848 0 0.37648124892715762 -0.069357616139549633 0 0.39200416032747548 -0.081990947608906864 0 0.39323178204057069 -0.068268756381444848 0 0.37648124892715762 -0.069357616139549633 0 0.3910700186941915 -0.054065971378286282 0 0.37920301715649241 -0.084074977873624432 0 0.38643418021121628 -0.10030208684523199 0 0.36189247916011991 -0.084649260900809264 0 0.37920301715649241 -0.084074977873624432 0 0.39200416032747548 -0.081990947608906864 0 0.38643418021121628 -0.10030208684523199 0 0.37648124892715762 -0.069357616139549633 0 0.37920301715649241 -0.084074977873624432 0 0.39200416032747548 -0.081990947608906864 0 0.39200416032747548 -0.081990947608906864 0 0.40486588835868959 -0.092861315797206773 0 0.38643418021121628 -0.10030208684523199 0 0.40691344904270588 -0.079668240613075675 0 0.39200416032747548 -0.081990947608906864 0 0.40486588835868959 -0.092861315797206773 0 0.40916871621234102 -0.1048001018904467 0 0.40486588835868959 -0.092861315797206773 0 0.38643418021121628 -0.10030208684523199 0 0.41097588126231221 -0.1159549127896556 0 0.38643418021121628 -0.10030208684523199 0 0.41097588126231221 -0.1159549127896556 0 0.40916871621234102 -0.1048001018904467 0 0.38643418021121628 -0.10030208684523199 0 0.37597292405794852 -0.1245295465601442 0 0.38810869983180202 -0.1172228143654003 0 0.368145005592379 -0.1118099338458996 0 0.38643418021121628 -0.10030208684523199 0 0.38810869983180202 -0.1172228143654003 0 0.368145005592379 -0.1118099338458996 0 0.37597292405794852 -0.1245295465601442 0 0.38810869983180202 -0.1172228143654003 0 0.3896467501328254 -0.12902970802031841 0 0.41627082115069508 -0.11931751009812799 0 0.38810869983180202 -0.1172228143654003 0 0.41627082115069508 -0.11931751009812799 0 0.38810869983180202 -0.1172228143654003 0 0.40164692973609922 -0.1287033953831965 0 0.38810869983180202 -0.1172228143654003 0 0.40164692973609922 -0.1287033953831965 0 0.3896467501328254 -0.12902970802031841 0 0.41097588126231221 -0.1159549127896556 0 0.38643418021121628 -0.10030208684523199 0 0.38810869983180202 -0.1172228143654003 0 0.41097588126231221 -0.1159549127896556 0 0.41627082115069508 -0.11931751009812799 0 0.38810869983180202 -0.1172228143654003 0 0.41901100752575132 -0.028626194303810651 0 0.41895504813559642 -0.0069454950346773611 0 0.40295456348334641 -0.026127971024614682 0 0.41895504813559642 -0.0069454950346773611 0 0.39570762438750678 -0.01137961748698511 0 0.42836614395573003 0.0069547910493651631 0 0.442202471883686 -0.00251137258236961 0 0.41895504813559642 -0.0069454950346773611 0 0.442202471883686 -0.00251137258236961 0 0.41895504813559642 -0.0069454950346773611 0 0.43545516600356238 -0.018542236635354901 0 0.442202471883686 -0.00251137258236961 0 0.41895504813559642 -0.0069454950346773611 0 0.41901100752575132 -0.028626194303810651 0 0.41895504813559642 -0.0069454950346773611 0 0.43545516600356238 -0.018542236635354901 0 0.41901100752575132 -0.028626194303810651 0 0.43545516600356238 -0.018542236635354901 0 0.4363906470672545 -0.038146349837377608 0 0.41901100752575132 -0.028626194303810651 0 0.4363906470672545 -0.038146349837377608 0 0.42163031421067187 -0.045606220595769832 0 0.4363906470672545 -0.038146349837377608 0 0.43202526188851609 -0.058994710072395443 0 0.42163031421067187 -0.045606220595769832 0 0.44303997058580841 -0.051187424097911681 0 0.4363906470672545 -0.038146349837377608 0 0.43202526188851609 -0.058994710072395443 0 0.43202526188851609 -0.058994710072395443 0 0.41848836595095962 -0.059902129065081813 0 0.42163031421067187 -0.045606220595769832 0 0.41848836595095962 -0.059902129065081813 0 0.42163031421067187 -0.045606220595769832 0 0.40223628862087751 -0.042361719700183632 0 0.40628851102428509 -0.065837994681875248 0 0.41848836595095962 -0.059902129065081813 0 0.40223628862087751 -0.042361719700183632 0 0.41901100752575132 -0.028626194303810651 0 0.42163031421067187 -0.045606220595769832 0 0.40223628862087751 -0.042361719700183632 0 0.41901100752575132 -0.028626194303810651 0 0.40223628862087751 -0.042361719700183632 0 0.40295456348334641 -0.026127971024614682 0 0.40223628862087751 -0.042361719700183632 0 0.39043327723960197 -0.03866762419630939 0 0.40295456348334641 -0.026127971024614682 0 0.40223628862087751 -0.042361719700183632 0 0.3910700186941915 -0.054065971378286282 0 0.39043327723960197 -0.03866762419630939 0 0.40628851102428509 -0.065837994681875248 0 0.40223628862087751 -0.042361719700183632 0 0.3910700186941915 -0.054065971378286282 0 0.40628851102428509 -0.065837994681875248 0 0.3910700186941915 -0.054065971378286282 0 0.40223628862087751 -0.042361719700183632 0 0.3910700186941915 -0.054065971378286282 0 0.3910700186941915 -0.054065971378286282 0 0.3751367286095732 -0.054713236032221071 0 0.37229174680272792 -0.039540337070194713 0 0.37648124892715762 -0.069357616139549633 0 0.3910700186941915 -0.054065971378286282 0 0.3751367286095732 -0.054713236032221071 0 0.37648124892715762 -0.069357616139549633 0 0.3910700186941915 -0.054065971378286282 0 0.3910700186941915 -0.054065971378286282 0 0.39043327723960197 -0.03866762419630939 0 0.37229174680272792 -0.039540337070194713 0 0.3910700186941915 -0.054065971378286282 0 0.37229174680272792 -0.039540337070194713 0 0.39043327723960197 -0.03866762419630939 0 0.38648259942746072 -0.026754609203914651 0 0.37229174680272792 -0.039540337070194713 0 0.38648259942746072 -0.026754609203914651 0 0.37246020063941743 -0.015813739939292849 0 0.37229174680272792 -0.039540337070194713 0 0.38648259942746072 -0.026754609203914651 0 0.39570762438750678 -0.01137961748698511 0 0.37246020063941743 -0.015813739939292849 0 0.39043327723960197 -0.03866762419630939 0 0.38648259942746072 -0.026754609203914651 0 0.40295456348334641 -0.026127971024614682 0 0.38648259942746072 -0.026754609203914651 0 0.40295456348334641 -0.026127971024614682 0 0.39570762438750678 -0.01137961748698511 0 0.40027224701757808 0.002000671719491386 0 0.41895504813559642 -0.0069454950346773611 0 0.39570762438750678 -0.01137961748698511 0 0.41895504813559642 -0.0069454950346773611 0 0.40295456348334641 -0.026127971024614682 0 0.39570762438750678 -0.01137961748698511 0 0.40027224701757808 0.002000671719491386 0 0.38845780530895041 0.0040654243966753443 0 0.39570762438750678 -0.01137961748698511 0 0.39570762438750678 -0.01137961748698511 0 0.37246020063941743 -0.015813739939292849 0 0.39570762438750678 -0.01137961748698511 0 0.37889488087720169 -0.0051631801312783943 0 0.37246020063941743 -0.015813739939292849 0 0.38845780530895041 0.0040654243966753443 0 0.39570762438750678 -0.01137961748698511 0 0.37889488087720169 -0.0051631801312783943 0 0.36692943227511748 0.0011015127040547731 0 0.37889488087720169 -0.0051631801312783943 0 0.36183353371767202 -0.0087823247185334196 0 0.37889488087720169 -0.0051631801312783943 0 0.36183353371767202 -0.0087823247185334196 0 0.37246020063941743 -0.015813739939292849 0 0.36692943227511748 0.0011015127040547731 0 0.3523948236202864 0.003175896306015143 0 0.36183353371767202 -0.0087823247185334196 0 0.36183353371767202 -0.0087823247185334196 0 0.37246020063941743 -0.015813739939292849 0 0.35351347491126428 -0.025014702762103071 0 0.37246020063941743 -0.015813739939292849 0 0.35351347491126428 -0.025014702762103071 0 0.37229174680272792 -0.039540337070194713 0 0.35351347491126428 -0.025014702762103071 0 0.33473520301980059 -0.01048906845401139 0 0.35351347491126428 -0.025014702762103071 0 0.33876109933361559 -0.027487059499823899 0 0.35640823040035302 -0.040673245665179242 0 0.3523948236202864 0.003175896306015143 0 0.3502415414833 -0.010502397171534139 0 0.33473520301980059 -0.01048906845401139 0 0.35351347491126428 -0.025014702762103071 0 0.3502415414833 -0.010502397171534139 0 0.33473520301980059 -0.01048906845401139 0 0.36183353371767202 -0.0087823247185334196 0 0.35351347491126428 -0.025014702762103071 0 0.3502415414833 -0.010502397171534139 0 0.3523948236202864 0.003175896306015143 0 0.36183353371767202 -0.0087823247185334196 0 0.3502415414833 -0.010502397171534139 0 0.3523948236202864 0.003175896306015143 0 0.33019515635526347 -0.0088238667479870764 0 0.33473520301980059 -0.01048906845401139 0 0.3523948236202864 0.003175896306015143 0 0.33419492787585958 0.002001405262558 0 0.33019515635526347 -0.0088238667479870764 0 0.3523948236202864 0.003175896306015143 0 0.33019515635526347 -0.0088238667479870764 0 0.33419492787585958 0.002001405262558 0 0.32851037824121793 -0.0017592904080261081 0 0.33019515635526347 -0.0088238667479870764 0 0.33019515635526347 -0.0088238667479870764 0 0.33127389070187291 -0.016614661572334481 0 0.32336020525892711 -0.01752365619875057 0 0.33019515635526347 -0.0088238667479870764 0 0.33473520301980059 -0.01048906845401139 0 0.33127389070187291 -0.016614661572334481 0 0.33473520301980059 -0.01048906845401139 0 0.33876109933361559 -0.027487059499823899 0 0.33127389070187291 -0.016614661572334481 0 0.35351347491126428 -0.025014702762103071 0 0.33473520301980059 -0.01048906845401139 0 0.33876109933361559 -0.027487059499823899 0 0.33876109933361559 -0.027487059499823899 0 0.32919536835317292 -0.021154942976942249 0 0.32744781231368519 -0.027759964262560589 0 0.33876109933361559 -0.027487059499823899 0 0.32744781231368519 -0.027759964262560589 0 0.33153746164210551 -0.035810758555460058 0 0.33876109933361559 -0.027487059499823899 0 0.32919536835317292 -0.021154942976942249 0 0.33127389070187291 -0.016614661572334481 0 0.33019515635526347 -0.0088238667479870764 0 0.32336020525892711 -0.01752365619875057 0 0.30799548909024049 -0.02082362980198928 0 0.32919536835317292 -0.021154942976942249 0 0.33127389070187291 -0.016614661572334481 0 0.32336020525892711 -0.01752365619875057 0 0.32919536835317292 -0.021154942976942249 0 0.3234599406920185 -0.02233344142438742 0 0.32336020525892711 -0.01752365619875057 0 0.3234599406920185 -0.02233344142438742 0 0.32336020525892711 -0.01752365619875057 0 0.31774757550839261 -0.021164081106885599 0 0.3234599406920185 -0.02233344142438742 0 0.32744781231368519 -0.027759964262560589 0 0.31784238310226659 -0.02769711368088678 0 0.32744781231368519 -0.027759964262560589 0 0.31784238310226659 -0.02769711368088678 0 0.32093741621003868 -0.035933455805973132 0 0.32919536835317292 -0.021154942976942249 0 0.3234599406920185 -0.02233344142438742 0 0.32744781231368519 -0.027759964262560589 0 0.31784238310226659 -0.02769711368088678 0 0.3140265765361161 -0.032080656592077962 0 0.30980443504603361 -0.028946331974232908 0 0.31784238310226659 -0.02769711368088678 0 0.3120856579651608 -0.02473298086960185 0 0.30980443504603361 -0.028946331974232908 0 0.3234599406920185 -0.02233344142438742 0 0.31784238310226659 -0.02769711368088678 0 0.31774757550839261 -0.021164081106885599 0 0.31784238310226659 -0.02769711368088678 0 0.31774757550839261 -0.021164081106885599 0 0.3120856579651608 -0.02473298086960185 0 0.32336020525892711 -0.01752365619875057 0 0.31774757550839261 -0.021164081106885599 0 0.30799548909024049 -0.02082362980198928 0 0.31774757550839261 -0.021164081106885599 0 0.30799548909024049 -0.02082362980198928 0 0.3120856579651608 -0.02473298086960185 0 0.33019515635526347 -0.0088238667479870764 0 0.31527893302627791 -0.0077633937468102841 0 0.30799548909024049 -0.02082362980198928 0 0.33019515635526347 -0.0088238667479870764 0 0.30799548909024049 -0.02082362980198928 0 0.33019515635526347 -0.0088238667479870764 0 0.31527893302627791 -0.0077633937468102841 0 0.32461618564748362 -0.0037350750780605728 0 0.32355532810202448 0.0032160433559077742 0 0.31527893302627791 -0.0077633937468102841 0 0.32461618564748362 -0.0037350750780605728 0 0.32355532810202448 0.0032160433559077742 0 0.32851037824121793 -0.0017592904080261081 0 0.32461618564748362 -0.0037350750780605728 0 0.32851037824121793 -0.0017592904080261081 0 0.33019515635526347 -0.0088238667479870764 0 0.32461618564748362 -0.0037350750780605728 0 0.31804931597249758 -0.05668586093924885 0 0.31744865812427442 -0.043640958535384737 0 0.32630855495927041 -0.043314935271623639 0 0.31804931597249758 -0.05668586093924885 0 0.31744865812427442 -0.043640958535384737 0 0.30929369762310832 -0.042969136892412621 0 0.31744865812427442 -0.043640958535384737 0 0.31232544693478781 -0.037588704593428598 0 0.30929369762310832 -0.042969136892412621 0 0.31744865812427442 -0.043640958535384737 0 0.32093741621003868 -0.035933455805973132 0 0.31232544693478781 -0.037588704593428598 0 0.31784238310226659 -0.02769711368088678 0 0.3140265765361161 -0.032080656592077962 0 0.32093741621003868 -0.035933455805973132 0 0.3140265765361161 -0.032080656592077962 0 0.32093741621003868 -0.035933455805973132 0 0.31232544693478781 -0.037588704593428598 0 0.32744781231368519 -0.027759964262560589 0 0.32093741621003868 -0.035933455805973132 0 0.33153746164210551 -0.035810758555460058 0 0.32093741621003868 -0.035933455805973132 0 0.32630855495927041 -0.043314935271623639 0 0.33153746164210551 -0.035810758555460058 0 0.31744865812427442 -0.043640958535384737 0 0.32093741621003868 -0.035933455805973132 0 0.32630855495927041 -0.043314935271623639 0 0.32630855495927041 -0.043314935271623639 0 0.33153746164210551 -0.035810758555460058 0 0.34150716163513373 -0.046288201127451647 0 0.33876109933361559 -0.027487059499823899 0 0.33153746164210551 -0.035810758555460058 0 0.34150716163513373 -0.046288201127451647 0 0.31804931597249758 -0.05668586093924885 0 0.32630855495927041 -0.043314935271623639 0 0.34150716163513373 -0.046288201127451647 0 0.31804931597249758 -0.05668586093924885 0 0.34150716163513373 -0.046288201127451647 0 0.33997089756630899 -0.070667560920028627 0 0.34150716163513373 -0.046288201127451647 0 0.35640823040035302 -0.040673245665179242 0 0.36070390001421582 -0.055889019540853638 0 0.34150716163513373 -0.046288201127451647 0 0.36070390001421582 -0.055889019540853638 0 0.33997089756630899 -0.070667560920028627 0 0.33876109933361559 -0.027487059499823899 0 0.34150716163513373 -0.046288201127451647 0 0.35640823040035302 -0.040673245665179242 0 0.35351347491126428 -0.025014702762103071 0 0.37229174680272792 -0.039540337070194713 0 0.35351347491126428 -0.025014702762103071 0 0.35640823040035302 -0.040673245665179242 0 0.37229174680272792 -0.039540337070194713 0 0.35640823040035302 -0.040673245665179242 0 0.37229174680272792 -0.039540337070194713 0 0.36070390001421582 -0.055889019540853638 0 0.37648124892715762 -0.069357616139549633 0 0.3751367286095732 -0.054713236032221071 0 0.36070390001421582 -0.055889019540853638 0 0.3751367286095732 -0.054713236032221071 0 0.37229174680272792 -0.039540337070194713 0 0.36070390001421582 -0.055889019540853638 0 0.37648124892715762 -0.069357616139549633 0 0.36070390001421582 -0.055889019540853638 0 0.35976213141695063 -0.070140864375310294 0 0.37648124892715762 -0.069357616139549633 0 0.35976213141695063 -0.070140864375310294 0 0.36189247916011991 -0.084649260900809264 0 0.37648124892715762 -0.069357616139549633 0 0.36189247916011991 -0.084649260900809264 0 0.37648124892715762 -0.069357616139549633 0 0.37920301715649241 -0.084074977873624432 0 0.36189247916011991 -0.084649260900809264 0 0.38643418021121628 -0.10030208684523199 0 0.36189247916011991 -0.084649260900809264 0 0.36189247916011991 -0.084649260900809264 0 0.35017645613019432 -0.096929752336992969 0 0.33997089756630899 -0.070667560920028627 0 0.36189247916011991 -0.084649260900809264 0 0.35017645613019432 -0.096929752336992969 0 0.35976213141695063 -0.070140864375310294 0 0.36189247916011991 -0.084649260900809264 0 0.33997089756630899 -0.070667560920028627 0 0.36189247916011991 -0.084649260900809264 0 0.33997089756630899 -0.070667560920028627 0 0.36070390001421582 -0.055889019540853638 0 0.35976213141695063 -0.070140864375310294 0 0.33997089756630899 -0.070667560920028627 0 0.37597292405794852 -0.1245295465601442 0 0.368145005592379 -0.1118099338458996 0 0.3602162686704305 -0.1322286133454175 0 0.368145005592379 -0.1118099338458996 0 0.35289086469652459 -0.11454912677387449 0 0.3602162686704305 -0.1322286133454175 0 0.38643418021121628 -0.10030208684523199 0 0.36189247916011991 -0.084649260900809264 0 0.36379072127009349 -0.1005800259496941 0 0.38643418021121628 -0.10030208684523199 0 0.368145005592379 -0.1118099338458996 0 0.36379072127009349 -0.1005800259496941 0 0.368145005592379 -0.1118099338458996 0 0.36379072127009349 -0.1005800259496941 0 0.35289086469652459 -0.11454912677387449 0 0.36189247916011991 -0.084649260900809264 0 0.36379072127009349 -0.1005800259496941 0 0.35017645613019432 -0.096929752336992969 0 0.35017645613019432 -0.096929752336992969 0 0.35289086469652459 -0.11454912677387449 0 0.33846043310026502 -0.1092102437731729 0 0.36379072127009349 -0.1005800259496941 0 0.35017645613019432 -0.096929752336992969 0 0.35289086469652459 -0.11454912677387449 0 0.35017645613019432 -0.096929752336992969 0 0.33846043310026502 -0.1092102437731729 0 0.33846043310026502 -0.1092102437731729 0 0.3226212734000915 -0.1178824567408885 0 0.33803317961813079 -0.13133663647660629 0 0.35289086469652459 -0.11454912677387449 0 0.33846043310026502 -0.1092102437731729 0 0.33803317961813079 -0.13133663647660629 0 0.33846043310026502 -0.1092102437731729 0 0.31612355708454382 -0.10018630418963689 0 0.33156614731594281 -0.090655983100922377 0 0.35017645613019432 -0.096929752336992969 0 0.33846043310026502 -0.1092102437731729 0 0.33156614731594281 -0.090655983100922377 0 0.33846043310026502 -0.1092102437731729 0 0.31612355708454382 -0.10018630418963689 0 0.3226212734000915 -0.1178824567408885 0 0.31612355708454382 -0.10018630418963689 0 0.3226212734000915 -0.1178824567408885 0 0.30734296533892358 -0.114055576756456 0 0.3226212734000915 -0.1178824567408885 0 0.30734296533892358 -0.114055576756456 0 0.31456304701155152 -0.13532778149951419 0 0.31804931597249758 -0.05668586093924885 0 0.33997089756630899 -0.070667560920028627 0 0.33997089756630899 -0.070667560920028627 0 0.33156614731594281 -0.090655983100922377 0 0.31309939269840181 -0.076286054284780386 0 0.35017645613019432 -0.096929752336992969 0 0.33997089756630899 -0.070667560920028627 0 0.33156614731594281 -0.090655983100922377 0 0.31612355708454382 -0.10018630418963689 0 0.33156614731594281 -0.090655983100922377 0 0.31309939269840181 -0.076286054284780386 0 0.31804931597249758 -0.05668586093924885 0 0.33997089756630899 -0.070667560920028627 0 0.31309939269840181 -0.076286054284780386 0 0.31309939269840181 -0.076286054284780386 0 0.29374005629222499 -0.071409846202421912 0 0.31309939269840181 -0.076286054284780386 0 0.29374005629222499 -0.071409846202421912 0 0.30321768856913289 -0.05869885163105544 0 0.31804931597249758 -0.05668586093924885 0 0.31309939269840181 -0.076286054284780386 0 0.30321768856913289 -0.05869885163105544 0 0.31612355708454382 -0.10018630418963689 0 0.31309939269840181 -0.076286054284780386 0 0.29238233516355261 -0.096097062518220727 0 0.31309939269840181 -0.076286054284780386 0 0.29374005629222499 -0.071409846202421912 0 0.29238233516355261 -0.096097062518220727 0 0.29238233516355261 -0.096097062518220727 0 0.27424574894769133 -0.1000461377926601 0 0.27792972035400909 -0.082137910983591397 0 0.29374005629222499 -0.071409846202421912 0 0.29238233516355261 -0.096097062518220727 0 0.27792972035400909 -0.082137910983591397 0 0.29374005629222499 -0.071409846202421912 0 0.29238233516355261 -0.096097062518220727 0 0.29374005629222499 -0.071409846202421912 0 0.26718834407264053 -0.06472203051448909 0 0.28302387064624568 -0.056981342866457597 0 0.30734296533892358 -0.114055576756456 0 0.29102461403487839 -0.1207842788340195 0 0.31456304701155152 -0.13532778149951419 0 0.30734296533892358 -0.114055576756456 0 0.29238233516355261 -0.096097062518220727 0 0.29102461403487839 -0.1207842788340195 0 0.31612355708454382 -0.10018630418963689 0 0.30734296533892358 -0.114055576756456 0 0.29238233516355261 -0.096097062518220727 0 0.29238233516355261 -0.096097062518220727 0 0.29102461403487839 -0.1207842788340195 0 0.27424574894769133 -0.1000461377926601 0 0.29238233516355261 -0.096097062518220727 0 0.29102461403487839 -0.1207842788340195 0 0.29102461403487839 -0.1207842788340195 0 0.26284071423811339 -0.11581214247851 0 0.27139671494880668 -0.13410167819687749 0 0.29102461403487839 -0.1207842788340195 0 0.27424574894769133 -0.1000461377926601 0 0.26284071423811339 -0.11581214247851 0 0.27424574894769133 -0.1000461377926601 0 0.25441555720452103 -0.099744898289011563 0 0.26284071423811339 -0.11581214247851 0 0.27424574894769133 -0.1000461377926601 0 0.25441555720452103 -0.099744898289011563 0 0.26222609427114602 -0.085901921428888806 0 0.25441555720452103 -0.099744898289011563 0 0.26284071423811339 -0.11581214247851 0 0.24198202123963611 -0.1157099208213011 0 0.26718834407264053 -0.06472203051448909 0 0.27792972035400909 -0.082137910983591397 0 0.26222609427114602 -0.085901921428888806 0 0.29374005629222499 -0.071409846202421912 0 0.26718834407264053 -0.06472203051448909 0 0.27792972035400909 -0.082137910983591397 0 0.29374005629222499 -0.071409846202421912 0 0.26718834407264053 -0.06472203051448909 0 0.27424574894769133 -0.1000461377926601 0 0.27792972035400909 -0.082137910983591397 0 0.26222609427114602 -0.085901921428888806 0 0.25441555720452103 -0.099744898289011563 0 0.26222609427114602 -0.085901921428888806 0 0.24517134464965409 -0.082124325795385061 0 0.26222609427114602 -0.085901921428888806 0 0.25438533598547758 -0.072520189115604733 0 0.24517134464965409 -0.082124325795385061 0 0.26718834407264053 -0.06472203051448909 0 0.26222609427114602 -0.085901921428888806 0 0.26718834407264053 -0.06472203051448909 0 0.25144151139444432 -0.060755735845817851 0 0.26718834407264053 -0.06472203051448909 0 0.25438533598547758 -0.072520189115604733 0 0.25144151139444432 -0.060755735845817851 0 0.26718834407264053 -0.06472203051448909 0 0.26222609427114602 -0.085901921428888806 0 0.25438533598547758 -0.072520189115604733 0 0.26718834407264053 -0.06472203051448909 0 0.25773087651241178 -0.048622997549347242 0 0.27131344541132391 -0.047115259420875792 0 0.26718834407264053 -0.06472203051448909 0 0.25144151139444432 -0.060755735845817851 0 0.25773087651241178 -0.048622997549347242 0 0.26718834407264053 -0.06472203051448909 0 0.27131344541132391 -0.047115259420875792 0 0.26718834407264053 -0.06472203051448909 0 0.27131344541132391 -0.047115259420875792 0 0.28302387064624568 -0.056981342866457597 0 0.27131344541132391 -0.047115259420875792 0 0.28302387064624568 -0.056981342866457597 0 0.28404739812015473 -0.04444429636155145 0 0.27131344541132391 -0.047115259420875792 0 0.26227050941750008 -0.036502092334467127 0 0.27543854675000989 -0.029508488327263081 0 0.27131344541132391 -0.047115259420875792 0 0.27543854675000989 -0.029508488327263081 0 0.27131344541132391 -0.047115259420875792 0 0.27543854675000989 -0.029508488327263081 0 0.28404739812015473 -0.04444429636155145 0 0.26227050941750008 -0.036502092334467127 0 0.25934822603708069 -0.019245997190847072 0 0.2475214523766672 -0.038017719183998357 0 0.25773087651241178 -0.048622997549347242 0 0.27131344541132391 -0.047115259420875792 0 0.26227050941750008 -0.036502092334467127 0 0.25773087651241178 -0.048622997549347242 0 0.26227050941750008 -0.036502092334467127 0 0.2475214523766672 -0.038017719183998357 0 0.25934822603708069 -0.019245997190847072 0 0.2475214523766672 -0.038017719183998357 0 0.25934822603708069 -0.019245997190847072 0 0.2475214523766672 -0.038017719183998357 0 0.24435197334383041 -0.02290936779525762 0 0.25934822603708069 -0.019245997190847072 0 0.26335254901417959 -0.01289024541483649 0 0.24366403529044059 0.002495366349431846 0 0.26397579491981138 0.0012783235116488789 0 0.25433817122211883 -0.0072258693492852121 0 0.25934822603708069 -0.019245997190847072 0 0.25433817122211883 -0.0072258693492852121 0 0.24135025084907449 -0.0077667940018189101 0 0.25934822603708069 -0.019245997190847072 0 0.24135025084907449 -0.0077667940018189101 0 0.25934822603708069 -0.019245997190847072 0 0.25433817122211883 -0.0072258693492852121 0 0.26335254901417959 -0.01289024541483649 0 0.26397579491981138 0.0012783235116488789 0 0.25433817122211883 -0.0072258693492852121 0 0.26335254901417959 -0.01289024541483649 0 0.27081045807381038 -0.0061203112278747163 0 0.28088160762882902 -0.0062763979921149349 0 0.27543854675000989 -0.029508488327263081 0 0.2842875545491822 6.1280673865913085e-05 0 0.26397579491981138 0.0012783235116488789 0 0.27081045807381038 -0.0061203112278747163 0 0.26397579491981138 0.0012783235116488789 0 0.26335254901417959 -0.01289024541483649 0 0.27081045807381038 -0.0061203112278747163 0 0.2842875545491822 6.1280673865913085e-05 0 0.27081045807381038 -0.0061203112278747163 0 0.28088160762882902 -0.0062763979921149349 0 0.25934822603708069 -0.019245997190847072 0 0.27543854675000989 -0.029508488327263081 0 0.26227050941750008 -0.036502092334467127 0 0.25934822603708069 -0.019245997190847072 0 0.27543854675000989 -0.029508488327263081 0 0.26335254901417959 -0.01289024541483649 0 0.27081045807381038 -0.0061203112278747163 0 0.27543854675000989 -0.029508488327263081 0 0.28088160762882902 -0.0062763979921149349 0 0.27543854675000989 -0.029508488327263081 0 0.28482894952064208 -0.018926912889107729 0 0.25934822603708069 -0.019245997190847072 0 0.26335254901417959 -0.01289024541483649 0 0.27543854675000989 -0.029508488327263081 0 0.28088160762882902 -0.0062763979921149349 0 0.27543854675000989 -0.029508488327263081 0 0.27543854675000989 -0.029508488327263081 0 0.28482894952064208 -0.018926912889107729 0 0.29625750476674112 -0.025635501425957611 0 0.28482894952064208 -0.018926912889107729 0 0.29432367153785649 -0.01652080933387837 0 0.29625750476674112 -0.025635501425957611 0 0.2842875545491822 6.1280673865913085e-05 0 0.28088160762882902 -0.0062763979921149349 0 0.28821964881951501 -0.0052132681657208581 0 0.28088160762882902 -0.0062763979921149349 0 0.28821964881951501 -0.0052132681657208581 0 0.28832340115836158 -0.01117819365035036 0 0.28088160762882902 -0.0062763979921149349 0 0.28482894952064208 -0.018926912889107729 0 0.28832340115836158 -0.01117819365035036 0 0.28482894952064208 -0.018926912889107729 0 0.29432367153785649 -0.01652080933387837 0 0.28832340115836158 -0.01117819365035036 0 0.29432367153785649 -0.01652080933387837 0 0.29336312828496508 -0.0089535798709299008 0 0.2991165412784364 -0.0071193526778691226 0 0.29432367153785649 -0.01652080933387837 0 0.28832340115836158 -0.01117819365035036 0 0.29336312828496508 -0.0089535798709299008 0 0.28821964881951501 -0.0052132681657208581 0 0.28832340115836158 -0.01117819365035036 0 0.29336312828496508 -0.0089535798709299008 0 0.2842875545491822 6.1280673865913085e-05 0 0.29470669975848007 0.0018412655843019891 0 0.28821964881951501 -0.0052132681657208581 0 0.29470669975848007 0.0018412655843019891 0 0.28821964881951501 -0.0052132681657208581 0 0.29336312828496508 -0.0089535798709299008 0 0.29470669975848007 0.0018412655843019891 0 0.29336312828496508 -0.0089535798709299008 0 0.2991165412784364 -0.0071193526778691226 0 0.31008355974769358 0.0062589604735967599 0 0.2991165412784364 -0.0071193526778691226 0 0.30310564706318638 -0.018222600242436091 0 0.31008355974769358 0.0062589604735967599 0 0.31527893302627791 -0.0077633937468102841 0 0.30310564706318638 -0.018222600242436091 0 0.31008355974769358 0.0062589604735967599 0 0.30310564706318638 -0.018222600242436091 0 0.29432367153785649 -0.01652080933387837 0 0.2991165412784364 -0.0071193526778691226 0 0.30310564706318638 -0.018222600242436091 0 0.31527893302627791 -0.0077633937468102841 0 0.30310564706318638 -0.018222600242436091 0 0.30799548909024049 -0.02082362980198928 0 0.30310564706318638 -0.018222600242436091 0 0.3011401036299175 -0.0312640797189341 0 0.29612773437868528 -0.04270416095847062 0 0.30310564706318638 -0.018222600242436091 0 0.29612773437868528 -0.04270416095847062 0 0.29625750476674112 -0.025635501425957611 0 0.30310564706318638 -0.018222600242436091 0 0.29612773437868528 -0.04270416095847062 0 0.30310564706318638 -0.018222600242436091 0 0.30483359748279781 -0.024824381827958888 0 0.3011401036299175 -0.0312640797189341 0 0.30483359748279781 -0.024824381827958888 0 0.30596766504939138 -0.028794827163552899 0 0.3011401036299175 -0.0312640797189341 0 0.29432367153785649 -0.01652080933387837 0 0.29625750476674112 -0.025635501425957611 0 0.30310564706318638 -0.018222600242436091 0 0.30310564706318638 -0.018222600242436091 0 0.30799548909024049 -0.02082362980198928 0 0.30483359748279781 -0.024824381827958888 0 0.30799548909024049 -0.02082362980198928 0 0.3120856579651608 -0.02473298086960185 0 0.30813736892672478 -0.025624430327467161 0 0.3120856579651608 -0.02473298086960185 0 0.30813736892672478 -0.025624430327467161 0 0.30980443504603361 -0.028946331974232908 0 0.30799548909024049 -0.02082362980198928 0 0.30483359748279781 -0.024824381827958888 0 0.30813736892672478 -0.025624430327467161 0 0.30483359748279781 -0.024824381827958888 0 0.30813736892672478 -0.025624430327467161 0 0.30596766504939138 -0.028794827163552899 0 0.30596766504939138 -0.028794827163552899 0 0.30980443504603361 -0.028946331974232908 0 0.30702178200933777 -0.033905594512623927 0 0.30813736892672478 -0.025624430327467161 0 0.30596766504939138 -0.028794827163552899 0 0.30980443504603361 -0.028946331974232908 0 0.3140265765361161 -0.032080656592077962 0 0.31232544693478781 -0.037588704593428598 0 0.30702178200933777 -0.033905594512623927 0 0.3140265765361161 -0.032080656592077962 0 0.30980443504603361 -0.028946331974232908 0 0.30702178200933777 -0.033905594512623927 0 0.31232544693478781 -0.037588704593428598 0 0.30813333442660651 -0.038437879405795593 0 0.30702178200933777 -0.033905594512623927 0 0.30813333442660651 -0.038437879405795593 0 0.30702178200933777 -0.033905594512623927 0 0.30389241113919191 -0.039288081624717218 0 0.30596766504939138 -0.028794827163552899 0 0.30702178200933777 -0.033905594512623927 0 0.3011401036299175 -0.0312640797189341 0 0.30702178200933777 -0.033905594512623927 0 0.3011401036299175 -0.0312640797189341 0 0.30280183137290612 -0.035876458496621362 0 0.3011401036299175 -0.0312640797189341 0 0.30099052013017541 -0.03728319519968544 0 0.29612773437868528 -0.04270416095847062 0 0.3011401036299175 -0.0312640797189341 0 0.30280183137290612 -0.035876458496621362 0 0.30099052013017541 -0.03728319519968544 0 0.30702178200933777 -0.033905594512623927 0 0.30280183137290612 -0.035876458496621362 0 0.30389241113919191 -0.039288081624717218 0 0.30280183137290612 -0.035876458496621362 0 0.30099052013017541 -0.03728319519968544 0 0.30389241113919191 -0.039288081624717218 0 0.30389241113919191 -0.039288081624717218 0 0.30929369762310832 -0.042969136892412621 0 0.29612773437868528 -0.04270416095847062 0 0.30099052013017541 -0.03728319519968544 0 0.30389241113919191 -0.039288081624717218 0 0.29612773437868528 -0.04270416095847062 0 0.30813333442660651 -0.038437879405795593 0 0.30389241113919191 -0.039288081624717218 0 0.30929369762310832 -0.042969136892412621 0 0.31232544693478781 -0.037588704593428598 0 0.30813333442660651 -0.038437879405795593 0 0.30929369762310832 -0.042969136892412621 0 0.29374005629222499 -0.071409846202421912 0 0.30321768856913289 -0.05869885163105544 0 0.29507194350385241 -0.046408335770356871 0 0.31804931597249758 -0.05668586093924885 0 0.29612773437868528 -0.04270416095847062 0 0.30321768856913289 -0.05869885163105544 0 0.29612773437868528 -0.04270416095847062 0 0.29507194350385241 -0.046408335770356871 0 0.31804931597249758 -0.05668586093924885 0 0.30321768856913289 -0.05869885163105544 0 0.29612773437868528 -0.04270416095847062 0 0.31804931597249758 -0.05668586093924885 0 0.30929369762310832 -0.042969136892412621 0 0.29612773437868528 -0.04270416095847062 0 0.29374005629222499 -0.071409846202421912 0 0.28302387064624568 -0.056981342866457597 0 0.29507194350385241 -0.046408335770356871 0 0.29374005629222499 -0.071409846202421912 0 0.29507194350385241 -0.046408335770356871 0 0.28302387064624568 -0.056981342866457597 0 0.28404739812015473 -0.04444429636155145 0 0.29507194350385241 -0.046408335770356871 0 0.27543854675000989 -0.029508488327263081 0 0.29612773437868528 -0.04270416095847062 0 0.29625750476674112 -0.025635501425957611 0 0.29612773437868528 -0.04270416095847062 0 0.27543854675000989 -0.029508488327263081 0 0.29625750476674112 -0.025635501425957611 0 0.29612773437868528 -0.04270416095847062 0 0.27543854675000989 -0.029508488327263081 0 0.28404739812015473 -0.04444429636155145 0 0.29612773437868528 -0.04270416095847062 0 0.28404739812015473 -0.04444429636155145 0 0.29612773437868528 -0.04270416095847062 0 0.29507194350385241 -0.046408335770356871 0 0.29612773437868528 -0.04270416095847062 0 0.29507194350385241 -0.046408335770356871 0 0.28694301430041919 -0.19499932449467089 0 0.28550941466751001 -0.22106622696864839 0 0.28936343703453971 -0.1962962295307322 0 0.29059885820538478 -0.22138245037706061 0 0.2963906570317032 -0.2098308205202602 0 0.28936343703453971 -0.1962962295307322 0 0.29059885820538478 -0.22138245037706061 0 0.28936343703453971 -0.1962962295307322 0 0.29059885820538478 -0.22138245037706061 0 0.28550941466751001 -0.22106622696864839 0 0.28694301430041919 -0.19499932449467089 0 0.28550941466751001 -0.22106622696864839 0 0.27839275978119821 -0.20880325766038069 0 0.28694301430041919 -0.19499932449467089 0 0.28936343703453971 -0.1962962295307322 0 0.28550941466751001 -0.22106622696864839 0 0.2963906570317032 -0.2098308205202602 0 0.29984426226691541 -0.21668059850765981 0 0.29059885820538478 -0.22138245037706061 0 0.28694301430041919 -0.19499932449467089 0 0.28936343703453971 -0.1962962295307322 0 0.28818628320260242 -0.17239317388057651 0 0.28936343703453971 -0.1962962295307322 0 0.30223236092606748 -0.18961290045995299 0 0.29696233459835691 -0.1805899600553012 0 0.28694301430041919 -0.19499932449467089 0 0.28936343703453971 -0.1962962295307322 0 0.28936343703453971 -0.1962962295307322 0 0.30932817642463722 -0.2069936877447173 0 0.28936343703453971 -0.1962962295307322 0 0.30223236092606748 -0.18961290045995299 0 0.30932817642463722 -0.2069936877447173 0 0.30223236092606748 -0.18961290045995299 0 0.30932817642463722 -0.2069936877447173 0 0.31289863257444828 -0.19208649961717211 0 0.30223236092606748 -0.18961290045995299 0 0.30588250752004859 -0.18183273453810869 0 0.31289863257444828 -0.19208649961717211 0 0.2963906570317032 -0.2098308205202602 0 0.28936343703453971 -0.1962962295307322 0 0.30932817642463722 -0.2069936877447173 0 0.2963906570317032 -0.2098308205202602 0 0.30932817642463722 -0.2069936877447173 0 0.29984426226691541 -0.21668059850765981 0 0.30932817642463722 -0.2069936877447173 0 0.29984426226691541 -0.21668059850765981 0 0.30587916746999277 -0.22179153561943349 0 0.30932817642463722 -0.2069936877447173 0 0.30587916746999277 -0.22179153561943349 0 0.31680997047286058 -0.2226028476463944 0 0.30587916746999277 -0.22179153561943349 0 0.31122453660569321 -0.23294022836711339 0 0.31680997047286058 -0.2226028476463944 0 0.30587916746999277 -0.22179153561943349 0 0.31122453660569321 -0.23294022836711339 0 0.3036202314312928 -0.22973858933605179 0 0.31122453660569321 -0.23294022836711339 0 0.3036202314312928 -0.22973858933605179 0 0.30402319063136951 -0.2362974468892505 0 0.3036202314312928 -0.22973858933605179 0 0.2976111397696064 -0.23326156298390641 0 0.29949731281510777 -0.22455560422443449 0 0.3036202314312928 -0.22973858933605179 0 0.2976111397696064 -0.23326156298390641 0 0.30402319063136951 -0.2362974468892505 0 0.29984426226691541 -0.21668059850765981 0 0.30587916746999277 -0.22179153561943349 0 0.29949731281510777 -0.22455560422443449 0 0.30587916746999277 -0.22179153561943349 0 0.3036202314312928 -0.22973858933605179 0 0.29949731281510777 -0.22455560422443449 0 0.30713642391426788 -0.24329281217403989 0 0.30186977670888909 -0.25162100093468881 0 0.31104200607340149 -0.25347981103245221 0 0.30713642391426788 -0.24329281217403989 0 0.31869320023432718 -0.24446963112128259 0 0.31104200607340149 -0.25347981103245221 0 0.31122453660569321 -0.23294022836711339 0 0.30713642391426788 -0.24329281217403989 0 0.30402319063136951 -0.2362974468892505 0 0.31122453660569321 -0.23294022836711339 0 0.30713642391426788 -0.24329281217403989 0 0.31869320023432718 -0.24446963112128259 0 0.2976111397696064 -0.23326156298390641 0 0.30402319063136951 -0.2362974468892505 0 0.30059071650363972 -0.24233075728708081 0 0.30713642391426788 -0.24329281217403989 0 0.30402319063136951 -0.2362974468892505 0 0.30059071650363972 -0.24233075728708081 0 0.30059071650363972 -0.24233075728708081 0 0.29183427937622902 -0.2464686712233892 0 0.30186977670888909 -0.25162100093468881 0 0.30713642391426788 -0.24329281217403989 0 0.30059071650363972 -0.24233075728708081 0 0.30186977670888909 -0.25162100093468881 0 0.29183427937622902 -0.2464686712233892 0 0.28407581503459572 -0.24713312944262561 0 0.28550941466751001 -0.22106622696864839 0 0.2976111397696064 -0.23326156298390641 0 0.30059071650363972 -0.24233075728708081 0 0.29183427937622902 -0.2464686712233892 0 0.28407581503459572 -0.24713312944262561 0 0.28550941466751001 -0.22106622696864839 0 0.27619205950257558 -0.23362667405783891 0 0.2976111397696064 -0.23326156298390641 0 0.29183427937622902 -0.2464686712233892 0 0.29059885820538478 -0.22138245037706061 0 0.29183427937622902 -0.2464686712233892 0 0.29059885820538478 -0.22138245037706061 0 0.28407581503459572 -0.24713312944262561 0 0.28550941466751001 -0.22106622696864839 0 0.29183427937622902 -0.2464686712233892 0 0.29059885820538478 -0.22138245037706061 0 0.28550941466751001 -0.22106622696864839 0 0.29984426226691541 -0.21668059850765981 0 0.29949731281510777 -0.22455560422443449 0 0.29059885820538478 -0.22138245037706061 0 0.2976111397696064 -0.23326156298390641 0 0.29949731281510777 -0.22455560422443449 0 0.29059885820538478 -0.22138245037706061 0 0.28550941466751001 -0.22106622696864839 0 0.27830356679081858 -0.21884298179723341 0 0.27777959081663078 -0.22341477675657859 0 0.27777959081663078 -0.22341477675657859 0 0.27619205950257558 -0.23362667405783891 0 0.27111332230561902 -0.2201232242025937 0 0.27619205950257558 -0.23362667405783891 0 0.27111332230561902 -0.2201232242025937 0 0.25903984207727387 -0.2336611851820036 0 0.28550941466751001 -0.22106622696864839 0 0.27777959081663078 -0.22341477675657859 0 0.27619205950257558 -0.23362667405783891 0 0.27830356679081858 -0.21884298179723341 0 0.27777959081663078 -0.22341477675657859 0 0.27111332230561902 -0.2201232242025937 0 0.27619205950257558 -0.23362667405783891 0 0.27018607736171252 -0.24618649521522851 0 0.25903984207727387 -0.2336611851820036 0 0.27667165049694248 -0.24470833449491519 0 0.27018607736171252 -0.24618649521522851 0 0.27498366948744052 -0.25630805085029917 0 0.28407581503459572 -0.24713312944262561 0 0.27667165049694248 -0.24470833449491519 0 0.27498366948744052 -0.25630805085029917 0 0.27619205950257558 -0.23362667405783891 0 0.27667165049694248 -0.24470833449491519 0 0.27018607736171252 -0.24618649521522851 0 0.28407581503459572 -0.24713312944262561 0 0.27619205950257558 -0.23362667405783891 0 0.27667165049694248 -0.24470833449491519 0 0.27018607736171252 -0.24618649521522851 0 0.25903984207727387 -0.2336611851820036 0 0.24327715365271249 -0.25419909361232701 0 0.27111332230561902 -0.2201232242025937 0 0.25903984207727387 -0.2336611851820036 0 0.24596567546911141 -0.21667252211943941 0 0.27111332230561902 -0.2201232242025937 0 0.26266243230590219 -0.20301101561890231 0 0.24596567546911141 -0.21667252211943941 0 0.27111332230561902 -0.2201232242025937 0 0.27839275978119821 -0.20880325766038069 0 0.26266243230590219 -0.20301101561890231 0 0.28550941466751001 -0.22106622696864839 0 0.27830356679081858 -0.21884298179723341 0 0.27839275978119821 -0.20880325766038069 0 0.27830356679081858 -0.21884298179723341 0 0.27111332230561902 -0.2201232242025937 0 0.27839275978119821 -0.20880325766038069 0 0.27283145005366027 -0.19728984124382981 0 0.26266243230590219 -0.20301101561890231 0 0.26332759382711668 -0.18234576720136489 0 0.28694301430041919 -0.19499932449467089 0 0.27283145005366027 -0.19728984124382981 0 0.26332759382711668 -0.18234576720136489 0 0.28694301430041919 -0.19499932449467089 0 0.26332759382711668 -0.18234576720136489 0 0.27839275978119821 -0.20880325766038069 0 0.27283145005366027 -0.19728984124382981 0 0.26266243230590219 -0.20301101561890231 0 0.28694301430041919 -0.19499932449467089 0 0.27839275978119821 -0.20880325766038069 0 0.27283145005366027 -0.19728984124382981 0 0.26266243230590219 -0.20301101561890231 0 0.26332759382711668 -0.18234576720136489 0 0.23993755808107831 -0.1930192772979496 0 0.26332759382711668 -0.18234576720136489 0 0.23971217335382 -0.16969220990804801 0 0.26332759382711668 -0.18234576720136489 0 0.2583004742880628 -0.167175973266321 0 0.2741393988608869 -0.17143795131186379 0 0.26332759382711668 -0.18234576720136489 0 0.2583004742880628 -0.167175973266321 0 0.23971217335382 -0.16969220990804801 0 0.2741393988608869 -0.17143795131186379 0 0.26645441791757363 -0.1534316005204156 0 0.2883091717775278 -0.1701587114656172 0 0.26645441791757363 -0.1534316005204156 0 0.2883091717775278 -0.1701587114656172 0 0.28769245116533382 -0.16236551704555821 0 0.2583004742880628 -0.167175973266321 0 0.2741393988608869 -0.17143795131186379 0 0.26645441791757363 -0.1534316005204156 0 0.26645441791757363 -0.1534316005204156 0 0.2883091717775278 -0.1701587114656172 0 0.28694301430041919 -0.19499932449467089 0 0.26332759382711668 -0.18234576720136489 0 0.27882091035470491 -0.18115510814584229 0 0.2741393988608869 -0.17143795131186379 0 0.27882091035470491 -0.18115510814584229 0 0.28818628320260242 -0.17239317388057651 0 0.26332759382711668 -0.18234576720136489 0 0.2741393988608869 -0.17143795131186379 0 0.27882091035470491 -0.18115510814584229 0 0.26284071423811339 -0.11581214247851 0 0.27139671494880668 -0.13410167819687749 0 0.24484171677725411 -0.13688975099347681 0 0.2583004742880628 -0.167175973266321 0 0.26645441791757363 -0.1534316005204156 0 0.24484171677725411 -0.13688975099347681 0 0.26645441791757363 -0.1534316005204156 0 0.27139671494880668 -0.13410167819687749 0 0.24484171677725411 -0.13688975099347681 0 0.26645441791757363 -0.1534316005204156 0 0.24484171677725411 -0.13688975099347681 0 0.26645441791757363 -0.1534316005204156 0 0.27139671494880668 -0.13410167819687749 0 0.2896668929062044 -0.14547149514981839 0 0.29102461403487839 -0.1207842788340195 0 0.27139671494880668 -0.13410167819687749 0 0.2896668929062044 -0.14547149514981839 0 0.29102461403487839 -0.1207842788340195 0 0.2896668929062044 -0.14547149514981839 0 0.29102461403487839 -0.1207842788340195 0 0.2896668929062044 -0.14547149514981839 0 0.30199282441555331 -0.1437846482686429 0 0.2896668929062044 -0.14547149514981839 0 0.29546623747759299 -0.1653204120660644 0 0.30081710162558017 -0.1577696866214626 0 0.26645441791757363 -0.1534316005204156 0 0.2896668929062044 -0.14547149514981839 0 0.28769245116533382 -0.16236551704555821 0 0.30199282441555331 -0.1437846482686429 0 0.30081710162558017 -0.1577696866214626 0 0.3138924664995521 -0.15956999923839979 0 0.30199282441555331 -0.1437846482686429 0 0.3138924664995521 -0.15956999923839979 0 0.31456304701155152 -0.13532778149951419 0 0.2896668929062044 -0.14547149514981839 0 0.30199282441555331 -0.1437846482686429 0 0.30081710162558017 -0.1577696866214626 0 0.29102461403487839 -0.1207842788340195 0 0.30199282441555331 -0.1437846482686429 0 0.31456304701155152 -0.13532778149951419 0 0.28936343703453971 -0.1962962295307322 0 0.28818628320260242 -0.17239317388057651 0 0.28694301430041919 -0.19499932449467089 0 0.27882091035470491 -0.18115510814584229 0 0.28818628320260242 -0.17239317388057651 0 0.28694301430041919 -0.19499932449467089 0 0.28818628320260242 -0.17239317388057651 0 0.28936343703453971 -0.1962962295307322 0 0.28818628320260242 -0.17239317388057651 0 0.29696233459835691 -0.1805899600553012 0 0.29266526205088711 -0.1734927597809979 0 0.28818628320260242 -0.17239317388057651 0 0.29696233459835691 -0.1805899600553012 0 0.29266526205088711 -0.1734927597809979 0 0.28818628320260242 -0.17239317388057651 0 0.2883091717775278 -0.1701587114656172 0 0.2896668929062044 -0.14547149514981839 0 0.2883091717775278 -0.1701587114656172 0 0.29546623747759299 -0.1653204120660644 0 0.2896668929062044 -0.14547149514981839 0 0.2883091717775278 -0.1701587114656172 0 0.2741393988608869 -0.17143795131186379 0 0.28818628320260242 -0.17239317388057651 0 0.2883091717775278 -0.1701587114656172 0 0.2896668929062044 -0.14547149514981839 0 0.2883091717775278 -0.1701587114656172 0 0.28769245116533382 -0.16236551704555821 0 0.2883091717775278 -0.1701587114656172 0 0.28769245116533382 -0.16236551704555821 0 0.28818628320260242 -0.17239317388057651 0 0.2883091717775278 -0.1701587114656172 0 0.29266526205088711 -0.1734927597809979 0 0.2883091717775278 -0.1701587114656172 0 0.29546623747759299 -0.1653204120660644 0 0.29266526205088711 -0.1734927597809979 0 0.2883091717775278 -0.1701587114656172 0 0.29266526205088711 -0.1734927597809979 0 0.29546623747759299 -0.1653204120660644 0 0.30285871814420379 -0.17084263884717241 0 0.29546623747759299 -0.1653204120660644 0 0.30285871814420379 -0.17084263884717241 0 0.30081710162558017 -0.1577696866214626 0 0.30285871814420379 -0.17084263884717241 0 0.31446049135716642 -0.17603167371094461 0 0.3138924664995521 -0.15956999923839979 0 0.30285871814420379 -0.17084263884717241 0 0.30081710162558017 -0.1577696866214626 0 0.3138924664995521 -0.15956999923839979 0 0.30588250752004859 -0.18183273453810869 0 0.31446049135716642 -0.17603167371094461 0 0.31289863257444828 -0.19208649961717211 0 0.30285871814420379 -0.17084263884717241 0 0.30588250752004859 -0.18183273453810869 0 0.31446049135716642 -0.17603167371094461 0 0.29266526205088711 -0.1734927597809979 0 0.30285871814420379 -0.17084263884717241 0 0.29696233459835691 -0.1805899600553012 0 0.30285871814420379 -0.17084263884717241 0 0.29696233459835691 -0.1805899600553012 0 0.30588250752004859 -0.18183273453810869 0 0.30223236092606748 -0.18961290045995299 0 0.29696233459835691 -0.1805899600553012 0 0.30588250752004859 -0.18183273453810869 0 0.31446049135716642 -0.17603167371094461 0 0.32917186966558581 -0.18314268973315281 0 0.31289863257444828 -0.19208649961717211 0 0.31446049135716642 -0.17603167371094461 0 0.32576871019346421 -0.1689963296113127 0 0.32917186966558581 -0.18314268973315281 0 0.3138924664995521 -0.15956999923839979 0 0.32576871019346421 -0.1689963296113127 0 0.33037820981310673 -0.15443225148153611 0 0.31446049135716642 -0.17603167371094461 0 0.3138924664995521 -0.15956999923839979 0 0.32576871019346421 -0.1689963296113127 0 0.32576871019346421 -0.1689963296113127 0 0.33037820981310673 -0.15443225148153611 0 0.34622945137722 -0.17066996704118159 0 0.33037820981310673 -0.15443225148153611 0 0.35173927346618722 -0.1496221298402762 0 0.34622945137722 -0.17066996704118159 0 0.32576871019346421 -0.1689963296113127 0 0.32917186966558581 -0.18314268973315281 0 0.34622945137722 -0.17066996704118159 0 0.32917186966558581 -0.18314268973315281 0 0.34622945137722 -0.17066996704118159 0 0.34641829846092159 -0.18919395964122601 0 0.31456304701155152 -0.13532778149951419 0 0.33037820981310673 -0.15443225148153611 0 0.33803317961813079 -0.13133663647660629 0 0.3226212734000915 -0.1178824567408885 0 0.31456304701155152 -0.13532778149951419 0 0.33803317961813079 -0.13133663647660629 0 0.3138924664995521 -0.15956999923839979 0 0.31456304701155152 -0.13532778149951419 0 0.33037820981310673 -0.15443225148153611 0 0.33037820981310673 -0.15443225148153611 0 0.33803317961813079 -0.13133663647660629 0 0.35173927346618722 -0.1496221298402762 0 0.33803317961813079 -0.13133663647660629 0 0.35173927346618722 -0.1496221298402762 0 0.3602162686704305 -0.1322286133454175 0 0.35289086469652459 -0.11454912677387449 0 0.33803317961813079 -0.13133663647660629 0 0.3602162686704305 -0.1322286133454175 0 0.35173927346618722 -0.1496221298402762 0 0.36782983787747908 -0.14612267022074871 0 0.37460617054638667 -0.16044372353695979 0 0.35173927346618722 -0.1496221298402762 0 0.36782983787747908 -0.14612267022074871 0 0.3602162686704305 -0.1322286133454175 0 0.36782983787747908 -0.14612267022074871 0 0.3602162686704305 -0.1322286133454175 0 0.37973361459245031 -0.1376782068717278 0 0.37597292405794852 -0.1245295465601442 0 0.3602162686704305 -0.1322286133454175 0 0.37973361459245031 -0.1376782068717278 0 0.34622945137722 -0.17066996704118159 0 0.37279923641124701 -0.18683812178386069 0 0.34641829846092159 -0.18919395964122601 0 0.35173927346618722 -0.1496221298402762 0 0.34622945137722 -0.17066996704118159 0 0.37460617054638667 -0.16044372353695979 0 0.34622945137722 -0.17066996704118159 0 0.37460617054638667 -0.16044372353695979 0 0.37279923641124701 -0.18683812178386069 0 0.37460617054638667 -0.16044372353695979 0 0.37279923641124701 -0.18683812178386069 0 0.37279923641124701 -0.18683812178386069 0 0.37099230227610708 -0.2132325200307616 0 0.35162774570888727 -0.2061838465595657 0 0.37279923641124701 -0.18683812178386069 0 0.37099230227610708 -0.2132325200307616 0 0.37099230227610708 -0.2132325200307616 0 0.35162774570888727 -0.2061838465595657 0 0.37099230227610708 -0.2132325200307616 0 0.35162774570888727 -0.2061838465595657 0 0.3602750244461902 -0.22172275828742 0 0.37279923641124701 -0.18683812178386069 0 0.35162774570888727 -0.2061838465595657 0 0.34641829846092159 -0.18919395964122601 0 0.32917186966558581 -0.18314268973315281 0 0.34641829846092159 -0.18919395964122601 0 0.3322631891416678 -0.19913517308836889 0 0.35162774570888727 -0.2061838465595657 0 0.34641829846092159 -0.18919395964122601 0 0.3322631891416678 -0.19913517308836889 0 0.35162774570888727 -0.2061838465595657 0 0.3322631891416678 -0.19913517308836889 0 0.35162774570888727 -0.2061838465595657 0 0.3322631891416678 -0.19913517308836889 0 0.32929291581473552 -0.21769114595870109 0 0.35162774570888727 -0.2061838465595657 0 0.32929291581473552 -0.21769114595870109 0 0.34925765520483387 -0.22838860417268489 0 0.30932817642463722 -0.2069936877447173 0 0.32929291581473552 -0.21769114595870109 0 0.30932817642463722 -0.2069936877447173 0 0.3322631891416678 -0.19913517308836889 0 0.32929291581473552 -0.21769114595870109 0 0.30932817642463722 -0.2069936877447173 0 0.32929291581473552 -0.21769114595870109 0 0.31680997047286058 -0.2226028476463944 0 0.30932817642463722 -0.2069936877447173 0 0.3322631891416678 -0.19913517308836889 0 0.31289863257444828 -0.19208649961717211 0 0.3322631891416678 -0.19913517308836889 0 0.31289863257444828 -0.19208649961717211 0 0.32917186966558581 -0.18314268973315281 0 0.3322631891416678 -0.19913517308836889 0 0.31289863257444828 -0.19208649961717211 0 0.31869320023432718 -0.24446963112128259 0 0.32832505604924461 -0.2335976405420068 0 0.33298591867146399 -0.25061829801836533 0 0.31122453660569321 -0.23294022836711339 0 0.31869320023432718 -0.24446963112128259 0 0.32832505604924461 -0.2335976405420068 0 0.31122453660569321 -0.23294022836711339 0 0.31680997047286058 -0.2226028476463944 0 0.32832505604924461 -0.2335976405420068 0 0.32929291581473552 -0.21769114595870109 0 0.31680997047286058 -0.2226028476463944 0 0.32832505604924461 -0.2335976405420068 0 0.32929291581473552 -0.21769114595870109 0 0.34925765520483387 -0.22838860417268489 0 0.32929291581473552 -0.21769114595870109 0 0.32832505604924461 -0.2335976405420068 0 0.34925765520483387 -0.22838860417268489 0 0.32832505604924461 -0.2335976405420068 0 0.34257749832157552 -0.24152188402647379 0 0.34925765520483387 -0.22838860417268489 0 0.32832505604924461 -0.2335976405420068 0 0.34257749832157552 -0.24152188402647379 0 0.33298591867146399 -0.25061829801836533 0 0.34257749832157552 -0.24152188402647379 0 0.33298591867146399 -0.25061829801836533 0 0.34418754141067531 -0.25346685482495462 0 0.34257749832157552 -0.24152188402647379 0 0.35006967129563588 -0.2473822558698924 0 0.34418754141067531 -0.25346685482495462 0 0.35650484874710309 -0.23884201123063989 0 0.34925765520483387 -0.22838860417268489 0 0.36922239459493261 -0.23908606238666791 0 0.34257749832157552 -0.24152188402647379 0 0.35006967129563588 -0.2473822558698924 0 0.35650484874710309 -0.23884201123063989 0 0.34257749832157552 -0.24152188402647379 0 0.35650484874710309 -0.23884201123063989 0 0.34925765520483387 -0.22838860417268489 0 0.35006967129563588 -0.2473822558698924 0 0.35650484874710309 -0.23884201123063989 0 0.35652049708170042 -0.24825424105152649 0 0.35650484874710309 -0.23884201123063989 0 0.35652049708170042 -0.24825424105152649 0 0.36170819168582558 -0.2453718200578828 0 0.35162774570888727 -0.2061838465595657 0 0.34925765520483387 -0.22838860417268489 0 0.3602750244461902 -0.22172275828742 0 0.34925765520483387 -0.22838860417268489 0 0.36922239459493261 -0.23908606238666791 0 0.37099230227610708 -0.2132325200307616 0 0.3602750244461902 -0.22172275828742 0 0.36922239459493261 -0.23908606238666791 0 0.37099230227610708 -0.2132325200307616 0 0.36922239459493261 -0.23908606238666791 0 0.37753315620957217 -0.22732765893164081 0 0.34925765520483387 -0.22838860417268489 0 0.3602750244461902 -0.22172275828742 0 0.36922239459493261 -0.23908606238666791 0 0.37099230227610708 -0.2132325200307616 0 0.36922239459493261 -0.23908606238666791 0 0.36536051089985028 -0.24364798409687469 0 0.36622168527108928 -0.2472303913071906 0 0.36922239459493261 -0.23908606238666791 0 0.36536051089985028 -0.24364798409687469 0 0.36622168527108928 -0.2472303913071906 0 0.36170819168582558 -0.2453718200578828 0 0.36536051089985028 -0.24364798409687469 0 0.36170819168582558 -0.2453718200578828 0 0.36437516184632318 -0.24165634968111119 0 0.36622168527108928 -0.2472303913071906 0 0.36170819168582558 -0.2453718200578828 0 0.36100000403713561 -0.25168930002906142 0 0.35652049708170042 -0.24825424105152649 0 0.36170819168582558 -0.2453718200578828 0 0.36100000403713561 -0.25168930002906142 0 0.35650484874710309 -0.23884201123063989 0 0.36170819168582558 -0.2453718200578828 0 0.36437516184632318 -0.24165634968111119 0 0.35650484874710309 -0.23884201123063989 0 0.36437516184632318 -0.24165634968111119 0 0.36922239459493261 -0.23908606238666791 0 0.36536051089985028 -0.24364798409687469 0 0.36437516184632318 -0.24165634968111119 0 0.36922239459493261 -0.23908606238666791 0 0.36622168527108928 -0.2472303913071906 0 0.36922239459493261 -0.23908606238666791 0 0.37382475805204562 -0.25179621274304681 0 0.38358619370596359 -0.2346086638298229 0 0.38931158314420627 -0.2498502026471362 0 0.39545245315363858 -0.23062790057773239 0 0.36922239459493261 -0.23908606238666791 0 0.38358619370596359 -0.2346086638298229 0 0.38931158314420627 -0.2498502026471362 0 0.36922239459493261 -0.23908606238666791 0 0.38931158314420627 -0.2498502026471362 0 0.36922239459493261 -0.23908606238666791 0 0.38931158314420627 -0.2498502026471362 0 0.37382475805204562 -0.25179621274304681 0 0.38931158314420627 -0.2498502026471362 0 0.41208931250927872 -0.23433054251562069 0 0.40940077169348038 -0.26061434290760382 0 0.38931158314420627 -0.2498502026471362 0 0.39545245315363858 -0.23062790057773239 0 0.41208931250927872 -0.23433054251562069 0 0.39545245315363858 -0.23062790057773239 0 0.38712482242677287 -0.2191047364388593 0 0.40340488331863111 -0.21426645328487459 0 0.39545245315363858 -0.23062790057773239 0 0.40340488331863111 -0.21426645328487459 0 0.41208931250927872 -0.23433054251562069 0 0.37099230227610708 -0.2132325200307616 0 0.38712482242677287 -0.2191047364388593 0 0.37753315620957217 -0.22732765893164081 0 0.38358619370596359 -0.2346086638298229 0 0.39545245315363858 -0.23062790057773239 0 0.38712482242677287 -0.2191047364388593 0 0.38358619370596359 -0.2346086638298229 0 0.38712482242677287 -0.2191047364388593 0 0.37753315620957217 -0.22732765893164081 0 0.36922239459493261 -0.23908606238666791 0 0.38358619370596359 -0.2346086638298229 0 0.37753315620957217 -0.22732765893164081 0 0.37099230227610708 -0.2132325200307616 0 0.38712482242677287 -0.2191047364388593 0 0.38504078177384782 -0.2026963779487696 0 0.37099230227610708 -0.2132325200307616 0 0.38712482242677287 -0.2191047364388593 0 0.37279923641124701 -0.18683812178386069 0 0.37099230227610708 -0.2132325200307616 0 0.38504078177384782 -0.2026963779487696 0 0.37279923641124701 -0.18683812178386069 0 0.38504078177384782 -0.2026963779487696 0 0.40141487705203499 -0.19319617861792751 0 0.38504078177384782 -0.2026963779487696 0 0.40141487705203499 -0.19319617861792751 0 0.40340488331863111 -0.21426645328487459 0 0.38712482242677287 -0.2191047364388593 0 0.38504078177384782 -0.2026963779487696 0 0.40340488331863111 -0.21426645328487459 0 0.40141487705203499 -0.19319617861792751 0 0.40340488331863111 -0.21426645328487459 0 0.42364054734505441 -0.20843780099671319 0 0.40141487705203499 -0.19319617861792751 0 0.431044091606269 -0.18898749672175749 0 0.42364054734505441 -0.20843780099671319 0 0.431044091606269 -0.18898749672175749 0 0.42364054734505441 -0.20843780099671319 0 0.44300376851846007 -0.210158903460369 0 0.42364054734505441 -0.20843780099671319 0 0.43135664687788172 -0.22731793770328579 0 0.44300376851846007 -0.210158903460369 0 0.42364054734505441 -0.20843780099671319 0 0.43135664687788172 -0.22731793770328579 0 0.41208931250927872 -0.23433054251562069 0 0.43135664687788172 -0.22731793770328579 0 0.42959006362093127 -0.24905603330152221 0 0.41208931250927872 -0.23433054251562069 0 0.43135664687788172 -0.22731793770328579 0 0.42959006362093127 -0.24905603330152221 0 0.44840720339712431 -0.23913279164188639 0 0.42959006362093127 -0.24905603330152221 0 0.41208931250927872 -0.23433054251562069 0 0.40940077169348038 -0.26061434290760382 0 0.40340488331863111 -0.21426645328487459 0 0.42364054734505441 -0.20843780099671319 0 0.41208931250927872 -0.23433054251562069 0 0.40164692973609922 -0.1287033953831965 0 0.39957845022556387 -0.14432755965314481 0 0.41464138920708998 -0.1367925574589105 0 0.40164692973609922 -0.1287033953831965 0 0.3896467501328254 -0.12902970802031841 0 0.39957845022556387 -0.14432755965314481 0 0.3896467501328254 -0.12902970802031841 0 0.37973361459245031 -0.1376782068717278 0 0.39957845022556387 -0.14432755965314481 0 0.37597292405794852 -0.1245295465601442 0 0.3896467501328254 -0.12902970802031841 0 0.37973361459245031 -0.1376782068717278 0 0.36782983787747908 -0.14612267022074871 0 0.37973361459245031 -0.1376782068717278 0 0.38640448128423449 -0.15093979835726909 0 0.36782983787747908 -0.14612267022074871 0 0.37460617054638667 -0.16044372353695979 0 0.38640448128423449 -0.15093979835726909 0 0.37973361459245031 -0.1376782068717278 0 0.38640448128423449 -0.15093979835726909 0 0.39957845022556387 -0.14432755965314481 0 0.39957845022556387 -0.14432755965314481 0 0.39722929857537592 -0.16834716196752669 0 0.41298384850165448 -0.1536035235986955 0 0.38640448128423449 -0.15093979835726909 0 0.39957845022556387 -0.14432755965314481 0 0.39722929857537592 -0.16834716196752669 0 0.37460617054638667 -0.16044372353695979 0 0.38640448128423449 -0.15093979835726909 0 0.39722929857537592 -0.16834716196752669 0 0.37460617054638667 -0.16044372353695979 0 0.37279923641124701 -0.18683812178386069 0 0.39722929857537592 -0.16834716196752669 0 0.37279923641124701 -0.18683812178386069 0 0.40141487705203499 -0.19319617861792751 0 0.39722929857537592 -0.16834716196752669 0 0.40141487705203499 -0.19319617861792751 0 0.39722929857537592 -0.16834716196752669 0 0.42243934072067818 -0.16745161909647679 0 0.40141487705203499 -0.19319617861792751 0 0.431044091606269 -0.18898749672175749 0 0.42243934072067818 -0.16745161909647679 0 0.431044091606269 -0.18898749672175749 0 0.42243934072067818 -0.16745161909647679 0 0.44801755123176279 -0.1715338284063059 0 0.39722929857537592 -0.16834716196752669 0 0.42243934072067818 -0.16745161909647679 0 0.41298384850165448 -0.1536035235986955 0 0.41298384850165448 -0.1536035235986955 0 0.42781154349868072 -0.14566041319702669 0 0.41464138920708998 -0.1367925574589105 0 0.42243934072067818 -0.16745161909647679 0 0.41298384850165448 -0.1536035235986955 0 0.42781154349868072 -0.14566041319702669 0 0.39957845022556387 -0.14432755965314481 0 0.41298384850165448 -0.1536035235986955 0 0.41464138920708998 -0.1367925574589105 0 0.42243934072067818 -0.16745161909647679 0 0.42781154349868072 -0.14566041319702669 0 0.44717470355025152 -0.1518123108761977 0 0.42781154349868072 -0.14566041319702669 0 0.42864827901521962 -0.13230307691868981 0 0.41464138920708998 -0.1367925574589105 0 0.42781154349868072 -0.14566041319702669 0 0.42864827901521962 -0.13230307691868981 0 0.44117222041332299 -0.13644350482558459 0 0.41627082115069508 -0.11931751009812799 0 0.42864827901521962 -0.13230307691868981 0 0.41464138920708998 -0.1367925574589105 0 0.41627082115069508 -0.11931751009812799 0 0.40164692973609922 -0.1287033953831965 0 0.41464138920708998 -0.1367925574589105 0 0.47259506378848121 -0.1235069015635832 0 0.44443294246958809 -0.1214122058308557 0 0.45779363353287561 -0.13102951730515319 0 0.47259506378848121 -0.1235069015635832 0 0.46659256047539949 -0.13023687151442409 0 0.45779363353287561 -0.13102951730515319 0 0.46659256047539949 -0.13023687151442409 0 0.45779363353287561 -0.13102951730515319 0 0.46881354160043831 -0.14459546925137279 0 0.44443294246958809 -0.1214122058308557 0 0.45779363353287561 -0.13102951730515319 0 0.44117222041332299 -0.13644350482558459 0 0.45779363353287561 -0.13102951730515319 0 0.44117222041332299 -0.13644350482558459 0 0.44717470355025152 -0.1518123108761977 0 0.44443294246958809 -0.1214122058308557 0 0.42864827901521962 -0.13230307691868981 0 0.44117222041332299 -0.13644350482558459 0 0.42781154349868072 -0.14566041319702669 0 0.44117222041332299 -0.13644350482558459 0 0.44717470355025152 -0.1518123108761977 0 0.44717470355025152 -0.1518123108761977 0 0.46081747219845581 -0.16000221822104629 0 0.46881354160043831 -0.14459546925137279 0 0.45779363353287561 -0.13102951730515319 0 0.44717470355025152 -0.1518123108761977 0 0.46881354160043831 -0.14459546925137279 0 0.46081747219845581 -0.16000221822104629 0 0.44801755123176279 -0.1715338284063059 0 0.47295840609943762 -0.17028800660685511 0 0.42243934072067818 -0.16745161909647679 0 0.44717470355025152 -0.1518123108761977 0 0.44801755123176279 -0.1715338284063059 0 0.44717470355025152 -0.1518123108761977 0 0.46081747219845581 -0.16000221822104629 0 0.44801755123176279 -0.1715338284063059 0 0.431044091606269 -0.18898749672175749 0 0.44801755123176279 -0.1715338284063059 0 0.45508628173824339 -0.19185940923371689 0 0.44801755123176279 -0.1715338284063059 0 0.47295840609943762 -0.17028800660685511 0 0.45508628173824339 -0.19185940923371689 0 0.47295840609943762 -0.17028800660685511 0 0.47964342854839992 -0.19721524937873769 0 0.5 -0.18005242753235631 0 0.47295840609943762 -0.17028800660685511 0 0.47964342854839992 -0.19721524937873769 0 0.47295840609943762 -0.17028800660685511 0 0.45508628173824339 -0.19185940923371689 0 0.47964342854839992 -0.19721524937873769 0 0.5 -0.18005242753235631 0 0.48334227674861913 -0.15677270285155359 0 0.47295840609943762 -0.17028800660685511 0 0.5 -0.18005242753235631 0 0.48334227674861913 -0.15677270285155359 0 0.5 -0.15196857452260809 0 0.46081747219845581 -0.16000221822104629 0 0.48334227674861913 -0.15677270285155359 0 0.47295840609943762 -0.17028800660685511 0 0.46081747219845581 -0.16000221822104629 0 0.48334227674861913 -0.15677270285155359 0 0.46881354160043831 -0.14459546925137279 0 0.48334227674861913 -0.15677270285155359 0 0.46881354160043831 -0.14459546925137279 0 0.48847587155730909 -0.14030899402783309 0 0.48334227674861913 -0.15677270285155359 0 0.5 -0.15196857452260809 0 0.48847587155730909 -0.14030899402783309 0 0.48847587155730909 -0.14030899402783309 0 0.487230823814853 -0.13130635723552139 0 0.47987701054801501 -0.13186366251712581 0 0.5 -0.12388472151285999 0 0.48847587155730909 -0.14030899402783309 0 0.487230823814853 -0.13130635723552139 0 0.5 -0.12388472151285999 0 0.5 -0.15196857452260809 0 0.48847587155730909 -0.14030899402783309 0 0.49036089659736731 -0.1248283224093974 0 0.5 -0.12388472151285999 0 0.487230823814853 -0.13130635723552139 0 0.49036089659736731 -0.1248283224093974 0 0.487230823814853 -0.13130635723552139 0 0.48122892033973991 -0.1269741101505181 0 0.47259506378848121 -0.1235069015635832 0 0.48122892033973991 -0.1269741101505181 0 0.4764178446727465 -0.1266743858330121 0 0.46881354160043831 -0.14459546925137279 0 0.48847587155730909 -0.14030899402783309 0 0.473605849436949 -0.13560931794330691 0 0.47259506378848121 -0.1235069015635832 0 0.49036089659736731 -0.1248283224093974 0 0.48122892033973991 -0.1269741101505181 0 0.48122892033973991 -0.1269741101505181 0 0.47987701054801501 -0.13186366251712581 0 0.4764178446727465 -0.1266743858330121 0 0.487230823814853 -0.13130635723552139 0 0.48122892033973991 -0.1269741101505181 0 0.47987701054801501 -0.13186366251712581 0 0.48847587155730909 -0.14030899402783309 0 0.47987701054801501 -0.13186366251712581 0 0.473605849436949 -0.13560931794330691 0 0.46659256047539949 -0.13023687151442409 0 0.46881354160043831 -0.14459546925137279 0 0.473605849436949 -0.13560931794330691 0 0.46659256047539949 -0.13023687151442409 0 0.473605849436949 -0.13560931794330691 0 0.4725694046466844 -0.12969845127236959 0 0.47259506378848121 -0.1235069015635832 0 0.46659256047539949 -0.13023687151442409 0 0.4725694046466844 -0.12969845127236959 0 0.47259506378848121 -0.1235069015635832 0 0.4725694046466844 -0.12969845127236959 0 0.4764178446727465 -0.1266743858330121 0 0.47987701054801501 -0.13186366251712581 0 0.4725694046466844 -0.12969845127236959 0 0.4764178446727465 -0.1266743858330121 0 0.47987701054801501 -0.13186366251712581 0 0.473605849436949 -0.13560931794330691 0 0.4725694046466844 -0.12969845127236959 0 0.44840720339712431 -0.23913279164188639 0 0.46380774267277552 -0.21565371773359859 0 0.47049860655178699 -0.234036914215212 0 0.44840720339712431 -0.23913279164188639 0 0.47420360169856191 -0.2517183891017436 0 0.44840720339712431 -0.23913279164188639 0 0.47049860655178699 -0.234036914215212 0 0.47420360169856191 -0.2517183891017436 0 0.42959006362093127 -0.24905603330152221 0 0.44840720339712431 -0.23913279164188639 0 0.44949060484225789 -0.26028002680193779 0 0.43135664687788172 -0.22731793770328579 0 0.44840720339712431 -0.23913279164188639 0 0.44300376851846007 -0.210158903460369 0 0.44840720339712431 -0.23913279164188639 0 0.44300376851846007 -0.210158903460369 0 0.46380774267277552 -0.21565371773359859 0 0.431044091606269 -0.18898749672175749 0 0.44300376851846007 -0.210158903460369 0 0.45508628173824339 -0.19185940923371689 0 0.45508628173824339 -0.19185940923371689 0 0.46380774267277552 -0.21565371773359859 0 0.47964342854839992 -0.19721524937873769 0 0.44300376851846007 -0.210158903460369 0 0.45508628173824339 -0.19185940923371689 0 0.46380774267277552 -0.21565371773359859 0 0.46380774267277552 -0.21565371773359859 0 0.47964342854839992 -0.19721524937873769 0 0.48632845099736222 -0.22414249215062049 0 0.47964342854839992 -0.19721524937873769 0 0.48632845099736222 -0.22414249215062049 0 0.5 -0.18005242753235631 0 0.47964342854839992 -0.19721524937873769 0 0.5 -0.2081362805421044 0 0.47964342854839992 -0.19721524937873769 0 0.5 -0.2081362805421044 0 0.48632845099736222 -0.22414249215062049 0 0.5 -0.2081362805421044 0 0.48632845099736222 -0.22414249215062049 0 0.5 -0.23622013355185251 0 0.46380774267277552 -0.21565371773359859 0 0.48632845099736222 -0.22414249215062049 0 0.47049860655178699 -0.234036914215212 0 0.47049860655178699 -0.234036914215212 0 0.49301347344632451 -0.25106973492250312 0 0.47420360169856191 -0.2517183891017436 0 0.48632845099736222 -0.22414249215062049 0 0.47049860655178699 -0.234036914215212 0 0.49301347344632451 -0.25106973492250312 0 0.48632845099736222 -0.22414249215062049 0 0.5 -0.23622013355185251 0 0.49301347344632451 -0.25106973492250312 0 0.48632845099736222 -0.22414249215062049 0 0.49301347344632451 -0.25106973492250312 0 0.49999999999999972 -0.26430398656160059 0 0.47420360169856191 -0.2517183891017436 0 0.49999999999999972 -0.26430398656160059 0 0.49301347344632451 -0.25106973492250312 0 0.47420360169856191 -0.2517183891017436 0 0.5 -0.23622013355185251 0 0.49999999999999972 -0.26430398656160059 0 0.49301347344632451 -0.25106973492250312 0 0.49999999999999972 -0.26430398656160059 0 0.4829550106201097 -0.26862061574783208 0 0.47420360169856191 -0.2517183891017436 0 0.49999999999999861 -0.27902826830687938 0 0.47468134869218748 -0.28137029713634581 0 0.49999999999999861 -0.27902826830687938 0 0.4829550106201097 -0.26862061574783208 0 0.47468134869218748 -0.28137029713634581 0 0.49999999999999972 -0.26430398656160059 0 0.49999999999999861 -0.27902826830687938 0 0.4829550106201097 -0.26862061574783208 0 0.4829550106201097 -0.26862061574783208 0 0.46589010270979919 -0.26668213763259102 0 0.47468134869218748 -0.28137029713634581 0 0.4829550106201097 -0.26862061574783208 0 0.47420360169856191 -0.2517183891017436 0 0.46589010270979919 -0.26668213763259102 0 0.47420360169856191 -0.2517183891017436 0 0.46589010270979919 -0.26668213763259102 0 0.44949060484225789 -0.26028002680193779 0 0.44840720339712431 -0.23913279164188639 0 0.47420360169856191 -0.2517183891017436 0 0.44949060484225789 -0.26028002680193779 0 0.46589010270979919 -0.26668213763259102 0 0.44936269738437651 -0.28371232596581242 0 0.47468134869218748 -0.28137029713634581 0 0.46589010270979919 -0.26668213763259102 0 0.44949060484225789 -0.26028002680193779 0 0.44936269738437651 -0.28371232596581242 0 0.44949060484225789 -0.26028002680193779 0 0.44936269738437651 -0.28371232596581242 0 0.42948996024275449 -0.27137848316807139 0 0.4542493521740335 -0.3009157253549013 0 0.4546302024541472 -0.31623444748414192 0 0.43850176774477828 -0.31270623900740158 0 0.4542493521740335 -0.3009157253549013 0 0.43850176774477828 -0.31270623900740158 0 0.43724162503310871 -0.29732030742657373 0 0.44936269738437651 -0.28371232596581242 0 0.4542493521740335 -0.3009157253549013 0 0.43724162503310871 -0.29732030742657373 0 0.4542493521740335 -0.3009157253549013 0 0.47076379602222579 -0.30832335434955499 0 0.47468134869218748 -0.28137029713634581 0 0.44936269738437651 -0.28371232596581242 0 0.47468134869218748 -0.28137029713634581 0 0.44936269738437651 -0.28371232596581242 0 0.4542493521740335 -0.3009157253549013 0 0.47468134869218748 -0.28137029713634581 0 0.4542493521740335 -0.3009157253549013 0 0.47076379602222579 -0.30832335434955499 0 0.4546302024541472 -0.31623444748414192 0 0.47076379602222579 -0.30832335434955499 0 0.48873262611721718 -0.2952470656895067 0 0.48444802226399553 -0.32331453633412782 0 0.49999999999999861 -0.27902826830687938 0 0.48873262611721718 -0.2952470656895067 0 0.5 -0.31146586307213392 0 0.47076379602222579 -0.30832335434955499 0 0.47468134869218748 -0.28137029713634581 0 0.48873262611721718 -0.2952470656895067 0 0.49999999999999861 -0.27902826830687938 0 0.47468134869218748 -0.28137029713634581 0 0.48873262611721718 -0.2952470656895067 0 0.48873262611721718 -0.2952470656895067 0 0.5 -0.31146586307213392 0 0.48444802226399553 -0.32331453633412782 0 0.5 -0.31146586307213392 0 0.48444802226399553 -0.32331453633412782 0 0.5 -0.3558833208302683 0 0.48444802226399553 -0.32331453633412782 0 0.4810612316268234 -0.34055675199168411 0 0.5 -0.3558833208302683 0 0.48444802226399553 -0.32331453633412782 0 0.4810612316268234 -0.34055675199168411 0 0.466130479817707 -0.32841086207161879 0 0.47076379602222579 -0.30832335434955499 0 0.48444802226399553 -0.32331453633412782 0 0.466130479817707 -0.32841086207161879 0 0.4810612316268234 -0.34055675199168411 0 0.47131908917018528 -0.36736835678081031 0 0.45448388273440182 -0.34636897127571592 0 0.4810612316268234 -0.34055675199168411 0 0.5 -0.3558833208302683 0 0.47131908917018528 -0.36736835678081031 0 0.47131908917018528 -0.36736835678081031 0 0.45448388273440182 -0.34636897127571592 0 0.44437704247173943 -0.35990504962571651 0 0.45448388273440182 -0.34636897127571592 0 0.44437704247173943 -0.35990504962571651 0 0.42790653384198007 -0.35218119055974778 0 0.45448388273440182 -0.34636897127571592 0 0.42790653384198007 -0.35218119055974778 0 0.47131908917018528 -0.36736835678081031 0 0.44437704247173943 -0.35990504962571651 0 0.44353210994830528 -0.3772990166896798 0 0.44437704247173943 -0.35990504962571651 0 0.43079619555860488 -0.3656278925836956 0 0.44353210994830528 -0.3772990166896798 0 0.4546302024541472 -0.31623444748414192 0 0.466130479817707 -0.32841086207161879 0 0.44188342360205263 -0.32966856366437752 0 0.47076379602222579 -0.30832335434955499 0 0.4546302024541472 -0.31623444748414192 0 0.466130479817707 -0.32841086207161879 0 0.45448388273440182 -0.34636897127571592 0 0.466130479817707 -0.32841086207161879 0 0.44188342360205263 -0.32966856366437752 0 0.4810612316268234 -0.34055675199168411 0 0.45448388273440182 -0.34636897127571592 0 0.4810612316268234 -0.34055675199168411 0 0.45448388273440182 -0.34636897127571592 0 0.466130479817707 -0.32841086207161879 0 0.45448388273440182 -0.34636897127571592 0 0.44188342360205263 -0.32966856366437752 0 0.42703627642802011 -0.33954740502475439 0 0.4546302024541472 -0.31623444748414192 0 0.44188342360205263 -0.32966856366437752 0 0.43850176774477828 -0.31270623900740158 0 0.44188342360205263 -0.32966856366437752 0 0.43850176774477828 -0.31270623900740158 0 0.42587409575899132 -0.32260967523214878 0 0.43850176774477828 -0.31270623900740158 0 0.42587409575899132 -0.32260967523214878 0 0.41887918852692058 -0.30546730698298902 0 0.44188342360205263 -0.32966856366437752 0 0.42587409575899132 -0.32260967523214878 0 0.42703627642802011 -0.33954740502475439 0 0.42703627642802011 -0.33954740502475439 0 0.4072992303592986 -0.3279306640894844 0 0.41268925864961858 -0.34400461052643422 0 0.42703627642802011 -0.33954740502475439 0 0.4072992303592986 -0.3279306640894844 0 0.42587409575899132 -0.32260967523214878 0 0.42703627642802011 -0.33954740502475439 0 0.4072992303592986 -0.3279306640894844 0 0.4072992303592986 -0.3279306640894844 0 0.41268925864961858 -0.34400461052643422 0 0.39987506766923542 -0.34237038311440471 0 0.42587409575899132 -0.32260967523214878 0 0.4072992303592986 -0.3279306640894844 0 0.41887918852692058 -0.30546730698298902 0 0.4072992303592986 -0.3279306640894844 0 0.40013526844618441 -0.30590490748992638 0 0.41887918852692058 -0.30546730698298902 0 0.43079619555860488 -0.3656278925836956 0 0.42790653384198007 -0.35218119055974778 0 0.41640689562934607 -0.36706647874580922 0 0.44437704247173943 -0.35990504962571651 0 0.43079619555860488 -0.3656278925836956 0 0.42790653384198007 -0.35218119055974778 0 0.45448388273440182 -0.34636897127571592 0 0.42703627642802011 -0.33954740502475439 0 0.42790653384198007 -0.35218119055974778 0 0.42703627642802011 -0.33954740502475439 0 0.42790653384198007 -0.35218119055974778 0 0.41268925864961858 -0.34400461052643422 0 0.42790653384198007 -0.35218119055974778 0 0.40132918494955838 -0.35799340984377959 0 0.42790653384198007 -0.35218119055974778 0 0.41268925864961858 -0.34400461052643422 0 0.40132918494955838 -0.35799340984377959 0 0.42790653384198007 -0.35218119055974778 0 0.41640689562934607 -0.36706647874580922 0 0.40132918494955838 -0.35799340984377959 0 0.41640689562934607 -0.36706647874580922 0 0.40132918494955838 -0.35799340984377959 0 0.40434699620714792 -0.3755483017733221 0 0.43079619555860488 -0.3656278925836956 0 0.41640689562934607 -0.36706647874580922 0 0.41765556758943922 -0.38398159896850093 0 0.40132918494955838 -0.35799340984377959 0 0.40434699620714792 -0.3755483017733221 0 0.38640435671490703 -0.37731665146432619 0 0.41268925864961858 -0.34400461052643422 0 0.40132918494955838 -0.35799340984377959 0 0.39987506766923542 -0.34237038311440471 0 0.40132918494955838 -0.35799340984377959 0 0.38761419479792758 -0.34866337324513158 0 0.39987506766923542 -0.34237038311440471 0 0.38761419479792758 -0.34866337324513158 0 0.37475183605713669 -0.36380562912781139 0 0.37381871190006261 -0.34470066150004319 0 0.40132918494955838 -0.35799340984377959 0 0.38761419479792758 -0.34866337324513158 0 0.37475183605713669 -0.36380562912781139 0 0.40132918494955838 -0.35799340984377959 0 0.38640435671490703 -0.37731665146432619 0 0.37475183605713669 -0.36380562912781139 0 0.40132918494955838 -0.35799340984377959 0 0.37475183605713669 -0.36380562912781139 0 0.4072992303592986 -0.3279306640894844 0 0.38756218429057709 -0.31631392315421442 0 0.4072992303592986 -0.3279306640894844 0 0.38756218429057709 -0.31631392315421442 0 0.40013526844618441 -0.30590490748992638 0 0.4072992303592986 -0.3279306640894844 0 0.38829617341364531 -0.33444678263961869 0 0.38756218429057709 -0.31631392315421442 0 0.4072992303592986 -0.3279306640894844 0 0.39987506766923542 -0.34237038311440471 0 0.38829617341364531 -0.33444678263961869 0 0.38761419479792758 -0.34866337324513158 0 0.39987506766923542 -0.34237038311440471 0 0.38829617341364531 -0.33444678263961869 0 0.38829617341364531 -0.33444678263961869 0 0.37288558774298919 -0.32559569387227499 0 0.37381871190006261 -0.34470066150004319 0 0.38761419479792758 -0.34866337324513158 0 0.38829617341364531 -0.33444678263961869 0 0.37381871190006261 -0.34470066150004319 0 0.38756218429057709 -0.31631392315421442 0 0.36782513822185547 -0.30469718221894437 0 0.37288558774298919 -0.32559569387227499 0 0.38829617341364531 -0.33444678263961869 0 0.38756218429057709 -0.31631392315421442 0 0.37288558774298919 -0.32559569387227499 0 0.38756218429057709 -0.31631392315421442 0 0.38556813904210102 -0.30107421089737291 0 0.36782513822185547 -0.30469718221894437 0 0.38556813904210102 -0.30107421089737291 0 0.37340674346094371 -0.29073841245421211 0 0.36782513822185547 -0.30469718221894437 0 0.38756218429057709 -0.31631392315421442 0 0.36782513822185547 -0.30469718221894437 0 0.40013526844618441 -0.30590490748992638 0 0.39872539476875468 -0.28839638362474551 0 0.41887918852692058 -0.30546730698298902 0 0.38756218429057709 -0.31631392315421442 0 0.38556813904210102 -0.30107421089737291 0 0.40013526844618441 -0.30590490748992638 0 0.38556813904210102 -0.30107421089737291 0 0.40013526844618441 -0.30590490748992638 0 0.39872539476875468 -0.28839638362474551 0 0.38556813904210102 -0.30107421089737291 0 0.39872539476875468 -0.28839638362474551 0 0.37340674346094371 -0.29073841245421211 0 0.39872539476875468 -0.28839638362474551 0 0.37340674346094371 -0.29073841245421211 0 0.39872539476875468 -0.28839638362474551 0 0.38532506125819421 -0.27697569580300202 0 0.37340674346094371 -0.29073841245421211 0 0.38532506125819421 -0.27697569580300202 0 0.37287199135427329 -0.27416106022989661 0 0.37340674346094371 -0.29073841245421211 0 0.38532506125819421 -0.27697569580300202 0 0.38189040069013142 -0.26453326424145451 0 0.37287199135427329 -0.27416106022989661 0 0.38532506125819421 -0.27697569580300202 0 0.38189040069013142 -0.26453326424145451 0 0.39615646680886007 -0.26936045637310962 0 0.38931158314420627 -0.2498502026471362 0 0.38189040069013142 -0.26453326424145451 0 0.39615646680886007 -0.26936045637310962 0 0.38931158314420627 -0.2498502026471362 0 0.38189040069013142 -0.26453326424145451 0 0.37382475805204562 -0.25179621274304681 0 0.38189040069013142 -0.26453326424145451 0 0.37001072232148707 -0.26151609434472017 0 0.37382475805204562 -0.25179621274304681 0 0.38931158314420627 -0.2498502026471362 0 0.39615646680886007 -0.26936045637310962 0 0.40940077169348038 -0.26061434290760382 0 0.38931158314420627 -0.2498502026471362 0 0.40940077169348038 -0.26061434290760382 0 0.39872539476875468 -0.28839638362474551 0 0.38532506125819421 -0.27697569580300202 0 0.39615646680886007 -0.26936045637310962 0 0.39872539476875468 -0.28839638362474551 0 0.39615646680886007 -0.26936045637310962 0 0.41228558929839398 -0.27579284901471579 0 0.39615646680886007 -0.26936045637310962 0 0.41228558929839398 -0.27579284901471579 0 0.40940077169348038 -0.26061434290760382 0 0.41228558929839398 -0.27579284901471579 0 0.40940077169348038 -0.26061434290760382 0 0.42948996024275449 -0.27137848316807139 0 0.40940077169348038 -0.26061434290760382 0 0.42948996024275449 -0.27137848316807139 0 0.42959006362093127 -0.24905603330152221 0 0.40940077169348038 -0.26061434290760382 0 0.42948996024275449 -0.27137848316807139 0 0.42959006362093127 -0.24905603330152221 0 0.44949060484225789 -0.26028002680193779 0 0.42948996024275449 -0.27137848316807139 0 0.44936269738437651 -0.28371232596581242 0 0.42948996024275449 -0.27137848316807139 0 0.42404404607656571 -0.28605435479527902 0 0.41228558929839398 -0.27579284901471579 0 0.42948996024275449 -0.27137848316807139 0 0.42404404607656571 -0.28605435479527902 0 0.44936269738437651 -0.28371232596581242 0 0.42404404607656571 -0.28605435479527902 0 0.43724162503310871 -0.29732030742657373 0 0.44936269738437651 -0.28371232596581242 0 0.42404404607656571 -0.28605435479527902 0 0.42404404607656571 -0.28605435479527902 0 0.43724162503310871 -0.29732030742657373 0 0.41887918852692058 -0.30546730698298902 0 0.43850176774477828 -0.31270623900740158 0 0.43724162503310871 -0.29732030742657373 0 0.41887918852692058 -0.30546730698298902 0 0.39872539476875468 -0.28839638362474551 0 0.41228558929839398 -0.27579284901471579 0 0.42404404607656571 -0.28605435479527902 0 0.39872539476875468 -0.28839638362474551 0 0.42404404607656571 -0.28605435479527902 0 0.39872539476875468 -0.28839638362474551 0 0.42404404607656571 -0.28605435479527902 0 0.41887918852692058 -0.30546730698298902 0 0.5 -0.5 0 0.48275592736561312 -0.47858256149626199 0 0.5 -0.41670740886395657 0 0.45319325600929811 -0.48469841991564849 0 0.4349635698980836 -0.5 0 0.43069762719990229 -0.48935226459683789 0 0.45319325600929811 -0.48469841991564849 0 0.43069762719990229 -0.48935226459683789 0 0.45319325600929811 -0.48469841991564849 0 0.45945076699655091 -0.50000000000000167 0 0.4349635698980836 -0.5 0 0.45319325600929811 -0.48469841991564849 0 0.44372092702149368 -0.46153559992420329 0 0.43980048128661942 -0.47665709096517211 0 0.45319325600929811 -0.48469841991564849 0 0.44372092702149368 -0.46153559992420329 0 0.45319325600929811 -0.48469841991564849 0 0.46180092347329732 -0.46635452774397052 0 0.44372092702149368 -0.46153559992420329 0 0.43980048128661942 -0.47665709096517211 0 0.45319325600929811 -0.48469841991564849 0 0.43069762719990229 -0.48935226459683789 0 0.45319325600929811 -0.48469841991564849 0 0.48275592736561312 -0.47858256149626199 0 0.46180092347329732 -0.46635452774397052 0 0.45319325600929811 -0.48469841991564849 0 0.48275592736561312 -0.47858256149626199 0 0.45319325600929811 -0.48469841991564849 0 0.45945076699655091 -0.50000000000000167 0 0.48275592736561312 -0.47858256149626199 0 0.45319325600929811 -0.48469841991564849 0 0.45945076699655091 -0.50000000000000167 0 0.45945076699655091 -0.50000000000000167 0 0.5 -0.5 0 0.48275592736561312 -0.47858256149626199 0 0.48275592736561312 -0.47858256149626199 0 0.46753358349678442 -0.44060152963976817 0 0.46180092347329732 -0.46635452774397052 0 0.48275592736561312 -0.47858256149626199 0 0.46753358349678442 -0.44060152963976817 0 0.5 -0.41670740886395657 0 0.46753358349678442 -0.44060152963976817 0 0.44372092702149368 -0.46153559992420329 0 0.43424859803368959 -0.43837277993275781 0 0.46753358349678442 -0.44060152963976817 0 0.46180092347329732 -0.46635452774397052 0 0.44372092702149368 -0.46153559992420329 0 0.44372092702149368 -0.46153559992420329 0 0.43424859803368959 -0.43837277993275781 0 0.46753358349678442 -0.44060152963976817 0 0.45079283721485391 -0.41808884646718347 0 0.43424859803368959 -0.43837277993275781 0 0.46753358349678442 -0.44060152963976817 0 0.45079283721485391 -0.41808884646718347 0 0.5 -0.41670740886395657 0 0.45079283721485391 -0.41808884646718347 0 0.5 -0.41670740886395657 0 0.46033884819785931 -0.39419392079205551 0 0.5 -0.3558833208302683 0 0.47131908917018528 -0.36736835678081031 0 0.5 -0.41670740886395657 0 0.47131908917018528 -0.36736835678081031 0 0.5 -0.41670740886395657 0 0.46033884819785931 -0.39419392079205551 0 0.47131908917018528 -0.36736835678081031 0 0.46033884819785931 -0.39419392079205551 0 0.44353210994830528 -0.3772990166896798 0 0.45079283721485391 -0.41808884646718347 0 0.46033884819785931 -0.39419392079205551 0 0.43424605258964688 -0.39934142342240458 0 0.46033884819785931 -0.39419392079205551 0 0.44353210994830528 -0.3772990166896798 0 0.43424605258964688 -0.39934142342240458 0 0.44353210994830528 -0.3772990166896798 0 0.43424605258964688 -0.39934142342240458 0 0.41765556758943922 -0.38398159896850093 0 0.43079619555860488 -0.3656278925836956 0 0.44353210994830528 -0.3772990166896798 0 0.41765556758943922 -0.38398159896850093 0 0.41765556758943922 -0.38398159896850093 0 0.39869101551456332 -0.39025369045315139 0 0.40838068354153889 -0.40727519767569559 0 0.43424605258964688 -0.39934142342240458 0 0.41765556758943922 -0.38398159896850093 0 0.40838068354153889 -0.40727519767569559 0 0.41765556758943922 -0.38398159896850093 0 0.39869101551456332 -0.39025369045315139 0 0.41765556758943922 -0.38398159896850093 0 0.40434699620714792 -0.3755483017733221 0 0.39869101551456332 -0.39025369045315139 0 0.41640689562934607 -0.36706647874580922 0 0.41765556758943922 -0.38398159896850093 0 0.40434699620714792 -0.3755483017733221 0 0.40434699620714792 -0.3755483017733221 0 0.39869101551456332 -0.39025369045315139 0 0.38640435671490703 -0.37731665146432619 0 0.38640435671490703 -0.37731665146432619 0 0.37612396759226102 -0.39189892020908962 0 0.37475183605713669 -0.36380562912781139 0 0.37612396759226102 -0.39189892020908962 0 0.37475183605713669 -0.36380562912781139 0 0.38640435671490703 -0.37731665146432619 0 0.38598569086460321 -0.3879364278506926 0 0.37612396759226102 -0.39189892020908962 0 0.39869101551456332 -0.39025369045315139 0 0.38640435671490703 -0.37731665146432619 0 0.38598569086460321 -0.3879364278506926 0 0.39869101551456332 -0.39025369045315139 0 0.38598569086460321 -0.3879364278506926 0 0.37972646343968841 -0.39652578193780502 0 0.39869101551456332 -0.39025369045315139 0 0.37972646343968841 -0.39652578193780502 0 0.39869101551456332 -0.39025369045315139 0 0.37972646343968841 -0.39652578193780502 0 0.39335577507187292 -0.40041843494286289 0 0.38047052495580841 -0.40434856382142559 0 0.37640362758008322 -0.39762473383593461 0 0.37707823189424122 -0.41143671532396198 0 0.37640362758008322 -0.39762473383593461 0 0.37707823189424122 -0.41143671532396198 0 0.38047052495580841 -0.40434856382142559 0 0.37640362758008322 -0.39762473383593461 0 0.37972646343968841 -0.39652578193780502 0 0.37640362758008322 -0.39762473383593461 0 0.37612396759226102 -0.39189892020908962 0 0.37972646343968841 -0.39652578193780502 0 0.38598569086460321 -0.3879364278506926 0 0.37612396759226102 -0.39189892020908962 0 0.37972646343968841 -0.39652578193780502 0 0.37640362758008322 -0.39762473383593461 0 0.37612396759226102 -0.39189892020908962 0 0.37640362758008322 -0.39762473383593461 0 0.37972646343968841 -0.39652578193780502 0 0.37612396759226102 -0.39189892020908962 0 0.37972646343968841 -0.39652578193780502 0 0.38047052495580841 -0.40434856382142559 0 0.37972646343968841 -0.39652578193780502 0 0.39041008531544041 -0.41024728038624431 0 0.37972646343968841 -0.39652578193780502 0 0.39335577507187292 -0.40041843494286289 0 0.39041008531544041 -0.41024728038624431 0 0.37972646343968841 -0.39652578193780502 0 0.39041008531544041 -0.41024728038624431 0 0.39335577507187292 -0.40041843494286289 0 0.39041008531544041 -0.41024728038624431 0 0.40838068354153889 -0.40727519767569559 0 0.39869101551456332 -0.39025369045315139 0 0.39335577507187292 -0.40041843494286289 0 0.40838068354153889 -0.40727519767569559 0 0.39041008531544041 -0.41024728038624431 0 0.40109370719119319 -0.42396877883468281 0 0.40838068354153889 -0.40727519767569559 0 0.39041008531544041 -0.41024728038624431 0 0.38335335735234649 -0.42477624200839192 0 0.40109370719119319 -0.42396877883468281 0 0.39041008531544041 -0.41024728038624431 0 0.40109370719119319 -0.42396877883468281 0 0.39041008531544041 -0.41024728038624431 0 0.37707823189424122 -0.41143671532396198 0 0.38335335735234649 -0.42477624200839192 0 0.38047052495580841 -0.40434856382142559 0 0.39041008531544041 -0.41024728038624431 0 0.37707823189424122 -0.41143671532396198 0 0.38335335735234649 -0.42477624200839192 0 0.39006321611619771 -0.43785908888495051 0 0.37522511007199227 -0.4396194489541001 0 0.38335335735234649 -0.42477624200839192 0 0.40109370719119319 -0.42396877883468281 0 0.39006321611619771 -0.43785908888495051 0 0.40109370719119319 -0.42396877883468281 0 0.40790527580289321 -0.44572536855462469 0 0.39006321611619771 -0.43785908888495051 0 0.40109370719119319 -0.42396877883468281 0 0.41663901525913638 -0.4296508576742708 0 0.40790527580289321 -0.44572536855462469 0 0.40109370719119319 -0.42396877883468281 0 0.41663901525913638 -0.4296508576742708 0 0.40838068354153889 -0.40727519767569559 0 0.41663901525913638 -0.4296508576742708 0 0.40838068354153889 -0.40727519767569559 0 0.42477626904588572 -0.41520995994131238 0 0.45079283721485391 -0.41808884646718347 0 0.43424605258964688 -0.39934142342240458 0 0.42477626904588572 -0.41520995994131238 0 0.43424605258964688 -0.39934142342240458 0 0.40838068354153889 -0.40727519767569559 0 0.42477626904588572 -0.41520995994131238 0 0.41663901525913638 -0.4296508576742708 0 0.42477626904588572 -0.41520995994131238 0 0.43424859803368959 -0.43837277993275781 0 0.42477626904588572 -0.41520995994131238 0 0.43424859803368959 -0.43837277993275781 0 0.45079283721485391 -0.41808884646718347 0 0.42477626904588572 -0.41520995994131238 0 0.43424859803368959 -0.43837277993275781 0 0.44372092702149368 -0.46153559992420329 0 0.43424859803368959 -0.43837277993275781 0 0.42325941312278947 -0.45880592788507479 0 0.44372092702149368 -0.46153559992420329 0 0.42325941312278947 -0.45880592788507479 0 0.42793489308291149 -0.47473498661988622 0 0.42325941312278947 -0.45880592788507479 0 0.40790527580289321 -0.44572536855462469 0 0.39694722575202129 -0.47286268427731237 0 0.41663901525913638 -0.4296508576742708 0 0.43424859803368959 -0.43837277993275781 0 0.40790527580289321 -0.44572536855462469 0 0.43424859803368959 -0.43837277993275781 0 0.42325941312278947 -0.45880592788507479 0 0.40790527580289321 -0.44572536855462469 0 0.40790527580289321 -0.44572536855462469 0 0.39006321611619771 -0.43785908888495051 0 0.38273863016256332 -0.45520560607295352 0 0.39006321611619771 -0.43785908888495051 0 0.37522511007199227 -0.4396194489541001 0 0.38273863016256332 -0.45520560607295352 0 0.38273863016256332 -0.45520560607295352 0 0.39694722575202129 -0.47286268427731237 0 0.36981654403562902 -0.4754716926431799 0 0.40790527580289321 -0.44572536855462469 0 0.38273863016256332 -0.45520560607295352 0 0.39694722575202129 -0.47286268427731237 0 0.40790527580289321 -0.44572536855462469 0 0.39694722575202129 -0.47286268427731237 0 0.39694722575202129 -0.47286268427731237 0 0.40504069162124251 -0.48296639934889329 0 0.41559509709373432 -0.47593299470810341 0 0.39694722575202129 -0.47286268427731237 0 0.38598917570114932 -0.50000000000000022 0 0.36981654403562902 -0.4754716926431799 0 0.39694722575202129 -0.47286268427731237 0 0.38598917570114932 -0.50000000000000022 0 0.40504069162124251 -0.48296639934889329 0 0.38598917570114932 -0.50000000000000022 0 0.40820199839050669 -0.49400610927802718 0 0.38598917570114932 -0.50000000000000022 0 0.40820199839050669 -0.49400610927802718 0 0.41047637279961652 -0.5 0 0.39694722575202129 -0.47286268427731237 0 0.40504069162124251 -0.48296639934889329 0 0.38598917570114932 -0.50000000000000022 0 0.40820199839050669 -0.49400610927802718 0 0.43069762719990229 -0.48935226459683789 0 0.40820199839050669 -0.49400610927802718 0 0.41749406147765938 -0.48339855091034961 0 0.43069762719990229 -0.48935226459683789 0 0.40820199839050669 -0.49400610927802718 0 0.41047637279961652 -0.5 0 0.43069762719990229 -0.48935226459683789 0 0.40504069162124251 -0.48296639934889329 0 0.40820199839050669 -0.49400610927802718 0 0.41749406147765938 -0.48339855091034961 0 0.40504069162124251 -0.48296639934889329 0 0.41559509709373432 -0.47593299470810341 0 0.41749406147765938 -0.48339855091034961 0 0.42325941312278947 -0.45880592788507479 0 0.39694722575202129 -0.47286268427731237 0 0.41559509709373432 -0.47593299470810341 0 0.41559509709373432 -0.47593299470810341 0 0.41749406147765938 -0.48339855091034961 0 0.42793489308291149 -0.47473498661988622 0 0.42325941312278947 -0.45880592788507479 0 0.41559509709373432 -0.47593299470810341 0 0.42793489308291149 -0.47473498661988622 0 0.43980048128661942 -0.47665709096517211 0 0.44372092702149368 -0.46153559992420329 0 0.42793489308291149 -0.47473498661988622 0 0.41749406147765938 -0.48339855091034961 0 0.42793489308291149 -0.47473498661988622 0 0.43069762719990229 -0.48935226459683789 0 0.43980048128661942 -0.47665709096517211 0 0.42793489308291149 -0.47473498661988622 0 0.43069762719990229 -0.48935226459683789 0 0.41047637279961652 -0.5 0 0.4349635698980836 -0.5 0 0.43069762719990229 -0.48935226459683789 0 0.32987477664676168 -0.5 0 0.34829567730451 -0.4801876400069307 0 0.3293814098633146 -0.46792871097680327 0 0.32987477664676168 -0.5 0 0.3293814098633146 -0.46792871097680327 0 0.31006292031848692 -0.48005211428392508 0 0.32987477664676168 -0.5 0 0.31006292031848692 -0.48005211428392508 0 0.30181757711956791 -0.5 0 0.32987477664676168 -0.5 0 0.35793197617395561 -0.5 0 0.34829567730451 -0.4801876400069307 0 0.35793197617395561 -0.5 0 0.36981654403562902 -0.4754716926431799 0 0.34829567730451 -0.4801876400069307 0 0.38598917570114932 -0.50000000000000022 0 0.35793197617395561 -0.5 0 0.36981654403562902 -0.4754716926431799 0 0.36981654403562902 -0.4754716926431799 0 0.34829567730451 -0.4801876400069307 0 0.35504439972842561 -0.45192374622060022 0 0.34829567730451 -0.4801876400069307 0 0.35504439972842561 -0.45192374622060022 0 0.3293814098633146 -0.46792871097680327 0 0.38273863016256332 -0.45520560607295352 0 0.36981654403562902 -0.4754716926431799 0 0.35504439972842561 -0.45192374622060022 0 0.37522511007199227 -0.4396194489541001 0 0.35504439972842561 -0.45192374622060022 0 0.36279682941017372 -0.42617207259515449 0 0.37522511007199227 -0.4396194489541001 0 0.38273863016256332 -0.45520560607295352 0 0.35504439972842561 -0.45192374622060022 0 0.35504439972842561 -0.45192374622060022 0 0.32662654603162361 -0.44423430149512411 0 0.34242565339529518 -0.42734859236557682 0 0.35504439972842561 -0.45192374622060022 0 0.3293814098633146 -0.46792871097680327 0 0.32662654603162361 -0.44423430149512411 0 0.3293814098633146 -0.46792871097680327 0 0.32662654603162361 -0.44423430149512411 0 0.30433768258911842 -0.45612167380357832 0 0.3293814098633146 -0.46792871097680327 0 0.30433768258911842 -0.45612167380357832 0 0.31006292031848692 -0.48005211428392508 0 0.32662654603162361 -0.44423430149512411 0 0.3084211177794689 -0.43644994830486161 0 0.30433768258911842 -0.45612167380357832 0 0.32662654603162361 -0.44423430149512411 0 0.32014901283411912 -0.42563313729932439 0 0.3084211177794689 -0.43644994830486161 0 0.32014901283411912 -0.42563313729932439 0 0.33182795912609081 -0.41236711580356761 0 0.31468641303421241 -0.40243705317892581 0 0.33182795912609081 -0.41236711580356761 0 0.34242565339529518 -0.42734859236557682 0 0.35411579335308702 -0.404995924819751 0 0.33182795912609081 -0.41236711580356761 0 0.35411579335308702 -0.404995924819751 0 0.32014901283411912 -0.42563313729932439 0 0.33182795912609081 -0.41236711580356761 0 0.34242565339529518 -0.42734859236557682 0 0.32662654603162361 -0.44423430149512411 0 0.32014901283411912 -0.42563313729932439 0 0.34242565339529518 -0.42734859236557682 0 0.35504439972842561 -0.45192374622060022 0 0.34242565339529518 -0.42734859236557682 0 0.36279682941017372 -0.42617207259515449 0 0.38335335735234649 -0.42477624200839192 0 0.37522511007199227 -0.4396194489541001 0 0.36279682941017372 -0.42617207259515449 0 0.37707823189424122 -0.41143671532396198 0 0.36279682941017372 -0.42617207259515449 0 0.35411579335308702 -0.404995924819751 0 0.37707823189424122 -0.41143671532396198 0 0.38335335735234649 -0.42477624200839192 0 0.36279682941017372 -0.42617207259515449 0 0.34242565339529518 -0.42734859236557682 0 0.36279682941017372 -0.42617207259515449 0 0.35411579335308702 -0.404995924819751 0 0.35411579335308702 -0.404995924819751 0 0.36420567386618058 -0.39286655424001449 0 0.34951107742916382 -0.38498877340281962 0 0.35411579335308702 -0.404995924819751 0 0.34951107742916382 -0.38498877340281962 0 0.33419516525930448 -0.39514532603587488 0 0.37640362758008322 -0.39762473383593461 0 0.37707823189424122 -0.41143671532396198 0 0.35411579335308702 -0.404995924819751 0 0.37640362758008322 -0.39762473383593461 0 0.35411579335308702 -0.404995924819751 0 0.36420567386618058 -0.39286655424001449 0 0.37640362758008322 -0.39762473383593461 0 0.35411579335308702 -0.404995924819751 0 0.37640362758008322 -0.39762473383593461 0 0.37612396759226102 -0.39189892020908962 0 0.36420567386618058 -0.39286655424001449 0 0.37612396759226102 -0.39189892020908962 0 0.36667865339814248 -0.37976784092091931 0 0.37475183605713669 -0.36380562912781139 0 0.36420567386618058 -0.39286655424001449 0 0.36667865339814248 -0.37976784092091931 0 0.34951107742916382 -0.38498877340281962 0 0.37612396759226102 -0.39189892020908962 0 0.36667865339814248 -0.37976784092091931 0 0.37612396759226102 -0.39189892020908962 0 0.36420567386618058 -0.39286655424001449 0 0.36667865339814248 -0.37976784092091931 0 0.36667865339814248 -0.37976784092091931 0 0.34951107742916382 -0.38498877340281962 0 0.35723333920402389 -0.36763676163274911 0 0.34951107742916382 -0.38498877340281962 0 0.33282743003621063 -0.38234526631704979 0 0.33926504624587811 -0.37156626036700158 0 0.34951107742916382 -0.38498877340281962 0 0.33282743003621063 -0.38234526631704979 0 0.33419516525930448 -0.39514532603587488 0 0.33282743003621063 -0.38234526631704979 0 0.32129675328773161 -0.37549575910125088 0 0.33926504624587811 -0.37156626036700158 0 0.33282743003621063 -0.38234526631704979 0 0.33419516525930448 -0.39514532603587488 0 0.32195147665450491 -0.3883918317171034 0 0.33182795912609081 -0.41236711580356761 0 0.35411579335308702 -0.404995924819751 0 0.33419516525930448 -0.39514532603587488 0 0.33419516525930448 -0.39514532603587488 0 0.31468641303421241 -0.40243705317892581 0 0.32195147665450491 -0.3883918317171034 0 0.33182795912609081 -0.41236711580356761 0 0.33419516525930448 -0.39514532603587488 0 0.31468641303421241 -0.40243705317892581 0 0.31468641303421241 -0.40243705317892581 0 0.32195147665450491 -0.3883918317171034 0 0.31073010111766181 -0.38789051231957039 0 0.32129675328773161 -0.37549575910125088 0 0.2956283992390274 -0.38065906471582123 0 0.32341911529292539 -0.37027977020376801 0 0.32129675328773161 -0.37549575910125088 0 0.32195147665450491 -0.3883918317171034 0 0.31073010111766181 -0.38789051231957039 0 0.33282743003621063 -0.38234526631704979 0 0.32129675328773161 -0.37549575910125088 0 0.32195147665450491 -0.3883918317171034 0 0.2956283992390274 -0.38065906471582123 0 0.32341911529292539 -0.37027977020376801 0 0.32129675328773161 -0.37549575910125088 0 0.31073010111766181 -0.38789051231957039 0 0.2956283992390274 -0.38065906471582123 0 0.31073010111766181 -0.38789051231957039 0 0.30015629809121019 -0.39444135076608378 0 0.2956283992390274 -0.38065906471582123 0 0.31468641303421241 -0.40243705317892581 0 0.29723587378509919 -0.40580179215477191 0 0.30015629809121019 -0.39444135076608378 0 0.31468641303421241 -0.40243705317892581 0 0.31073010111766181 -0.38789051231957039 0 0.30015629809121019 -0.39444135076608378 0 0.30015629809121019 -0.39444135076608378 0 0.28222490212068529 -0.39944441550556059 0 0.2956283992390274 -0.38065906471582123 0 0.29723587378509919 -0.40580179215477191 0 0.30015629809121019 -0.39444135076608378 0 0.28222490212068529 -0.39944441550556059 0 0.28222490212068529 -0.39944441550556059 0 0.2956283992390274 -0.38065906471582123 0 0.28222490212068529 -0.39944441550556059 0 0.2956283992390274 -0.38065906471582123 0 0.27633602751222103 -0.38786439212085311 0 0.2956283992390274 -0.38065906471582123 0 0.27633602751222103 -0.38786439212085311 0 0.2956283992390274 -0.38065906471582123 0 0.27633602751222103 -0.38786439212085311 0 0.29061607341308721 -0.36728201053245779 0 0.27633602751222103 -0.38786439212085311 0 0.27135106396179981 -0.38972617951493632 0 0.27633602751222103 -0.38786439212085311 0 0.27135106396179981 -0.38972617951493632 0 0.2760123610201326 -0.3937495658399518 0 0.27135106396179981 -0.38972617951493632 0 0.26376612934820698 -0.38299088753554439 0 0.26446823024190952 -0.39195918885106368 0 0.27633602751222103 -0.38786439212085311 0 0.27135106396179981 -0.38972617951493632 0 0.26376612934820698 -0.38299088753554439 0 0.27633602751222103 -0.38786439212085311 0 0.26376612934820698 -0.38299088753554439 0 0.2669014601958144 -0.37252871605108601 0 0.26376612934820698 -0.38299088753554439 0 0.2506507545744458 -0.37615617173451982 0 0.2669014601958144 -0.37252871605108601 0 0.26376612934820698 -0.38299088753554439 0 0.25437846437632172 -0.39051503495008899 0 0.26446823024190952 -0.39195918885106368 0 0.26376612934820698 -0.38299088753554439 0 0.25437846437632172 -0.39051503495008899 0 0.2506507545744458 -0.37615617173451982 0 0.25437846437632172 -0.39051503495008899 0 0.26361260351947768 -0.403403445962565 0 0.24517157497247291 -0.40145499367775911 0 0.25437846437632172 -0.39051503495008899 0 0.26446823024190952 -0.39195918885106368 0 0.26361260351947768 -0.403403445962565 0 0.28222490212068529 -0.39944441550556059 0 0.26361260351947768 -0.403403445962565 0 0.27074176487450791 -0.39608894775075759 0 0.26446823024190952 -0.39195918885106368 0 0.26361260351947768 -0.403403445962565 0 0.27074176487450791 -0.39608894775075759 0 0.27135106396179981 -0.38972617951493632 0 0.26446823024190952 -0.39195918885106368 0 0.27074176487450791 -0.39608894775075759 0 0.27135106396179981 -0.38972617951493632 0 0.27074176487450791 -0.39608894775075759 0 0.2760123610201326 -0.3937495658399518 0 0.28222490212068529 -0.39944441550556059 0 0.27074176487450791 -0.39608894775075759 0 0.2760123610201326 -0.3937495658399518 0 0.28222490212068529 -0.39944441550556059 0 0.27633602751222103 -0.38786439212085311 0 0.2760123610201326 -0.3937495658399518 0 0.27633602751222103 -0.38786439212085311 0 0.2760123610201326 -0.3937495658399518 0 0.28222490212068529 -0.39944441550556059 0 0.26882140500234503 -0.4182297662953014 0 0.28621713958803757 -0.41646733493975668 0 0.28222490212068529 -0.39944441550556059 0 0.26882140500234503 -0.4182297662953014 0 0.28222490212068529 -0.39944441550556059 0 0.26361260351947768 -0.403403445962565 0 0.26882140500234503 -0.4182297662953014 0 0.26361260351947768 -0.403403445962565 0 0.25238859145066578 -0.41747764195402559 0 0.24517157497247291 -0.40145499367775911 0 0.26361260351947768 -0.403403445962565 0 0.26882140500234503 -0.4182297662953014 0 0.25238859145066578 -0.41747764195402559 0 0.26882140500234503 -0.4182297662953014 0 0.25238859145066578 -0.41747764195402559 0 0.26248936247127369 -0.43792228803074262 0 0.25238859145066578 -0.41747764195402559 0 0.26248936247127369 -0.43792228803074262 0 0.24135468461158599 -0.43079385659779967 0 0.26882140500234503 -0.4182297662953014 0 0.28609272852911199 -0.43574608522198388 0 0.28621713958803757 -0.41646733493975668 0 0.26882140500234503 -0.4182297662953014 0 0.28609272852911199 -0.43574608522198388 0 0.26248936247127369 -0.43792228803074262 0 0.28609272852911199 -0.43574608522198388 0 0.28621713958803757 -0.41646733493975668 0 0.30194171349611493 -0.42021933848801618 0 0.29723587378509919 -0.40580179215477191 0 0.28621713958803757 -0.41646733493975668 0 0.30194171349611493 -0.42021933848801618 0 0.29723587378509919 -0.40580179215477191 0 0.28222490212068529 -0.39944441550556059 0 0.28621713958803757 -0.41646733493975668 0 0.32014901283411912 -0.42563313729932439 0 0.31468641303421241 -0.40243705317892581 0 0.30194171349611493 -0.42021933848801618 0 0.31468641303421241 -0.40243705317892581 0 0.29723587378509919 -0.40580179215477191 0 0.30194171349611493 -0.42021933848801618 0 0.32014901283411912 -0.42563313729932439 0 0.30194171349611493 -0.42021933848801618 0 0.3084211177794689 -0.43644994830486161 0 0.28609272852911199 -0.43574608522198388 0 0.30194171349611493 -0.42021933848801618 0 0.3084211177794689 -0.43644994830486161 0 0.28609272852911199 -0.43574608522198388 0 0.3084211177794689 -0.43644994830486161 0 0.30433768258911842 -0.45612167380357832 0 0.30433768258911842 -0.45612167380357832 0 0.28198556143779069 -0.455421099312809 0 0.28490315537367211 -0.47621018663924419 0 0.28609272852911199 -0.43574608522198388 0 0.30433768258911842 -0.45612167380357832 0 0.28198556143779069 -0.455421099312809 0 0.28198556143779069 -0.455421099312809 0 0.26248936247127369 -0.43792228803074262 0 0.26293323546532621 -0.46093033486402119 0 0.28609272852911199 -0.43574608522198388 0 0.28198556143779069 -0.455421099312809 0 0.26248936247127369 -0.43792228803074262 0 0.26248936247127369 -0.43792228803074262 0 0.26293323546532621 -0.46093033486402119 0 0.24580572636121731 -0.44959387587651523 0 0.28198556143779069 -0.455421099312809 0 0.26293323546532621 -0.46093033486402119 0 0.28490315537367211 -0.47621018663924419 0 0.26293323546532621 -0.46093033486402119 0 0.26120226759513071 -0.48176515411092691 0 0.28490315537367211 -0.47621018663924419 0 0.26293323546532621 -0.46093033486402119 0 0.26120226759513071 -0.48176515411092691 0 0.2387113914791007 -0.47168524905136922 0 0.26120226759513071 -0.48176515411092691 0 0.27376037759237409 -0.5 0 0.24570317806518041 -0.5 0 0.26120226759513071 -0.48176515411092691 0 0.27376037759237409 -0.5 0 0.28490315537367211 -0.47621018663924419 0 0.27376037759237409 -0.5 0 0.28490315537367211 -0.47621018663924419 0 0.30181757711956791 -0.5 0 0.30433768258911842 -0.45612167380357832 0 0.28490315537367211 -0.47621018663924419 0 0.31006292031848692 -0.48005211428392508 0 0.28490315537367211 -0.47621018663924419 0 0.31006292031848692 -0.48005211428392508 0 0.30181757711956791 -0.5 0 0.32579493335834431 -0.29514260565264572 0 0.34808809215313252 -0.2930804412836765 0 0.33327849923251562 -0.28436387834327198 0 0.32579493335834431 -0.29514260565264572 0 0.34808809215313252 -0.2930804412836765 0 0.33327849923251562 -0.28436387834327198 0 0.34698299005266131 -0.2774030112533632 0 0.34808809215313252 -0.2930804412836765 0 0.33327849923251562 -0.28436387834327198 0 0.34808809215313252 -0.2930804412836765 0 0.3389258772851394 -0.30686770252702189 0 0.32579493335834431 -0.29514260565264572 0 0.34808809215313252 -0.2930804412836765 0 0.3389258772851394 -0.30686770252702189 0 0.32522500590788112 -0.3081455304887365 0 0.33438582094117503 -0.32054007298141518 0 0.3389258772851394 -0.30686770252702189 0 0.32522500590788112 -0.3081455304887365 0 0.32579493335834431 -0.29514260565264572 0 0.32522500590788112 -0.3081455304887365 0 0.32579493335834431 -0.29514260565264572 0 0.30350177456355582 -0.29720477002161277 0 0.32522500590788112 -0.3081455304887365 0 0.31665491720120692 -0.31876268933162372 0 0.30350177456355582 -0.29720477002161277 0 0.32579493335834431 -0.29514260565264572 0 0.30350177456355582 -0.29720477002161277 0 0.32579493335834431 -0.29514260565264572 0 0.31329874262005719 -0.28654956694650541 0 0.30350177456355582 -0.29720477002161277 0 0.32579493335834431 -0.29514260565264572 0 0.3221338586401255 -0.28251622220733941 0 0.31329874262005719 -0.28654956694650541 0 0.33327849923251562 -0.28436387834327198 0 0.32579493335834431 -0.29514260565264572 0 0.3221338586401255 -0.28251622220733941 0 0.3221338586401255 -0.28251622220733941 0 0.31329874262005719 -0.28654956694650541 0 0.31217623648475251 -0.27639645527786971 0 0.3221338586401255 -0.28251622220733941 0 0.32154052123367621 -0.26935231502442758 0 0.31217623648475251 -0.27639645527786971 0 0.32154052123367621 -0.26935231502442758 0 0.31257074049552452 -0.26431076415233828 0 0.31217623648475251 -0.27639645527786971 0 0.32154052123367621 -0.26935231502442758 0 0.32897030238840219 -0.27574122325775341 0 0.3331420820473312 -0.26770504773318571 0 0.32154052123367621 -0.26935231502442758 0 0.32929233974826833 -0.26038798146517272 0 0.3331420820473312 -0.26770504773318571 0 0.3221338586401255 -0.28251622220733941 0 0.32154052123367621 -0.26935231502442758 0 0.32897030238840219 -0.27574122325775341 0 0.31869320023432718 -0.24446963112128259 0 0.32107862166406093 -0.25675281110356379 0 0.31104200607340149 -0.25347981103245221 0 0.31257074049552452 -0.26431076415233828 0 0.32107862166406093 -0.25675281110356379 0 0.31104200607340149 -0.25347981103245221 0 0.32154052123367621 -0.26935231502442758 0 0.31257074049552452 -0.26431076415233828 0 0.32107862166406093 -0.25675281110356379 0 0.32154052123367621 -0.26935231502442758 0 0.32107862166406093 -0.25675281110356379 0 0.32929233974826833 -0.26038798146517272 0 0.32107862166406093 -0.25675281110356379 0 0.33298591867146399 -0.25061829801836533 0 0.32929233974826833 -0.26038798146517272 0 0.31869320023432718 -0.24446963112128259 0 0.32107862166406093 -0.25675281110356379 0 0.33298591867146399 -0.25061829801836533 0 0.33298591867146399 -0.25061829801836533 0 0.32929233974826833 -0.26038798146517272 0 0.33840719765369981 -0.25996895907031059 0 0.32929233974826833 -0.26038798146517272 0 0.33840719765369981 -0.25996895907031059 0 0.3331420820473312 -0.26770504773318571 0 0.33840719765369981 -0.25996895907031059 0 0.34418754141067531 -0.25346685482495462 0 0.34833479441919618 -0.2607970269781289 0 0.33840719765369981 -0.25996895907031059 0 0.3331420820473312 -0.26770504773318571 0 0.34284683088970891 -0.26806730721405159 0 0.33840719765369981 -0.25996895907031059 0 0.34284683088970891 -0.26806730721405159 0 0.34833479441919618 -0.2607970269781289 0 0.33298591867146399 -0.25061829801836533 0 0.33840719765369981 -0.25996895907031059 0 0.34418754141067531 -0.25346685482495462 0 0.33327849923251562 -0.28436387834327198 0 0.32897030238840219 -0.27574122325775341 0 0.33695263731677338 -0.27466059593713388 0 0.33327849923251562 -0.28436387834327198 0 0.3221338586401255 -0.28251622220733941 0 0.32897030238840219 -0.27574122325775341 0 0.32897030238840219 -0.27574122325775341 0 0.3331420820473312 -0.26770504773318571 0 0.33695263731677338 -0.27466059593713388 0 0.34284683088970891 -0.26806730721405159 0 0.33695263731677338 -0.27466059593713388 0 0.34698299005266131 -0.2774030112533632 0 0.3331420820473312 -0.26770504773318571 0 0.34284683088970891 -0.26806730721405159 0 0.33695263731677338 -0.27466059593713388 0 0.33327849923251562 -0.28436387834327198 0 0.33695263731677338 -0.27466059593713388 0 0.34698299005266131 -0.2774030112533632 0 0.34284683088970891 -0.26806730721405159 0 0.35169959135154372 -0.26884850314215442 0 0.34833479441919618 -0.2607970269781289 0 0.34284683088970891 -0.26806730721405159 0 0.34698299005266131 -0.2774030112533632 0 0.35169959135154372 -0.26884850314215442 0 0.35169959135154372 -0.26884850314215442 0 0.36026438252668741 -0.2653699257184417 0 0.3624044612560659 -0.27936027396625968 0 0.34698299005266131 -0.2774030112533632 0 0.35169959135154372 -0.26884850314215442 0 0.3624044612560659 -0.27936027396625968 0 0.34698299005266131 -0.2774030112533632 0 0.3624044612560659 -0.27936027396625968 0 0.35772057173070088 -0.28514553473937793 0 0.35006967129563588 -0.2473822558698924 0 0.34418754141067531 -0.25346685482495462 0 0.3546576353440824 -0.2552627740483418 0 0.34418754141067531 -0.25346685482495462 0 0.34833479441919618 -0.2607970269781289 0 0.3546576353440824 -0.2552627740483418 0 0.3546576353440824 -0.2552627740483418 0 0.36026438252668741 -0.2653699257184417 0 0.36270920205893659 -0.25799932974535328 0 0.34833479441919618 -0.2607970269781289 0 0.3546576353440824 -0.2552627740483418 0 0.36026438252668741 -0.2653699257184417 0 0.35169959135154372 -0.26884850314215442 0 0.34833479441919618 -0.2607970269781289 0 0.36026438252668741 -0.2653699257184417 0 0.35006967129563588 -0.2473822558698924 0 0.35652049708170042 -0.24825424105152649 0 0.3546576353440824 -0.2552627740483418 0 0.35652049708170042 -0.24825424105152649 0 0.3546576353440824 -0.2552627740483418 0 0.36100000403713561 -0.25168930002906142 0 0.36671908640488943 -0.25366753645759238 0 0.36270920205893659 -0.25799932974535328 0 0.37001072232148707 -0.26151609434472017 0 0.3546576353440824 -0.2552627740483418 0 0.36100000403713561 -0.25168930002906142 0 0.36270920205893659 -0.25799932974535328 0 0.36622168527108928 -0.2472303913071906 0 0.36671908640488943 -0.25366753645759238 0 0.36100000403713561 -0.25168930002906142 0 0.36671908640488943 -0.25366753645759238 0 0.36100000403713561 -0.25168930002906142 0 0.36270920205893659 -0.25799932974535328 0 0.36026438252668741 -0.2653699257184417 0 0.36270920205893659 -0.25799932974535328 0 0.37001072232148707 -0.26151609434472017 0 0.36671908640488943 -0.25366753645759238 0 0.37001072232148707 -0.26151609434472017 0 0.37382475805204562 -0.25179621274304681 0 0.36622168527108928 -0.2472303913071906 0 0.36671908640488943 -0.25366753645759238 0 0.37382475805204562 -0.25179621274304681 0 0.36026438252668741 -0.2653699257184417 0 0.3624044612560659 -0.27936027396625968 0 0.37287199135427329 -0.27416106022989661 0 0.36026438252668741 -0.2653699257184417 0 0.37001072232148707 -0.26151609434472017 0 0.37287199135427329 -0.27416106022989661 0 0.38189040069013142 -0.26453326424145451 0 0.37001072232148707 -0.26151609434472017 0 0.37287199135427329 -0.27416106022989661 0 0.37340674346094371 -0.29073841245421211 0 0.34808809215313252 -0.2930804412836765 0 0.37340674346094371 -0.29073841245421211 0 0.34808809215313252 -0.2930804412836765 0 0.36782513822185547 -0.30469718221894437 0 0.3624044612560659 -0.27936027396625968 0 0.37340674346094371 -0.29073841245421211 0 0.35772057173070088 -0.28514553473937793 0 0.37340674346094371 -0.29073841245421211 0 0.35772057173070088 -0.28514553473937793 0 0.34808809215313252 -0.2930804412836765 0 0.3624044612560659 -0.27936027396625968 0 0.37287199135427329 -0.27416106022989661 0 0.37340674346094371 -0.29073841245421211 0 0.34698299005266131 -0.2774030112533632 0 0.35772057173070088 -0.28514553473937793 0 0.34808809215313252 -0.2930804412836765 0 0.34808809215313252 -0.2930804412836765 0 0.35285734861848539 -0.30798487609678371 0 0.36782513822185547 -0.30469718221894437 0 0.34808809215313252 -0.2930804412836765 0 0.36782513822185547 -0.30469718221894437 0 0.3389258772851394 -0.30686770252702189 0 0.35285734861848539 -0.30798487609678371 0 0.34776892155794542 -0.31861265188517979 0 0.3389258772851394 -0.30686770252702189 0 0.34808809215313252 -0.2930804412836765 0 0.35285734861848539 -0.30798487609678371 0 0.35285734861848539 -0.30798487609678371 0 0.36782513822185547 -0.30469718221894437 0 0.35949049297369839 -0.31710277338404907 0 0.36782513822185547 -0.30469718221894437 0 0.37288558774298919 -0.32559569387227499 0 0.35949049297369839 -0.31710277338404907 0 0.37288558774298919 -0.32559569387227499 0 0.35949049297369839 -0.31710277338404907 0 0.35611546872721639 -0.3286234628470629 0 0.37288558774298919 -0.32559569387227499 0 0.36581111970665148 -0.33551649641385911 0 0.35611546872721639 -0.3286234628470629 0 0.37288558774298919 -0.32559569387227499 0 0.37381871190006261 -0.34470066150004319 0 0.37288558774298919 -0.32559569387227499 0 0.36581111970665148 -0.33551649641385911 0 0.37381871190006261 -0.34470066150004319 0 0.36581111970665148 -0.33551649641385911 0 0.37381871190006261 -0.34470066150004319 0 0.36493025632505871 -0.34531440718170198 0 0.36581111970665148 -0.33551649641385911 0 0.35595426153031851 -0.34187300145542432 0 0.36493025632505871 -0.34531440718170198 0 0.36581111970665148 -0.33551649641385911 0 0.35611546872721639 -0.3286234628470629 0 0.35595426153031851 -0.34187300145542432 0 0.35611546872721639 -0.3286234628470629 0 0.35595426153031851 -0.34187300145542432 0 0.34594669295480518 -0.33436404798077518 0 0.35611546872721639 -0.3286234628470629 0 0.34594669295480518 -0.33436404798077518 0 0.34776892155794542 -0.31861265188517979 0 0.35285734861848539 -0.30798487609678371 0 0.35949049297369839 -0.31710277338404907 0 0.34776892155794542 -0.31861265188517979 0 0.35949049297369839 -0.31710277338404907 0 0.35611546872721639 -0.3286234628470629 0 0.34776892155794542 -0.31861265188517979 0 0.37475183605713669 -0.36380562912781139 0 0.35723333920402389 -0.36763676163274911 0 0.37475183605713669 -0.36380562912781139 0 0.37014752363255221 -0.35282761419253311 0 0.35723333920402389 -0.36763676163274911 0 0.36667865339814248 -0.37976784092091931 0 0.37475183605713669 -0.36380562912781139 0 0.35723333920402389 -0.36763676163274911 0 0.37014752363255221 -0.35282761419253311 0 0.35120983134682199 -0.35990047569171008 0 0.35723333920402389 -0.36763676163274911 0 0.36667865339814248 -0.37976784092091931 0 0.35723333920402389 -0.36763676163274911 0 0.37475183605713669 -0.36380562912781139 0 0.37014752363255221 -0.35282761419253311 0 0.37381871190006261 -0.34470066150004319 0 0.37014752363255221 -0.35282761419253311 0 0.35120983134682199 -0.35990047569171008 0 0.37014752363255221 -0.35282761419253311 0 0.35891966485570842 -0.35165426234665081 0 0.35120983134682199 -0.35990047569171008 0 0.37475183605713669 -0.36380562912781139 0 0.37381871190006261 -0.34470066150004319 0 0.37014752363255221 -0.35282761419253311 0 0.37381871190006261 -0.34470066150004319 0 0.36493025632505871 -0.34531440718170198 0 0.35595426153031851 -0.34187300145542432 0 0.36493025632505871 -0.34531440718170198 0 0.35891966485570842 -0.35165426234665081 0 0.37014752363255221 -0.35282761419253311 0 0.36493025632505871 -0.34531440718170198 0 0.35891966485570842 -0.35165426234665081 0 0.35595426153031851 -0.34187300145542432 0 0.34594669295480518 -0.33436404798077518 0 0.35120983134682199 -0.35990047569171008 0 0.35595426153031851 -0.34187300145542432 0 0.35891966485570842 -0.35165426234665081 0 0.35120983134682199 -0.35990047569171008 0 0.35723333920402389 -0.36763676163274911 0 0.33926504624587811 -0.37156626036700158 0 0.34951107742916382 -0.38498877340281962 0 0.35723333920402389 -0.36763676163274911 0 0.33926504624587811 -0.37156626036700158 0 0.35120983134682199 -0.35990047569171008 0 0.35723333920402389 -0.36763676163274911 0 0.33926504624587811 -0.37156626036700158 0 0.35120983134682199 -0.35990047569171008 0 0.35723333920402389 -0.36763676163274911 0 0.35120983134682199 -0.35990047569171008 0 0.33926504624587811 -0.37156626036700158 0 0.32341911529292539 -0.37027977020376801 0 0.35120983134682199 -0.35990047569171008 0 0.32341911529292539 -0.37027977020376801 0 0.32129675328773161 -0.37549575910125088 0 0.33926504624587811 -0.37156626036700158 0 0.35120983134682199 -0.35990047569171008 0 0.33252650882396162 -0.35586586109178719 0 0.32341911529292539 -0.37027977020376801 0 0.35120983134682199 -0.35990047569171008 0 0.33289898010772873 -0.3363829532832226 0 0.35120983134682199 -0.35990047569171008 0 0.33252650882396162 -0.35586586109178719 0 0.33289898010772873 -0.3363829532832226 0 0.31841892145340228 -0.34871755342973709 0 0.30702366034621398 -0.36468830907277849 0 0.33252650882396162 -0.35586586109178719 0 0.31841892145340228 -0.34871755342973709 0 0.33289898010772873 -0.3363829532832226 0 0.31841892145340228 -0.34871755342973709 0 0.3223749324114622 -0.35922782954976717 0 0.30702366034621398 -0.36468830907277849 0 0.33252650882396162 -0.35586586109178719 0 0.31841892145340228 -0.34871755342973709 0 0.3223749324114622 -0.35922782954976717 0 0.3223749324114622 -0.35922782954976717 0 0.32341911529292539 -0.37027977020376801 0 0.30702366034621398 -0.36468830907277849 0 0.32129675328773161 -0.37549575910125088 0 0.33926504624587811 -0.37156626036700158 0 0.32341911529292539 -0.37027977020376801 0 0.33252650882396162 -0.35586586109178719 0 0.3223749324114622 -0.35922782954976717 0 0.32341911529292539 -0.37027977020376801 0 0.34594669295480518 -0.33436404798077518 0 0.34776892155794542 -0.31861265188517979 0 0.33438582094117503 -0.32054007298141518 0 0.3389258772851394 -0.30686770252702189 0 0.34776892155794542 -0.31861265188517979 0 0.33438582094117503 -0.32054007298141518 0 0.34594669295480518 -0.33436404798077518 0 0.35120983134682199 -0.35990047569171008 0 0.33289898010772873 -0.3363829532832226 0 0.34594669295480518 -0.33436404798077518 0 0.33438582094117503 -0.32054007298141518 0 0.33289898010772873 -0.3363829532832226 0 0.31841892145340228 -0.34871755342973709 0 0.33289898010772873 -0.3363829532832226 0 0.30952216202522309 -0.33379039525050291 0 0.33289898010772873 -0.3363829532832226 0 0.31665491720120692 -0.31876268933162372 0 0.30952216202522309 -0.33379039525050291 0 0.33438582094117503 -0.32054007298141518 0 0.33289898010772873 -0.3363829532832226 0 0.31665491720120692 -0.31876268933162372 0 0.32522500590788112 -0.3081455304887365 0 0.33438582094117503 -0.32054007298141518 0 0.31665491720120692 -0.31876268933162372 0 0.31665491720120692 -0.31876268933162372 0 0.29729007651948008 -0.31930585022567959 0 0.30952216202522309 -0.33379039525050291 0 0.29729007651948008 -0.31930585022567959 0 0.30952216202522309 -0.33379039525050291 0 0.2961320563702376 -0.34486638054207441 0 0.31841892145340228 -0.34871755342973709 0 0.30952216202522309 -0.33379039525050291 0 0.2961320563702376 -0.34486638054207441 0 0.29729007651948008 -0.31930585022567959 0 0.2961320563702376 -0.34486638054207441 0 0.27958441968325137 -0.32879942030067111 0 0.29729007651948008 -0.31930585022567959 0 0.27958441968325137 -0.32879942030067111 0 0.28120861576876721 -0.29926693439057989 0 0.2956283992390274 -0.38065906471582123 0 0.30702366034621398 -0.36468830907277849 0 0.2956283992390274 -0.38065906471582123 0 0.30702366034621398 -0.36468830907277849 0 0.29061607341308721 -0.36728201053245779 0 0.2956283992390274 -0.38065906471582123 0 0.32341911529292539 -0.37027977020376801 0 0.30702366034621398 -0.36468830907277849 0 0.31841892145340228 -0.34871755342973709 0 0.30702366034621398 -0.36468830907277849 0 0.2961320563702376 -0.34486638054207441 0 0.30702366034621398 -0.36468830907277849 0 0.2961320563702376 -0.34486638054207441 0 0.29061607341308721 -0.36728201053245779 0 0.2961320563702376 -0.34486638054207441 0 0.29061607341308721 -0.36728201053245779 0 0.2779602235977357 -0.35833190621076189 0 0.2961320563702376 -0.34486638054207441 0 0.2779602235977357 -0.35833190621076189 0 0.27958441968325137 -0.32879942030067111 0 0.27633602751222103 -0.38786439212085311 0 0.29061607341308721 -0.36728201053245779 0 0.2779602235977357 -0.35833190621076189 0 0.27633602751222103 -0.38786439212085311 0 0.2779602235977357 -0.35833190621076189 0 0.27633602751222103 -0.38786439212085311 0 0.2669014601958144 -0.37252871605108601 0 0.2779602235977357 -0.35833190621076189 0 0.2669014601958144 -0.37252871605108601 0 0.2779602235977357 -0.35833190621076189 0 0.25554918656052322 -0.35971487938007263 0 0.25554918656052322 -0.35971487938007263 0 0.26104313146326558 -0.33873906358342382 0 0.23696539280420811 -0.34524807518359091 0 0.2779602235977357 -0.35833190621076189 0 0.25554918656052322 -0.35971487938007263 0 0.26104313146326558 -0.33873906358342382 0 0.2506507545744458 -0.37615617173451982 0 0.2669014601958144 -0.37252871605108601 0 0.25554918656052322 -0.35971487938007263 0 0.26651764783093201 -0.31729662682974302 0 0.27958441968325137 -0.32879942030067111 0 0.28120861576876721 -0.29926693439057989 0 0.27958441968325137 -0.32879942030067111 0 0.28120861576876721 -0.29926693439057989 0 0.2779602235977357 -0.35833190621076189 0 0.27958441968325137 -0.32879942030067111 0 0.26104313146326558 -0.33873906358342382 0 0.2779602235977357 -0.35833190621076189 0 0.27958441968325137 -0.32879942030067111 0 0.26651764783093201 -0.31729662682974302 0 0.27958441968325137 -0.32879942030067111 0 0.26104313146326558 -0.33873906358342382 0 0.26651764783093201 -0.31729662682974302 0 0.25976701220991433 -0.30125032809802182 0 0.24968191830294359 -0.32304347359570318 0 0.26651764783093201 -0.31729662682974302 0 0.26104313146326558 -0.33873906358342382 0 0.24968191830294359 -0.32304347359570318 0 0.25976701220991433 -0.30125032809802182 0 0.27105480119344272 -0.2895982215881614 0 0.26205304686308861 -0.27987888760211699 0 0.25976701220991433 -0.30125032809802182 0 0.26205304686308861 -0.27987888760211699 0 0.2475329076365935 -0.28707661726761602 0 0.25976701220991433 -0.30125032809802182 0 0.27105480119344272 -0.2895982215881614 0 0.28120861576876721 -0.29926693439057989 0 0.27105480119344272 -0.2895982215881614 0 0.28120861576876721 -0.29926693439057989 0 0.28264221540168138 -0.27320003191660269 0 0.27105480119344272 -0.2895982215881614 0 0.27201096957976179 -0.27795458475402179 0 0.26205304686308861 -0.27987888760211699 0 0.25976701220991433 -0.30125032809802182 0 0.28120861576876721 -0.29926693439057989 0 0.26651764783093201 -0.31729662682974302 0 0.25976701220991433 -0.30125032809802182 0 0.28120861576876721 -0.29926693439057989 0 0.28120861576876721 -0.29926693439057989 0 0.30350177456355582 -0.29720477002161277 0 0.29729007651948008 -0.31930585022567959 0 0.28120861576876721 -0.29926693439057989 0 0.30350177456355582 -0.29720477002161277 0 0.28120861576876721 -0.29926693439057989 0 0.29240410800677308 -0.2846530032697337 0 0.30350177456355582 -0.29720477002161277 0 0.28120861576876721 -0.29926693439057989 0 0.28264221540168138 -0.27320003191660269 0 0.28120861576876721 -0.29926693439057989 0 0.29240410800677308 -0.2846530032697337 0 0.28264221540168138 -0.27320003191660269 0 0.31329874262005719 -0.28654956694650541 0 0.30288691005350787 -0.28148778157305959 0 0.30350177456355582 -0.29720477002161277 0 0.29240410800677308 -0.2846530032697337 0 0.30288691005350787 -0.28148778157305959 0 0.30350177456355582 -0.29720477002161277 0 0.31329874262005719 -0.28654956694650541 0 0.30288691005350787 -0.28148778157305959 0 0.31217623648475251 -0.27639645527786971 0 0.31665491720120692 -0.31876268933162372 0 0.29729007651948008 -0.31930585022567959 0 0.30350177456355582 -0.29720477002161277 0 0.29925270533674569 -0.26001830455543162 0 0.30490327342333978 -0.26043184670879982 0 0.30458649662819731 -0.27001511184056293 0 0.29925270533674569 -0.26001830455543162 0 0.30186977670888909 -0.25162100093468881 0 0.30490327342333978 -0.26043184670879982 0 0.29183427937622902 -0.2464686712233892 0 0.29925270533674569 -0.26001830455543162 0 0.30186977670888909 -0.25162100093468881 0 0.30186977670888909 -0.25162100093468881 0 0.31104200607340149 -0.25347981103245221 0 0.30490327342333978 -0.26043184670879982 0 0.31257074049552452 -0.26431076415233828 0 0.31104200607340149 -0.25347981103245221 0 0.30490327342333978 -0.26043184670879982 0 0.31257074049552452 -0.26431076415233828 0 0.30490327342333978 -0.26043184670879982 0 0.30458649662819731 -0.27001511184056293 0 0.31257074049552452 -0.26431076415233828 0 0.31217623648475251 -0.27639645527786971 0 0.30458649662819731 -0.27001511184056293 0 0.30288691005350787 -0.28148778157305959 0 0.31217623648475251 -0.27639645527786971 0 0.30458649662819731 -0.27001511184056293 0 0.30288691005350787 -0.28148778157305959 0 0.30458649662819731 -0.27001511184056293 0 0.29306970054707332 -0.27155489206971761 0 0.29925270533674569 -0.26001830455543162 0 0.30458649662819731 -0.27001511184056293 0 0.29306970054707332 -0.27155489206971761 0 0.29240410800677308 -0.2846530032697337 0 0.30288691005350787 -0.28148778157305959 0 0.29306970054707332 -0.27155489206971761 0 0.29240410800677308 -0.2846530032697337 0 0.29306970054707332 -0.27155489206971761 0 0.28264221540168138 -0.27320003191660269 0 0.28407581503459572 -0.24713312944262561 0 0.29306970054707332 -0.27155489206971761 0 0.28264221540168138 -0.27320003191660269 0 0.29183427937622902 -0.2464686712233892 0 0.29925270533674569 -0.26001830455543162 0 0.29306970054707332 -0.27155489206971761 0 0.28407581503459572 -0.24713312944262561 0 0.28264221540168138 -0.27320003191660269 0 0.29183427937622902 -0.2464686712233892 0 0.28407581503459572 -0.24713312944262561 0 0.29306970054707332 -0.27155489206971761 0 0.29183427937622902 -0.2464686712233892 0 0.29306970054707332 -0.27155489206971761 0 0.28407581503459572 -0.24713312944262561 0 0.28264221540168138 -0.27320003191660269 0 0.27498366948744052 -0.25630805085029917 0 0.27018607736171252 -0.24618649521522851 0 0.27498366948744052 -0.25630805085029917 0 0.26222299906436197 -0.2624870985243104 0 0.27498366948744052 -0.25630805085029917 0 0.27246328655678059 -0.26798407930141721 0 0.26222299906436197 -0.2624870985243104 0 0.28264221540168138 -0.27320003191660269 0 0.27498366948744052 -0.25630805085029917 0 0.27246328655678059 -0.26798407930141721 0 0.27105480119344272 -0.2895982215881614 0 0.28264221540168138 -0.27320003191660269 0 0.27201096957976179 -0.27795458475402179 0 0.28264221540168138 -0.27320003191660269 0 0.27246328655678059 -0.26798407930141721 0 0.27201096957976179 -0.27795458475402179 0 0.27246328655678059 -0.26798407930141721 0 0.27201096957976179 -0.27795458475402179 0 0.26205304686308861 -0.27987888760211699 0 0.26205304686308861 -0.27987888760211699 0 0.26222299906436197 -0.2624870985243104 0 0.24903331731784339 -0.27266996031379709 0 0.27246328655678059 -0.26798407930141721 0 0.26205304686308861 -0.27987888760211699 0 0.26222299906436197 -0.2624870985243104 0 0.26205304686308861 -0.27987888760211699 0 0.24903331731784339 -0.27266996031379709 0 0.2475329076365935 -0.28707661726761602 0 0.27018607736171252 -0.24618649521522851 0 0.26222299906436197 -0.2624870985243104 0 0.24327715365271249 -0.25419909361232701 0 0.26222299906436197 -0.2624870985243104 0 0.24327715365271249 -0.25419909361232701 0 0.24903331731784339 -0.27266996031379709 0 0.24327715365271249 -0.25419909361232701 0 0.24903331731784339 -0.27266996031379709 0 0.23008047937246021 -0.27970810456261558 0 0.24327715365271249 -0.25419909361232701 0 0.23008047937246021 -0.27970810456261558 0 0.24903331731784339 -0.27266996031379709 0 0.23008047937246021 -0.27970810456261558 0 0.2475329076365935 -0.28707661726761602 0 0.24327715365271249 -0.25419909361232701 0 0.23008047937246021 -0.27970810456261558 0 0.2174016423331897 -0.25731780840580359 0 0.2174016423331897 -0.25731780840580359 0 0.19422730188649651 -0.25669753652582472 0 0.2058093611596197 -0.23989805103622289 0 0.2174016423331897 -0.25731780840580359 0 0.20462902970158309 -0.27791538143416789 0 0.19422730188649651 -0.25669753652582472 0 0.23008047937246021 -0.27970810456261558 0 0.2174016423331897 -0.25731780840580359 0 0.20462902970158309 -0.27791538143416789 0 0.20462902970158309 -0.27791538143416789 0 0.18853444920090839 -0.27371285323025868 0 0.19422730188649651 -0.25669753652582472 0 0.20462902970158309 -0.27791538143416789 0 0.18853444920090839 -0.27371285323025868 0 0.18849547370288289 -0.28865094309511241 0 0.1957054281995573 -0.30717616019664251 0 0.18857821406758141 -0.30783544258763063 0 0.1957054281995573 -0.30717616019664251 0 0.19190939423846359 -0.30499313569062952 0 0.18857821406758141 -0.30783544258763063 0 0.1957054281995573 -0.30717616019664251 0 0.18857821406758141 -0.30783544258763063 0 0.1830242583150431 -0.3178902812461884 0 0.19190939423846359 -0.30499313569062952 0 0.18857821406758141 -0.30783544258763063 0 0.18701873875000691 -0.30263451647219719 0 0.1957054281995573 -0.30717616019664251 0 0.19190939423846359 -0.30499313569062952 0 0.19818609468022791 -0.29641857992291543 0 0.19190939423846359 -0.30499313569062952 0 0.19028365285419849 -0.2979229810290992 0 0.19818609468022791 -0.29641857992291543 0 0.19190939423846359 -0.30499313569062952 0 0.19028365285419849 -0.2979229810290992 0 0.18701873875000691 -0.30263451647219719 0 0.19028365285419849 -0.2979229810290992 0 0.18849547370288289 -0.28865094309511241 0 0.19818609468022791 -0.29641857992291543 0 0.20462902970158309 -0.27791538143416789 0 0.18849547370288289 -0.28865094309511241 0 0.19818609468022791 -0.29641857992291543 0 0.20462902970158309 -0.27791538143416789 0 0.19818609468022791 -0.29641857992291543 0 0.21244485221161991 -0.28981479535815091 0 0.23008047937246021 -0.27970810456261558 0 0.20462902970158309 -0.27791538143416789 0 0.21244485221161991 -0.28981479535815091 0 0.1957054281995573 -0.30717616019664251 0 0.2168838050922082 -0.30521711551290459 0 0.2067509668725164 -0.32480376860552518 0 0.1957054281995573 -0.30717616019664251 0 0.19818609468022791 -0.29641857992291543 0 0.2168838050922082 -0.30521711551290459 0 0.1957054281995573 -0.30717616019664251 0 0.2168838050922082 -0.30521711551290459 0 0.19818609468022791 -0.29641857992291543 0 0.21244485221161991 -0.28981479535815091 0 0.2168838050922082 -0.30521711551290459 0 0.2168838050922082 -0.30521711551290459 0 0.2383254086510613 -0.30323372180546371 0 0.22804650199279969 -0.32389437015561501 0 0.2168838050922082 -0.30521711551290459 0 0.2383254086510613 -0.30323372180546371 0 0.23008047937246021 -0.27970810456261558 0 0.21244485221161991 -0.28981479535815091 0 0.2168838050922082 -0.30521711551290459 0 0.23008047937246021 -0.27970810456261558 0 0.2168838050922082 -0.30521711551290459 0 0.2383254086510613 -0.30323372180546371 0 0.23008047937246021 -0.27970810456261558 0 0.2168838050922082 -0.30521711551290459 0 0.23008047937246021 -0.27970810456261558 0 0.2475329076365935 -0.28707661726761602 0 0.2383254086510613 -0.30323372180546371 0 0.25976701220991433 -0.30125032809802182 0 0.2475329076365935 -0.28707661726761602 0 0.2383254086510613 -0.30323372180546371 0 0.25976701220991433 -0.30125032809802182 0 0.2383254086510613 -0.30323372180546371 0 0.25976701220991433 -0.30125032809802182 0 0.2383254086510613 -0.30323372180546371 0 0.24968191830294359 -0.32304347359570318 0 0.2383254086510613 -0.30323372180546371 0 0.24968191830294359 -0.32304347359570318 0 0.22804650199279969 -0.32389437015561501 0 0.24968191830294359 -0.32304347359570318 0 0.22804650199279969 -0.32389437015561501 0 0.23696539280420811 -0.34524807518359091 0 0.26104313146326558 -0.33873906358342382 0 0.24968191830294359 -0.32304347359570318 0 0.23696539280420811 -0.34524807518359091 0 0.22804650199279969 -0.32389437015561501 0 0.23696539280420811 -0.34524807518359091 0 0.21853681544419229 -0.34212291208296353 0 0.2506507545744458 -0.37615617173451982 0 0.25554918656052322 -0.35971487938007263 0 0.23867800538687409 -0.3635130342024474 0 0.2506507545744458 -0.37615617173451982 0 0.23867800538687409 -0.3635130342024474 0 0.23642787457569039 -0.37596036597574922 0 0.25554918656052322 -0.35971487938007263 0 0.23867800538687409 -0.3635130342024474 0 0.23696539280420811 -0.34524807518359091 0 0.23696539280420811 -0.34524807518359091 0 0.22741038957785439 -0.35550906965563073 0 0.21853681544419229 -0.34212291208296353 0 0.23867800538687409 -0.3635130342024474 0 0.23696539280420811 -0.34524807518359091 0 0.22741038957785439 -0.35550906965563073 0 0.22741038957785439 -0.35550906965563073 0 0.21542951276495009 -0.35889176719927368 0 0.21853681544419229 -0.34212291208296353 0 0.23867800538687409 -0.3635130342024474 0 0.22741038957785439 -0.35550906965563073 0 0.22533617387873861 -0.36774724262655722 0 0.22741038957785439 -0.35550906965563073 0 0.22533617387873861 -0.36774724262655722 0 0.21542951276495009 -0.35889176719927368 0 0.22533617387873861 -0.36774724262655722 0 0.21213621506155811 -0.37233487935532239 0 0.2260507725827666 -0.38013667325789008 0 0.22533617387873861 -0.36774724262655722 0 0.23642787457569039 -0.37596036597574922 0 0.2260507725827666 -0.38013667325789008 0 0.23867800538687409 -0.3635130342024474 0 0.22533617387873861 -0.36774724262655722 0 0.23642787457569039 -0.37596036597574922 0 0.22533617387873861 -0.36774724262655722 0 0.21213621506155811 -0.37233487935532239 0 0.21542951276495009 -0.35889176719927368 0 0.21213621506155811 -0.37233487935532239 0 0.21542951276495009 -0.35889176719927368 0 0.20154855935278229 -0.36251597053490098 0 0.21542951276495009 -0.35889176719927368 0 0.19661812865282499 -0.34439042169814582 0 0.21853681544419229 -0.34212291208296353 0 0.21542951276495009 -0.35889176719927368 0 0.19661812865282499 -0.34439042169814582 0 0.20154855935278229 -0.36251597053490098 0 0.19661812865282499 -0.34439042169814582 0 0.20154855935278229 -0.36251597053490098 0 0.187225170004967 -0.35744582570888428 0 0.19661812865282499 -0.34439042169814582 0 0.1828163772319828 -0.33235464448534968 0 0.187225170004967 -0.35744582570888428 0 0.20154855935278229 -0.36251597053490098 0 0.187225170004967 -0.35744582570888428 0 0.1953275534321155 -0.37544325960816671 0 0.21213621506155811 -0.37233487935532239 0 0.20154855935278229 -0.36251597053490098 0 0.1953275534321155 -0.37544325960816671 0 0.2168838050922082 -0.30521711551290459 0 0.2067509668725164 -0.32480376860552518 0 0.2168838050922082 -0.30521711551290459 0 0.22804650199279969 -0.32389437015561501 0 0.2067509668725164 -0.32480376860552518 0 0.22804650199279969 -0.32389437015561501 0 0.2067509668725164 -0.32480376860552518 0 0.21853681544419229 -0.34212291208296353 0 0.19661812865282499 -0.34439042169814582 0 0.2067509668725164 -0.32480376860552518 0 0.21853681544419229 -0.34212291208296353 0 0.19661812865282499 -0.34439042169814582 0 0.2067509668725164 -0.32480376860552518 0 0.1828163772319828 -0.33235464448534968 0 0.19661812865282499 -0.34439042169814582 0 0.2067509668725164 -0.32480376860552518 0 0.1957054281995573 -0.30717616019664251 0 0.2067509668725164 -0.32480376860552518 0 0.1828163772319828 -0.33235464448534968 0 0.1957054281995573 -0.30717616019664251 0 0.1828163772319828 -0.33235464448534968 0 0.1957054281995573 -0.30717616019664251 0 0.1830242583150431 -0.3178902812461884 0 0.1828163772319828 -0.33235464448534968 0 0.1830242583150431 -0.3178902812461884 0 0.16876211516218559 -0.31606054793859012 0 0.17932477500959371 -0.30718350720075421 0 0.1830242583150431 -0.3178902812461884 0 0.16900265294661859 -0.33047834834673412 0 0.16876211516218559 -0.31606054793859012 0 0.1830242583150431 -0.3178902812461884 0 0.1828163772319828 -0.33235464448534968 0 0.16900265294661859 -0.33047834834673412 0 0.1828163772319828 -0.33235464448534968 0 0.16900265294661859 -0.33047834834673412 0 0.16992732626440449 -0.35753312877405469 0 0.16900265294661859 -0.33047834834673412 0 0.16992732626440449 -0.35753312877405469 0 0.1551499724104263 -0.34300667270814489 0 0.16900265294661859 -0.33047834834673412 0 0.15773949937616499 -0.32286527566825918 0 0.1551499724104263 -0.34300667270814489 0 0.15773949937616499 -0.32286527566825918 0 0.16876211516218559 -0.31606054793859012 0 0.15726239010490639 -0.31004392558857202 0 0.16900265294661859 -0.33047834834673412 0 0.15773949937616499 -0.32286527566825918 0 0.16876211516218559 -0.31606054793859012 0 0.17790031331506001 -0.37242843070579212 0 0.187225170004967 -0.35744582570888428 0 0.1953275534321155 -0.37544325960816671 0 0.17790031331506001 -0.37242843070579212 0 0.187225170004967 -0.35744582570888428 0 0.16992732626440449 -0.35753312877405469 0 0.1828163772319828 -0.33235464448534968 0 0.16992732626440449 -0.35753312877405469 0 0.1828163772319828 -0.33235464448534968 0 0.187225170004967 -0.35744582570888428 0 0.16992732626440449 -0.35753312877405469 0 0.16992732626440449 -0.35753312877405469 0 0.15035465998495309 -0.36192140048026861 0 0.1551499724104263 -0.34300667270814489 0 0.17790031331506001 -0.37242843070579212 0 0.16992732626440449 -0.35753312877405469 0 0.1570382752968261 -0.38271161306275969 0 0.16992732626440449 -0.35753312877405469 0 0.15035465998495309 -0.36192140048026861 0 0.1570382752968261 -0.38271161306275969 0 0.16992732626440449 -0.35753312877405469 0 0.1570382752968261 -0.38271161306275969 0 0.15035465998495309 -0.36192140048026861 0 0.13642778246960649 -0.36122763996630591 0 0.13969712479832411 -0.37885511448984571 0 0.15035465998495309 -0.36192140048026861 0 0.1570382752968261 -0.38271161306275969 0 0.13969712479832411 -0.37885511448984571 0 0.15035465998495309 -0.36192140048026861 0 0.14119079996307929 -0.3473882986197574 0 0.1551499724104263 -0.34300667270814489 0 0.15035465998495309 -0.36192140048026861 0 0.14119079996307929 -0.3473882986197574 0 0.13642778246960649 -0.36122763996630591 0 0.14119079996307929 -0.3473882986197574 0 0.12703406606940629 -0.35113061571926579 0 0.12943289173119391 -0.33943288360269019 0 0.14119079996307929 -0.3473882986197574 0 0.12703406606940629 -0.35113061571926579 0 0.13642778246960649 -0.36122763996630591 0 0.13642778246960649 -0.36122763996630591 0 0.13969712479832411 -0.37885511448984571 0 0.12386226153226949 -0.36684277052239228 0 0.12703406606940629 -0.35113061571926579 0 0.13642778246960649 -0.36122763996630591 0 0.12386226153226949 -0.36684277052239228 0 0.13857048615357509 -0.32819022635459538 0 0.14389680177095099 -0.30296366072905739 0 0.1482797751639362 -0.31613557497476202 0 0.13857048615357509 -0.32819022635459538 0 0.14389680177095099 -0.30296366072905739 0 0.1482797751639362 -0.31613557497476202 0 0.14907398160007679 -0.32664165445143001 0 0.13857048615357509 -0.32819022635459538 0 0.15773949937616499 -0.32286527566825918 0 0.1482797751639362 -0.31613557497476202 0 0.15726239010490639 -0.31004392558857202 0 0.15773949937616499 -0.32286527566825918 0 0.1482797751639362 -0.31613557497476202 0 0.14907398160007679 -0.32664165445143001 0 0.14119079996307929 -0.3473882986197574 0 0.1551499724104263 -0.34300667270814489 0 0.13736224916575729 -0.33391269416423341 0 0.14907398160007679 -0.32664165445143001 0 0.1551499724104263 -0.34300667270814489 0 0.13857048615357509 -0.32819022635459538 0 0.1551499724104263 -0.34300667270814489 0 0.13857048615357509 -0.32819022635459538 0 0.13736224916575729 -0.33391269416423341 0 0.15773949937616499 -0.32286527566825918 0 0.14907398160007679 -0.32664165445143001 0 0.1551499724104263 -0.34300667270814489 0 0.1551499724104263 -0.34300667270814489 0 0.13857048615357509 -0.32819022635459538 0 0.13857048615357509 -0.32819022635459538 0 0.13736224916575729 -0.33391269416423341 0 0.1298229062258596 -0.32942353908348598 0 0.13857048615357509 -0.32819022635459538 0 0.13736224916575729 -0.33391269416423341 0 0.14119079996307929 -0.3473882986197574 0 0.13736224916575729 -0.33391269416423341 0 0.12943289173119391 -0.33943288360269019 0 0.12943289173119391 -0.33943288360269019 0 0.1298229062258596 -0.32942353908348598 0 0.12148792118248131 -0.33237588454622319 0 0.13736224916575729 -0.33391269416423341 0 0.12943289173119391 -0.33943288360269019 0 0.1298229062258596 -0.32942353908348598 0 0.13857048615357509 -0.32819022635459538 0 0.1298229062258596 -0.32942353908348598 0 0.1224829198449614 -0.31381338985447788 0 0.13857048615357509 -0.32819022635459538 0 0.1224829198449614 -0.31381338985447788 0 0.13857048615357509 -0.32819022635459538 0 0.14389680177095099 -0.30296366072905739 0 0.1224829198449614 -0.31381338985447788 0 0.13391274649429349 -0.29713501918393309 0 0.12415297143242 -0.29756335098265951 0 0.1224829198449614 -0.31381338985447788 0 0.13391274649429349 -0.29713501918393309 0 0.14389680177095099 -0.30296366072905739 0 0.1224829198449614 -0.31381338985447788 0 0.14389680177095099 -0.30296366072905739 0 0.15726239010490639 -0.31004392558857202 0 0.15960244222440831 -0.29801215234513367 0 0.1482797751639362 -0.31613557497476202 0 0.14389680177095099 -0.30296366072905739 0 0.15726239010490639 -0.31004392558857202 0 0.14389680177095099 -0.30296366072905739 0 0.1538296029793694 -0.2847120593221546 0 0.15960244222440831 -0.29801215234513367 0 0.14389680177095099 -0.30296366072905739 0 0.1538296029793694 -0.2847120593221546 0 0.14922311738832569 -0.27773709510351913 0 0.14389680177095099 -0.30296366072905739 0 0.13753149605983789 -0.28636391812308848 0 0.14922311738832569 -0.27773709510351913 0 0.14389680177095099 -0.30296366072905739 0 0.14922311738832569 -0.27773709510351913 0 0.13391274649429349 -0.29713501918393309 0 0.14389680177095099 -0.30296366072905739 0 0.13753149605983789 -0.28636391812308848 0 0.13391274649429349 -0.29713501918393309 0 0.13753149605983789 -0.28636391812308848 0 0.128663390139757 -0.2888680419634328 0 0.13391274649429349 -0.29713501918393309 0 0.128663390139757 -0.2888680419634328 0 0.12415297143242 -0.29756335098265951 0 0.13753149605983789 -0.28636391812308848 0 0.128663390139757 -0.2888680419634328 0 0.13112892580066191 -0.27976837807130461 0 0.128663390139757 -0.2888680419634328 0 0.13112892580066191 -0.27976837807130461 0 0.1239696183917065 -0.28100865286253601 0 0.13112892580066191 -0.27976837807130461 0 0.13564803552418209 -0.27205259654545472 0 0.1238612569483436 -0.27004155469147678 0 0.13112892580066191 -0.27976837807130461 0 0.1238612569483436 -0.27004155469147678 0 0.1239696183917065 -0.28100865286253601 0 0.13564803552418209 -0.27205259654545472 0 0.13574941617919459 -0.25733573229257722 0 0.14922311738832569 -0.27773709510351913 0 0.13564803552418209 -0.27205259654545472 0 0.13574941617919459 -0.25733573229257722 0 0.1238612569483436 -0.27004155469147678 0 0.13753149605983789 -0.28636391812308848 0 0.13112892580066191 -0.27976837807130461 0 0.13564803552418209 -0.27205259654545472 0 0.13574941617919459 -0.25733573229257722 0 0.1219834281868535 -0.25467250226310589 0 0.1238612569483436 -0.27004155469147678 0 0.13574941617919459 -0.25733573229257722 0 0.15379600405969651 -0.25607892949704442 0 0.14922311738832569 -0.27773709510351913 0 0.13574941617919459 -0.25733573229257722 0 0.15379600405969651 -0.25607892949704442 0 0.1425510979572519 -0.24106149185058301 0 0.15379600405969651 -0.25607892949704442 0 0.14922311738832569 -0.27773709510351913 0 0.15985554601592189 -0.26774040914574909 0 0.13574941617919459 -0.25733573229257722 0 0.14922311738832569 -0.27773709510351913 0 0.15379600405969651 -0.25607892949704442 0 0.14922311738832569 -0.27773709510351913 0 0.13753149605983789 -0.28636391812308848 0 0.13564803552418209 -0.27205259654545472 0 0.14922311738832569 -0.27773709510351913 0 0.1538296029793694 -0.2847120593221546 0 0.14922311738832569 -0.27773709510351913 0 0.16052873900768341 -0.27748740117527931 0 0.1538296029793694 -0.2847120593221546 0 0.14922311738832569 -0.27773709510351913 0 0.14922311738832569 -0.27773709510351913 0 0.16052873900768341 -0.27748740117527931 0 0.15985554601592189 -0.26774040914574909 0 0.16052873900768341 -0.27748740117527931 0 0.15985554601592189 -0.26774040914574909 0 0.16792475767905629 -0.2708064098851129 0 0.16792475767905629 -0.2708064098851129 0 0.16792457167898739 -0.27907822784103342 0 0.17615312833597971 -0.28053690089084649 0 0.16052873900768341 -0.27748740117527931 0 0.16792457167898739 -0.27907822784103342 0 0.16560602162369331 -0.28675878666405402 0 0.16052873900768341 -0.27748740117527931 0 0.16792475767905629 -0.2708064098851129 0 0.16792457167898739 -0.27907822784103342 0 0.15379600405969651 -0.25607892949704442 0 0.15985554601592189 -0.26774040914574909 0 0.1678051119448476 -0.25659221006778993 0 0.16792475767905629 -0.2708064098851129 0 0.1678051119448476 -0.25659221006778993 0 0.17842428879768721 -0.26396101124843391 0 0.15985554601592189 -0.26774040914574909 0 0.16792475767905629 -0.2708064098851129 0 0.1678051119448476 -0.25659221006778993 0 0.18853444920090839 -0.27371285323025868 0 0.19422730188649651 -0.25669753652582472 0 0.17842428879768721 -0.26396101124843391 0 0.19422730188649651 -0.25669753652582472 0 0.17842428879768721 -0.26396101124843391 0 0.1781858121654934 -0.24662409522271919 0 0.1678051119448476 -0.25659221006778993 0 0.17842428879768721 -0.26396101124843391 0 0.1781858121654934 -0.24662409522271919 0 0.16792475767905629 -0.2708064098851129 0 0.17842428879768721 -0.26396101124843391 0 0.17615312833597971 -0.28053690089084649 0 0.18853444920090839 -0.27371285323025868 0 0.17842428879768721 -0.26396101124843391 0 0.17615312833597971 -0.28053690089084649 0 0.18853444920090839 -0.27371285323025868 0 0.18849547370288289 -0.28865094309511241 0 0.17615312833597971 -0.28053690089084649 0 0.18849547370288289 -0.28865094309511241 0 0.17615312833597971 -0.28053690089084649 0 0.17670935746654809 -0.29199542836884718 0 0.17615312833597971 -0.28053690089084649 0 0.17670935746654809 -0.29199542836884718 0 0.16560602162369331 -0.28675878666405402 0 0.17670935746654809 -0.29199542836884718 0 0.17526728059731131 -0.2997733928547146 0 0.168866665575958 -0.29666234679940379 0 0.17670935746654809 -0.29199542836884718 0 0.18301166280978429 -0.29825199687236781 0 0.17526728059731131 -0.2997733928547146 0 0.18849547370288289 -0.28865094309511241 0 0.17670935746654809 -0.29199542836884718 0 0.18301166280978429 -0.29825199687236781 0 0.19028365285419849 -0.2979229810290992 0 0.18849547370288289 -0.28865094309511241 0 0.18301166280978429 -0.29825199687236781 0 0.18701873875000691 -0.30263451647219719 0 0.18301166280978429 -0.29825199687236781 0 0.17932477500959371 -0.30718350720075421 0 0.19028365285419849 -0.2979229810290992 0 0.18701873875000691 -0.30263451647219719 0 0.18301166280978429 -0.29825199687236781 0 0.18857821406758141 -0.30783544258763063 0 0.18701873875000691 -0.30263451647219719 0 0.17932477500959371 -0.30718350720075421 0 0.18857821406758141 -0.30783544258763063 0 0.1830242583150431 -0.3178902812461884 0 0.17932477500959371 -0.30718350720075421 0 0.16876211516218559 -0.31606054793859012 0 0.17932477500959371 -0.30718350720075421 0 0.16842394212467249 -0.30477368503219981 0 0.17932477500959371 -0.30718350720075421 0 0.17526728059731131 -0.2997733928547146 0 0.16842394212467249 -0.30477368503219981 0 0.18301166280978429 -0.29825199687236781 0 0.17932477500959371 -0.30718350720075421 0 0.17526728059731131 -0.2997733928547146 0 0.17526728059731131 -0.2997733928547146 0 0.16842394212467249 -0.30477368503219981 0 0.168866665575958 -0.29666234679940379 0 0.16842394212467249 -0.30477368503219981 0 0.15960244222440831 -0.29801215234513367 0 0.168866665575958 -0.29666234679940379 0 0.16876211516218559 -0.31606054793859012 0 0.16842394212467249 -0.30477368503219981 0 0.15726239010490639 -0.31004392558857202 0 0.16842394212467249 -0.30477368503219981 0 0.15726239010490639 -0.31004392558857202 0 0.15960244222440831 -0.29801215234513367 0 0.1538296029793694 -0.2847120593221546 0 0.15960244222440831 -0.29801215234513367 0 0.16560602162369331 -0.28675878666405402 0 0.1538296029793694 -0.2847120593221546 0 0.16052873900768341 -0.27748740117527931 0 0.16560602162369331 -0.28675878666405402 0 0.16792457167898739 -0.27907822784103342 0 0.17615312833597971 -0.28053690089084649 0 0.16560602162369331 -0.28675878666405402 0 0.15960244222440831 -0.29801215234513367 0 0.16560602162369331 -0.28675878666405402 0 0.168866665575958 -0.29666234679940379 0 0.17670935746654809 -0.29199542836884718 0 0.16560602162369331 -0.28675878666405402 0 0.168866665575958 -0.29666234679940379 0 0.18958877901079271 -0.5 0 0.20916552508983441 -0.47252327894140073 0 0.1752912854922502 -0.47836259829048172 0 0.20916552508983441 -0.47252327894140073 0 0.18540508457158791 -0.45868266057360702 0 0.1752912854922502 -0.47836259829048172 0 0.18958877901079271 -0.5 0 0.20916552508983441 -0.47252327894140073 0 0.21764597853798651 -0.5 0 0.21764597853798651 -0.5 0 0.24570317806518041 -0.5 0 0.2387113914791007 -0.47168524905136922 0 0.26120226759513071 -0.48176515411092691 0 0.24570317806518041 -0.5 0 0.2387113914791007 -0.47168524905136922 0 0.20916552508983441 -0.47252327894140073 0 0.21764597853798651 -0.5 0 0.2387113914791007 -0.47168524905136922 0 0.20916552508983441 -0.47252327894140073 0 0.2387113914791007 -0.47168524905136922 0 0.22450222322399069 -0.44739190220796021 0 0.26293323546532621 -0.46093033486402119 0 0.2387113914791007 -0.47168524905136922 0 0.24580572636121731 -0.44959387587651523 0 0.2387113914791007 -0.47168524905136922 0 0.24580572636121731 -0.44959387587651523 0 0.22450222322399069 -0.44739190220796021 0 0.26248936247127369 -0.43792228803074262 0 0.24580572636121731 -0.44959387587651523 0 0.24135468461158599 -0.43079385659779967 0 0.24580572636121731 -0.44959387587651523 0 0.22450222322399069 -0.44739190220796021 0 0.24135468461158599 -0.43079385659779967 0 0.22450222322399069 -0.44739190220796021 0 0.2048067314562432 -0.45325121730918511 0 0.1968405144138054 -0.43448593630985027 0 0.20916552508983441 -0.47252327894140073 0 0.22450222322399069 -0.44739190220796021 0 0.2048067314562432 -0.45325121730918511 0 0.20916552508983441 -0.47252327894140073 0 0.2048067314562432 -0.45325121730918511 0 0.18540508457158791 -0.45868266057360702 0 0.2048067314562432 -0.45325121730918511 0 0.1968405144138054 -0.43448593630985027 0 0.18540508457158791 -0.45868266057360702 0 0.1890265006877212 -0.40794455559223919 0 0.20508082604749961 -0.415555567807669 0 0.20319826898699381 -0.40248969783183441 0 0.1968405144138054 -0.43448593630985027 0 0.1890265006877212 -0.40794455559223919 0 0.20508082604749961 -0.415555567807669 0 0.20508082604749961 -0.415555567807669 0 0.21704981793281369 -0.40718650005593482 0 0.2193537576650948 -0.42511859438723087 0 0.20508082604749961 -0.415555567807669 0 0.21704981793281369 -0.40718650005593482 0 0.20319826898699381 -0.40248969783183441 0 0.1968405144138054 -0.43448593630985027 0 0.20508082604749961 -0.415555567807669 0 0.2193537576650948 -0.42511859438723087 0 0.22450222322399069 -0.44739190220796021 0 0.1968405144138054 -0.43448593630985027 0 0.2193537576650948 -0.42511859438723087 0 0.22450222322399069 -0.44739190220796021 0 0.2193537576650948 -0.42511859438723087 0 0.24135468461158599 -0.43079385659779967 0 0.2193537576650948 -0.42511859438723087 0 0.24135468461158599 -0.43079385659779967 0 0.23335926080745181 -0.41304010854697992 0 0.25238859145066578 -0.41747764195402559 0 0.23335926080745181 -0.41304010854697992 0 0.24517157497247291 -0.40145499367775911 0 0.25238859145066578 -0.41747764195402559 0 0.24135468461158599 -0.43079385659779967 0 0.23335926080745181 -0.41304010854697992 0 0.21704981793281369 -0.40718650005593482 0 0.2193537576650948 -0.42511859438723087 0 0.23335926080745181 -0.41304010854697992 0 0.21704981793281369 -0.40718650005593482 0 0.23335926080745181 -0.41304010854697992 0 0.2275866320524042 -0.39608584315821538 0 0.23335926080745181 -0.41304010854697992 0 0.2275866320524042 -0.39608584315821538 0 0.24517157497247291 -0.40145499367775911 0 0.2275866320524042 -0.39608584315821538 0 0.24517157497247291 -0.40145499367775911 0 0.23885172733762261 -0.38807536854778502 0 0.25437846437632172 -0.39051503495008899 0 0.24517157497247291 -0.40145499367775911 0 0.23885172733762261 -0.38807536854778502 0 0.25437846437632172 -0.39051503495008899 0 0.2506507545744458 -0.37615617173451982 0 0.23885172733762261 -0.38807536854778502 0 0.2506507545744458 -0.37615617173451982 0 0.23885172733762261 -0.38807536854778502 0 0.23642787457569039 -0.37596036597574922 0 0.23885172733762261 -0.38807536854778502 0 0.23642787457569039 -0.37596036597574922 0 0.2260507725827666 -0.38013667325789008 0 0.2275866320524042 -0.39608584315821538 0 0.23885172733762261 -0.38807536854778502 0 0.2260507725827666 -0.38013667325789008 0 0.2275866320524042 -0.39608584315821538 0 0.2260507725827666 -0.38013667325789008 0 0.20993227865779571 -0.38940140797773692 0 0.21213621506155811 -0.37233487935532239 0 0.2260507725827666 -0.38013667325789008 0 0.20993227865779571 -0.38940140797773692 0 0.21213621506155811 -0.37233487935532239 0 0.20993227865779571 -0.38940140797773692 0 0.1953275534321155 -0.37544325960816671 0 0.21704981793281369 -0.40718650005593482 0 0.2275866320524042 -0.39608584315821538 0 0.20993227865779571 -0.38940140797773692 0 0.21704981793281369 -0.40718650005593482 0 0.20993227865779571 -0.38940140797773692 0 0.20319826898699381 -0.40248969783183441 0 0.20993227865779571 -0.38940140797773692 0 0.20319826898699381 -0.40248969783183441 0 0.19490192160913869 -0.39236045772559208 0 0.1890265006877212 -0.40794455559223919 0 0.19490192160913869 -0.39236045772559208 0 0.179983241576987 -0.38900832637509491 0 0.1890265006877212 -0.40794455559223919 0 0.20319826898699381 -0.40248969783183441 0 0.19490192160913869 -0.39236045772559208 0 0.19490192160913869 -0.39236045772559208 0 0.1953275534321155 -0.37544325960816671 0 0.179983241576987 -0.38900832637509491 0 0.20993227865779571 -0.38940140797773692 0 0.19490192160913869 -0.39236045772559208 0 0.1953275534321155 -0.37544325960816671 0 0.17790031331506001 -0.37242843070579212 0 0.1953275534321155 -0.37544325960816671 0 0.179983241576987 -0.38900832637509491 0 0.1890265006877212 -0.40794455559223919 0 0.179983241576987 -0.38900832637509491 0 0.17185727524316069 -0.40369817501150801 0 0.179983241576987 -0.38900832637509491 0 0.17185727524316069 -0.40369817501150801 0 0.1570382752968261 -0.38271161306275969 0 0.17185727524316069 -0.40369817501150801 0 0.1570382752968261 -0.38271161306275969 0 0.15244976686457651 -0.40176848016341898 0 0.17790031331506001 -0.37242843070579212 0 0.179983241576987 -0.38900832637509491 0 0.1570382752968261 -0.38271161306275969 0 0.1570382752968261 -0.38271161306275969 0 0.13969712479832411 -0.37885511448984571 0 0.15244976686457651 -0.40176848016341898 0 0.13969712479832411 -0.37885511448984571 0 0.1225663980541607 -0.38602740218502207 0 0.12386226153226949 -0.36684277052239228 0 0.13969712479832411 -0.37885511448984571 0 0.13255439537655009 -0.40339897218354598 0 0.1225663980541607 -0.38602740218502207 0 0.13969712479832411 -0.37885511448984571 0 0.13255439537655009 -0.40339897218354598 0 0.15244976686457651 -0.40176848016341898 0 0.13255439537655009 -0.40339897218354598 0 0.15244976686457651 -0.40176848016341898 0 0.14154386187215401 -0.42072661004887169 0 0.15244976686457651 -0.40176848016341898 0 0.14154386187215401 -0.42072661004887169 0 0.17082113353483611 -0.42147105729585382 0 0.13255439537655009 -0.40339897218354598 0 0.14154386187215401 -0.42072661004887169 0 0.119864082430284 -0.42132296600073682 0 0.14154386187215401 -0.42072661004887169 0 0.13441039922906561 -0.44852406070308298 0 0.119864082430284 -0.42132296600073682 0 0.14154386187215401 -0.42072661004887169 0 0.15261576638195079 -0.43499755899946829 0 0.13441039922906561 -0.44852406070308298 0 0.14154386187215401 -0.42072661004887169 0 0.15261576638195079 -0.43499755899946829 0 0.17082113353483611 -0.42147105729585382 0 0.15261576638195079 -0.43499755899946829 0 0.17082113353483611 -0.42147105729585382 0 0.17245519308617249 -0.44156597344684978 0 0.15261576638195079 -0.43499755899946829 0 0.17082113353483611 -0.42147105729585382 0 0.17185727524316069 -0.40369817501150801 0 0.15244976686457651 -0.40176848016341898 0 0.17082113353483611 -0.42147105729585382 0 0.1890265006877212 -0.40794455559223919 0 0.17185727524316069 -0.40369817501150801 0 0.17082113353483611 -0.42147105729585382 0 0.1890265006877212 -0.40794455559223919 0 0.17082113353483611 -0.42147105729585382 0 0.1968405144138054 -0.43448593630985027 0 0.1890265006877212 -0.40794455559223919 0 0.17082113353483611 -0.42147105729585382 0 0.1968405144138054 -0.43448593630985027 0 0.17082113353483611 -0.42147105729585382 0 0.17245519308617249 -0.44156597344684978 0 0.1968405144138054 -0.43448593630985027 0 0.17245519308617249 -0.44156597344684978 0 0.18540508457158791 -0.45868266057360702 0 0.18540508457158791 -0.45868266057360702 0 0.1569357130518523 -0.45328229712677393 0 0.1752912854922502 -0.47836259829048172 0 0.1569357130518523 -0.45328229712677393 0 0.15311025937796399 -0.47300766527340482 0 0.1752912854922502 -0.47836259829048172 0 0.17245519308617249 -0.44156597344684978 0 0.18540508457158791 -0.45868266057360702 0 0.1569357130518523 -0.45328229712677393 0 0.15261576638195079 -0.43499755899946829 0 0.17245519308617249 -0.44156597344684978 0 0.1569357130518523 -0.45328229712677393 0 0.15261576638195079 -0.43499755899946829 0 0.13441039922906561 -0.44852406070308298 0 0.15261576638195079 -0.43499755899946829 0 0.1569357130518523 -0.45328229712677393 0 0.13441039922906561 -0.44852406070308298 0 0.13441039922906561 -0.44852406070308298 0 0.1162050320761796 -0.46205056240669662 0 0.13441039922906561 -0.44852406070308298 0 0.1365132605698286 -0.46674012733865639 0 0.1162050320761796 -0.46205056240669662 0 0.1569357130518523 -0.45328229712677393 0 0.1365132605698286 -0.46674012733865639 0 0.15311025937796399 -0.47300766527340482 0 0.1569357130518523 -0.45328229712677393 0 0.13441039922906561 -0.44852406070308298 0 0.1365132605698286 -0.46674012733865639 0 0.1365132605698286 -0.46674012733865639 0 0.15311025937796399 -0.47300766527340482 0 0.14171784769153281 -0.48479669538967568 0 0.1365132605698286 -0.46674012733865639 0 0.14171784769153281 -0.48479669538967568 0 0.1248397060162901 -0.48102528120334842 0 0.1365132605698286 -0.46674012733865639 0 0.1248397060162901 -0.48102528120334842 0 0.1162050320761796 -0.46205056240669662 0 0.13347437995640529 -0.49999999999999822 0 0.1248397060162901 -0.48102528120334842 0 0.13347437995640529 -0.49999999999999822 0 0.14171784769153281 -0.48479669538967568 0 0.1248397060162901 -0.48102528120334842 0 0.15311025937796399 -0.47300766527340482 0 0.14171784769153281 -0.48479669538967568 0 0.16153157948359911 -0.5 0 0.13347437995640529 -0.49999999999999822 0 0.14171784769153281 -0.48479669538967568 0 0.16153157948359911 -0.5 0 0.15311025937796399 -0.47300766527340482 0 0.16153157948359911 -0.5 0 0.1752912854922502 -0.47836259829048172 0 0.18958877901079271 -0.5 0 0.16153157948359911 -0.5 0 0.1752912854922502 -0.47836259829048172 0 0.065128747921578203 -0.49999999999999872 0 0.085447302499313205 -0.5 0 0.080525772675081903 -0.48856008341881191 0 0.065128747921578203 -0.49999999999999872 0 0.080525772675081903 -0.48856008341881191 0 0.052261210834558078 -0.48434661438214299 0 0.065128747921578203 -0.49999999999999872 0 0.080525772675081903 -0.48856008341881191 0 0.073743639408584596 -0.47136001855404519 0 0.080525772675081903 -0.48856008341881191 0 0.052261210834558078 -0.48434661438214299 0 0.073743639408584596 -0.47136001855404519 0 0.095922797428586629 -0.47712016683762642 0 0.08773277002228691 -0.45808274683368699 0 0.073743639408584596 -0.47136001855404519 0 0.080525772675081903 -0.48856008341881191 0 0.095922797428586629 -0.47712016683762642 0 0.080525772675081903 -0.48856008341881191 0 0.095922797428586629 -0.47712016683762642 0 0.085447302499313205 -0.5 0 0.080525772675081903 -0.48856008341881191 0 0.095922797428586629 -0.47712016683762642 0 0.10576585707704821 -0.50000000000000278 0 0.1248397060162901 -0.48102528120334842 0 0.095922797428586629 -0.47712016683762642 0 0.10576585707704821 -0.50000000000000278 0 0.095922797428586629 -0.47712016683762642 0 0.085447302499313205 -0.5 0 0.10576585707704821 -0.50000000000000278 0 0.095922797428586629 -0.47712016683762642 0 0.13347437995640529 -0.49999999999999822 0 0.10576585707704821 -0.50000000000000278 0 0.1248397060162901 -0.48102528120334842 0 0.1248397060162901 -0.48102528120334842 0 0.095922797428586629 -0.47712016683762642 0 0.1162050320761796 -0.46205056240669662 0 0.1248397060162901 -0.48102528120334842 0 0.1162050320761796 -0.46205056240669662 0 0.095922797428586629 -0.47712016683762642 0 0.1162050320761796 -0.46205056240669662 0 0.095922797428586629 -0.47712016683762642 0 0.1162050320761796 -0.46205056240669662 0 0.08773277002228691 -0.45808274683368699 0 0.1162050320761796 -0.46205056240669662 0 0.1056331453158442 -0.43881881331941491 0 0.13441039922906561 -0.44852406070308298 0 0.1162050320761796 -0.46205056240669662 0 0.1056331453158442 -0.43881881331941491 0 0.1162050320761796 -0.46205056240669662 0 0.1056331453158442 -0.43881881331941491 0 0.08773277002228691 -0.45808274683368699 0 0.079542742615984319 -0.43904532682974873 0 0.08773277002228691 -0.45808274683368699 0 0.07060943001298875 -0.45532056233145141 0 0.079542742615984319 -0.43904532682974873 0 0.08773277002228691 -0.45808274683368699 0 0.1056331453158442 -0.43881881331941491 0 0.079542742615984319 -0.43904532682974873 0 0.08773277002228691 -0.45808274683368699 0 0.095922797428586629 -0.47712016683762642 0 0.08773277002228691 -0.45808274683368699 0 0.073743639408584596 -0.47136001855404519 0 0.07060943001298875 -0.45532056233145141 0 0.055628340778071571 -0.46455723190827919 0 0.073743639408584596 -0.47136001855404519 0 0.08773277002228691 -0.45808274683368699 0 0.07060943001298875 -0.45532056233145141 0 0.079542742615984319 -0.43904532682974873 0 0.07060943001298875 -0.45532056233145141 0 0.056399657240016388 -0.44355748753149649 0 0.079542742615984319 -0.43904532682974873 0 0.064267163371693067 -0.43072771482592181 0 0.056399657240016388 -0.44355748753149649 0 0.064267163371693067 -0.43072771482592181 0 0.071352715209681727 -0.42000790682581052 0 0.052950597166820157 -0.42023226557051169 0 0.079542742615984319 -0.43904532682974873 0 0.064267163371693067 -0.43072771482592181 0 0.071352715209681727 -0.42000790682581052 0 0.079542742615984319 -0.43904532682974873 0 0.071352715209681727 -0.42000790682581052 0 0.071352715209681727 -0.42000790682581052 0 0.095061258555514144 -0.41558706423213071 0 0.084489371795184121 -0.39235531514484662 0 0.1056331453158442 -0.43881881331941491 0 0.079542742615984319 -0.43904532682974873 0 0.095061258555514144 -0.41558706423213071 0 0.079542742615984319 -0.43904532682974873 0 0.071352715209681727 -0.42000790682581052 0 0.095061258555514144 -0.41558706423213071 0 0.1056331453158442 -0.43881881331941491 0 0.119864082430284 -0.42132296600073682 0 0.095061258555514144 -0.41558706423213071 0 0.1056331453158442 -0.43881881331941491 0 0.095061258555514144 -0.41558706423213071 0 0.13441039922906561 -0.44852406070308298 0 0.1056331453158442 -0.43881881331941491 0 0.119864082430284 -0.42132296600073682 0 0.13255439537655009 -0.40339897218354598 0 0.119864082430284 -0.42132296600073682 0 0.1099814342325761 -0.40088227551737521 0 0.119864082430284 -0.42132296600073682 0 0.095061258555514144 -0.41558706423213071 0 0.1099814342325761 -0.40088227551737521 0 0.095061258555514144 -0.41558706423213071 0 0.1099814342325761 -0.40088227551737521 0 0.084489371795184121 -0.39235531514484662 0 0.1099814342325761 -0.40088227551737521 0 0.10625177771246699 -0.38150558623881148 0 0.084489371795184121 -0.39235531514484662 0 0.13255439537655009 -0.40339897218354598 0 0.1099814342325761 -0.40088227551737521 0 0.1225663980541607 -0.38602740218502207 0 0.1099814342325761 -0.40088227551737521 0 0.1225663980541607 -0.38602740218502207 0 0.10625177771246699 -0.38150558623881148 0 0.1225663980541607 -0.38602740218502207 0 0.10625177771246699 -0.38150558623881148 0 0.12386226153226949 -0.36684277052239228 0 0.10625177771246699 -0.38150558623881148 0 0.090461589898640865 -0.37511714261026252 0 0.084489371795184121 -0.39235531514484662 0 0.090461589898640865 -0.37511714261026252 0 0.084489371795184121 -0.39235531514484662 0 0.073917485034854152 -0.36912356605756258 0 0.084489371795184121 -0.39235531514484662 0 0.073917485034854152 -0.36912356605756258 0 0.095061258555514144 -0.41558706423213071 0 0.084489371795184121 -0.39235531514484662 0 0.071352715209681727 -0.42000790682581052 0 0.084489371795184121 -0.39235531514484662 0 0.059113337380048057 -0.40018831095187751 0 0.084489371795184121 -0.39235531514484662 0 0.063044486052127799 -0.38227473483433638 0 0.059113337380048057 -0.40018831095187751 0 0.084489371795184121 -0.39235531514484662 0 0.063044486052127799 -0.38227473483433638 0 0.073917485034854152 -0.36912356605756258 0 0.063044486052127799 -0.38227473483433638 0 0.047948363163919913 -0.38391179628090932 0 0.059113337380048057 -0.40018831095187751 0 0.063044486052127799 -0.38227473483433638 0 0.047948363163919913 -0.38391179628090932 0 0.049753872886632723 -0.36579468573648583 0 0.047948363163919913 -0.38391179628090932 0 0.059113337380048057 -0.40018831095187751 0 0.033631645189986653 -0.40224722565400911 0 0.047948363163919913 -0.38391179628090932 0 0.031795065685275667 -0.37880588135346532 0 0.049753872886632723 -0.36579468573648583 0 0.047948363163919913 -0.38391179628090932 0 0.033631645189986653 -0.40224722565400911 0 0.031795065685275667 -0.37880588135346532 0 0.033631645189986653 -0.40224722565400911 0 0.031795065685275667 -0.37880588135346532 0 0.01431269321315368 -0.38426218573750598 0 -0.0015042163491961651 -0.38404589083334428 0 0.01431269321315368 -0.38426218573750598 0 0.0068835217393118792 -0.39745735090850742 0 -0.0028496729989604991 -0.36828482621217401 0 0.01431269321315368 -0.38426218573750598 0 -0.0028496729989604991 -0.36828482621217401 0 -0.0015042163491961651 -0.38404589083334428 0 0.01431269321315368 -0.38426218573750598 0 0.01431269321315368 -0.38426218573750598 0 0.0068835217393118792 -0.39745735090850742 0 0.033631645189986653 -0.40224722565400911 0 0.0068835217393118792 -0.39745735090850742 0 0.018850139421103751 -0.41256360628558542 0 0.033631645189986653 -0.40224722565400911 0 0.01431269321315368 -0.38426218573750598 0 0.0068835217393118792 -0.39745735090850742 0 0.033631645189986653 -0.40224722565400911 0 0.01431269321315368 -0.38426218573750598 0 0.033631645189986653 -0.40224722565400911 0 0.018850139421103751 -0.41256360628558542 0 0.032191442980764123 -0.41971212945495412 0 0.018850139421103751 -0.41256360628558542 0 0.018584078626011299 -0.42868965009423682 0 0.032191442980764123 -0.41971212945495412 0 -0.001576154149209408 -0.41613374173251899 0 0.0068835217393118792 -0.39745735090850742 0 0.018850139421103751 -0.41256360628558542 0 -0.001576154149209408 -0.41613374173251899 0 0.018850139421103751 -0.41256360628558542 0 0.018584078626011299 -0.42868965009423682 0 -0.001576154149209408 -0.41613374173251899 0 -0.00046282614588595051 -0.44175748268750109 0 0.018584078626011299 -0.42868965009423682 0 0.018584078626011299 -0.42868965009423682 0 0.03694075449989874 -0.43482789967042729 0 0.032191442980764123 -0.41971212945495412 0 0.018584078626011299 -0.42868965009423682 0 0.03694075449989874 -0.43482789967042729 0 0.020782276330563031 -0.44663234097251631 0 0.03694075449989874 -0.43482789967042729 0 0.032191442980764123 -0.41971212945495412 0 0.052950597166820157 -0.42023226557051169 0 0.033631645189986653 -0.40224722565400911 0 0.032191442980764123 -0.41971212945495412 0 0.052950597166820157 -0.42023226557051169 0 0.033631645189986653 -0.40224722565400911 0 0.052950597166820157 -0.42023226557051169 0 0.071352715209681727 -0.42000790682581052 0 0.059113337380048057 -0.40018831095187751 0 0.052950597166820157 -0.42023226557051169 0 0.059113337380048057 -0.40018831095187751 0 0.033631645189986653 -0.40224722565400911 0 0.052950597166820157 -0.42023226557051169 0 0.064267163371693067 -0.43072771482592181 0 0.052950597166820157 -0.42023226557051169 0 0.056399657240016388 -0.44355748753149649 0 0.03694075449989874 -0.43482789967042729 0 0.052950597166820157 -0.42023226557051169 0 0.056399657240016388 -0.44355748753149649 0 0.056399657240016388 -0.44355748753149649 0 0.055628340778071571 -0.46455723190827919 0 0.039267447818769619 -0.4509798085393637 0 0.07060943001298875 -0.45532056233145141 0 0.056399657240016388 -0.44355748753149649 0 0.055628340778071571 -0.46455723190827919 0 0.055628340778071571 -0.46455723190827919 0 0.039267447818769619 -0.4509798085393637 0 0.026586210245298409 -0.46532408261409902 0 0.03694075449989874 -0.43482789967042729 0 0.056399657240016388 -0.44355748753149649 0 0.039267447818769619 -0.4509798085393637 0 0.03694075449989874 -0.43482789967042729 0 0.039267447818769619 -0.4509798085393637 0 0.020782276330563031 -0.44663234097251631 0 -0.00046282614588595051 -0.44175748268750109 0 -0.001946855872599438 -0.46849896138470271 0 0.020782276330563031 -0.44663234097251631 0 -0.00046282614588595051 -0.44175748268750109 0 0.018584078626011299 -0.42868965009423682 0 0.020782276330563031 -0.44663234097251631 0 -0.001946855872599438 -0.46849896138470271 0 0.026586210245298409 -0.46532408261409902 0 -0.001946855872599438 -0.46849896138470271 0 0.020782276330563031 -0.44663234097251631 0 0.026586210245298409 -0.46532408261409902 0 0.039267447818769619 -0.4509798085393637 0 0.020782276330563031 -0.44663234097251631 0 0.026586210245298409 -0.46532408261409902 0 -0.001946855872599438 -0.46849896138470271 0 0.025973827933569772 -0.48404838905705222 0 0.01326249413538438 -0.5 0 -0.001946855872599438 -0.46849896138470271 0 0.026586210245298409 -0.46532408261409902 0 0.025973827933569772 -0.48404838905705222 0 0.025973827933569772 -0.48404838905705222 0 0.01326249413538438 -0.5 0 0.039195621028481287 -0.5 0 0.025973827933569772 -0.48404838905705222 0 0.039195621028481287 -0.5 0 0.052261210834558078 -0.48434661438214299 0 0.055628340778071571 -0.46455723190827919 0 0.026586210245298409 -0.46532408261409902 0 0.052261210834558078 -0.48434661438214299 0 0.026586210245298409 -0.46532408261409902 0 0.025973827933569772 -0.48404838905705222 0 0.052261210834558078 -0.48434661438214299 0 0.073743639408584596 -0.47136001855404519 0 0.055628340778071571 -0.46455723190827919 0 0.052261210834558078 -0.48434661438214299 0 0.065128747921578203 -0.49999999999999872 0 0.039195621028481287 -0.5 0 0.052261210834558078 -0.48434661438214299 0 0.080790872988421955 -0.29139382068507941 0 0.068847082969382814 -0.28345654655762309 0 0.085275616275932734 -0.28056266008214698 0 0.090307787227735525 -0.28505971685424131 0 0.090628987317055015 -0.3050510468156345 0 0.080790872988421955 -0.29139382068507941 0 0.090307787227735525 -0.28505971685424131 0 0.090628987317055015 -0.3050510468156345 0 0.080790872988421955 -0.29139382068507941 0 0.090307787227735525 -0.28505971685424131 0 0.085275616275932734 -0.28056266008214698 0 0.090251688828728097 -0.2815681810728024 0 0.090307787227735525 -0.28505971685424131 0 0.098659898195987986 -0.2782050185502084 0 0.090307787227735525 -0.28505971685424131 0 0.085275616275932734 -0.28056266008214698 0 0.090251688828728097 -0.2815681810728024 0 0.090307787227735525 -0.28505971685424131 0 0.085275616275932734 -0.28056266008214698 0 0.090251688828728097 -0.2815681810728024 0 0.090307787227735525 -0.28505971685424131 0 0.080790872988421955 -0.29139382068507941 0 0.090628987317055015 -0.3050510468156345 0 0.071773226937427617 -0.30111581857056241 0 0.071773226937427617 -0.30111581857056241 0 0.071880797925677462 -0.32046294344592757 0 0.062498390076919319 -0.30663031234697519 0 0.090628987317055015 -0.3050510468156345 0 0.071773226937427617 -0.30111581857056241 0 0.071880797925677462 -0.32046294344592757 0 0.071773226937427617 -0.30111581857056241 0 0.057432398239821263 -0.29883858429954069 0 0.062498390076919319 -0.30663031234697519 0 0.068847082969382814 -0.28345654655762309 0 0.085275616275932734 -0.28056266008214698 0 0.071773226937427617 -0.30111581857056241 0 0.068847082969382814 -0.28345654655762309 0 0.057432398239821263 -0.29883858429954069 0 0.080790872988421955 -0.29139382068507941 0 0.071773226937427617 -0.30111581857056241 0 0.068847082969382814 -0.28345654655762309 0 0.066061737274632923 -0.26339195870720378 0 0.085275616275932734 -0.28056266008214698 0 0.068847082969382814 -0.28345654655762309 0 0.066061737274632923 -0.26339195870720378 0 0.085275616275932734 -0.28056266008214698 0 0.066061737274632923 -0.26339195870720378 0 0.087728660673719275 -0.25825028509776821 0 0.07672461222643194 -0.2454486929699955 0 0.066061737274632923 -0.26339195870720378 0 0.058311660005699109 -0.25646601406018149 0 0.063669217128702563 -0.2460117355233373 0 0.066061737274632923 -0.26339195870720378 0 0.07672461222643194 -0.2454486929699955 0 0.066061737274632923 -0.26339195870720378 0 0.063669217128702563 -0.2460117355233373 0 0.07672461222643194 -0.2454486929699955 0 0.066061737274632923 -0.26339195870720378 0 0.087728660673719275 -0.25825028509776821 0 0.087670181827951915 -0.26930401082548999 0 0.087728660673719275 -0.25825028509776821 0 0.07672461222643194 -0.2454486929699955 0 0.089701413197687818 -0.2477304149744301 0 0.087728660673719275 -0.25825028509776821 0 0.087670181827951915 -0.26930401082548999 0 0.1006249967194848 -0.26611013169012471 0 0.087728660673719275 -0.25825028509776821 0 0.101269409865395 -0.25402776982502179 0 0.089701413197687818 -0.2477304149744301 0 0.066061737274632923 -0.26339195870720378 0 0.085275616275932734 -0.28056266008214698 0 0.087670181827951915 -0.26930401082548999 0 0.090251688828728097 -0.2815681810728024 0 0.085275616275932734 -0.28056266008214698 0 0.098659898195987986 -0.2782050185502084 0 0.085275616275932734 -0.28056266008214698 0 0.087670181827951915 -0.26930401082548999 0 0.098659898195987986 -0.2782050185502084 0 0.085275616275932734 -0.28056266008214698 0 0.098659898195987986 -0.2782050185502084 0 0.087670181827951915 -0.26930401082548999 0 0.098659898195987986 -0.2782050185502084 0 0.1006249967194848 -0.26611013169012471 0 0.1006249967194848 -0.26611013169012471 0 0.1133790606721081 -0.26097141119205219 0 0.10975524185687829 -0.27283418120779229 0 0.098659898195987986 -0.2782050185502084 0 0.1006249967194848 -0.26611013169012471 0 0.10975524185687829 -0.27283418120779229 0 0.098659898195987986 -0.2782050185502084 0 0.10975524185687829 -0.27283418120779229 0 0.106835554607338 -0.28415655747115209 0 0.087728660673719275 -0.25825028509776821 0 0.1006249967194848 -0.26611013169012471 0 0.101269409865395 -0.25402776982502179 0 0.1006249967194848 -0.26611013169012471 0 0.101269409865395 -0.25402776982502179 0 0.1133790606721081 -0.26097141119205219 0 0.101269409865395 -0.25402776982502179 0 0.1133790606721081 -0.26097141119205219 0 0.1128202333983354 -0.24939855320219409 0 0.1133790606721081 -0.26097141119205219 0 0.1219834281868535 -0.25467250226310589 0 0.1128202333983354 -0.24939855320219409 0 0.1133790606721081 -0.26097141119205219 0 0.1219834281868535 -0.25467250226310589 0 0.1238612569483436 -0.27004155469147678 0 0.116245059144894 -0.27932388267121688 0 0.10975524185687829 -0.27283418120779229 0 0.106835554607338 -0.28415655747115209 0 0.116245059144894 -0.27932388267121688 0 0.10975524185687829 -0.27283418120779229 0 0.1238612569483436 -0.27004155469147678 0 0.1133790606721081 -0.26097141119205219 0 0.10975524185687829 -0.27283418120779229 0 0.1238612569483436 -0.27004155469147678 0 0.116245059144894 -0.27932388267121688 0 0.1238612569483436 -0.27004155469147678 0 0.1239696183917065 -0.28100865286253601 0 0.116245059144894 -0.27932388267121688 0 0.1239696183917065 -0.28100865286253601 0 0.11764057834039469 -0.28840711890260312 0 0.11764057834039469 -0.28840711890260312 0 0.10639535353634851 -0.29943655335435948 0 0.12415297143242 -0.29756335098265951 0 0.128663390139757 -0.2888680419634328 0 0.1239696183917065 -0.28100865286253601 0 0.11764057834039469 -0.28840711890260312 0 0.128663390139757 -0.2888680419634328 0 0.11764057834039469 -0.28840711890260312 0 0.12415297143242 -0.29756335098265951 0 0.11764057834039469 -0.28840711890260312 0 0.106835554607338 -0.28415655747115209 0 0.10639535353634851 -0.29943655335435948 0 0.116245059144894 -0.27932388267121688 0 0.11764057834039469 -0.28840711890260312 0 0.106835554607338 -0.28415655747115209 0 0.090307787227735525 -0.28505971685424131 0 0.10639535353634851 -0.29943655335435948 0 0.090307787227735525 -0.28505971685424131 0 0.106835554607338 -0.28415655747115209 0 0.10639535353634851 -0.29943655335435948 0 0.090307787227735525 -0.28505971685424131 0 0.090628987317055015 -0.3050510468156345 0 0.10639535353634851 -0.29943655335435948 0 0.090307787227735525 -0.28505971685424131 0 0.098659898195987986 -0.2782050185502084 0 0.106835554607338 -0.28415655747115209 0 0.090628987317055015 -0.3050510468156345 0 0.10639535353634851 -0.29943655335435948 0 0.10271685987331421 -0.31405121852994311 0 0.10639535353634851 -0.29943655335435948 0 0.12415297143242 -0.29756335098265951 0 0.1224829198449614 -0.31381338985447788 0 0.10639535353634851 -0.29943655335435948 0 0.1224829198449614 -0.31381338985447788 0 0.10271685987331421 -0.31405121852994311 0 0.10639535353634851 -0.29943655335435948 0 0.1224829198449614 -0.31381338985447788 0 0.1298229062258596 -0.32942353908348598 0 0.1224829198449614 -0.31381338985447788 0 0.12148792118248131 -0.33237588454622319 0 0.1224829198449614 -0.31381338985447788 0 0.12148792118248131 -0.33237588454622319 0 0.1062190542944291 -0.32870913066162522 0 0.1224829198449614 -0.31381338985447788 0 0.1062190542944291 -0.32870913066162522 0 0.10271685987331421 -0.31405121852994311 0 0.12943289173119391 -0.33943288360269019 0 0.12148792118248131 -0.33237588454622319 0 0.1166169852821981 -0.34099961075049778 0 0.12148792118248131 -0.33237588454622319 0 0.1062190542944291 -0.32870913066162522 0 0.12148792118248131 -0.33237588454622319 0 0.1166169852821981 -0.34099961075049778 0 0.1062190542944291 -0.32870913066162522 0 0.10373021497054891 -0.3410711248062161 0 0.090950187406376809 -0.32504237677702758 0 0.091235000822623549 -0.34276901873944149 0 0.1062190542944291 -0.32870913066162522 0 0.10373021497054891 -0.3410711248062161 0 0.090950187406376809 -0.32504237677702758 0 0.1166169852821981 -0.34099961075049778 0 0.1062190542944291 -0.32870913066162522 0 0.10373021497054891 -0.3410711248062161 0 0.090628987317055015 -0.3050510468156345 0 0.10271685987331421 -0.31405121852994311 0 0.090950187406376809 -0.32504237677702758 0 0.1062190542944291 -0.32870913066162522 0 0.10271685987331421 -0.31405121852994311 0 0.090950187406376809 -0.32504237677702758 0 0.1062190542944291 -0.32870913066162522 0 0.090950187406376809 -0.32504237677702758 0 0.12386226153226949 -0.36684277052239228 0 0.1117977634451289 -0.35327802516696671 0 0.10538266219559581 -0.36610902743506613 0 0.10625177771246699 -0.38150558623881148 0 0.12386226153226949 -0.36684277052239228 0 0.10538266219559581 -0.36610902743506613 0 0.12703406606940629 -0.35113061571926579 0 0.12386226153226949 -0.36684277052239228 0 0.1117977634451289 -0.35327802516696671 0 0.12703406606940629 -0.35113061571926579 0 0.12943289173119391 -0.33943288360269019 0 0.1166169852821981 -0.34099961075049778 0 0.12703406606940629 -0.35113061571926579 0 0.1166169852821981 -0.34099961075049778 0 0.1117977634451289 -0.35327802516696671 0 0.1166169852821981 -0.34099961075049778 0 0.10373021497054891 -0.3410711248062161 0 0.1117977634451289 -0.35327802516696671 0 0.10373021497054891 -0.3410711248062161 0 0.1117977634451289 -0.35327802516696671 0 0.091519814238872496 -0.3604956607018554 0 0.10373021497054891 -0.3410711248062161 0 0.091519814238872496 -0.3604956607018554 0 0.091235000822623549 -0.34276901873944149 0 0.10625177771246699 -0.38150558623881148 0 0.090461589898640865 -0.37511714261026252 0 0.10538266219559581 -0.36610902743506613 0 0.1117977634451289 -0.35327802516696671 0 0.10538266219559581 -0.36610902743506613 0 0.091519814238872496 -0.3604956607018554 0 0.090461589898640865 -0.37511714261026252 0 0.10538266219559581 -0.36610902743506613 0 0.091519814238872496 -0.3604956607018554 0 0.091519814238872496 -0.3604956607018554 0 0.079362276509504531 -0.35182538646464517 0 0.073917485034854152 -0.36912356605756258 0 0.090461589898640865 -0.37511714261026252 0 0.091519814238872496 -0.3604956607018554 0 0.073917485034854152 -0.36912356605756258 0 0.091519814238872496 -0.3604956607018554 0 0.091235000822623549 -0.34276901873944149 0 0.091519814238872496 -0.3604956607018554 0 0.079362276509504531 -0.35182538646464517 0 0.091235000822623549 -0.34276901873944149 0 0.079362276509504531 -0.35182538646464517 0 0.064157232244972648 -0.34645780874706722 0 0.076161897523232269 -0.33617624905874899 0 0.079362276509504531 -0.35182538646464517 0 0.064157232244972648 -0.34645780874706722 0 0.073917485034854152 -0.36912356605756258 0 0.064157232244972648 -0.34645780874706722 0 0.073917485034854152 -0.36912356605756258 0 0.049753872886632723 -0.36579468573648583 0 0.090950187406376809 -0.32504237677702758 0 0.071880797925677462 -0.32046294344592757 0 0.090950187406376809 -0.32504237677702758 0 0.076161897523232269 -0.33617624905874899 0 0.071880797925677462 -0.32046294344592757 0 0.090628987317055015 -0.3050510468156345 0 0.090950187406376809 -0.32504237677702758 0 0.090628987317055015 -0.3050510468156345 0 0.090950187406376809 -0.32504237677702758 0 0.071880797925677462 -0.32046294344592757 0 0.090950187406376809 -0.32504237677702758 0 0.091235000822623549 -0.34276901873944149 0 0.076161897523232269 -0.33617624905874899 0 0.090950187406376809 -0.32504237677702758 0 0.091235000822623549 -0.34276901873944149 0 0.079362276509504531 -0.35182538646464517 0 0.091235000822623549 -0.34276901873944149 0 0.076161897523232269 -0.33617624905874899 0 0.064157232244972648 -0.34645780874706722 0 0.076161897523232269 -0.33617624905874899 0 0.05997338209287513 -0.3308758430110168 0 0.076161897523232269 -0.33617624905874899 0 0.071880797925677462 -0.32046294344592757 0 0.05997338209287513 -0.3308758430110168 0 0.071880797925677462 -0.32046294344592757 0 0.062498390076919319 -0.30663031234697519 0 0.054960384988861202 -0.31206665105525422 0 0.071880797925677462 -0.32046294344592757 0 0.052811408444977753 -0.31588351011482929 0 0.054960384988861202 -0.31206665105525422 0 0.052811408444977753 -0.31588351011482929 0 0.037109199666964569 -0.31211269100587319 0 0.054960384988861202 -0.31206665105525422 0 0.071880797925677462 -0.32046294344592757 0 0.052811408444977753 -0.31588351011482929 0 0.05997338209287513 -0.3308758430110168 0 0.071880797925677462 -0.32046294344592757 0 0.052811408444977753 -0.31588351011482929 0 0.052811408444977753 -0.31588351011482929 0 0.054960384988861202 -0.31206665105525422 0 0.052811408444977753 -0.31588351011482929 0 0.05997338209287513 -0.3308758430110168 0 0.039978503367706517 -0.33867640198905669 0 0.064157232244972648 -0.34645780874706722 0 0.05997338209287513 -0.3308758430110168 0 0.039978503367706517 -0.33867640198905669 0 0.039978503367706517 -0.33867640198905669 0 0.034594650741499471 -0.3163441220019933 0 0.027071459901844001 -0.3302171446629466 0 0.052811408444977753 -0.31588351011482929 0 0.037109199666964569 -0.31211269100587319 0 0.052811408444977753 -0.31588351011482929 0 0.039978503367706517 -0.33867640198905669 0 0.052811408444977753 -0.31588351011482929 0 0.034594650741499471 -0.3163441220019933 0 0.037109199666964569 -0.31211269100587319 0 0.052811408444977753 -0.31588351011482929 0 0.039978503367706517 -0.33867640198905669 0 0.034594650741499471 -0.3163441220019933 0 0.034594650741499471 -0.3163441220019933 0 0.037109199666964569 -0.31211269100587319 0 0.063044486052127799 -0.38227473483433638 0 0.073917485034854152 -0.36912356605756258 0 0.049753872886632723 -0.36579468573648583 0 0.064157232244972648 -0.34645780874706722 0 0.039978503367706517 -0.33867640198905669 0 0.049753872886632723 -0.36579468573648583 0 0.039978503367706517 -0.33867640198905669 0 0.0271455982904313 -0.36146929386328208 0 0.039978503367706517 -0.33867640198905669 0 0.049753872886632723 -0.36579468573648583 0 0.0271455982904313 -0.36146929386328208 0 0.031795065685275667 -0.37880588135346532 0 0.049753872886632723 -0.36579468573648583 0 0.0271455982904313 -0.36146929386328208 0 0.031795065685275667 -0.37880588135346532 0 0.01431269321315368 -0.38426218573750598 0 0.0271455982904313 -0.36146929386328208 0 0.01431269321315368 -0.38426218573750598 0 0.0271455982904313 -0.36146929386328208 0 0.0271455982904313 -0.36146929386328208 0 0.0082308762827290449 -0.35061035578161392 0 0.01170987369683838 -0.36615666539864389 0 0.01431269321315368 -0.38426218573750598 0 0.0271455982904313 -0.36146929386328208 0 0.01170987369683838 -0.36615666539864389 0 0.0271455982904313 -0.36146929386328208 0 0.0082308762827290449 -0.35061035578161392 0 0.023400268881679689 -0.34263905074527701 0 0.039978503367706517 -0.33867640198905669 0 0.0271455982904313 -0.36146929386328208 0 0.023400268881679689 -0.34263905074527701 0 -0.0028496729989604991 -0.36828482621217401 0 0.01431269321315368 -0.38426218573750598 0 0.01170987369683838 -0.36615666539864389 0 -0.0028496729989604991 -0.36828482621217401 0 0.0082308762827290449 -0.35061035578161392 0 0.01170987369683838 -0.36615666539864389 0 0.02197438761295905 -0.31892584030866189 0 0.027071459901844001 -0.3302171446629466 0 0.014574906565687591 -0.33222205742948591 0 0.034594650741499471 -0.3163441220019933 0 0.02197438761295905 -0.31892584030866189 0 0.037109199666964569 -0.31211269100587319 0 0.034594650741499471 -0.3163441220019933 0 0.02197438761295905 -0.31892584030866189 0 0.027071459901844001 -0.3302171446629466 0 0.039978503367706517 -0.33867640198905669 0 0.027071459901844001 -0.3302171446629466 0 0.023400268881679689 -0.34263905074527701 0 0.027071459901844001 -0.3302171446629466 0 0.023400268881679689 -0.34263905074527701 0 0.014574906565687591 -0.33222205742948591 0 -0.0051298972300335716 -0.34323803833799099 0 0.0082308762827290449 -0.35061035578161392 0 0.0011479912793940551 -0.33152561173697231 0 0.0082308762827290449 -0.35061035578161392 0 0.014574906565687591 -0.33222205742948591 0 0.0011479912793940551 -0.33152561173697231 0 0.0082308762827290449 -0.35061035578161392 0 0.023400268881679689 -0.34263905074527701 0 0.014574906565687591 -0.33222205742948591 0 0.02197438761295905 -0.31892584030866189 0 0.0028682081076095919 -0.31713484895558841 0 0.01316410266962877 -0.30636237711056019 0 0.02197438761295905 -0.31892584030866189 0 0.014574906565687591 -0.33222205742948591 0 0.0028682081076095919 -0.31713484895558841 0 0.014574906565687591 -0.33222205742948591 0 0.0011479912793940551 -0.33152561173697231 0 0.0028682081076095919 -0.31713484895558841 0 0.01316410266962877 -0.30636237711056019 0 0.0012398608337699101 -0.29536556010934689 0 0.026829205248301211 -0.29085799657122219 0 0.0028682081076095919 -0.31713484895558841 0 0.01316410266962877 -0.30636237711056019 0 0.0012398608337699101 -0.29536556010934689 0 0.0012398608337699101 -0.29536556010934689 0 0.026829205248301211 -0.29085799657122219 0 0.0012398608337699101 -0.29536556010934689 0 0.026829205248301211 -0.29085799657122219 0 0.0048673281551053641 -0.28092294130690132 0 0.026829205248301211 -0.29085799657122219 0 0.01847919731473641 -0.27488433426378378 0 0.0048673281551053641 -0.28092294130690132 0 0.01316410266962877 -0.30636237711056019 0 0.026829205248301211 -0.29085799657122219 0 0.037109199666964569 -0.31211269100587319 0 0.01316410266962877 -0.30636237711056019 0 0.037109199666964569 -0.31211269100587319 0 0.02197438761295905 -0.31892584030866189 0 0.01316410266962877 -0.30636237711056019 0 0.037109199666964569 -0.31211269100587319 0 0.037109199666964569 -0.31211269100587319 0 0.052418549662832423 -0.28635043303309621 0 0.026829205248301211 -0.29085799657122219 0 0.052418549662832423 -0.28635043303309621 0 0.026829205248301211 -0.29085799657122219 0 0.052418549662832423 -0.28635043303309621 0 0.037568825778403987 -0.27467996392116689 0 0.026829205248301211 -0.29085799657122219 0 0.037109199666964569 -0.31211269100587319 0 0.052418549662832423 -0.28635043303309621 0 0.068847082969382814 -0.28345654655762309 0 0.052418549662832423 -0.28635043303309621 0 0.068847082969382814 -0.28345654655762309 0 0.052418549662832423 -0.28635043303309621 0 0.057432398239821263 -0.29883858429954069 0 0.037109199666964569 -0.31211269100587319 0 0.052418549662832423 -0.28635043303309621 0 0.057432398239821263 -0.29883858429954069 0 0.037109199666964569 -0.31211269100587319 0 0.057432398239821263 -0.29883858429954069 0 0.053000093243141561 -0.30741205967691088 0 0.057432398239821263 -0.29883858429954069 0 0.062498390076919319 -0.30663031234697519 0 0.053000093243141561 -0.30741205967691088 0 0.037109199666964569 -0.31211269100587319 0 0.054960384988861202 -0.31206665105525422 0 0.053000093243141561 -0.30741205967691088 0 0.062498390076919319 -0.30663031234697519 0 0.054960384988861202 -0.31206665105525422 0 0.053000093243141561 -0.30741205967691088 0 0.066061737274632923 -0.26339195870720378 0 0.058311660005699109 -0.25646601406018149 0 0.050091807313598143 -0.26744050925134871 0 0.058311660005699109 -0.25646601406018149 0 0.0400253693525537 -0.25386654648638501 0 0.063669217128702563 -0.2460117355233373 0 0.058311660005699109 -0.25646601406018149 0 0.050091807313598143 -0.26744050925134871 0 0.0400253693525537 -0.25386654648638501 0 0.066061737274632923 -0.26339195870720378 0 0.058311660005699109 -0.25646601406018149 0 0.068847082969382814 -0.28345654655762309 0 0.066061737274632923 -0.26339195870720378 0 0.052418549662832423 -0.28635043303309621 0 0.066061737274632923 -0.26339195870720378 0 0.052418549662832423 -0.28635043303309621 0 0.050091807313598143 -0.26744050925134871 0 0.066061737274632923 -0.26339195870720378 0 0.052418549662832423 -0.28635043303309621 0 0.037568825778403987 -0.27467996392116689 0 0.0400253693525537 -0.25386654648638501 0 0.01847919731473641 -0.27488433426378378 0 0.052418549662832423 -0.28635043303309621 0 0.050091807313598143 -0.26744050925134871 0 0.037568825778403987 -0.27467996392116689 0 0.050091807313598143 -0.26744050925134871 0 0.037568825778403987 -0.27467996392116689 0 0.0400253693525537 -0.25386654648638501 0 0.0400253693525537 -0.25386654648638501 0 0.020325588776026322 -0.25410016353152731 0 0.01847919731473641 -0.27488433426378378 0 0.0400253693525537 -0.25386654648638501 0 0.01847919731473641 -0.27488433426378378 0 0.026829205248301211 -0.29085799657122219 0 0.037568825778403987 -0.27467996392116689 0 0.01847919731473641 -0.27488433426378378 0 -0.003478837483831564 -0.26859049320575212 0 0.01847919731473641 -0.27488433426378378 0 0.0048673281551053641 -0.28092294130690132 0 -0.003478837483831564 -0.26859049320575212 0 0.01847919731473641 -0.27488433426378378 0 0.0054657133803148487 -0.25566004064991182 0 0.020325588776026322 -0.25410016353152731 0 0.01847919731473641 -0.27488433426378378 0 0.0054657133803148487 -0.25566004064991182 0 -0.0079811897796556591 -0.2463578395846566 0 0.0054657133803148487 -0.25566004064991182 0 0.012014979777079861 -0.236468112716927 0 0.020325588776026322 -0.25410016353152731 0 0.0054657133803148487 -0.25566004064991182 0 0.012014979777079861 -0.236468112716927 0 -0.0082537637136078281 -0.21837842329412679 0 0.012014979777079861 -0.236468112716927 0 0.01994133593745279 -0.2143592578593328 0 0.028461734482581331 -0.22845088229544519 0 0.01994133593745279 -0.2143592578593328 0 0.04157270113488188 -0.21720150748053579 0 0.012014979777079861 -0.236468112716927 0 0.028461734482581331 -0.22845088229544519 0 0.01994133593745279 -0.2143592578593328 0 0.012014979777079861 -0.236468112716927 0 0.01994133593745279 -0.2143592578593328 0 0.0400253693525537 -0.25386654648638501 0 0.020325588776026322 -0.25410016353152731 0 0.028657620787764088 -0.24173082623419689 0 0.020325588776026322 -0.25410016353152731 0 0.012014979777079861 -0.236468112716927 0 0.028657620787764088 -0.24173082623419689 0 0.012014979777079861 -0.236468112716927 0 0.028461734482581331 -0.22845088229544519 0 0.028657620787764088 -0.24173082623419689 0 -0.0013719982544945599 -0.19209724884794929 0 0.02786769209782566 -0.1922504030017386 0 -0.0013719982544945599 -0.19209724884794929 0 0.01994133593745279 -0.2143592578593328 0 0.02786769209782566 -0.1922504030017386 0 -0.0082537637136078281 -0.21837842329412679 0 -0.0013719982544945599 -0.19209724884794929 0 0.01994133593745279 -0.2143592578593328 0 0.01994133593745279 -0.2143592578593328 0 0.02786769209782566 -0.1922504030017386 0 0.01994133593745279 -0.2143592578593328 0 0.02786769209782566 -0.1922504030017386 0 0.039644270605674103 -0.20279016966262781 0 -0.0013719982544945599 -0.19209724884794929 0 0.02786769209782566 -0.1922504030017386 0 0.020564924197972331 -0.18352081238857429 0 0.02786769209782566 -0.1922504030017386 0 0.039644270605674103 -0.20279016966262781 0 0.054151262236255278 -0.1923880733359524 0 0.02786769209782566 -0.1922504030017386 0 0.054151262236255278 -0.1923880733359524 0 0.01994133593745279 -0.2143592578593328 0 0.039644270605674103 -0.20279016966262781 0 0.04157270113488188 -0.21720150748053579 0 0.039644270605674103 -0.20279016966262781 0 0.04157270113488188 -0.21720150748053579 0 0.052033945506740897 -0.2041843693958148 0 0.04157270113488188 -0.21720150748053579 0 0.057510288226227731 -0.21484482441817371 0 0.052033945506740897 -0.2041843693958148 0 0.057510288226227731 -0.21484482441817371 0 0.052033945506740897 -0.2041843693958148 0 0.066032384179472214 -0.20440076887950689 0 0.039644270605674103 -0.20279016966262781 0 0.052033945506740897 -0.2041843693958148 0 0.054151262236255278 -0.1923880733359524 0 0.055978349708872187 -0.19239764341116161 0 0.066032384179472214 -0.20440076887950689 0 0.062615830469877926 -0.1951301684052871 0 0.054151262236255278 -0.1923880733359524 0 0.066032384179472214 -0.20440076887950689 0 0.052033945506740897 -0.2041843693958148 0 0.054151262236255278 -0.1923880733359524 0 0.066032384179472214 -0.20440076887950689 0 0.055978349708872187 -0.19239764341116161 0 0.054151262236255278 -0.1923880733359524 0 0.066032384179472214 -0.20440076887950689 0 0.055978349708872187 -0.19239764341116161 0 0.054151262236255278 -0.1923880733359524 0 0.055978349708872187 -0.19239764341116161 0 0.062084917708051433 -0.1889471174042992 0 0.062615830469877926 -0.1951301684052871 0 0.055978349708872187 -0.19239764341116161 0 0.062084917708051433 -0.1889471174042992 0 0.057182708429382667 -0.1873872988568451 0 0.055978349708872187 -0.19239764341116161 0 0.054151262236255278 -0.1923880733359524 0 0.057182708429382667 -0.1873872988568451 0 0.0400253693525537 -0.25386654648638501 0 0.028657620787764088 -0.24173082623419689 0 0.041702928529271842 -0.23403346547618659 0 0.028461734482581331 -0.22845088229544519 0 0.028657620787764088 -0.24173082623419689 0 0.041702928529271842 -0.23403346547618659 0 0.04157270113488188 -0.21720150748053579 0 0.041702928529271842 -0.23403346547618659 0 0.05058936482018813 -0.2247321390209705 0 0.028461734482581331 -0.22845088229544519 0 0.04157270113488188 -0.21720150748053579 0 0.041702928529271842 -0.23403346547618659 0 0.04157270113488188 -0.21720150748053579 0 0.057510288226227731 -0.21484482441817371 0 0.05058936482018813 -0.2247321390209705 0 0.041702928529271842 -0.23403346547618659 0 0.05058936482018813 -0.2247321390209705 0 0.061571541390371083 -0.23284875870898611 0 0.057510288226227731 -0.21484482441817371 0 0.05058936482018813 -0.2247321390209705 0 0.061571541390371083 -0.23284875870898611 0 0.0400253693525537 -0.25386654648638501 0 0.061571541390371083 -0.23284875870898611 0 0.0400253693525537 -0.25386654648638501 0 0.061571541390371083 -0.23284875870898611 0 0.063669217128702563 -0.2460117355233373 0 0.0400253693525537 -0.25386654648638501 0 0.041702928529271842 -0.23403346547618659 0 0.061571541390371083 -0.23284875870898611 0 0.061571541390371083 -0.23284875870898611 0 0.063669217128702563 -0.2460117355233373 0 0.074903752639205512 -0.2322267719810911 0 0.063669217128702563 -0.2460117355233373 0 0.07672461222643194 -0.2454486929699955 0 0.074903752639205512 -0.2322267719810911 0 0.07672461222643194 -0.2454486929699955 0 0.087387487178232637 -0.22750542723278819 0 0.089701413197687818 -0.2477304149744301 0 0.087387487178232637 -0.22750542723278819 0 0.10153063576481269 -0.24302493233796721 0 0.07672461222643194 -0.2454486929699955 0 0.089701413197687818 -0.2477304149744301 0 0.087387487178232637 -0.22750542723278819 0 0.07672461222643194 -0.2454486929699955 0 0.087387487178232637 -0.22750542723278819 0 0.074903752639205512 -0.2322267719810911 0 0.087387487178232637 -0.22750542723278819 0 0.074903752639205512 -0.2322267719810911 0 0.083117713428188245 -0.2118309709315874 0 0.087387487178232637 -0.22750542723278819 0 0.083117713428188245 -0.2118309709315874 0 0.094723803604256279 -0.21833523742692351 0 0.061571541390371083 -0.23284875870898611 0 0.083117713428188245 -0.2118309709315874 0 0.057510288226227731 -0.21484482441817371 0 0.061571541390371083 -0.23284875870898611 0 0.070821851562947416 -0.2169677226878885 0 0.061571541390371083 -0.23284875870898611 0 0.074903752639205512 -0.2322267719810911 0 0.083117713428188245 -0.2118309709315874 0 0.061571541390371083 -0.23284875870898611 0 0.070821851562947416 -0.2169677226878885 0 0.083117713428188245 -0.2118309709315874 0 0.066032384179472214 -0.20440076887950689 0 0.070821851562947416 -0.2169677226878885 0 0.073095343767013321 -0.1985206213933261 0 0.057510288226227731 -0.21484482441817371 0 0.066032384179472214 -0.20440076887950689 0 0.070821851562947416 -0.2169677226878885 0 0.070821851562947416 -0.2169677226878885 0 0.073095343767013321 -0.1985206213933261 0 0.086392998324389125 -0.19313983010150029 0 0.062084917708051433 -0.1889471174042992 0 0.066367670283115895 -0.1947751439261807 0 0.070511537551919551 -0.188738990193759 0 0.066367670283115895 -0.1947751439261807 0 0.073095343767013321 -0.1985206213933261 0 0.070511537551919551 -0.188738990193759 0 0.062084917708051433 -0.1889471174042992 0 0.062615830469877926 -0.1951301684052871 0 0.066367670283115895 -0.1947751439261807 0 0.066032384179472214 -0.20440076887950689 0 0.066367670283115895 -0.1947751439261807 0 0.073095343767013321 -0.1985206213933261 0 0.066032384179472214 -0.20440076887950689 0 0.062615830469877926 -0.1951301684052871 0 0.066367670283115895 -0.1947751439261807 0 0.077191210803852606 -0.19156899857855639 0 0.070511537551919551 -0.188738990193759 0 0.078764963572088453 -0.1858765526256401 0 0.073095343767013321 -0.1985206213933261 0 0.077191210803852606 -0.19156899857855639 0 0.070511537551919551 -0.188738990193759 0 0.073095343767013321 -0.1985206213933261 0 0.077191210803852606 -0.19156899857855639 0 0.086392998324389125 -0.19313983010150029 0 0.077191210803852606 -0.19156899857855639 0 0.086392998324389125 -0.19313983010150029 0 0.078764963572088453 -0.1858765526256401 0 0.086392998324389125 -0.19313983010150029 0 0.092497416603590371 -0.2065280681397168 0 0.095328312551802408 -0.19613164385975049 0 0.086392998324389125 -0.19313983010150029 0 0.083117713428188245 -0.2118309709315874 0 0.092497416603590371 -0.2065280681397168 0 0.070821851562947416 -0.2169677226878885 0 0.086392998324389125 -0.19313983010150029 0 0.070821851562947416 -0.2169677226878885 0 0.086392998324389125 -0.19313983010150029 0 0.083117713428188245 -0.2118309709315874 0 0.083117713428188245 -0.2118309709315874 0 0.092497416603590371 -0.2065280681397168 0 0.094723803604256279 -0.21833523742692351 0 0.1088020137609331 -0.2165330066706927 0 0.095328312551802408 -0.19613164385975049 0 0.110247531946574 -0.2010001300306305 0 0.092497416603590371 -0.2065280681397168 0 0.1088020137609331 -0.2165330066706927 0 0.095328312551802408 -0.19613164385975049 0 0.092497416603590371 -0.2065280681397168 0 0.094723803604256279 -0.21833523742692351 0 0.1088020137609331 -0.2165330066706927 0 0.1088020137609331 -0.2165330066706927 0 0.095328312551802408 -0.19613164385975049 0 0.086392998324389125 -0.19313983010150029 0 0.095328312551802408 -0.19613164385975049 0 0.10281776605418549 -0.18531243154022889 0 0.095328312551802408 -0.19613164385975049 0 0.1054477623785343 -0.19249870121404669 0 0.10281776605418549 -0.18531243154022889 0 0.095328312551802408 -0.19613164385975049 0 0.1054477623785343 -0.19249870121404669 0 0.110247531946574 -0.2010001300306305 0 0.1054477623785343 -0.19249870121404669 0 0.1133974389615755 -0.18755059942557689 0 0.10281776605418549 -0.18531243154022889 0 0.110247531946574 -0.2010001300306305 0 0.12250637476606289 -0.19605755286646609 0 0.1248154805027742 -0.21201816247765881 0 0.1133974389615755 -0.18755059942557689 0 0.12250637476606289 -0.19605755286646609 0 0.12910246768697931 -0.18192089513000809 0 0.1054477623785343 -0.19249870121404669 0 0.1133974389615755 -0.18755059942557689 0 0.110247531946574 -0.2010001300306305 0 0.1133974389615755 -0.18755059942557689 0 0.110247531946574 -0.2010001300306305 0 0.12250637476606289 -0.19605755286646609 0 0.1088020137609331 -0.2165330066706927 0 0.110247531946574 -0.2010001300306305 0 0.1248154805027742 -0.21201816247765881 0 0.1088020137609331 -0.2165330066706927 0 0.1222757149700639 -0.23693436948163499 0 0.1088020137609331 -0.2165330066706927 0 0.1248154805027742 -0.21201816247765881 0 0.1222757149700639 -0.23693436948163499 0 0.1088020137609331 -0.2165330066706927 0 0.1222757149700639 -0.23693436948163499 0 0.1018143870503371 -0.2292787141598325 0 0.1222757149700639 -0.23693436948163499 0 0.1128202333983354 -0.24939855320219409 0 0.10153063576481269 -0.24302493233796721 0 0.1219834281868535 -0.25467250226310589 0 0.1222757149700639 -0.23693436948163499 0 0.1128202333983354 -0.24939855320219409 0 0.1222757149700639 -0.23693436948163499 0 0.10153063576481269 -0.24302493233796721 0 0.1018143870503371 -0.2292787141598325 0 0.101269409865395 -0.25402776982502179 0 0.1128202333983354 -0.24939855320219409 0 0.10153063576481269 -0.24302493233796721 0 0.101269409865395 -0.25402776982502179 0 0.089701413197687818 -0.2477304149744301 0 0.10153063576481269 -0.24302493233796721 0 0.087387487178232637 -0.22750542723278819 0 0.10153063576481269 -0.24302493233796721 0 0.1018143870503371 -0.2292787141598325 0 0.087387487178232637 -0.22750542723278819 0 0.094723803604256279 -0.21833523742692351 0 0.1018143870503371 -0.2292787141598325 0 0.094723803604256279 -0.21833523742692351 0 0.1088020137609331 -0.2165330066706927 0 0.1018143870503371 -0.2292787141598325 0 0.1056042507378748 -0.14193880592790331 0 0.1053266194325051 -0.15141070016307909 0 0.097595584012720324 -0.14604693044307079 0 0.1056042507378748 -0.14193880592790331 0 0.1053266194325051 -0.15141070016307909 0 0.1148717357168767 -0.1495599765441166 0 0.097595584012720324 -0.14604693044307079 0 0.099358796766534432 -0.15628607232850311 0 0.086283792151465366 -0.14596333101814701 0 0.1053266194325051 -0.15141070016307909 0 0.097595584012720324 -0.14604693044307079 0 0.099358796766534432 -0.15628607232850311 0 0.1056042507378748 -0.14193880592790331 0 0.097595584012720324 -0.14604693044307079 0 0.094872447549873395 -0.13269973365002219 0 0.094872447549873395 -0.13269973365002219 0 0.1079789088841096 -0.12976496912923341 0 0.1031485186084799 -0.1144572324824258 0 0.1056042507378748 -0.14193880592790331 0 0.094872447549873395 -0.13269973365002219 0 0.1079789088841096 -0.12976496912923341 0 0.1056042507378748 -0.14193880592790331 0 0.1079789088841096 -0.12976496912923341 0 0.12583917944525999 -0.13277694346948851 0 0.1079789088841096 -0.12976496912923341 0 0.1130376798135844 -0.1202527347808247 0 0.12583917944525999 -0.13277694346948851 0 0.1148717357168767 -0.1495599765441166 0 0.13241322765818911 -0.14762789913225119 0 0.12583917944525999 -0.13277694346948851 0 0.1148717357168767 -0.1495599765441166 0 0.12583917944525999 -0.13277694346948851 0 0.1056042507378748 -0.14193880592790331 0 0.1148717357168767 -0.1495599765441166 0 0.12583917944525999 -0.13277694346948851 0 0.1056042507378748 -0.14193880592790331 0 0.1148717357168767 -0.1495599765441166 0 0.1148717357168767 -0.1495599765441166 0 0.13002454554552581 -0.1620209785614749 0 0.1154612726668198 -0.17722336843448039 0 0.1019641450858321 -0.16931193751511309 0 0.13002454554552581 -0.1620209785614749 0 0.1148717357168767 -0.1495599765441166 0 0.1019641450858321 -0.16931193751511309 0 0.13002454554552581 -0.1620209785614749 0 0.1019641450858321 -0.16931193751511309 0 0.13002454554552581 -0.1620209785614749 0 0.1133974389615755 -0.18755059942557689 0 0.1154612726668198 -0.17722336843448039 0 0.12910246768697931 -0.18192089513000809 0 0.1154612726668198 -0.17722336843448039 0 0.12910246768697931 -0.18192089513000809 0 0.13002454554552581 -0.1620209785614749 0 0.1133974389615755 -0.18755059942557689 0 0.1154612726668198 -0.17722336843448039 0 0.10281776605418549 -0.18531243154022889 0 0.086392998324389125 -0.19313983010150029 0 0.1019641450858321 -0.16931193751511309 0 0.1154612726668198 -0.17722336843448039 0 0.10281776605418549 -0.18531243154022889 0 0.1019641450858321 -0.16931193751511309 0 0.086392998324389125 -0.19313983010150029 0 0.1019641450858321 -0.16931193751511309 0 0.099903987033185426 -0.16984723022490389 0 0.086392998324389125 -0.19313983010150029 0 0.10281776605418549 -0.18531243154022889 0 0.1019641450858321 -0.16931193751511309 0 0.1053266194325051 -0.15141070016307909 0 0.1148717357168767 -0.1495599765441166 0 0.1019641450858321 -0.16931193751511309 0 0.1053266194325051 -0.15141070016307909 0 0.1019641450858321 -0.16931193751511309 0 0.099358796766534432 -0.15628607232850311 0 0.1148717357168767 -0.1495599765441166 0 0.1019641450858321 -0.16931193751511309 0 0.099903987033185426 -0.16984723022490389 0 0.099358796766534432 -0.15628607232850311 0 0.09099044760544335 -0.16652085599084229 0 0.1019641450858321 -0.16931193751511309 0 0.099903987033185426 -0.16984723022490389 0 0.099358796766534432 -0.15628607232850311 0 0.1019641450858321 -0.16931193751511309 0 0.099903987033185426 -0.16984723022490389 0 0.099358796766534432 -0.15628607232850311 0 0.09099044760544335 -0.16652085599084229 0 0.079258801436487739 -0.16323354337133239 0 0.099358796766534432 -0.15628607232850311 0 0.079258801436487739 -0.16323354337133239 0 0.099903987033185426 -0.16984723022490389 0 0.09099044760544335 -0.16652085599084229 0 0.085440205185565832 -0.17671657803862981 0 0.09099044760544335 -0.16652085599084229 0 0.079258801436487739 -0.16323354337133239 0 0.085440205185565832 -0.17671657803862981 0 0.086392998324389125 -0.19313983010150029 0 0.085440205185565832 -0.17671657803862981 0 0.078764963572088453 -0.1858765526256401 0 0.086392998324389125 -0.19313983010150029 0 0.099903987033185426 -0.16984723022490389 0 0.085440205185565832 -0.17671657803862981 0 0.079258801436487739 -0.16323354337133239 0 0.085440205185565832 -0.17671657803862981 0 0.073034456098331979 -0.17768609222318971 0 0.085440205185565832 -0.17671657803862981 0 0.078764963572088453 -0.1858765526256401 0 0.073034456098331979 -0.17768609222318971 0 0.070511537551919551 -0.188738990193759 0 0.078764963572088453 -0.1858765526256401 0 0.073034456098331979 -0.17768609222318971 0 0.073034456098331979 -0.17768609222318971 0 0.062065800474611132 -0.18193313586853649 0 0.059158806106441031 -0.1701810144141617 0 0.062084917708051433 -0.1889471174042992 0 0.070511537551919551 -0.188738990193759 0 0.062065800474611132 -0.18193313586853649 0 0.070511537551919551 -0.188738990193759 0 0.073034456098331979 -0.17768609222318971 0 0.062065800474611132 -0.18193313586853649 0 0.079258801436487739 -0.16323354337133239 0 0.067355730091614108 -0.1484681364899447 0 0.059158806106441031 -0.1701810144141617 0 0.079258801436487739 -0.16323354337133239 0 0.073034456098331979 -0.17768609222318971 0 0.059158806106441031 -0.1701810144141617 0 0.079258801436487739 -0.16323354337133239 0 0.059158806106441031 -0.1701810144141617 0 0.067355730091614108 -0.1484681364899447 0 0.086283792151465366 -0.14596333101814701 0 0.075973520318602897 -0.12999938260658991 0 0.079258801436487739 -0.16323354337133239 0 0.067355730091614108 -0.1484681364899447 0 0.086283792151465366 -0.14596333101814701 0 0.099358796766534432 -0.15628607232850311 0 0.079258801436487739 -0.16323354337133239 0 0.086283792151465366 -0.14596333101814701 0 0.097595584012720324 -0.14604693044307079 0 0.094872447549873395 -0.13269973365002219 0 0.086283792151465366 -0.14596333101814701 0 0.094872447549873395 -0.13269973365002219 0 0.086283792151465366 -0.14596333101814701 0 0.075973520318602897 -0.12999938260658991 0 0.094872447549873395 -0.13269973365002219 0 0.075973520318602897 -0.12999938260658991 0 0.088717024403525385 -0.1194103652704978 0 0.075973520318602897 -0.12999938260658991 0 0.059812015955354639 -0.13605651185793241 0 0.052833069214119913 -0.1205334489946638 0 0.067355730091614108 -0.1484681364899447 0 0.075973520318602897 -0.12999938260658991 0 0.059812015955354639 -0.13605651185793241 0 0.059812015955354639 -0.13605651185793241 0 0.044583611888418438 -0.14562496288979521 0 0.052833069214119913 -0.1205334489946638 0 0.067355730091614108 -0.1484681364899447 0 0.059812015955354639 -0.13605651185793241 0 0.044583611888418438 -0.14562496288979521 0 0.067355730091614108 -0.1484681364899447 0 0.044583611888418438 -0.14562496288979521 0 0.059158806106441031 -0.1701810144141617 0 0.044583611888418438 -0.14562496288979521 0 0.02622054362836794 -0.13171814909732921 0 0.052833069214119913 -0.1205334489946638 0 0.059158806106441031 -0.1701810144141617 0 0.03905881077639424 -0.17712848545699089 0 0.051633212019123291 -0.1812705242642759 0 0.059158806106441031 -0.1701810144141617 0 0.03905881077639424 -0.17712848545699089 0 0.054151262236255278 -0.1923880733359524 0 0.051633212019123291 -0.1812705242642759 0 0.057182708429382667 -0.1873872988568451 0 0.054151262236255278 -0.1923880733359524 0 0.051633212019123291 -0.1812705242642759 0 0.03905881077639424 -0.17712848545699089 0 0.051633212019123291 -0.1812705242642759 0 0.057182708429382667 -0.1873872988568451 0 0.062065800474611132 -0.18193313586853649 0 0.062084917708051433 -0.1889471174042992 0 0.057182708429382667 -0.1873872988568451 0 0.062065800474611132 -0.18193313586853649 0 0.051633212019123291 -0.1812705242642759 0 0.062065800474611132 -0.18193313586853649 0 0.059158806106441031 -0.1701810144141617 0 0.044583611888418438 -0.14562496288979521 0 0.034824134235039661 -0.17284691337483651 0 0.044583611888418438 -0.14562496288979521 0 0.034824134235039661 -0.17284691337483651 0 0.018437082955368819 -0.156278389053641 0 0.044583611888418438 -0.14562496288979521 0 0.059158806106441031 -0.1701810144141617 0 0.034824134235039661 -0.17284691337483651 0 0.02786769209782566 -0.1922504030017386 0 0.054151262236255278 -0.1923880733359524 0 0.03905881077639424 -0.17712848545699089 0 0.059158806106441031 -0.1701810144141617 0 0.034824134235039661 -0.17284691337483651 0 0.03905881077639424 -0.17712848545699089 0 0.034824134235039661 -0.17284691337483651 0 0.03905881077639424 -0.17712848545699089 0 0.034824134235039661 -0.17284691337483651 0 0.0324730215774197 -0.1794048332373141 0 0.034824134235039661 -0.17284691337483651 0 0.0324730215774197 -0.1794048332373141 0 0.03905881077639424 -0.17712848545699089 0 0.0324730215774197 -0.1794048332373141 0 0.03905881077639424 -0.17712848545699089 0 0.02786769209782566 -0.1922504030017386 0 0.0324730215774197 -0.1794048332373141 0 0.03905881077639424 -0.17712848545699089 0 0.054151262236255278 -0.1923880733359524 0 0.03905881077639424 -0.17712848545699089 0 0.02786769209782566 -0.1922504030017386 0 0.0324730215774197 -0.1794048332373141 0 0.020564924197972331 -0.18352081238857429 0 0.0324730215774197 -0.1794048332373141 0 0.020564924197972331 -0.18352081238857429 0 0.02786769209782566 -0.1922504030017386 0 0.0324730215774197 -0.1794048332373141 0 0.0324730215774197 -0.1794048332373141 0 0.020564924197972331 -0.18352081238857429 0 0.022049206567574229 -0.1730818749646118 0 0.034824134235039661 -0.17284691337483651 0 0.0324730215774197 -0.1794048332373141 0 0.022049206567574229 -0.1730818749646118 0 0.034824134235039661 -0.17284691337483651 0 0.022049206567574229 -0.1730818749646118 0 0.018437082955368819 -0.156278389053641 0 0.034824134235039661 -0.17284691337483651 0 0.018437082955368819 -0.156278389053641 0 0.022049206567574229 -0.1730818749646118 0 0.018437082955368819 -0.156278389053641 0 0.0039468698720700277 -0.1733584267686927 0 -0.001219855729016883 -0.1567719403074381 0 0.018437082955368819 -0.156278389053641 0 0.0039468698720700277 -0.1733584267686927 0 -0.0013719982544945599 -0.19209724884794929 0 0.020564924197972331 -0.18352081238857429 0 0.0039468698720700277 -0.1733584267686927 0 0.020564924197972331 -0.18352081238857429 0 0.022049206567574229 -0.1730818749646118 0 0.0039468698720700277 -0.1733584267686927 0 0.044583611888418438 -0.14562496288979521 0 0.018437082955368819 -0.156278389053641 0 0.02622054362836794 -0.13171814909732921 0 -0.001219855729016883 -0.1567719403074381 0 0.018437082955368819 -0.156278389053641 0 0.0020500316756987269 -0.13970986473244459 0 0.018437082955368819 -0.156278389053641 0 0.0020500316756987269 -0.13970986473244459 0 0.018437082955368819 -0.156278389053641 0 0.02622054362836794 -0.13171814909732921 0 0.0020500316756987269 -0.13970986473244459 0 0.02622054362836794 -0.13171814909732921 0 0.0020500316756987269 -0.13970986473244459 0 0.0062506578449882458 -0.1205294344021634 0 0.0062506578449882458 -0.1205294344021634 0 0.0032705604413346941 -0.1033160004380215 0 0.033168808191613573 -0.107632794511267 0 0.0062506578449882458 -0.1205294344021634 0 0.033168808191613573 -0.107632794511267 0 0.02622054362836794 -0.13171814909732921 0 0.0062506578449882458 -0.1205294344021634 0 0.033168808191613573 -0.107632794511267 0 0.0032705604413346941 -0.1033160004380215 0 0.01004103275008481 -0.085691169111896809 0 0.033168808191613573 -0.107632794511267 0 -0.0097210774590436935 -0.089159667718235552 0 0.0032705604413346941 -0.1033160004380215 0 0.01004103275008481 -0.085691169111896809 0 -0.0051596810736133248 -0.064876235480211542 0 0.01004103275008481 -0.085691169111896809 0 0.014663973888590099 -0.063839165884272436 0 0.014663973888590099 -0.063839165884272436 0 0.031093259682462189 -0.08378023169825434 0 0.03493526553248625 -0.057912996784220391 0 0.01004103275008481 -0.085691169111896809 0 0.014663973888590099 -0.063839165884272436 0 0.031093259682462189 -0.08378023169825434 0 0.01004103275008481 -0.085691169111896809 0 0.031093259682462189 -0.08378023169825434 0 0.033168808191613573 -0.107632794511267 0 0.031093259682462189 -0.08378023169825434 0 0.05286191037482646 -0.072290353656280809 0 0.03493526553248625 -0.057912996784220391 0 0.05286191037482646 -0.072290353656280809 0 0.054429919625406477 -0.054630340561686877 0 0.067391590617945182 -0.064853662247185584 0 0.05286191037482646 -0.072290353656280809 0 0.060086958538238887 -0.094736154620370522 0 0.069234468252419759 -0.07782873602596721 0 0.031093259682462189 -0.08378023169825434 0 0.05286191037482646 -0.072290353656280809 0 0.060086958538238887 -0.094736154620370522 0 0.060086958538238887 -0.094736154620370522 0 0.052833069214119913 -0.1205334489946638 0 0.033168808191613573 -0.107632794511267 0 0.02622054362836794 -0.13171814909732921 0 0.052833069214119913 -0.1205334489946638 0 0.033168808191613573 -0.107632794511267 0 0.060086958538238887 -0.094736154620370522 0 0.033168808191613573 -0.107632794511267 0 0.031093259682462189 -0.08378023169825434 0 0.060086958538238887 -0.094736154620370522 0 0.033168808191613573 -0.107632794511267 0 0.029428946888795219 -0.0051571684712338299 0 0.012339883056802319 -0.0037844581566305819 0 0.020600472601430199 -0.022834795570401429 0 -0.0045954236429895266 -0.003568402546853186 0 0.012339883056802319 -0.0037844581566305819 0 0.0024073025978193158 -0.01802092141476426 0 0.012339883056802319 -0.0037844581566305819 0 0.0024073025978193158 -0.01802092141476426 0 0.020600472601430199 -0.022834795570401429 0 0.0024073025978193158 -0.01802092141476426 0 0.020600472601430199 -0.022834795570401429 0 0.0049252473713058444 -0.034193342556342141 0 0.020600472601430199 -0.022834795570401429 0 0.034389663783556651 -0.036958324389873877 0 0.038442121638512072 -0.019505757861563239 0 0.029428946888795219 -0.0051571684712338299 0 0.020600472601430199 -0.022834795570401429 0 0.038442121638512072 -0.019505757861563239 0 0.020600472601430199 -0.022834795570401429 0 0.019113601454282161 -0.044062780039770377 0 0.034389663783556651 -0.036958324389873877 0 0.019113601454282161 -0.044062780039770377 0 0.03493526553248625 -0.057912996784220391 0 0.034389663783556651 -0.036958324389873877 0 0.019113601454282161 -0.044062780039770377 0 0.0049252473713058444 -0.034193342556342141 0 0.0054568748592972918 -0.050111055680964703 0 -0.0082915858421831433 -0.046292566887734678 0 0.0049252473713058444 -0.034193342556342141 0 0.0054568748592972918 -0.050111055680964703 0 0.020600472601430199 -0.022834795570401429 0 0.019113601454282161 -0.044062780039770377 0 0.0049252473713058444 -0.034193342556342141 0 0.014663973888590099 -0.063839165884272436 0 0.019113601454282161 -0.044062780039770377 0 0.0054568748592972918 -0.050111055680964703 0 -0.0051596810736133248 -0.064876235480211542 0 0.014663973888590099 -0.063839165884272436 0 0.0054568748592972918 -0.050111055680964703 0 0.014663973888590099 -0.063839165884272436 0 0.019113601454282161 -0.044062780039770377 0 0.03493526553248625 -0.057912996784220391 0 0.03493526553248625 -0.057912996784220391 0 0.044562086514625177 -0.04631318956585076 0 0.034389663783556651 -0.036958324389873877 0 0.03493526553248625 -0.057912996784220391 0 0.054429919625406477 -0.054630340561686877 0 0.044562086514625177 -0.04631318956585076 0 0.05286191037482646 -0.072290353656280809 0 0.03493526553248625 -0.057912996784220391 0 0.054429919625406477 -0.054630340561686877 0 0.054429919625406477 -0.054630340561686877 0 0.064168949936201009 -0.044464456880733777 0 0.068835772919110069 -0.05380229594806888 0 0.054429919625406477 -0.054630340561686877 0 0.054381386469403999 -0.03865023013140774 0 0.044562086514625177 -0.04631318956585076 0 0.054429919625406477 -0.054630340561686877 0 0.054381386469403999 -0.03865023013140774 0 0.064168949936201009 -0.044464456880733777 0 0.054381386469403999 -0.03865023013140774 0 0.044562086514625177 -0.04631318956585076 0 0.046728387106671251 -0.030238390429192501 0 0.054381386469403999 -0.03865023013140774 0 0.064329955147676102 -0.032080931272829703 0 0.064168949936201009 -0.044464456880733777 0 0.054381386469403999 -0.03865023013140774 0 0.057046299387999613 -0.024695982433335251 0 0.064329955147676102 -0.032080931272829703 0 0.044562086514625177 -0.04631318956585076 0 0.034389663783556651 -0.036958324389873877 0 0.046728387106671251 -0.030238390429192501 0 0.034389663783556651 -0.036958324389873877 0 0.038442121638512072 -0.019505757861563239 0 0.046728387106671251 -0.030238390429192501 0 0.038442121638512072 -0.019505757861563239 0 0.046728387106671251 -0.030238390429192501 0 0.050252392296887168 -0.01732965090080275 0 0.046728387106671251 -0.030238390429192501 0 0.057046299387999613 -0.024695982433335251 0 0.050252392296887168 -0.01732965090080275 0 0.054381386469403999 -0.03865023013140774 0 0.046728387106671251 -0.030238390429192501 0 0.057046299387999613 -0.024695982433335251 0 0.057046299387999613 -0.024695982433335251 0 0.060087950069557042 -0.01139349748222197 0 0.068025433801722157 -0.021522809345752091 0 0.057046299387999613 -0.024695982433335251 0 0.050252392296887168 -0.01732965090080275 0 0.060087950069557042 -0.01139349748222197 0 0.050252392296887168 -0.01732965090080275 0 0.060087950069557042 -0.01139349748222197 0 0.046364458183610048 -0.00486021171305797 0 0.056867201687525071 0.001603068233866904 0 0.069300466910597755 0.00065198380139983567 0 0.060087950069557042 -0.01139349748222197 0 0.056867201687525071 0.001603068233866904 0 0.060087950069557042 -0.01139349748222197 0 0.046364458183610048 -0.00486021171305797 0 0.029428946888795219 -0.0051571684712338299 0 0.038442121638512072 -0.019505757861563239 0 0.046364458183610048 -0.00486021171305797 0 0.037841228797650422 0.0072588189931981888 0 0.029428946888795219 -0.0051571684712338299 0 0.046364458183610048 -0.00486021171305797 0 0.038442121638512072 -0.019505757861563239 0 0.050252392296887168 -0.01732965090080275 0 0.046364458183610048 -0.00486021171305797 0 0.085940305132592446 0.0054706021851735273 0 0.086295239716683333 -0.023632770119709441 0 0.085940305132592446 0.0054706021851735273 0 0.088460783327463904 -0.01131171975004484 0 0.096404115562213621 -0.0020531939796058591 0 0.085940305132592446 0.0054706021851735273 0 0.078591007713898681 -0.0094953333492957311 0 0.086295239716683333 -0.023632770119709441 0 0.085940305132592446 0.0054706021851735273 0 0.088460783327463904 -0.01131171975004484 0 0.086295239716683333 -0.023632770119709441 0 0.069300466910597755 0.00065198380139983567 0 0.078591007713898681 -0.0094953333492957311 0 0.070313427330014486 -0.012266892596844339 0 0.069300466910597755 0.00065198380139983567 0 0.085940305132592446 0.0054706021851735273 0 0.078591007713898681 -0.0094953333492957311 0 0.069300466910597755 0.00065198380139983567 0 0.060087950069557042 -0.01139349748222197 0 0.070313427330014486 -0.012266892596844339 0 0.060087950069557042 -0.01139349748222197 0 0.070313427330014486 -0.012266892596844339 0 0.068025433801722157 -0.021522809345752091 0 0.078591007713898681 -0.0094953333492957311 0 0.070313427330014486 -0.012266892596844339 0 0.075562278154296822 -0.01957480660835172 0 0.070313427330014486 -0.012266892596844339 0 0.075562278154296822 -0.01957480660835172 0 0.068025433801722157 -0.021522809345752091 0 0.068025433801722157 -0.021522809345752091 0 0.074310126677357036 -0.029823758702857001 0 0.064329955147676102 -0.032080931272829703 0 0.057046299387999613 -0.024695982433335251 0 0.068025433801722157 -0.021522809345752091 0 0.064329955147676102 -0.032080931272829703 0 0.075562278154296822 -0.01957480660835172 0 0.068025433801722157 -0.021522809345752091 0 0.074310126677357036 -0.029823758702857001 0 0.075562278154296822 -0.01957480660835172 0 0.074310126677357036 -0.029823758702857001 0 0.086295239716683333 -0.023632770119709441 0 0.088460783327463904 -0.01131171975004484 0 0.09022128665814165 -0.033745043536069372 0 0.088460783327463904 -0.01131171975004484 0 0.09022128665814165 -0.033745043536069372 0 0.097661868279739522 -0.02385799314669208 0 0.088460783327463904 -0.01131171975004484 0 0.086295239716683333 -0.023632770119709441 0 0.09022128665814165 -0.033745043536069372 0 0.078591007713898681 -0.0094953333492957311 0 0.075562278154296822 -0.01957480660835172 0 0.086295239716683333 -0.023632770119709441 0 0.09022128665814165 -0.033745043536069372 0 0.091981789988819368 -0.056178367322093872 0 0.09022128665814165 -0.033745043536069372 0 0.091981789988819368 -0.056178367322093872 0 0.097058753783026183 -0.044551526265573897 0 0.086295239716683333 -0.023632770119709441 0 0.086650174300774221 -0.052736142424592243 0 0.086295239716683333 -0.023632770119709441 0 0.09022128665814165 -0.033745043536069372 0 0.086650174300774221 -0.052736142424592243 0 0.074310126677357036 -0.029823758702857001 0 0.086295239716683333 -0.023632770119709441 0 0.077344267506910536 -0.044974333047959017 0 0.086295239716683333 -0.023632770119709441 0 0.077344267506910536 -0.044974333047959017 0 0.086650174300774221 -0.052736142424592243 0 0.074310126677357036 -0.029823758702857001 0 0.071190671483355991 -0.038331383302161293 0 0.077344267506910536 -0.044974333047959017 0 0.071190671483355991 -0.038331383302161293 0 0.064329955147676102 -0.032080931272829703 0 0.064168949936201009 -0.044464456880733777 0 0.074310126677357036 -0.029823758702857001 0 0.071190671483355991 -0.038331383302161293 0 0.064329955147676102 -0.032080931272829703 0 0.071190671483355991 -0.038331383302161293 0 0.064168949936201009 -0.044464456880733777 0 0.077344267506910536 -0.044974333047959017 0 0.077344267506910536 -0.044974333047959017 0 0.068835772919110069 -0.05380229594806888 0 0.076838448778447421 -0.057162525712023363 0 0.064168949936201009 -0.044464456880733777 0 0.077344267506910536 -0.044974333047959017 0 0.068835772919110069 -0.05380229594806888 0 0.054429919625406477 -0.054630340561686877 0 0.068835772919110069 -0.05380229594806888 0 0.067391590617945182 -0.064853662247185584 0 0.068835772919110069 -0.05380229594806888 0 0.076838448778447421 -0.057162525712023363 0 0.067391590617945182 -0.064853662247185584 0 0.09022128665814165 -0.033745043536069372 0 0.086650174300774221 -0.052736142424592243 0 0.091981789988819368 -0.056178367322093872 0 0.076838448778447421 -0.057162525712023363 0 0.086650174300774221 -0.052736142424592243 0 0.079296014237340395 -0.067451796298937203 0 0.077344267506910536 -0.044974333047959017 0 0.076838448778447421 -0.057162525712023363 0 0.086650174300774221 -0.052736142424592243 0 0.091981789988819368 -0.056178367322093872 0 0.10036977847486191 -0.058430006230672293 0 0.1023219549777037 -0.066652642171933743 0 0.091981789988819368 -0.056178367322093872 0 0.10036977847486191 -0.058430006230672293 0 0.09987765708512103 -0.052009142284743029 0 0.091981789988819368 -0.056178367322093872 0 0.09987765708512103 -0.052009142284743029 0 0.097058753783026183 -0.044551526265573897 0 0.09987765708512103 -0.052009142284743029 0 0.1047968591653905 -0.045399319251014821 0 0.097058753783026183 -0.044551526265573897 0 0.09987765708512103 -0.052009142284743029 0 0.10518110401350721 -0.055486492354360262 0 0.1047968591653905 -0.045399319251014821 0 0.10518110401350721 -0.055486492354360262 0 0.1145647066337519 -0.052543638072928431 0 0.1047968591653905 -0.045399319251014821 0 0.10036977847486191 -0.058430006230672293 0 0.1044200064199259 -0.061232045586013042 0 0.1023219549777037 -0.066652642171933743 0 0.10036977847486191 -0.058430006230672293 0 0.09987765708512103 -0.052009142284743029 0 0.10518110401350721 -0.055486492354360262 0 0.10036977847486191 -0.058430006230672293 0 0.10518110401350721 -0.055486492354360262 0 0.1044200064199259 -0.061232045586013042 0 0.10518110401350721 -0.055486492354360262 0 0.1044200064199259 -0.061232045586013042 0 0.109976463685361 -0.061479351093714177 0 0.10518110401350721 -0.055486492354360262 0 0.109976463685361 -0.061479351093714177 0 0.1145647066337519 -0.052543638072928431 0 0.116517275428579 -0.058926710049727632 0 0.109976463685361 -0.061479351093714177 0 0.1145647066337519 -0.052543638072928431 0 0.116517275428579 -0.058926710049727632 0 0.1245098052435869 -0.054223744647880497 0 0.1145647066337519 -0.052543638072928431 0 0.116517275428579 -0.058926710049727632 0 0.1245098052435869 -0.054223744647880497 0 0.1170181261516165 -0.067460106384387389 0 0.1245098052435869 -0.054223744647880497 0 0.1145647066337519 -0.052543638072928431 0 0.1236563036991227 -0.042936716458497497 0 0.1145647066337519 -0.052543638072928431 0 0.1141974057489603 -0.04159770107573374 0 0.1047968591653905 -0.045399319251014821 0 0.1145647066337519 -0.052543638072928431 0 0.1141974057489603 -0.04159770107573374 0 0.1236563036991227 -0.042936716458497497 0 0.1236563036991227 -0.042936716458497497 0 0.11707998280666811 -0.03129633915902319 0 0.13118117068741639 -0.03139082455140433 0 0.1141974057489603 -0.04159770107573374 0 0.1236563036991227 -0.042936716458497497 0 0.11707998280666811 -0.03129633915902319 0 0.11707998280666811 -0.03129633915902319 0 0.1087296393749007 -0.035831509852147433 0 0.1064160150378672 -0.026895806789133989 0 0.1141974057489603 -0.04159770107573374 0 0.11707998280666811 -0.03129633915902319 0 0.1087296393749007 -0.035831509852147433 0 0.1087296393749007 -0.035831509852147433 0 0.1003349035087991 -0.035087768648148228 0 0.1064160150378672 -0.026895806789133989 0 0.1087296393749007 -0.035831509852147433 0 0.1047968591653905 -0.045399319251014821 0 0.1003349035087991 -0.035087768648148228 0 0.1141974057489603 -0.04159770107573374 0 0.1087296393749007 -0.035831509852147433 0 0.1047968591653905 -0.045399319251014821 0 0.1047968591653905 -0.045399319251014821 0 0.097058753783026183 -0.044551526265573897 0 0.1003349035087991 -0.035087768648148228 0 0.09022128665814165 -0.033745043536069372 0 0.097058753783026183 -0.044551526265573897 0 0.1003349035087991 -0.035087768648148228 0 0.1003349035087991 -0.035087768648148228 0 0.097661868279739522 -0.02385799314669208 0 0.1064160150378672 -0.026895806789133989 0 0.09022128665814165 -0.033745043536069372 0 0.1003349035087991 -0.035087768648148228 0 0.097661868279739522 -0.02385799314669208 0 0.088460783327463904 -0.01131171975004484 0 0.097661868279739522 -0.02385799314669208 0 0.1028763528664257 -0.01224962701006393 0 0.1064160150378672 -0.026895806789133989 0 0.1124795387057386 -0.01849009424713528 0 0.1028763528664257 -0.01224962701006393 0 0.097661868279739522 -0.02385799314669208 0 0.1064160150378672 -0.026895806789133989 0 0.1028763528664257 -0.01224962701006393 0 0.11707998280666811 -0.03129633915902319 0 0.1064160150378672 -0.026895806789133989 0 0.1124795387057386 -0.01849009424713528 0 0.11707998280666811 -0.03129633915902319 0 0.12407023662846969 -0.021159650861064999 0 0.1124795387057386 -0.01849009424713528 0 0.11707998280666811 -0.03129633915902319 0 0.12407023662846969 -0.021159650861064999 0 0.13118117068741639 -0.03139082455140433 0 0.12407023662846969 -0.021159650861064999 0 0.1124795387057386 -0.01849009424713528 0 0.11840634484303141 -0.012798344558363201 0 0.1124795387057386 -0.01849009424713528 0 0.11840634484303141 -0.012798344558363201 0 0.11146196525349759 -0.0065787231618720304 0 0.12407023662846969 -0.021159650861064999 0 0.11840634484303141 -0.012798344558363201 0 0.12700657730734549 -0.0079191838309164014 0 0.1184492845065812 0.001094690671418761 0 0.1278820481066294 0.0059606448014834978 0 0.12700657730734549 -0.0079191838309164014 0 0.1184492845065812 0.001094690671418761 0 0.11840634484303141 -0.012798344558363201 0 0.12700657730734549 -0.0079191838309164014 0 0.1184492845065812 0.001094690671418761 0 0.1061735524037556 0.0026334880124289739 0 0.11146196525349759 -0.0065787231618720304 0 0.1184492845065812 0.001094690671418761 0 0.11840634484303141 -0.012798344558363201 0 0.11146196525349759 -0.0065787231618720304 0 0.1061735524037556 0.0026334880124289739 0 0.1028763528664257 -0.01224962701006393 0 0.096404115562213621 -0.0020531939796058591 0 0.1061735524037556 0.0026334880124289739 0 0.11146196525349759 -0.0065787231618720304 0 0.1028763528664257 -0.01224962701006393 0 0.1124795387057386 -0.01849009424713528 0 0.11146196525349759 -0.0065787231618720304 0 0.1028763528664257 -0.01224962701006393 0 0.088460783327463904 -0.01131171975004484 0 0.1028763528664257 -0.01224962701006393 0 0.096404115562213621 -0.0020531939796058591 0 0.087217937978931279 -0.099290742757264405 0 0.093442321263043748 -0.1083602586984295 0 0.076378471952743679 -0.112055058824636 0 0.087217937978931279 -0.099290742757264405 0 0.094544106140176248 -0.088828841117801219 0 0.096037706616578317 -0.097670869495053769 0 0.087217937978931279 -0.099290742757264405 0 0.093442321263043748 -0.1083602586984295 0 0.096037706616578317 -0.097670869495053769 0 0.093442321263043748 -0.1083602586984295 0 0.088717024403525385 -0.1194103652704978 0 0.076378471952743679 -0.112055058824636 0 0.075973520318602897 -0.12999938260658991 0 0.088717024403525385 -0.1194103652704978 0 0.076378471952743679 -0.112055058824636 0 0.075973520318602897 -0.12999938260658991 0 0.052833069214119913 -0.1205334489946638 0 0.076378471952743679 -0.112055058824636 0 0.060086958538238887 -0.094736154620370522 0 0.052833069214119913 -0.1205334489946638 0 0.076378471952743679 -0.112055058824636 0 0.060086958538238887 -0.094736154620370522 0 0.087217937978931279 -0.099290742757264405 0 0.076378471952743679 -0.112055058824636 0 0.060086958538238887 -0.094736154620370522 0 0.069234468252419759 -0.07782873602596721 0 0.087005108884864651 -0.081839514729475094 0 0.060086958538238887 -0.094736154620370522 0 0.087217937978931279 -0.099290742757264405 0 0.087005108884864651 -0.081839514729475094 0 0.060086958538238887 -0.094736154620370522 0 0.087005108884864651 -0.081839514729475094 0 0.05286191037482646 -0.072290353656280809 0 0.067391590617945182 -0.064853662247185584 0 0.069234468252419759 -0.07782873602596721 0 0.076838448778447421 -0.057162525712023363 0 0.067391590617945182 -0.064853662247185584 0 0.079296014237340395 -0.067451796298937203 0 0.067391590617945182 -0.064853662247185584 0 0.069234468252419759 -0.07782873602596721 0 0.079296014237340395 -0.067451796298937203 0 0.091981789988819368 -0.056178367322093872 0 0.087005108884864651 -0.081839514729475094 0 0.093742293319498321 -0.078611691108118345 0 0.069234468252419759 -0.07782873602596721 0 0.079296014237340395 -0.067451796298937203 0 0.087005108884864651 -0.081839514729475094 0 0.086650174300774221 -0.052736142424592243 0 0.091981789988819368 -0.056178367322093872 0 0.087005108884864651 -0.081839514729475094 0 0.091981789988819368 -0.056178367322093872 0 0.093742293319498321 -0.078611691108118345 0 0.086650174300774221 -0.052736142424592243 0 0.079296014237340395 -0.067451796298937203 0 0.087005108884864651 -0.081839514729475094 0 0.086650174300774221 -0.052736142424592243 0 0.087005108884864651 -0.081839514729475094 0 0.087217937978931279 -0.099290742757264405 0 0.087005108884864651 -0.081839514729475094 0 0.094544106140176248 -0.088828841117801219 0 0.087217937978931279 -0.099290742757264405 0 0.087005108884864651 -0.081839514729475094 0 0.087005108884864651 -0.081839514729475094 0 0.093742293319498321 -0.078611691108118345 0 0.094544106140176248 -0.088828841117801219 0 0.087005108884864651 -0.081839514729475094 0 0.093742293319498321 -0.078611691108118345 0 0.094544106140176248 -0.088828841117801219 0 0.1033658918619699 -0.091287451292911437 0 0.096037706616578317 -0.097670869495053769 0 0.094544106140176248 -0.088828841117801219 0 0.10250964487712171 -0.082547525821723783 0 0.1033658918619699 -0.091287451292911437 0 0.093742293319498321 -0.078611691108118345 0 0.094544106140176248 -0.088828841117801219 0 0.10250964487712171 -0.082547525821723783 0 0.093742293319498321 -0.078611691108118345 0 0.094544106140176248 -0.088828841117801219 0 0.10250964487712171 -0.082547525821723783 0 0.1033658918619699 -0.091287451292911437 0 0.1104714242225701 -0.082754658899123382 0 0.1033658918619699 -0.091287451292911437 0 0.1104714242225701 -0.082754658899123382 0 0.1119408040633223 -0.09431582835480723 0 0.093742293319498321 -0.078611691108118345 0 0.10250964487712171 -0.082547525821723783 0 0.1170181261516165 -0.067460106384387389 0 0.093742293319498321 -0.078611691108118345 0 0.1023219549777037 -0.066652642171933743 0 0.1170181261516165 -0.067460106384387389 0 0.093742293319498321 -0.078611691108118345 0 0.1170181261516165 -0.067460106384387389 0 0.091981789988819368 -0.056178367322093872 0 0.093742293319498321 -0.078611691108118345 0 0.1023219549777037 -0.066652642171933743 0 0.1044200064199259 -0.061232045586013042 0 0.109976463685361 -0.061479351093714177 0 0.1023219549777037 -0.066652642171933743 0 0.116517275428579 -0.058926710049727632 0 0.109976463685361 -0.061479351093714177 0 0.1170181261516165 -0.067460106384387389 0 0.109976463685361 -0.061479351093714177 0 0.1023219549777037 -0.066652642171933743 0 0.1170181261516165 -0.067460106384387389 0 0.1170181261516165 -0.067460106384387389 0 0.1104714242225701 -0.082754658899123382 0 0.1195882879092362 -0.078368721996464635 0 0.10250964487712171 -0.082547525821723783 0 0.1170181261516165 -0.067460106384387389 0 0.1104714242225701 -0.082754658899123382 0 0.1238167624949417 -0.070688666411707984 0 0.1195882879092362 -0.078368721996464635 0 0.12797803915237299 -0.085202113392357781 0 0.1170181261516165 -0.067460106384387389 0 0.1238167624949417 -0.070688666411707984 0 0.1195882879092362 -0.078368721996464635 0 0.11809728296609601 -0.08867374934586883 0 0.1205078594829784 -0.10272742408659109 0 0.12797803915237299 -0.085202113392357781 0 0.1104714242225701 -0.082754658899123382 0 0.11809728296609601 -0.08867374934586883 0 0.1119408040633223 -0.09431582835480723 0 0.1104714242225701 -0.082754658899123382 0 0.1195882879092362 -0.078368721996464635 0 0.11809728296609601 -0.08867374934586883 0 0.1195882879092362 -0.078368721996464635 0 0.11809728296609601 -0.08867374934586883 0 0.12797803915237299 -0.085202113392357781 0 0.1205078594829784 -0.10272742408659109 0 0.10469166525205099 -0.10160698406895929 0 0.1031485186084799 -0.1144572324824258 0 0.1205078594829784 -0.10272742408659109 0 0.12797803915237299 -0.085202113392357781 0 0.1205078594829784 -0.10272742408659109 0 0.1119408040633223 -0.09431582835480723 0 0.10469166525205099 -0.10160698406895929 0 0.11809728296609601 -0.08867374934586883 0 0.1205078594829784 -0.10272742408659109 0 0.1119408040633223 -0.09431582835480723 0 0.1033658918619699 -0.091287451292911437 0 0.1119408040633223 -0.09431582835480723 0 0.10469166525205099 -0.10160698406895929 0 0.093442321263043748 -0.1083602586984295 0 0.10469166525205099 -0.10160698406895929 0 0.1031485186084799 -0.1144572324824258 0 0.093442321263043748 -0.1083602586984295 0 0.10469166525205099 -0.10160698406895929 0 0.096037706616578317 -0.097670869495053769 0 0.1033658918619699 -0.091287451292911437 0 0.10469166525205099 -0.10160698406895929 0 0.096037706616578317 -0.097670869495053769 0 0.094872447549873395 -0.13269973365002219 0 0.088717024403525385 -0.1194103652704978 0 0.1031485186084799 -0.1144572324824258 0 0.093442321263043748 -0.1083602586984295 0 0.088717024403525385 -0.1194103652704978 0 0.1031485186084799 -0.1144572324824258 0 0.1079789088841096 -0.12976496912923341 0 0.1031485186084799 -0.1144572324824258 0 0.1130376798135844 -0.1202527347808247 0 0.1205078594829784 -0.10272742408659109 0 0.1130376798135844 -0.1202527347808247 0 0.1205078594829784 -0.10272742408659109 0 0.1031485186084799 -0.1144572324824258 0 0.1130376798135844 -0.1202527347808247 0 0.1205078594829784 -0.10272742408659109 0 0.1130376798135844 -0.1202527347808247 0 0.12430922200117341 -0.114702499123617 0 0.1130376798135844 -0.1202527347808247 0 0.12430922200117341 -0.114702499123617 0 0.12583917944525999 -0.13277694346948851 0 0.1368066231736427 -0.1159939103948598 0 0.12583917944525999 -0.13277694346948851 0 0.12430922200117341 -0.114702499123617 0 0.1368066231736427 -0.1159939103948598 0 0.12583917944525999 -0.13277694346948851 0 0.12430922200117341 -0.114702499123617 0 0.1368066231736427 -0.1159939103948598 0 0.13239233116300761 -0.1005980118936088 0 0.1368066231736427 -0.1159939103948598 0 0.15382381003678011 -0.11116081254688449 0 0.15125420783877669 -0.124339809162999 0 0.1368066231736427 -0.1159939103948598 0 0.15382381003678011 -0.11116081254688449 0 0.15159443001407519 -0.093364731029945677 0 0.13239233116300761 -0.1005980118936088 0 0.1382520151767305 -0.090362333897487518 0 0.15159443001407519 -0.093364731029945677 0 0.1368066231736427 -0.1159939103948598 0 0.15159443001407519 -0.093364731029945677 0 0.1205078594829784 -0.10272742408659109 0 0.13239233116300761 -0.1005980118936088 0 0.12797803915237299 -0.085202113392357781 0 0.1368066231736427 -0.1159939103948598 0 0.13239233116300761 -0.1005980118936088 0 0.15159443001407519 -0.093364731029945677 0 0.1368066231736427 -0.1159939103948598 0 0.13239233116300761 -0.1005980118936088 0 0.1205078594829784 -0.10272742408659109 0 0.12430922200117341 -0.114702499123617 0 0.13239233116300761 -0.1005980118936088 0 0.13239233116300761 -0.1005980118936088 0 0.12797803915237299 -0.085202113392357781 0 0.12797803915237299 -0.085202113392357781 0 0.13413599906805421 -0.070755317526507572 0 0.1410432603774662 -0.082284479274037786 0 0.13239233116300761 -0.1005980118936088 0 0.12797803915237299 -0.085202113392357781 0 0.1382520151767305 -0.090362333897487518 0 0.12797803915237299 -0.085202113392357781 0 0.1382520151767305 -0.090362333897487518 0 0.1410432603774662 -0.082284479274037786 0 0.1238167624949417 -0.070688666411707984 0 0.13413599906805421 -0.070755317526507572 0 0.14029395898373501 -0.05630852166065721 0 0.1170181261516165 -0.067460106384387389 0 0.1238167624949417 -0.070688666411707984 0 0.14029395898373501 -0.05630852166065721 0 0.1238167624949417 -0.070688666411707984 0 0.12797803915237299 -0.085202113392357781 0 0.12797803915237299 -0.085202113392357781 0 0.13413599906805421 -0.070755317526507572 0 0.1238167624949417 -0.070688666411707984 0 0.12797803915237299 -0.085202113392357781 0 0.13413599906805421 -0.070755317526507572 0 0.13413599906805421 -0.070755317526507572 0 0.14029395898373501 -0.05630852166065721 0 0.15025810419386579 -0.069091563593912886 0 0.15159443001407519 -0.093364731029945677 0 0.16638223685450729 -0.070735551665031288 0 0.13413599906805421 -0.070755317526507572 0 0.15025810419386579 -0.069091563593912886 0 0.1410432603774662 -0.082284479274037786 0 0.13413599906805421 -0.070755317526507572 0 0.15025810419386579 -0.069091563593912886 0 0.14029395898373501 -0.05630852166065721 0 0.15025810419386579 -0.069091563593912886 0 0.1410432603774662 -0.082284479274037786 0 0.15159443001407519 -0.093364731029945677 0 0.1382520151767305 -0.090362333897487518 0 0.1410432603774662 -0.082284479274037786 0 0.15159443001407519 -0.093364731029945677 0 0.15159443001407519 -0.093364731029945677 0 0.16638223685450729 -0.070735551665031288 0 0.17760483605937219 -0.093159323965360488 0 0.15159443001407519 -0.093364731029945677 0 0.16638223685450729 -0.070735551665031288 0 0.15025810419386579 -0.069091563593912886 0 0.16638223685450729 -0.070735551665031288 0 0.16574852935934481 -0.055867081607299349 0 0.16638223685450729 -0.070735551665031288 0 0.17905645010793539 -0.058395291811513018 0 0.19152815551273841 -0.068890290656246356 0 0.16638223685450729 -0.070735551665031288 0 0.17760483605937219 -0.093159323965360488 0 0.19152815551273841 -0.068890290656246356 0 0.17760483605937219 -0.093159323965360488 0 0.17646863642402719 -0.1115402284969758 0 0.16466525992728759 -0.10482775425509309 0 0.17760483605937219 -0.093159323965360488 0 0.17646863642402719 -0.1115402284969758 0 0.19696072622908919 -0.1182688444921864 0 0.1783138306742694 -0.12416736188071451 0 0.17646863642402719 -0.1115402284969758 0 0.19696072622908919 -0.1182688444921864 0 0.1783138306742694 -0.12416736188071451 0 0.17646863642402719 -0.1115402284969758 0 0.16505219821115291 -0.1179000112218471 0 0.17646863642402719 -0.1115402284969758 0 0.16505219821115291 -0.1179000112218471 0 0.16466525992728759 -0.10482775425509309 0 0.15382381003678011 -0.11116081254688449 0 0.15125420783877669 -0.124339809162999 0 0.16505219821115291 -0.1179000112218471 0 0.15382381003678011 -0.11116081254688449 0 0.16505219821115291 -0.1179000112218471 0 0.16466525992728759 -0.10482775425509309 0 0.15159443001407519 -0.093364731029945677 0 0.17760483605937219 -0.093159323965360488 0 0.16466525992728759 -0.10482775425509309 0 0.15382381003678011 -0.11116081254688449 0 0.15159443001407519 -0.093364731029945677 0 0.16466525992728759 -0.10482775425509309 0 0.148908106835974 -0.01130945857104775 0 0.15199650078400909 -0.028853936893129539 0 0.16369904258428211 -0.001399352125601633 0 0.15339352971485529 -0.0012026143491344189 0 0.148908106835974 -0.01130945857104775 0 0.16369904258428211 -0.001399352125601633 0 0.14651915138539101 0.0022875994110858389 0 0.15339352971485529 -0.0012026143491344189 0 0.148908106835974 -0.01130945857104775 0 0.14651915138539101 0.0022875994110858389 0 0.148908106835974 -0.01130945857104775 0 0.13594642572117441 -0.0019479341080785239 0 0.1278820481066294 0.0059606448014834978 0 0.13594642572117441 -0.0019479341080785239 0 0.12700657730734549 -0.0079191838309164014 0 0.12407023662846969 -0.021159650861064999 0 0.12700657730734549 -0.0079191838309164014 0 0.1366030424100915 -0.017316943298061469 0 0.13594642572117441 -0.0019479341080785239 0 0.12700657730734549 -0.0079191838309164014 0 0.1366030424100915 -0.017316943298061469 0 0.148908106835974 -0.01130945857104775 0 0.13594642572117441 -0.0019479341080785239 0 0.1366030424100915 -0.017316943298061469 0 0.1366030424100915 -0.017316943298061469 0 0.15199650078400909 -0.028853936893129539 0 0.13118117068741639 -0.03139082455140433 0 0.12407023662846969 -0.021159650861064999 0 0.1366030424100915 -0.017316943298061469 0 0.13118117068741639 -0.03139082455140433 0 0.148908106835974 -0.01130945857104775 0 0.1366030424100915 -0.017316943298061469 0 0.15199650078400909 -0.028853936893129539 0 0.15199650078400909 -0.028853936893129539 0 0.13432754787957399 -0.042742748842313813 0 0.14029395898373501 -0.05630852166065721 0 0.15199650078400909 -0.028853936893129539 0 0.14029395898373501 -0.05630852166065721 0 0.15248784884295929 -0.050466359240183799 0 0.15199650078400909 -0.028853936893129539 0 0.14029395898373501 -0.05630852166065721 0 0.15199650078400909 -0.028853936893129539 0 0.13118117068741639 -0.03139082455140433 0 0.13432754787957399 -0.042742748842313813 0 0.1236563036991227 -0.042936716458497497 0 0.13118117068741639 -0.03139082455140433 0 0.13432754787957399 -0.042742748842313813 0 0.1245098052435869 -0.054223744647880497 0 0.1236563036991227 -0.042936716458497497 0 0.13432754787957399 -0.042742748842313813 0 0.1245098052435869 -0.054223744647880497 0 0.1170181261516165 -0.067460106384387389 0 0.14029395898373501 -0.05630852166065721 0 0.1170181261516165 -0.067460106384387389 0 0.14029395898373501 -0.05630852166065721 0 0.1245098052435869 -0.054223744647880497 0 0.13432754787957399 -0.042742748842313813 0 0.14029395898373501 -0.05630852166065721 0 0.15025810419386579 -0.069091563593912886 0 0.14029395898373501 -0.05630852166065721 0 0.15248784884295929 -0.050466359240183799 0 0.15025810419386579 -0.069091563593912886 0 0.15248784884295929 -0.050466359240183799 0 0.16574852935934481 -0.055867081607299349 0 0.14029395898373501 -0.05630852166065721 0 0.15248784884295929 -0.050466359240183799 0 0.15248784884295929 -0.050466359240183799 0 0.16574852935934481 -0.055867081607299349 0 0.16690746359494149 -0.038426194430368973 0 0.16638223685450729 -0.070735551665031288 0 0.16574852935934481 -0.055867081607299349 0 0.17905645010793539 -0.058395291811513018 0 0.17905645010793539 -0.058395291811513018 0 0.17837131252404159 -0.045951801963354147 0 0.19325201628904501 -0.050531733165633953 0 0.16574852935934481 -0.055867081607299349 0 0.17905645010793539 -0.058395291811513018 0 0.17837131252404159 -0.045951801963354147 0 0.1833089414873294 -0.03367074147423578 0 0.16690746359494149 -0.038426194430368973 0 0.16921863994504249 -0.02215826149494533 0 0.17837131252404159 -0.045951801963354147 0 0.1833089414873294 -0.03367074147423578 0 0.16690746359494149 -0.038426194430368973 0 0.17837131252404159 -0.045951801963354147 0 0.1833089414873294 -0.03367074147423578 0 0.19325201628904501 -0.050531733165633953 0 0.15199650078400909 -0.028853936893129539 0 0.15248784884295929 -0.050466359240183799 0 0.16690746359494149 -0.038426194430368973 0 0.16574852935934481 -0.055867081607299349 0 0.17837131252404159 -0.045951801963354147 0 0.16690746359494149 -0.038426194430368973 0 0.15199650078400909 -0.028853936893129539 0 0.16690746359494149 -0.038426194430368973 0 0.16921863994504249 -0.02215826149494533 0 0.15199650078400909 -0.028853936893129539 0 0.16921863994504249 -0.02215826149494533 0 0.16369904258428211 -0.001399352125601633 0 0.1833089414873294 -0.03367074147423578 0 0.16921863994504249 -0.02215826149494533 0 0.18406604511643851 -0.016832427658444369 0 0.18406604511643851 -0.016832427658444369 0 0.18032625338237379 -2.2130443606615402e-06 0 0.19380918725667809 -0.0079263992677468011 0 0.16921863994504249 -0.02215826149494533 0 0.18406604511643851 -0.016832427658444369 0 0.16369904258428211 -0.001399352125601633 0 0.18406604511643851 -0.016832427658444369 0 0.18032625338237379 -2.2130443606615402e-06 0 0.16369904258428211 -0.001399352125601633 0 0.18406604511643851 -0.016832427658444369 0 0.16369904258428211 -0.001399352125601633 0 0.15199650078400909 -0.028853936893129539 0 0.16369904258428211 -0.001399352125601633 0 0.2088084736819002 -0.011273068979249481 0 0.21652699494508379 -0.022669637668261879 0 0.22635489566793171 -0.01141684830225749 0 0.2233522756610696 0.0037124091872116709 0 0.19548714095255301 0.0053820362032720361 0 0.2088084736819002 -0.011273068979249481 0 0.19548714095255301 0.0053820362032720361 0 0.2088084736819002 -0.011273068979249481 0 0.19380918725667809 -0.0079263992677468011 0 0.2088084736819002 -0.011273068979249481 0 0.19380918725667809 -0.0079263992677468011 0 0.20443304764859499 -0.0322655031912868 0 0.18406604511643851 -0.016832427658444369 0 0.20443304764859499 -0.0322655031912868 0 0.18406604511643851 -0.016832427658444369 0 0.19380918725667809 -0.0079263992677468011 0 0.20443304764859499 -0.0322655031912868 0 0.1833089414873294 -0.03367074147423578 0 0.18406604511643851 -0.016832427658444369 0 0.20443304764859499 -0.0322655031912868 0 0.2088084736819002 -0.011273068979249481 0 0.21652699494508379 -0.022669637668261879 0 0.20443304764859499 -0.0322655031912868 0 0.21652699494508379 -0.022669637668261879 0 0.20443304764859499 -0.0322655031912868 0 0.22090823048826169 -0.032871701155909941 0 0.20443304764859499 -0.0322655031912868 0 0.2248000501807515 -0.047698578724129193 0 0.22090823048826169 -0.032871701155909941 0 0.20443304764859499 -0.0322655031912868 0 0.20802079260794759 -0.049818973580526477 0 0.2248000501807515 -0.047698578724129193 0 0.20443304764859499 -0.0322655031912868 0 0.2248000501807515 -0.047698578724129193 0 0.20443304764859499 -0.0322655031912868 0 0.19325201628904501 -0.050531733165633953 0 0.20802079260794759 -0.049818973580526477 0 0.1833089414873294 -0.03367074147423578 0 0.20443304764859499 -0.0322655031912868 0 0.19325201628904501 -0.050531733165633953 0 0.19325201628904501 -0.050531733165633953 0 0.20802079260794759 -0.049818973580526477 0 0.20478455922173849 -0.065908868493258776 0 0.19325201628904501 -0.050531733165633953 0 0.19152815551273841 -0.068890290656246356 0 0.20478455922173849 -0.065908868493258776 0 0.17905645010793539 -0.058395291811513018 0 0.19325201628904501 -0.050531733165633953 0 0.19152815551273841 -0.068890290656246356 0 0.21800358793062971 -0.062052601672607947 0 0.20802079260794759 -0.049818973580526477 0 0.20478455922173849 -0.065908868493258776 0 0.2248000501807515 -0.047698578724129193 0 0.2356946787162483 -0.056789441177146169 0 0.23354814057052109 -0.036726236964635103 0 0.20802079260794759 -0.049818973580526477 0 0.2356946787162483 -0.056789441177146169 0 0.20802079260794759 -0.049818973580526477 0 0.2248000501807515 -0.047698578724129193 0 0.2356946787162483 -0.056789441177146169 0 0.21800358793062971 -0.062052601672607947 0 0.20802079260794759 -0.049818973580526477 0 0.2356946787162483 -0.056789441177146169 0 0.2356946787162483 -0.056789441177146169 0 0.2475214523766672 -0.038017719183998357 0 0.25773087651241178 -0.048622997549347242 0 0.2356946787162483 -0.056789441177146169 0 0.2475214523766672 -0.038017719183998357 0 0.25144151139444432 -0.060755735845817851 0 0.2356946787162483 -0.056789441177146169 0 0.2417594856927216 -0.069153335586031456 0 0.25144151139444432 -0.060755735845817851 0 0.2356946787162483 -0.056789441177146169 0 0.25144151139444432 -0.060755735845817851 0 0.25773087651241178 -0.048622997549347242 0 0.2356946787162483 -0.056789441177146169 0 0.2356946787162483 -0.056789441177146169 0 0.2475214523766672 -0.038017719183998357 0 0.23354814057052109 -0.036726236964635103 0 0.2475214523766672 -0.038017719183998357 0 0.23354814057052109 -0.036726236964635103 0 0.24435197334383041 -0.02290936779525762 0 0.23354814057052109 -0.036726236964635103 0 0.22090823048826169 -0.032871701155909941 0 0.22833551095398311 -0.02447603174986784 0 0.2248000501807515 -0.047698578724129193 0 0.23354814057052109 -0.036726236964635103 0 0.22090823048826169 -0.032871701155909941 0 0.21652699494508379 -0.022669637668261879 0 0.22090823048826169 -0.032871701155909941 0 0.22833551095398311 -0.02447603174986784 0 0.21652699494508379 -0.022669637668261879 0 0.22833551095398311 -0.02447603174986784 0 0.22635489566793171 -0.01141684830225749 0 0.22833551095398311 -0.02447603174986784 0 0.23558958007647249 -0.016777539230265801 0 0.22635489566793171 -0.01141684830225749 0 0.22833551095398311 -0.02447603174986784 0 0.24435197334383041 -0.02290936779525762 0 0.23558958007647249 -0.016777539230265801 0 0.25934822603708069 -0.019245997190847072 0 0.24435197334383041 -0.02290936779525762 0 0.24135025084907449 -0.0077667940018189101 0 0.23354814057052109 -0.036726236964635103 0 0.22833551095398311 -0.02447603174986784 0 0.24435197334383041 -0.02290936779525762 0 0.24435197334383041 -0.02290936779525762 0 0.23558958007647249 -0.016777539230265801 0 0.24135025084907449 -0.0077667940018189101 0 0.23558958007647249 -0.016777539230265801 0 0.24135025084907449 -0.0077667940018189101 0 0.22635489566793171 -0.01141684830225749 0 0.24366403529044059 0.002495366349431846 0 0.2233522756610696 0.0037124091872116709 0 0.24135025084907449 -0.0077667940018189101 0 0.24366403529044059 0.002495366349431846 0 0.25433817122211883 -0.0072258693492852121 0 0.24135025084907449 -0.0077667940018189101 0 0.2233522756610696 0.0037124091872116709 0 0.24135025084907449 -0.0077667940018189101 0 0.22635489566793171 -0.01141684830225749 0 0.2233522756610696 0.0037124091872116709 0 0.24135025084907449 -0.0077667940018189101 0 0.2233522756610696 0.0037124091872116709 0 0.2088084736819002 -0.011273068979249481 0 0.22635489566793171 -0.01141684830225749 0 0.17760483605937219 -0.093159323965360488 0 0.19696072622908919 -0.1182688444921864 0 0.19511944176954271 -0.086877036269045499 0 0.20987204372480839 -0.097775710053839449 0 0.19696072622908919 -0.1182688444921864 0 0.19511944176954271 -0.086877036269045499 0 0.20987204372480839 -0.097775710053839449 0 0.19696072622908919 -0.1182688444921864 0 0.20987204372480839 -0.097775710053839449 0 0.21309114460698281 -0.1124907419756755 0 0.2242826868879679 -0.10419803319994871 0 0.20987204372480839 -0.097775710053839449 0 0.21309114460698281 -0.1124907419756755 0 0.19696072622908919 -0.1182688444921864 0 0.21309114460698281 -0.1124907419756755 0 0.21148780037792131 -0.1231543324104145 0 0.19696072622908919 -0.1182688444921864 0 0.21309114460698281 -0.1124907419756755 0 0.21148780037792131 -0.1231543324104145 0 0.22322901563693459 -0.120347901466538 0 0.21148780037792131 -0.1231543324104145 0 0.19696072622908919 -0.1182688444921864 0 0.207024181618362 -0.1308803335761016 0 0.17760483605937219 -0.093159323965360488 0 0.19511944176954271 -0.086877036269045499 0 0.19152815551273841 -0.068890290656246356 0 0.19511944176954271 -0.086877036269045499 0 0.19152815551273841 -0.068890290656246356 0 0.20478455922173849 -0.065908868493258776 0 0.19511944176954271 -0.086877036269045499 0 0.20478455922173849 -0.065908868493258776 0 0.22278336122052769 -0.077282575615492399 0 0.21800358793062971 -0.062052601672607947 0 0.20478455922173849 -0.065908868493258776 0 0.22278336122052769 -0.077282575615492399 0 0.20987204372480839 -0.097775710053839449 0 0.22278336122052769 -0.077282575615492399 0 0.20987204372480839 -0.097775710053839449 0 0.19511944176954271 -0.086877036269045499 0 0.22278336122052769 -0.077282575615492399 0 0.20987204372480839 -0.097775710053839449 0 0.22278336122052769 -0.077282575615492399 0 0.2242826868879679 -0.10419803319994871 0 0.22278336122052769 -0.077282575615492399 0 0.23750478372909059 -0.095785825259925572 0 0.2242826868879679 -0.10419803319994871 0 0.2356946787162483 -0.056789441177146169 0 0.22278336122052769 -0.077282575615492399 0 0.2417594856927216 -0.069153335586031456 0 0.21800358793062971 -0.062052601672607947 0 0.2356946787162483 -0.056789441177146169 0 0.22278336122052769 -0.077282575615492399 0 0.2356946787162483 -0.056789441177146169 0 0.22278336122052769 -0.077282575615492399 0 0.22278336122052769 -0.077282575615492399 0 0.2417594856927216 -0.069153335586031456 0 0.24517134464965409 -0.082124325795385061 0 0.25438533598547758 -0.072520189115604733 0 0.2417594856927216 -0.069153335586031456 0 0.24517134464965409 -0.082124325795385061 0 0.25438533598547758 -0.072520189115604733 0 0.25144151139444432 -0.060755735845817851 0 0.2417594856927216 -0.069153335586031456 0 0.22278336122052769 -0.077282575615492399 0 0.24517134464965409 -0.082124325795385061 0 0.23750478372909059 -0.095785825259925572 0 0.25441555720452103 -0.099744898289011563 0 0.24517134464965409 -0.082124325795385061 0 0.23750478372909059 -0.095785825259925572 0 0.25441555720452103 -0.099744898289011563 0 0.23750478372909059 -0.095785825259925572 0 0.24198202123963611 -0.1157099208213011 0 0.23750478372909059 -0.095785825259925572 0 0.2242826868879679 -0.10419803319994871 0 0.24198202123963611 -0.1157099208213011 0 0.2242826868879679 -0.10419803319994871 0 0.22322901563693459 -0.120347901466538 0 0.24198202123963611 -0.1157099208213011 0 0.21309114460698281 -0.1124907419756755 0 0.2242826868879679 -0.10419803319994871 0 0.22322901563693459 -0.120347901466538 0 0.26284071423811339 -0.11581214247851 0 0.24198202123963611 -0.1157099208213011 0 0.24484171677725411 -0.13688975099347681 0 0.22322901563693459 -0.120347901466538 0 0.24198202123963611 -0.1157099208213011 0 0.24484171677725411 -0.13688975099347681 0 0.24484171677725411 -0.13688975099347681 0 0.2259417292343458 -0.14308048937620671 0 0.23971217335382 -0.16969220990804801 0 0.2259417292343458 -0.14308048937620671 0 0.2144485080484014 -0.1400850248606002 0 0.21609675288052321 -0.15703865261473121 0 0.22322901563693459 -0.120347901466538 0 0.24484171677725411 -0.13688975099347681 0 0.2259417292343458 -0.14308048937620671 0 0.22322901563693459 -0.120347901466538 0 0.24484171677725411 -0.13688975099347681 0 0.22322901563693459 -0.120347901466538 0 0.2259417292343458 -0.14308048937620671 0 0.21732220870914179 -0.13442939641384569 0 0.2259417292343458 -0.14308048937620671 0 0.21732220870914179 -0.13442939641384569 0 0.2144485080484014 -0.1400850248606002 0 0.21148780037792131 -0.1231543324104145 0 0.207024181618362 -0.1308803335761016 0 0.21732220870914179 -0.13442939641384569 0 0.21148780037792131 -0.1231543324104145 0 0.22322901563693459 -0.120347901466538 0 0.21732220870914179 -0.13442939641384569 0 0.207024181618362 -0.1308803335761016 0 0.20896300588342689 -0.14151032779533049 0 0.19708475705246689 -0.13510542825249941 0 0.207024181618362 -0.1308803335761016 0 0.21732220870914179 -0.13442939641384569 0 0.20896300588342689 -0.14151032779533049 0 0.21732220870914179 -0.13442939641384569 0 0.20896300588342689 -0.14151032779533049 0 0.21732220870914179 -0.13442939641384569 0 0.2144485080484014 -0.1400850248606002 0 0.20896300588342689 -0.14151032779533049 0 0.2144485080484014 -0.1400850248606002 0 0.20896300588342689 -0.14151032779533049 0 0.21609675288052321 -0.15703865261473121 0 0.20896300588342689 -0.14151032779533049 0 0.1919061367377547 -0.15595889693782239 0 0.21609675288052321 -0.15703865261473121 0 0.2144485080484014 -0.1400850248606002 0 0.20896300588342689 -0.14151032779533049 0 0.20896300588342689 -0.14151032779533049 0 0.1919061367377547 -0.15595889693782239 0 0.20896300588342689 -0.14151032779533049 0 0.18884808525483149 -0.14673680561660879 0 0.20896300588342689 -0.14151032779533049 0 0.1919061367377547 -0.15595889693782239 0 0.18884808525483149 -0.14673680561660879 0 0.20896300588342689 -0.14151032779533049 0 0.18884808525483149 -0.14673680561660879 0 0.19708475705246689 -0.13510542825249941 0 0.19696072622908919 -0.1182688444921864 0 0.18404940873337 -0.13876197893053349 0 0.19696072622908919 -0.1182688444921864 0 0.207024181618362 -0.1308803335761016 0 0.19708475705246689 -0.13510542825249941 0 0.19696072622908919 -0.1182688444921864 0 0.19708475705246689 -0.13510542825249941 0 0.18404940873337 -0.13876197893053349 0 0.18884808525483149 -0.14673680561660879 0 0.19708475705246689 -0.13510542825249941 0 0.18404940873337 -0.13876197893053349 0 0.19254374552400089 -0.1745769916592573 0 0.2066594234963586 -0.1857859691742503 0 0.1903297167517953 -0.1875598317792451 0 0.19254374552400089 -0.1745769916592573 0 0.20577353436120591 -0.16967540303667941 0 0.2066594234963586 -0.1857859691742503 0 0.1919061367377547 -0.15595889693782239 0 0.19254374552400089 -0.1745769916592573 0 0.20577353436120591 -0.16967540303667941 0 0.1919061367377547 -0.15595889693782239 0 0.21609675288052321 -0.15703865261473121 0 0.20577353436120591 -0.16967540303667941 0 0.21609675288052321 -0.15703865261473121 0 0.20577353436120591 -0.16967540303667941 0 0.22166161316739219 -0.1750165047973356 0 0.2066594234963586 -0.1857859691742503 0 0.22166161316739219 -0.1750165047973356 0 0.22128121393504599 -0.19348995174453901 0 0.20577353436120591 -0.16967540303667941 0 0.2066594234963586 -0.1857859691742503 0 0.22166161316739219 -0.1750165047973356 0 0.22166161316739219 -0.1750165047973356 0 0.23993755808107831 -0.1930192772979496 0 0.22128121393504599 -0.19348995174453901 0 0.22166161316739219 -0.1750165047973356 0 0.23971217335382 -0.16969220990804801 0 0.23993755808107831 -0.1930192772979496 0 0.2583004742880628 -0.167175973266321 0 0.24484171677725411 -0.13688975099347681 0 0.23971217335382 -0.16969220990804801 0 0.21609675288052321 -0.15703865261473121 0 0.23971217335382 -0.16969220990804801 0 0.2259417292343458 -0.14308048937620671 0 0.21609675288052321 -0.15703865261473121 0 0.23971217335382 -0.16969220990804801 0 0.21609675288052321 -0.15703865261473121 0 0.22166161316739219 -0.1750165047973356 0 0.23971217335382 -0.16969220990804801 0 0.26332759382711668 -0.18234576720136489 0 0.23971217335382 -0.16969220990804801 0 0.23993755808107831 -0.1930192772979496 0 0.23993755808107831 -0.1930192772979496 0 0.24596567546911141 -0.21667252211943941 0 0.22391704128552661 -0.2120553310454848 0 0.26266243230590219 -0.20301101561890231 0 0.23993755808107831 -0.1930192772979496 0 0.24596567546911141 -0.21667252211943941 0 0.23993755808107831 -0.1930192772979496 0 0.22391704128552661 -0.2120553310454848 0 0.22128121393504599 -0.19348995174453901 0 0.25903984207727387 -0.2336611851820036 0 0.24327715365271249 -0.25419909361232701 0 0.2438163782433769 -0.2333030450344358 0 0.24327715365271249 -0.25419909361232701 0 0.2438163782433769 -0.2333030450344358 0 0.22710435698405501 -0.23468221740174131 0 0.24596567546911141 -0.21667252211943941 0 0.2438163782433769 -0.2333030450344358 0 0.22710435698405501 -0.23468221740174131 0 0.25903984207727387 -0.2336611851820036 0 0.24596567546911141 -0.21667252211943941 0 0.2438163782433769 -0.2333030450344358 0 0.24596567546911141 -0.21667252211943941 0 0.22391704128552661 -0.2120553310454848 0 0.22710435698405501 -0.23468221740174131 0 0.22391704128552661 -0.2120553310454848 0 0.22710435698405501 -0.23468221740174131 0 0.21159687242517519 -0.22604067259517041 0 0.24327715365271249 -0.25419909361232701 0 0.2174016423331897 -0.25731780840580359 0 0.22710435698405501 -0.23468221740174131 0 0.2174016423331897 -0.25731780840580359 0 0.22710435698405501 -0.23468221740174131 0 0.2058093611596197 -0.23989805103622289 0 0.22710435698405501 -0.23468221740174131 0 0.2058093611596197 -0.23989805103622289 0 0.21159687242517519 -0.22604067259517041 0 0.2058093611596197 -0.23989805103622289 0 0.21159687242517519 -0.22604067259517041 0 0.1936335513281964 -0.2261167491780878 0 0.21159687242517519 -0.22604067259517041 0 0.1936335513281964 -0.2261167491780878 0 0.2039851635147826 -0.2140822849102271 0 0.2058093611596197 -0.23989805103622289 0 0.1936335513281964 -0.2261167491780878 0 0.18968099973566621 -0.2387260050941597 0 0.19422730188649651 -0.25669753652582472 0 0.2058093611596197 -0.23989805103622289 0 0.18968099973566621 -0.2387260050941597 0 0.2066594234963586 -0.1857859691742503 0 0.21091941206308301 -0.20171398665355261 0 0.19627282781464911 -0.19884557148715071 0 0.2066594234963586 -0.1857859691742503 0 0.22128121393504599 -0.19348995174453901 0 0.21091941206308301 -0.20171398665355261 0 0.22391704128552661 -0.2120553310454848 0 0.22128121393504599 -0.19348995174453901 0 0.21091941206308301 -0.20171398665355261 0 0.22391704128552661 -0.2120553310454848 0 0.21159687242517519 -0.22604067259517041 0 0.2039851635147826 -0.2140822849102271 0 0.22391704128552661 -0.2120553310454848 0 0.21091941206308301 -0.20171398665355261 0 0.2039851635147826 -0.2140822849102271 0 0.21091941206308301 -0.20171398665355261 0 0.2039851635147826 -0.2140822849102271 0 0.19627282781464911 -0.19884557148715071 0 0.1936335513281964 -0.2261167491780878 0 0.2039851635147826 -0.2140822849102271 0 0.18345676409118669 -0.20596127680441001 0 0.2039851635147826 -0.2140822849102271 0 0.19627282781464911 -0.19884557148715071 0 0.18345676409118669 -0.20596127680441001 0 0.2066594234963586 -0.1857859691742503 0 0.19627282781464911 -0.19884557148715071 0 0.1903297167517953 -0.1875598317792451 0 0.19627282781464911 -0.19884557148715071 0 0.18370962803259419 -0.1945091888136625 0 0.18345676409118669 -0.20596127680441001 0 0.19627282781464911 -0.19884557148715071 0 0.1903297167517953 -0.1875598317792451 0 0.18370962803259419 -0.1945091888136625 0 0.1903297167517953 -0.1875598317792451 0 0.18370962803259419 -0.1945091888136625 0 0.17786425023654179 -0.1847706079838991 0 0.18370962803259419 -0.1945091888136625 0 0.17062458126879829 -0.19540865601360771 0 0.17786425023654179 -0.1847706079838991 0 0.18345676409118669 -0.20596127680441001 0 0.17062458126879829 -0.19540865601360771 0 0.18345676409118669 -0.20596127680441001 0 0.1718574589090972 -0.20666948299805321 0 0.17062458126879829 -0.19540865601360771 0 0.18370962803259419 -0.1945091888136625 0 0.18345676409118669 -0.20596127680441001 0 0.17062458126879829 -0.19540865601360771 0 0.18345676409118669 -0.20596127680441001 0 0.1718574589090972 -0.20666948299805321 0 0.17654897213852511 -0.22429359350794409 0 0.1718574589090972 -0.20666948299805321 0 0.1629417774024369 -0.21276259828409461 0 0.17654897213852511 -0.22429359350794409 0 0.1718574589090972 -0.20666948299805321 0 0.1629417774024369 -0.21276259828409461 0 0.1600980825677695 -0.19722844220973251 0 0.1629417774024369 -0.21276259828409461 0 0.1600980825677695 -0.19722844220973251 0 0.1501427763778734 -0.20570453689654711 0 0.17062458126879829 -0.19540865601360771 0 0.17786425023654179 -0.1847706079838991 0 0.15779239844640969 -0.18485603522280561 0 0.1600980825677695 -0.19722844220973251 0 0.156167572953612 -0.183519850450967 0 0.1600980825677695 -0.19722844220973251 0 0.17062458126879829 -0.19540865601360771 0 0.15779239844640969 -0.18485603522280561 0 0.1600980825677695 -0.19722844220973251 0 0.156167572953612 -0.183519850450967 0 0.15779239844640969 -0.18485603522280561 0 0.17062458126879829 -0.19540865601360771 0 0.15779239844640969 -0.18485603522280561 0 0.1718574589090972 -0.20666948299805321 0 0.1600980825677695 -0.19722844220973251 0 0.17062458126879829 -0.19540865601360771 0 0.19422730188649651 -0.25669753652582472 0 0.18968099973566621 -0.2387260050941597 0 0.1781858121654934 -0.24662409522271919 0 0.18968099973566621 -0.2387260050941597 0 0.1781858121654934 -0.24662409522271919 0 0.17654897213852511 -0.22429359350794409 0 0.1936335513281964 -0.2261167491780878 0 0.18968099973566621 -0.2387260050941597 0 0.17654897213852511 -0.22429359350794409 0 0.1936335513281964 -0.2261167491780878 0 0.18345676409118669 -0.20596127680441001 0 0.17654897213852511 -0.22429359350794409 0 0.1629417774024369 -0.21276259828409461 0 0.15836889073106669 -0.23442076389056951 0 0.1629417774024369 -0.21276259828409461 0 0.17654897213852511 -0.22429359350794409 0 0.15836889073106669 -0.23442076389056951 0 0.15379600405969651 -0.25607892949704442 0 0.1678051119448476 -0.25659221006778993 0 0.15836889073106669 -0.23442076389056951 0 0.1781858121654934 -0.24662409522271919 0 0.17654897213852511 -0.22429359350794409 0 0.15836889073106669 -0.23442076389056951 0 0.1678051119448476 -0.25659221006778993 0 0.1781858121654934 -0.24662409522271919 0 0.15836889073106669 -0.23442076389056951 0 0.15379600405969651 -0.25607892949704442 0 0.15836889073106669 -0.23442076389056951 0 0.15379600405969651 -0.25607892949704442 0 0.15836889073106669 -0.23442076389056951 0 0.1425510979572519 -0.24106149185058301 0 0.15836889073106669 -0.23442076389056951 0 0.1425510979572519 -0.24106149185058301 0 0.14256546384623789 -0.22053766409108891 0 0.1629417774024369 -0.21276259828409461 0 0.15836889073106669 -0.23442076389056951 0 0.14256546384623789 -0.22053766409108891 0 0.1222757149700639 -0.23693436948163499 0 0.1425510979572519 -0.24106149185058301 0 0.14256546384623789 -0.22053766409108891 0 0.1248154805027742 -0.21201816247765881 0 0.1222757149700639 -0.23693436948163499 0 0.14256546384623789 -0.22053766409108891 0 0.13574941617919459 -0.25733573229257722 0 0.1222757149700639 -0.23693436948163499 0 0.1425510979572519 -0.24106149185058301 0 0.13574941617919459 -0.25733573229257722 0 0.1222757149700639 -0.23693436948163499 0 0.13574941617919459 -0.25733573229257722 0 0.1219834281868535 -0.25467250226310589 0 0.1222757149700639 -0.23693436948163499 0 0.14942151354632971 -0.19373372530914959 0 0.1501427763778734 -0.20570453689654711 0 0.13496895473241149 -0.19779797726845641 0 0.14942151354632971 -0.19373372530914959 0 0.13496895473241149 -0.19779797726845641 0 0.14255131363378029 -0.18594857253296029 0 0.14942151354632971 -0.19373372530914959 0 0.14255131363378029 -0.18594857253296029 0 0.156167572953612 -0.183519850450967 0 0.1600980825677695 -0.19722844220973251 0 0.14942151354632971 -0.19373372530914959 0 0.156167572953612 -0.183519850450967 0 0.1600980825677695 -0.19722844220973251 0 0.14942151354632971 -0.19373372530914959 0 0.1501427763778734 -0.20570453689654711 0 0.14256546384623789 -0.22053766409108891 0 0.1501427763778734 -0.20570453689654711 0 0.13496895473241149 -0.19779797726845641 0 0.1629417774024369 -0.21276259828409461 0 0.14256546384623789 -0.22053766409108891 0 0.1501427763778734 -0.20570453689654711 0 0.1248154805027742 -0.21201816247765881 0 0.14256546384623789 -0.22053766409108891 0 0.13496895473241149 -0.19779797726845641 0 0.13496895473241149 -0.19779797726845641 0 0.12910246768697931 -0.18192089513000809 0 0.14255131363378029 -0.18594857253296029 0 0.12250637476606289 -0.19605755286646609 0 0.13496895473241149 -0.19779797726845641 0 0.12910246768697931 -0.18192089513000809 0 0.12250637476606289 -0.19605755286646609 0 0.1248154805027742 -0.21201816247765881 0 0.13496895473241149 -0.19779797726845641 0 0.12910246768697931 -0.18192089513000809 0 0.14309605924956931 -0.17277041450622049 0 0.13002454554552581 -0.1620209785614749 0 0.12910246768697931 -0.18192089513000809 0 0.14255131363378029 -0.18594857253296029 0 0.14309605924956931 -0.17277041450622049 0 0.14255131363378029 -0.18594857253296029 0 0.14309605924956931 -0.17277041450622049 0 0.156167572953612 -0.183519850450967 0 0.14309605924956931 -0.17277041450622049 0 0.156167572953612 -0.183519850450967 0 0.156167572953612 -0.183519850450967 0 0.14861824399764051 -0.15718976125916459 0 0.156167572953612 -0.183519850450967 0 0.14861824399764051 -0.15718976125916459 0 0.1612321295231964 -0.1695872792902279 0 0.14309605924956931 -0.17277041450622049 0 0.156167572953612 -0.183519850450967 0 0.14861824399764051 -0.15718976125916459 0 0.14309605924956931 -0.17277041450622049 0 0.14861824399764051 -0.15718976125916459 0 0.13002454554552581 -0.1620209785614749 0 0.14861824399764051 -0.15718976125916459 0 0.13002454554552581 -0.1620209785614749 0 0.14309605924956931 -0.17277041450622049 0 0.13002454554552581 -0.1620209785614749 0 0.1148717357168767 -0.1495599765441166 0 0.13002454554552581 -0.1620209785614749 0 0.13241322765818911 -0.14762789913225119 0 0.14861824399764051 -0.15718976125916459 0 0.13002454554552581 -0.1620209785614749 0 0.13241322765818911 -0.14762789913225119 0 0.13241322765818911 -0.14762789913225119 0 0.12583917944525999 -0.13277694346948851 0 0.14271243358564209 -0.13659183582701201 0 0.1368066231736427 -0.1159939103948598 0 0.14271243358564209 -0.13659183582701201 0 0.1368066231736427 -0.1159939103948598 0 0.12583917944525999 -0.13277694346948851 0 0.14271243358564209 -0.13659183582701201 0 0.15125420783877669 -0.124339809162999 0 0.14271243358564209 -0.13659183582701201 0 0.15594763143651269 -0.1434412060562302 0 0.1368066231736427 -0.1159939103948598 0 0.15125420783877669 -0.124339809162999 0 0.14271243358564209 -0.13659183582701201 0 0.14861824399764051 -0.15718976125916459 0 0.14271243358564209 -0.13659183582701201 0 0.14861824399764051 -0.15718976125916459 0 0.13241322765818911 -0.14762789913225119 0 0.14271243358564209 -0.13659183582701201 0 0.14861824399764051 -0.15718976125916459 0 0.14271243358564209 -0.13659183582701201 0 0.15594763143651269 -0.1434412060562302 0 0.15594763143651269 -0.1434412060562302 0 0.16873316462623611 -0.1519632834378867 0 0.16727312623997409 -0.1336721453819745 0 0.14861824399764051 -0.15718976125916459 0 0.16873316462623611 -0.1519632834378867 0 0.14861824399764051 -0.15718976125916459 0 0.15594763143651269 -0.1434412060562302 0 0.16873316462623611 -0.1519632834378867 0 0.15125420783877669 -0.124339809162999 0 0.16505219821115291 -0.1179000112218471 0 0.16727312623997409 -0.1336721453819745 0 0.15125420783877669 -0.124339809162999 0 0.15594763143651269 -0.1434412060562302 0 0.16727312623997409 -0.1336721453819745 0 0.1783138306742694 -0.12416736188071451 0 0.16505219821115291 -0.1179000112218471 0 0.16727312623997409 -0.1336721453819745 0 0.1783138306742694 -0.12416736188071451 0 0.16727312623997409 -0.1336721453819745 0 0.18404940873337 -0.13876197893053349 0 0.1783138306742694 -0.12416736188071451 0 0.19696072622908919 -0.1182688444921864 0 0.18404940873337 -0.13876197893053349 0 0.18884808525483149 -0.14673680561660879 0 0.16873316462623611 -0.1519632834378867 0 0.1919061367377547 -0.15595889693782239 0 0.18884808525483149 -0.14673680561660879 0 0.16873316462623611 -0.1519632834378867 0 0.16873316462623611 -0.1519632834378867 0 0.16727312623997409 -0.1336721453819745 0 0.18404940873337 -0.13876197893053349 0 0.18884808525483149 -0.14673680561660879 0 0.16873316462623611 -0.1519632834378867 0 0.18404940873337 -0.13876197893053349 0 0.1919061367377547 -0.15595889693782239 0 0.16873316462623611 -0.1519632834378867 0 0.17484926759208269 -0.1704074660803146 0 0.1919061367377547 -0.15595889693782239 0 0.19254374552400089 -0.1745769916592573 0 0.17484926759208269 -0.1704074660803146 0 0.1919061367377547 -0.15595889693782239 0 0.17484926759208269 -0.1704074660803146 0 0.19254374552400089 -0.1745769916592573 0 0.17484926759208269 -0.1704074660803146 0 0.17786425023654179 -0.1847706079838991 0 0.19254374552400089 -0.1745769916592573 0 0.1903297167517953 -0.1875598317792451 0 0.17786425023654179 -0.1847706079838991 0 0.17484926759208269 -0.1704074660803146 0 0.15779239844640969 -0.18485603522280561 0 0.1612321295231964 -0.1695872792902279 0 0.17484926759208269 -0.1704074660803146 0 0.17786425023654179 -0.1847706079838991 0 0.15779239844640969 -0.18485603522280561 0 0.17484926759208269 -0.1704074660803146 0 0.15779239844640969 -0.18485603522280561 0 0.156167572953612 -0.183519850450967 0 0.15779239844640969 -0.18485603522280561 0 0.156167572953612 -0.183519850450967 0 0.15779239844640969 -0.18485603522280561 0 0.1612321295231964 -0.1695872792902279 0 0.14861824399764051 -0.15718976125916459 0 0.16873316462623611 -0.1519632834378867 0 0.1612321295231964 -0.1695872792902279 0 0.16873316462623611 -0.1519632834378867 0 0.17484926759208269 -0.1704074660803146 0 0.1612321295231964 -0.1695872792902279 0 
</DataArray>
</Points>
<Cells>
<DataArray type="UInt32" Name="connectivity" format="ascii">
0 1 2 3 4 5 6 7 8 9 10 11 12 13 14 15 16 17 18 19 20 21 22 23 24 25 26 27 28 29 30 31 32 33 34 35 36 37 38 39 40 41 42 43 44 45 46 47 48 49 50 51 52 53 54 55 56 57 58 59 60 61 62 63 64 65 66 67 68 69 70 71 72 73 74 75 76 77 78 79 80 81 82 83 84 85 86 87 88 89 90 91 92 93 94 95 96 97 98 99 100 101 102 103 104 105 106 107 108 109 110 111 112 113 114 115 116 117 118 119 120 121 122 123 124 125 126 127 128 129 130 131 132 133 134 135 136 137 138 139 140 141 142 143 144 145 146 147 148 149 150 151 152 153 154 155 156 157 158 159 160 161 162 163 164 165 166 167 168 169 170 171 172 173 174 175 176 177 178 179 180 181 182 183 184 185 186 187 188 189 190 191 192 193 194 195 196 197 198 199 200 201 202 203 204 205 206 207 208 209 210 211 212 213 214 215 216 217 218 219 220 221 222 223 224 225 226 227 228 229 230 231 232 233 234 235 236 237 238 239 240 241 242 243 244 245 246 247 248 249 250 251 252 253 254 255 256 257 258 259 260 261 262 263 264 265 266 267 268 269 270 271 272 273 274 275 276 277 278 279 280 281 282 283 284 285 286 287 288 289 290 291 292 293 294 295 296 297 298 299 300 301 302 303 304 305 306 307 308 309 310 311 312 313 314 315 316 317 318 319 320 321 322 323 324 325 326 327 328 329 330 331 332 333 334 335 336 337 338 339 340 341 342 343 344 345 346 347 348 349 350 351 352 353 354 355 356 357 358 359 360 361 362 363 364 365 366 367 368 369 370 371 372 373 374 375 376 377 378 379 380 381 382 383 384 385 386 387 388 389 390 391 392 393 394 395 396 397 398 399 400 401 402 403 404 405 406 407 408 409 410 411 412 413 414 415 416 417 418 419 420 421 422 423 424 425 426 427 428 429 430 431 432 433 434 435 436 437 438 439 440 441 442 443 444 445 446 447 448 449 450 451 452 453 454 455 456 457 458 459 460 461 462 463 464 465 466 467 468 469 470 471 472 473 474 475 476 477 478 479 480 481 482 483 484 485 486 487 488 489 490 491 492 493 494 495 496 497 498 499 500 501 502 503 504 505 506 507 508 509 510 511 512 513 514 515 516 517 518 519 520 521 522 523 524 525 526 527 528 529 530 531 532 533 534 535 536 537 538 539 540 541 542 543 544 545 546 547 548 549 550 551 552 553 554 555 556 557 558 559 560 561 562 563 564 565 566 567 568 569 570 571 572 573 574 575 576 577 578 579 580 581 582 583 584 585 586 587 588 589 590 591 592 593 594 595 596 597 598 599 600 601 602 603 604 605 606 607 608 609 610 611 612 613 614 615 616 617 618 619 620 621 622 623 624 625 626 627 628 629 630 631 632 633 634 635 636 637 638 639 640 641 642 643 644 645 646 647 648 649 650 651 652 653 654 655 656 657 658 659 660 661 662 663 664 665 666 667 668 669 670 671 672 673 674 675 676 677 678 679 680 681 682 683 684 685 686 687 688 689 690 691 692 693 694 695 696 697 698 699 700 701 702 703 704 705 706 707 708 709 710 711 712 713 714 715 716 717 718 719 720 721 722 723 724 725 726 727 728 729 730 731 732 733 734 735 736 737 738 739 740 741 742 743 744 745 746 747 748 749 750 751 752 753 754 755 756 757 758 759 760 761 762 763 764 765 766 767 768 769 770 771 772 773 774 775 776 777 778 779 780 781 782 783 784 785 786 787 788 789 790 791 792 793 794 795 796 797 798 799 800 801 802 803 804 805 806 807 808 809 810 811 812 813 814 815 816 817 818 819 820 821 822 823 824 825 826 827 828 829 830 831 832 833 834 835 836 837 838 839 840 841 842 843 844 845 846 847 848 849 850 851 852 853 854 855 856 857 858 859 860 861 862 863 864 865 866 867 868 869 870 871 872 873 874 875 876 877 878 879 880 881 882 883 884 885 886 887 888 889 890 891 892 893 894 895 896 897 898 899 900 901 902 903 904 905 906 907 908 909 910 911 912 913 914 915 916 917 918 919 920 921 922 923 924 925 926 927 928 929 930 931 932 933 934 935 936 937 938 939 940 941 942 943 944 945 946 947 948 949 950 951 952 953 954 955 956 957 958 959 960 961 962 963 964 965 966 967 968 969 970 971 972 973 974 975 976 977 978 979 980 981 982 983 984 985 986 987 988 989 990 991 992 993 994 995 996 997 998 999 1000 1001 1002 1003 1004 1005 1006 1007 1008 1009 1010 1011 1012 1013 1014 1015 1016 1017 1018 1019 1020 1021 1022 1023 1024 1025 1026 1027 1028 1029 1030 1031 1032 1033 1034 1035 1036 1037 1038 1039 1040 1041 1042 1043 1044 1045 1046 1047 1048 1049 1050 1051 1052 1053 1054 1055 1056 1057 1058 1059 1060 1061 1062 1063 1064 1065 1066 1067 1068 1069 1070 1071 1072 1073 1074 1075 1076 1077 1078 1079 1080 1081 1082 1083 1084 1085 1086 1087 1088 1089 1090 1091 1092 1093 1094 1095 1096 1097 1098 1099 1100 1101 1102 1103 1104 1105 1106 1107 1108 1109 1110 1111 1112 1113 1114 1115 1116 1117 1118 1119 1120 1121 1122 1123 1124 1125 1126 1127 1128 1129 1130 1131 1132 1133 1134 1135 1136 1137 1138 1139 1140 1141 1142 1143 1144 1145 1146 1147 1148 1149 1150 1151 1152 1153 1154 1155 1156 1157 1158 1159 1160 1161 1162 1163 1164 1165 1166 1167 1168 1169 1170 1171 1172 1173 1174 1175 1176 1177 1178 1179 1180 1181 1182 1183 1184 1185 1186 1187 1188 1189 1190 1191 1192 1193 1194 1195 1196 1197 1198 1199 1200 1201 1202 1203 1204 1205 1206 1207 1208 1209 1210 1211 1212 1213 1214 1215 1216 1217 1218 1219 1220 1221 1222 1223 1224 1225 1226 1227 1228 1229 1230 1231 1232 1233 1234 1235 1236 1237 1238 1239 1240 1241 1242 1243 1244 1245 1246 1247 1248 1249 1250 1251 1252 1253 1254 1255 1256 1257 1258 1259 1260 1261 1262 1263 1264 1265 1266 1267 1268 1269 1270 1271 1272 1273 1274 1275 1276 1277 1278 1279 1280 1281 1282 1283 1284 1285 1286 1287 1288 1289 1290 1291 1292 1293 1294 1295 1296 1297 1298 1299 1300 1301 1302 1303 1304 1305 1306 1307 1308 1309 1310 1311 1312 1313 1314 1315 1316 1317 1318 1319 1320 1321 1322 1323 1324 1325 1326 1327 1328 1329 1330 1331 1332 1333 1334 1335 1336 1337 1338 1339 1340 1341 1342 1343 1344 1345 1346 1347 1348 1349 1350 1351 1352 1353 1354 1355 1356 1357 1358 1359 1360 1361 1362 1363 1364 1365 1366 1367 1368 1369 1370 1371 1372 1373 1374 1375 1376 1377 1378 1379 1380 1381 1382 1383 1384 1385 1386 1387 1388 1389 1390 1391 1392 1393 1394 1395 1396 1397 1398 1399 1400 1401 1402 1403 1404 1405 1406 1407 1408 1409 1410 1411 1412 1413 1414 1415 1416 1417 1418 1419 1420 1421 1422 1423 1424 1425 1426 1427 1428 1429 1430 1431 1432 1433 1434 1435 1436 1437 1438 1439 1440 1441 1442 1443 1444 1445 1446 1447 1448 1449 1450 1451 1452 1453 1454 1455 1456 1457 1458 1459 1460 1461 1462 1463 1464 1465 1466 1467 1468 1469 1470 1471 1472 1473 1474 1475 1476 1477 1478 1479 1480 1481 1482 1483 1484 1485 1486 1487 1488 1489 1490 1491 1492 1493 1494 1495 1496 1497 1498 1499 1500 1501 1502 1503 1504 1505 1506 1507 1508 1509 1510 1511 1512 1513 1514 1515 1516 1517 1518 1519 1520 1521 1522 1523 1524 1525 1526 1527 1528 1529 1530 1531 1532 1533 1534 1535 1536 1537 1538 1539 1540 1541 1542 1543 1544 1545 1546 1547 1548 1549 1550 1551 1552 1553 1554 1555 1556 1557 1558 1559 1560 1561 1562 1563 1564 1565 1566 1567 1568 1569 1570 1571 1572 1573 1574 1575 1576 1577 1578 1579 1580 1581 1582 1583 1584 1585 1586 1587 1588 1589 1590 1591 1592 1593 1594 1595 1596 1597 1598 1599 1600 1601 1602 1603 1604 1605 1606 1607 1608 1609 1610 1611 1612 1613 1614 1615 1616 1617 1618 1619 1620 1621 1622 1623 1624 1625 1626 1627 1628 1629 1630 1631 1632 1633 1634 1635 1636 1637 1638 1639 1640 1641 1642 1643 1644 1645 1646 1647 1648 1649 1650 1651 1652 1653 1654 1655 1656 1657 1658 1659 1660 1661 1662 1663 1664 1665 1666 1667 1668 1669 1670 1671 1672 1673 1674 1675 1676 1677 1678 1679 1680 1681 1682 1683 1684 1685 1686 1687 1688 1689 1690 1691 1692 1693 1694 1695 1696 1697 1698 1699 1700 1701 1702 1703 1704 1705 1706 1707 1708 1709 1710 1711 1712 1713 1714 1715 1716 1717 1718 1719 1720 1721 1722 1723 1724 1725 1726 1727 1728 1729 1730 1731 1732 1733 1734 1735 1736 1737 1738 1739 1740 1741 1742 1743 1744 1745 1746 1747 1748 1749 1750 1751 1752 1753 1754 1755 1756 1757 1758 1759 1760 1761 1762 1763 1764 1765 1766 1767 1768 1769 1770 1771 1772 1773 1774 1775 1776 1777 1778 1779 1780 1781 1782 1783 1784 1785 1786 1787 1788 1789 1790 1791 1792 1793 1794 1795 1796 1797 1798 1799 1800 1801 1802 1803 1804 1805 1806 1807 1808 1809 1810 1811 1812 1813 1814 1815 1816 1817 1818 1819 1820 1821 1822 1823 1824 1825 1826 1827 1828 1829 1830 1831 1832 1833 1834 1835 1836 1837 1838 1839 1840 1841 1842 1843 1844 1845 1846 1847 1848 1849 1850 1851 1852 1853 1854 1855 1856 1857 1858 1859 1860 1861 1862 1863 1864 1865 1866 1867 1868 1869 1870 1871 1872 1873 1874 1875 1876 1877 1878 1879 1880 1881 1882 1883 1884 1885 1886 1887 1888 1889 1890 1891 1892 1893 1894 1895 1896 1897 1898 1899 1900 1901 1902 1903 1904 1905 1906 1907 1908 1909 1910 1911 1912 1913 1914 1915 1916 1917 1918 1919 1920 1921 1922 1923 1924 1925 1926 1927 1928 1929 1930 1931 1932 1933 1934 1935 1936 1937 1938 1939 1940 1941 1942 1943 1944 1945 1946 1947 1948 1949 1950 1951 1952 1953 1954 1955 1956 1957 1958 1959 1960 1961 1962 1963 1964 1965 1966 1967 1968 1969 1970 1971 1972 1973 1974 1975 1976 1977 1978 1979 1980 1981 1982 1983 1984 1985 1986 1987 1988 1989 1990 1991 1992 1993 1994 1995 1996 1997 1998 1999 2000 2001 2002 2003 2004 2005 2006 2007 2008 2009 2010 2011 2012 2013 2014 2015 2016 2017 2018 2019 2020 2021 2022 2023 2024 2025 2026 2027 2028 2029 2030 2031 2032 2033 2034 2035 2036 2037 2038 2039 2040 2041 2042 2043 2044 2045 2046 2047 2048 2049 2050 2051 2052 2053 2054 2055 2056 2057 2058 2059 2060 2061 2062 2063 2064 2065 2066 2067 2068 2069 2070 2071 2072 2073 2074 2075 2076 2077 2078 2079 2080 2081 2082 2083 2084 2085 2086 2087 2088 2089 2090 2091 2092 2093 2094 2095 2096 2097 2098 2099 2100 2101 2102 2103 2104 2105 2106 2107 2108 2109 2110 2111 2112 2113 2114 2115 2116 2117 2118 2119 2120 2121 2122 2123 2124 2125 2126 2127 2128 2129 2130 2131 2132 2133 2134 2135 2136 2137 2138 2139 2140 2141 2142 2143 2144 2145 2146 2147 2148 2149 2150 2151 2152 2153 2154 2155 2156 2157 2158 2159 2160 2161 2162 2163 2164 2165 2166 2167 2168 2169 2170 2171 2172 2173 2174 2175 2176 2177 2178 2179 2180 2181 2182 2183 2184 2185 2186 2187 2188 2189 2190 2191 2192 2193 2194 2195 2196 2197 2198 2199 2200 2201 2202 2203 2204 2205 2206 2207 2208 2209 2210 2211 2212 2213 2214 2215 2216 2217 2218 2219 2220 2221 2222 2223 2224 2225 2226 2227 2228 2229 2230 2231 2232 2233 2234 2235 2236 2237 2238 2239 2240 2241 2242 2243 2244 2245 2246 2247 2248 2249 2250 2251 2252 2253 2254 2255 2256 2257 2258 2259 2260 2261 2262 2263 2264 2265 2266 2267 2268 2269 2270 2271 2272 2273 2274 2275 2276 2277 2278 2279 2280 2281 2282 2283 2284 2285 2286 2287 2288 2289 2290 2291 2292 2293 2294 2295 2296 2297 2298 2299 2300 2301 2302 2303 2304 2305 2306 2307 2308 2309 2310 2311 2312 2313 2314 2315 2316 2317 2318 2319 2320 2321 2322 2323 2324 2325 2326 2327 2328 2329 2330 2331 2332 2333 2334 2335 2336 2337 2338 2339 2340 2341 2342 2343 2344 2345 2346 2347 2348 2349 2350 2351 2352 2353 2354 2355 2356 2357 2358 2359 2360 2361 2362 2363 2364 2365 2366 2367 2368 2369 2370 2371 2372 2373 2374 2375 2376 2377 2378 2379 2380 2381 2382 2383 2384 2385 2386 2387 2388 2389 2390 2391 2392 2393 2394 2395 2396 2397 2398 2399 2400 2401 2402 2403 2404 2405 2406 2407 2408 2409 2410 2411 2412 2413 2414 2415 2416 2417 2418 2419 2420 2421 2422 2423 2424 2425 2426 2427 2428 2429 2430 2431 2432 2433 2434 2435 2436 2437 2438 2439 2440 2441 2442 2443 2444 2445 2446 2447 2448 2449 2450 2451 2452 2453 2454 2455 2456 2457 2458 2459 2460 2461 2462 2463 2464 2465 2466 2467 2468 2469 2470 2471 2472 2473 2474 2475 2476 2477 2478 2479 2480 2481 2482 2483 2484 2485 2486 2487 2488 2489 2490 2491 2492 2493 2494 2495 2496 2497 2498 2499 2500 2501 2502 2503 2504 2505 2506 2507 2508 2509 2510 2511 2512 2513 2514 2515 2516 2517 2518 2519 2520 2521 2522 2523 2524 2525 2526 2527 2528 2529 2530 2531 2532 2533 2534 2535 2536 2537 2538 2539 2540 2541 2542 2543 2544 2545 2546 2547 2548 2549 2550 2551 2552 2553 2554 2555 2556 2557 2558 2559 2560 2561 2562 2563 2564 2565 2566 2567 2568 2569 2570 2571 2572 2573 2574 2575 2576 2577 2578 2579 2580 2581 2582 2583 2584 2585 2586 2587 2588 2589 2590 2591 2592 2593 2594 2595 2596 2597 2598 2599 2600 2601 2602 2603 2604 2605 2606 2607 2608 2609 2610 2611 2612 2613 2614 2615 2616 2617 2618 2619 2620 2621 2622 2623 2624 2625 2626 2627 2628 2629 2630 2631 2632 2633 2634 2635 2636 2637 2638 2639 2640 2641 2642 2643 2644 2645 2646 2647 2648 2649 2650 2651 2652 2653 2654 2655 2656 2657 2658 2659 2660 2661 2662 2663 2664 2665 2666 2667 2668 2669 2670 2671 2672 2673 2674 2675 2676 2677 2678 2679 2680 2681 2682 2683 2684 2685 2686 2687 2688 2689 2690 2691 2692 2693 2694 2695 2696 2697 2698 2699 2700 2701 2702 2703 2704 2705 2706 2707 2708 2709 2710 2711 2712 2713 2714 2715 2716 2717 2718 2719 2720 2721 2722 2723 2724 2725 2726 2727 2728 2729 2730 2731 2732 2733 2734 2735 2736 2737 2738 2739 2740 2741 2742 2743 2744 2745 2746 2747 2748 2749 2750 2751 2752 2753 2754 2755 2756 2757 2758 2759 2760 2761 2762 2763 2764 2765 2766 2767 2768 2769 2770 2771 2772 2773 2774 2775 2776 2777 2778 2779 2780 2781 2782 2783 2784 2785 2786 2787 2788 2789 2790 2791 2792 2793 2794 2795 2796 2797 2798 2799 2800 2801 2802 2803 2804 2805 2806 2807 2808 2809 2810 2811 2812 2813 2814 2815 2816 2817 2818 2819 2820 2821 2822 2823 2824 2825 2826 2827 2828 2829 2830 2831 2832 2833 2834 2835 2836 2837 2838 2839 2840 2841 2842 2843 2844 2845 2846 2847 2848 2849 2850 2851 2852 2853 2854 2855 2856 2857 2858 2859 2860 2861 2862 2863 2864 2865 2866 2867 2868 2869 2870 2871 2872 2873 2874 2875 2876 2877 2878 2879 2880 2881 2882 2883 2884 2885 2886 2887 2888 2889 2890 2891 2892 2893 2894 2895 2896 2897 2898 2899 2900 2901 2902 2903 2904 2905 2906 2907 2908 2909 2910 2911 2912 2913 2914 2915 2916 2917 2918 2919 2920 2921 2922 2923 2924 2925 2926 2927 2928 2929 2930 2931 2932 2933 2934 2935 2936 2937 2938 2939 2940 2941 2942 2943 2944 2945 2946 2947 2948 2949 2950 2951 2952 2953 2954 2955 2956 2957 2958 2959 2960 2961 2962 2963 2964 2965 2966 2967 2968 2969 2970 2971 2972 2973 2974 2975 2976 2977 2978 2979 2980 2981 2982 2983 2984 2985 2986 2987 2988 2989 2990 2991 2992 2993 2994 2995 2996 2997 2998 2999 3000 3001 3002 3003 3004 3005 3006 3007 3008 3009 3010 3011 3012 3013 3014 3015 3016 3017 3018 3019 3020 3021 3022 3023 3024 3025 3026 3027 3028 3029 3030 3031 3032 3033 3034 3035 3036 3037 3038 3039 3040 3041 3042 3043 3044 3045 3046 3047 3048 3049 3050 3051 3052 3053 3054 3055 3056 3057 3058 3059 3060 3061 3062 3063 3064 3065 3066 3067 3068 3069 3070 3071 3072 3073 3074 3075 3076 3077 3078 3079 3080 3081 3082 3083 3084 3085 3086 3087 3088 3089 3090 3091 3092 3093 3094 3095 3096 3097 3098 3099 3100 3101 3102 3103 3104 3105 3106 3107 3108 3109 3110 3111 3112 3113 3114 3115 3116 3117 3118 3119 3120 3121 3122 3123 3124 3125 3126 3127 3128 3129 3130 3131 3132 3133 3134 3135 3136 3137 3138 3139 3140 3141 3142 3143 3144 3145 3146 3147 3148 3149 3150 3151 3152 3153 3154 3155 3156 3157 3158 3159 3160 3161 3162 3163 3164 3165 3166 3167 3168 3169 3170 3171 3172 3173 3174 3175 3176 3177 3178 3179 3180 3181 3182 3183 3184 3185 3186 3187 3188 3189 3190 3191 3192 3193 3194 3195 3196 3197 3198 3199 3200 3201 3202 3203 3204 3205 3206 3207 3208 3209 3210 3211 3212 3213 3214 3215 3216 3217 3218 3219 3220 3221 3222 3223 3224 3225 3226 3227 3228 3229 3230 3231 3232 3233 3234 3235 3236 3237 3238 3239 3240 3241 3242 3243 3244 3245 3246 3247 3248 3249 3250 3251 3252 3253 3254 3255 3256 3257 3258 3259 3260 3261 3262 3263 3264 3265 3266 3267 3268 3269 3270 3271 3272 3273 3274 3275 3276 3277 3278 3279 3280 3281 3282 3283 3284 3285 3286 3287 3288 3289 3290 3291 3292 3293 3294 3295 3296 3297 3298 3299 3300 3301 3302 3303 3304 3305 3306 3307 3308 3309 3310 3311 3312 3313 3314 3315 3316 3317 3318 3319 3320 3321 3322 3323 3324 3325 3326 3327 3328 3329 3330 3331 3332 3333 3334 3335 3336 3337 3338 3339 3340 3341 3342 3343 3344 3345 3346 3347 3348 3349 3350 3351 3352 3353 3354 3355 3356 3357 3358 3359 3360 3361 3362 3363 3364 3365 3366 3367 3368 3369 3370 3371 3372 3373 3374 3375 3376 3377 3378 3379 3380 3381 3382 3383 3384 3385 3386 3387 3388 3389 3390 3391 3392 3393 3394 3395 3396 3397 3398 3399 3400 3401 3402 3403 3404 3405 3406 3407 3408 3409 3410 3411 3412 3413 3414 3415 3416 3417 3418 3419 3420 3421 3422 3423 3424 3425 3426 3427 3428 3429 3430 3431 3432 3433 3434 3435 3436 3437 3438 3439 3440 3441 3442 3443 3444 3445 3446 3447 3448 3449 3450 3451 3452 3453 3454 3455 3456 3457 3458 3459 3460 3461 3462 3463 3464 3465 3466 3467 3468 3469 3470 3471 3472 3473 3474 3475 3476 3477 3478 3479 3480 3481 3482 3483 3484 3485 3486 3487 3488 3489 3490 3491 3492 3493 3494 3495 3496 3497 3498 3499 3500 3501 3502 3503 3504 3505 3506 3507 3508 3509 3510 3511 3512 3513 3514 3515 3516 3517 3518 3519 3520 3521 3522 3523 3524 3525 3526 3527 3528 3529 3530 3531 3532 3533 3534 3535 3536 3537 3538 3539 3540 3541 3542 3543 3544 3545 3546 3547 3548 3549 3550 3551 3552 3553 3554 3555 3556 3557 3558 3559 3560 3561 3562 3563 3564 3565 3566 3567 3568 3569 3570 3571 3572 3573 3574 3575 3576 3577 3578 3579 3580 3581 3582 3583 3584 3585 3586 3587 3588 3589 3590 3591 3592 3593 3594 3595 3596 3597 3598 3599 3600 3601 3602 3603 3604 3605 3606 3607 3608 3609 3610 3611 3612 3613 3614 3615 3616 3617 3618 3619 3620 3621 3622 3623 3624 3625 3626 3627 3628 3629 3630 3631 3632 3633 3634 3635 3636 3637 3638 3639 3640 3641 3642 3643 3644 3645 3646 3647 3648 3649 3650 3651 3652 3653 3654 3655 3656 3657 3658 3659 3660 3661 3662 3663 3664 3665 3666 3667 3668 3669 3670 3671 3672 3673 3674 3675 3676 3677 3678 3679 3680 3681 3682 3683 3684 3685 3686 3687 3688 3689 3690 3691 3692 3693 3694 3695 3696 3697 3698 3699 3700 3701 3702 3703 3704 3705 3706 3707 3708 3709 3710 3711 3712 3713 3714 3715 3716 3717 3718 3719 3720 3721 3722 3723 3724 3725 3726 3727 3728 3729 3730 3731 3732 3733 3734 3735 3736 3737 3738 3739 3740 3741 3742 3743 3744 3745 3746 3747 3748 3749 3750 3751 3752 3753 3754 3755 3756 3757 3758 3759 3760 3761 3762 3763 3764 3765 3766 3767 3768 3769 3770 3771 3772 3773 3774 3775 3776 3777 3778 3779 3780 3781 3782 3783 3784 3785 3786 3787 3788 3789 3790 3791 3792 3793 3794 3795 3796 3797 3798 3799 3800 3801 3802 3803 3804 3805 3806 3807 3808 3809 3810 3811 3812 3813 3814 3815 3816 3817 3818 3819 3820 3821 3822 3823 3824 3825 3826 3827 3828 3829 3830 3831 3832 3833 3834 3835 3836 3837 3838 3839 3840 3841 3842 3843 3844 3845 3846 3847 3848 3849 3850 3851 3852 3853 3854 3855 3856 3857 3858 3859 3860 3861 3862 3863 3864 3865 3866 3867 3868 3869 3870 3871 3872 3873 3874 3875 3876 3877 3878 3879 3880 3881 3882 3883 3884 3885 3886 3887 3888 3889 3890 3891 3892 3893 3894 3895 3896 3897 3898 3899 3900 3901 3902 3903 3904 3905 3906 3907 3908 3909 3910 3911 3912 3913 3914 3915 3916 3917 3918 3919 3920 3921 3922 3923 3924 3925 3926 3927 3928 3929 3930 3931 3932 3933 3934 3935 3936 3937 3938 3939 3940 3941 3942 3943 3944 3945 3946 3947 3948 3949 3950 3951 3952 3953 3954 3955 3956 3957 3958 3959 3960 3961 3962 3963 3964 3965 3966 3967 3968 3969 3970 3971 3972 3973 3974 3975 3976 3977 3978 3979 3980 3981 3982 3983 3984 3985 3986 3987 3988 3989 3990 3991 3992 3993 3994 3995 3996 3997 3998 3999 4000 4001 4002 4003 4004 4005 4006 4007 4008 4009 4010 4011 4012 4013 4014 4015 4016 4017 4018 4019 4020 4021 4022 4023 4024 4025 4026 4027 4028 4029 4030 4031 4032 4033 4034 4035 4036 4037 4038 4039 4040 4041 4042 4043 4044 4045 4046 4047 4048 4049 4050 4051 4052 4053 4054 4055 4056 4057 4058 4059 4060 4061 4062 4063 4064 4065 4066 4067 4068 4069 4070 4071 4072 4073 4074 4075 4076 4077 4078 4079 4080 4081 4082 4083 4084 4085 4086 4087 4088 4089 4090 4091 4092 4093 4094 4095 4096 4097 4098 4099 4100 4101 4102 4103 4104 4105 4106 4107 4108 4109 4110 4111 4112 4113 4114 4115 4116 4117 4118 4119 4120 4121 4122 4123 4124 4125 4126 4127 4128 4129 4130 4131 4132 4133 4134 4135 4136 4137 4138 4139 4140 4141 4142 4143 4144 4145 4146 4147 4148 4149 4150 4151 4152 4153 4154 4155 4156 4157 4158 4159 4160 4161 4162 4163 4164 4165 4166 4167 4168 4169 4170 4171 4172 4173 4174 4175 4176 4177 4178 4179 4180 4181 4182 4183 4184 4185 4186 4187 4188 4189 4190 4191 4192 4193 4194 4195 4196 4197 4198 4199 4200 4201 4202 4203 4204 4205 4206 4207 4208 4209 4210 4211 4212 4213 4214 4215 4216 4217 4218 4219 4220 4221 4222 4223 4224 4225 4226 4227 4228 4229 4230 4231 4232 4233 4234 4235 4236 4237 4238 4239 4240 4241 4242 4243 4244 4245 4246 4247 4248 4249 4250 4251 4252 4253 4254 4255 4256 4257 4258 4259 4260 4261 4262 4263 4264 4265 4266 4267 4268 4269 4270 4271 4272 4273 4274 4275 4276 4277 4278 4279 4280 4281 4282 4283 4284 4285 4286 4287 4288 4289 4290 4291 4292 4293 4294 4295 4296 4297 4298 4299 4300 4301 4302 4303 4304 4305 4306 4307 4308 4309 4310 4311 4312 4313 4314 4315 4316 4317 4318 4319 4320 4321 4322 4323 4324 4325 4326 4327 4328 4329 4330 4331 4332 4333 4334 4335 4336 4337 4338 4339 4340 4341 4342 4343 4344 4345 4346 4347 4348 4349 4350 4351 4352 4353 4354 4355 4356 4357 4358 4359 4360 4361 4362 4363 4364 4365 4366 4367 4368 4369 4370 4371 4372 4373 4374 4375 4376 4377 4378 4379 4380 4381 4382 4383 4384 4385 4386 4387 4388 4389 4390 4391 4392 4393 4394 4395 4396 4397 4398 4399 4400 4401 4402 4403 4404 4405 4406 4407 4408 4409 4410 4411 4412 4413 4414 4415 4416 4417 4418 4419 4420 4421 4422 4423 4424 4425 4426 4427 4428 4429 4430 4431 4432 4433 4434 4435 4436 4437 4438 4439 4440 4441 4442 4443 4444 4445 4446 4447 4448 4449 4450 4451 4452 4453 4454 4455 4456 4457 4458 4459 4460 4461 4462 4463 4464 4465 4466 4467 4468 4469 4470 4471 4472 4473 4474 4475 4476 4477 4478 4479 4480 4481 4482 4483 4484 4485 4486 4487 4488 4489 4490 4491 4492 4493 4494 4495 4496 4497 4498 4499 4500 4501 4502 4503 4504 4505 4506 4507 4508 4509 4510 4511 4512 4513 4514 4515 4516 4517 4518 4519 4520 4521 4522 4523 4524 4525 4526 4527 4528 4529 4530 4531 4532 4533 4534 4535 4536 4537 4538 4539 4540 4541 4542 4543 4544 4545 4546 4547 4548 4549 4550 4551 4552 4553 4554 4555 4556 4557 4558 4559 4560 4561 4562 4563 4564 4565 4566 4567 4568 4569 4570 4571 4572 4573 4574 4575 4576 4577 4578 4579 4580 4581 4582 4583 4584 4585 4586 4587 4588 4589 4590 4591 4592 4593 4594 4595 4596 4597 4598 4599 4600 4601 4602 4603 4604 4605 4606 4607 4608 4609 4610 4611 4612 4613 4614 4615 4616 4617 4618 4619 4620 4621 4622 4623 4624 4625 4626 4627 4628 4629 4630 4631 4632 4633 4634 4635 4636 4637 4638 4639 4640 4641 4642 4643 4644 4645 4646 4647 4648 4649 4650 4651 4652 4653 4654 4655 4656 4657 4658 4659 4660 4661 4662 4663 4664 4665 4666 4667 4668 4669 4670 4671 4672 4673 4674 4675 4676 4677 4678 4679 4680 4681 4682 4683 4684 4685 4686 4687 4688 4689 4690 4691 4692 4693 4694 4695 4696 4697 4698 4699 4700 4701 4702 4703 4704 4705 4706 4707 4708 4709 4710 4711 4712 4713 4714 4715 4716 4717 4718 4719 4720 4721 4722 4723 4724 4725 4726 4727 4728 4729 4730 4731 4732 4733 4734 4735 4736 4737 4738 4739 4740 4741 4742 4743 4744 4745 4746 4747 4748 4749 4750 4751 4752 4753 4754 4755 4756 4757 4758 4759 4760 4761 4762 4763 4764 4765 4766 4767 4768 4769 4770 4771 4772 4773 4774 4775 4776 4777 4778 4779 4780 4781 4782 4783 4784 4785 4786 4787 4788 4789 4790 4791 4792 4793 4794 4795 4796 4797 4798 4799 4800 4801 4802 4803 4804 4805 4806 4807 4808 4809 4810 4811 4812 4813 4814 4815 4816 4817 4818 4819 4820 4821 4822 4823 4824 4825 4826 4827 4828 4829 4830 4831 4832 4833 4834 4835 4836 4837 4838 4839 4840 4841 4842 4843 4844 4845 4846 4847 4848 4849 4850 4851 4852 4853 4854 4855 4856 4857 4858 4859 4860 4861 4862 4863 4864 4865 4866 4867 4868 4869 4870 4871 4872 4873 4874 4875 4876 4877 4878 4879 4880 4881 4882 4883 4884 4885 4886 4887 4888 4889 4890 4891 4892 4893 4894 4895 4896 4897 4898 4899 4900 4901 4902 4903 4904 4905 4906 4907 4908 4909 4910 4911 4912 4913 4914 4915 4916 4917 4918 4919 4920 4921 4922 4923 4924 4925 4926 4927 4928 4929 4930 4931 4932 4933 4934 4935 4936 4937 4938 4939 4940 4941 4942 4943 4944 4945 4946 4947 4948 4949 4950 4951 4952 4953 4954 4955 4956 4957 4958 4959 4960 4961 4962 4963 4964 4965 4966 4967 4968 4969 4970 4971 4972 4973 4974 4975 4976 4977 4978 4979 4980 4981 4982 4983 4984 4985 4986 4987 4988 4989 4990 4991 4992 4993 4994 4995 4996 4997 4998 4999 5000 5001 5002 5003 5004 5005 5006 5007 5008 5009 5010 5011 5012 5013 5014 5015 5016 5017 5018 5019 5020 5021 5022 5023 5024 5025 5026 5027 5028 5029 5030 5031 5032 5033 5034 5035 5036 5037 5038 5039 5040 5041 5042 5043 5044 5045 5046 5047 5048 5049 5050 5051 5052 5053 5054 5055 5056 5057 5058 5059 5060 5061 5062 5063 5064 5065 5066 5067 5068 5069 5070 5071 5072 5073 5074 5075 5076 5077 5078 5079 5080 5081 5082 5083 5084 5085 5086 5087 5088 5089 5090 5091 5092 5093 5094 5095 5096 5097 5098 5099 5100 5101 5102 5103 5104 5105 5106 5107 5108 5109 5110 5111 5112 5113 5114 5115 5116 5117 5118 5119 5120 5121 5122 5123 5124 5125 5126 5127 5128 5129 5130 5131 5132 5133 5134 5135 5136 5137 5138 5139 5140 5141 5142 5143 5144 5145 5146 5147 5148 5149 5150 5151 5152 5153 5154 5155 5156 5157 5158 5159 5160 5161 5162 5163 5164 5165 5166 5167 5168 5169 5170 5171 5172 5173 5174 5175 5176 5177 5178 5179 5180 5181 5182 5183 5184 5185 5186 5187 5188 5189 5190 5191 5192 5193 5194 5195 5196 5197 5198 5199 5200 5201 5202 5203 5204 5205 5206 5207 5208 5209 5210 5211 5212 5213 5214 5215 5216 5217 5218 5219 5220 5221 5222 5223 5224 5225 5226 5227 5228 5229 5230 5231 5232 5233 5234 5235 5236 5237 5238 5239 5240 5241 5242 5243 5244 5245 5246 5247 5248 5249 5250 5251 5252 5253 5254 5255 5256 5257 5258 5259 5260 5261 5262 5263 5264 5265 5266 5267 5268 5269 5270 5271 5272 5273 5274 5275 5276 5277 5278 5279 5280 5281 5282 5283 5284 5285 5286 5287 5288 5289 5290 5291 5292 5293 5294 5295 5296 5297 5298 5299 5300 5301 5302 5303 5304 5305 5306 5307 5308 5309 5310 5311 5312 5313 5314 5315 5316 5317 5318 5319 5320 5321 5322 5323 5324 5325 5326 5327 5328 5329 5330 5331 5332 5333 5334 5335 5336 5337 5338 5339 5340 5341 5342 5343 5344 5345 5346 5347 5348 5349 5350 5351 5352 5353 5354 5355 5356 5357 5358 5359 5360 5361 5362 5363 5364 5365 5366 5367 5368 5369 5370 5371 5372 5373 5374 5375 5376 5377 5378 5379 5380 5381 5382 5383 5384 5385 5386 5387 5388 5389 5390 5391 5392 5393 5394 5395 5396 5397 5398 5399 5400 5401 5402 5403 5404 5405 5406 5407 5408 5409 5410 5411 5412 5413 5414 5415 5416 5417 5418 5419 5420 5421 5422 5423 5424 5425 5426 5427 5428 5429 5430 5431 5432 5433 5434 5435 5436 5437 5438 5439 5440 5441 5442 5443 5444 5445 5446 5447 5448 5449 5450 5451 5452 5453 5454 5455 5456 5457 5458 5459 5460 5461 5462 5463 5464 5465 5466 5467 5468 5469 5470 5471 5472 5473 5474 5475 5476 5477 5478 5479 5480 5481 5482 5483 5484 5485 5486 5487 5488 5489 5490 5491 5492 5493 5494 5495 5496 5497 5498 5499 5500 5501 5502 5503 5504 5505 5506 5507 5508 5509 5510 5511 5512 5513 5514 5515 5516 5517 5518 5519 5520 5521 5522 5523 5524 5525 5526 5527 5528 5529 5530 5531 5532 5533 5534 5535 5536 5537 5538 5539 5540 5541 5542 5543 5544 5545 5546 5547 5548 5549 5550 5551 5552 5553 5554 5555 5556 5557 5558 5559 5560 5561 5562 5563 5564 5565 5566 5567 5568 5569 5570 5571 5572 5573 5574 5575 5576 5577 5578 5579 5580 5581 5582 5583 5584 5585 5586 5587 5588 5589 5590 5591 5592 5593 5594 5595 5596 5597 5598 5599 5600 5601 5602 5603 5604 5605 5606 5607 5608 5609 5610 5611 5612 5613 5614 5615 5616 5617 5618 5619 5620 5621 5622 5623 5624 5625 5626 5627 5628 5629 5630 5631 5632 5633 5634 5635 5636 5637 5638 5639 5640 5641 5642 5643 5644 5645 5646 5647 5648 5649 5650 5651 5652 5653 5654 5655 5656 5657 5658 5659 5660 5661 5662 5663 5664 5665 5666 5667 5668 5669 5670 5671 5672 5673 5674 5675 5676 5677 5678 5679 5680 5681 5682 5683 5684 5685 5686 5687 5688 5689 5690 5691 5692 5693 5694 5695 5696 5697 5698 5699 5700 5701 5702 5703 5704 5705 5706 5707 5708 5709 5710 5711 5712 5713 5714 5715 5716 5717 5718 5719 5720 5721 5722 5723 5724 5725 5726 5727 5728 5729 5730 5731 5732 5733 5734 5735 5736 5737 5738 5739 5740 5741 5742 5743 5744 5745 5746 5747 5748 5749 5750 5751 5752 5753 5754 5755 5756 5757 5758 5759 5760 5761 5762 5763 5764 5765 5766 5767 5768 5769 5770 5771 5772 5773 5774 5775 5776 5777 5778 5779 5780 5781 5782 5783 5784 5785 5786 5787 5788 5789 5790 5791 5792 5793 5794 5795 5796 5797 5798 5799 5800 5801 5802 5803 5804 5805 5806 5807 5808 5809 5810 5811 5812 5813 5814 5815 5816 5817 5818 5819 5820 5821 5822 5823 5824 5825 5826 5827 5828 5829 5830 5831 5832 5833 5834 5835 5836 5837 5838 5839 5840 5841 5842 5843 5844 5845 5846 5847 5848 5849 5850 5851 5852 5853 5854 5855 5856 5857 5858 5859 5860 5861 5862 5863 5864 5865 5866 5867 5868 5869 5870 5871 5872 5873 5874 5875 5876 5877 5878 5879 5880 5881 5882 5883 5884 5885 5886 5887 5888 5889 5890 5891 5892 5893 5894 5895 5896 5897 5898 5899 5900 5901 5902 5903 5904 5905 5906 5907 5908 5909 5910 5911 5912 5913 5914 5915 5916 5917 5918 5919 5920 5921 5922 5923 5924 5925 5926 5927 5928 5929 5930 5931 5932 5933 5934 5935 5936 5937 5938 5939 5940 5941 5942 5943 5944 5945 5946 5947 5948 5949 5950 5951 5952 5953 5954 5955 5956 5957 5958 5959 5960 5961 5962 5963 5964 5965 5966 5967 5968 5969 5970 5971 5972 5973 5974 5975 5976 5977 5978 5979 5980 5981 5982 5983 5984 5985 5986 5987 5988 5989 5990 5991 5992 5993 5994 5995 5996 5997 5998 5999 6000 6001 6002 6003 6004 6005 6006 6007 6008 6009 6010 6011 6012 6013 6014 6015 6016 6017 6018 6019 6020 6021 6022 6023 6024 6025 6026 6027 6028 6029 6030 6031 6032 6033 6034 6035 6036 6037 6038 6039 6040 6041 6042 6043 6044 6045 6046 6047 6048 6049 6050 6051 6052 6053 6054 6055 6056 6057 6058 6059 6060 6061 6062 6063 6064 6065 6066 6067 6068 6069 6070 6071 6072 6073 6074 6075 6076 6077 6078 6079 6080 6081 6082 6083 6084 6085 6086 6087 6088 6089 6090 6091 6092 6093 6094 6095 6096 6097 6098 6099 6100 6101 6102 6103 6104 6105 6106 6107 6108 6109 6110 6111 6112 6113 6114 6115 6116 6117 6118 6119 6120 6121 6122 6123 6124 6125 6126 6127 6128 6129 6130 6131 6132 6133 6134 6135 6136 6137 6138 6139 6140 6141 6142 6143 6144 6145 6146 6147 6148 6149 6150 6151 6152 6153 6154 6155 6156 6157 6158 6159 6160 6161 6162 6163 6164 6165 6166 6167 6168 6169 6170 6171 6172 6173 6174 6175 6176 6177 6178 6179 6180 6181 6182 6183 6184 6185 6186 6187 6188 6189 6190 6191 6192 6193 6194 6195 6196 6197 6198 6199 6200 6201 6202 6203 6204 6205 6206 6207 6208 6209 6210 6211 6212 6213 6214 6215 6216 6217 6218 6219 6220 6221 6222 6223 6224 6225 6226 6227 6228 6229 6230 6231 6232 6233 6234 6235 6236 6237 6238 6239 6240 6241 6242 6243 6244 6245 6246 6247 6248 6249 6250 6251 6252 6253 6254 6255 6256 6257 6258 6259 6260 6261 6262 6263 6264 6265 6266 6267 6268 6269 6270 6271 6272 6273 6274 6275 6276 6277 6278 6279 6280 6281 6282 6283 6284 6285 6286 6287 6288 6289 6290 6291 6292 6293 6294 6295 6296 6297 6298 6299 6300 6301 6302 6303 6304 6305 6306 6307 6308 6309 6310 6311 6312 6313 6314 6315 6316 6317 6318 6319 6320 6321 6322 6323 6324 6325 6326 6327 6328 6329 6330 6331 6332 6333 6334 6335 6336 6337 6338 6339 6340 6341 6342 6343 6344 6345 6346 6347 6348 6349 6350 6351 6352 6353 6354 6355 6356 6357 6358 6359 6360 6361 6362 6363 6364 6365 6366 6367 6368 6369 6370 6371 6372 6373 6374 6375 6376 6377 6378 6379 6380 6381 6382 6383 6384 6385 6386 6387 6388 6389 6390 6391 6392 6393 6394 6395 6396 6397 6398 6399 6400 6401 6402 6403 6404 6405 6406 6407 6408 6409 6410 6411 6412 6413 6414 6415 6416 6417 6418 6419 6420 6421 6422 6423 6424 6425 6426 6427 6428 6429 6430 6431 6432 6433 6434 6435 6436 6437 6438 6439 6440 6441 6442 6443 6444 6445 6446 6447 6448 6449 6450 6451 6452 6453 6454 6455 6456 6457 6458 6459 6460 6461 6462 6463 6464 6465 6466 6467 6468 6469 6470 6471 6472 6473 6474 6475 6476 6477 6478 6479 6480 6481 6482 6483 6484 6485 6486 6487 6488 6489 6490 6491 6492 6493 6494 6495 6496 6497 6498 6499 6500 6501 6502 6503 6504 6505 6506 6507 6508 6509 6510 6511 6512 6513 6514 6515 6516 6517 6518 6519 6520 6521 6522 6523 6524 6525 6526 6527 6528 6529 6530 6531 6532 6533 6534 6535 6536 6537 6538 6539 6540 6541 6542 6543 6544 6545 6546 6547 6548 6549 6550 6551 6552 6553 6554 6555 6556 6557 6558 6559 6560 6561 6562 6563 6564 6565 6566 6567 6568 6569 6570 6571 6572 6573 6574 6575 6576 6577 6578 6579 6580 6581 6582 6583 6584 6585 6586 6587 6588 6589 6590 6591 6592 6593 6594 6595 6596 6597 6598 6599 6600 6601 6602 6603 6604 6605 6606 6607 6608 6609 6610 6611 6612 6613 6614 6615 6616 6617 6618 6619 6620 6621 6622 6623 6624 6625 6626 6627 6628 6629 6630 6631 6632 6633 6634 6635 6636 6637 6638 6639 6640 6641 6642 6643 6644 6645 6646 6647 6648 6649 6650 6651 6652 6653 6654 6655 6656 6657 6658 6659 6660 6661 6662 6663 6664 6665 6666 6667 6668 6669 6670 6671 6672 6673 6674 6675 6676 6677 6678 6679 6680 6681 6682 6683 6684 6685 6686 6687 6688 6689 6690 6691 6692 6693 6694 6695 6696 6697 6698 6699 6700 6701 6702 6703 6704 6705 6706 6707 6708 6709 6710 6711 6712 6713 6714 6715 6716 6717 6718 6719 6720 6721 6722 6723 6724 6725 6726 6727 6728 6729 6730 6731 6732 6733 6734 6735 6736 6737 6738 6739 6740 6741 6742 6743 6744 6745 6746 6747 6748 6749 6750 6751 6752 6753 6754 6755 6756 6757 6758 6759 6760 6761 6762 6763 6764 6765 6766 6767 6768 6769 6770 6771 6772 6773 6774 6775 6776 6777 6778 6779 6780 6781 6782 6783 6784 6785 6786 6787 6788 6789 6790 6791 6792 6793 6794 6795 6796 6797 6798 6799 6800 6801 6802 6803 6804 6805 6806 6807 6808 6809 6810 6811 6812 6813 6814 6815 6816 6817 6818 6819 6820 6821 6822 6823 6824 6825 6826 6827 6828 6829 6830 6831 6832 6833 6834 6835 6836 6837 6838 6839 6840 6841 6842 6843 6844 6845 6846 6847 6848 6849 6850 6851 6852 6853 6854 6855 6856 6857 6858 6859 6860 6861 6862 6863 6864 6865 6866 6867 6868 6869 6870 6871 6872 6873 6874 6875 6876 6877 6878 6879 6880 6881 6882 6883 6884 6885 6886 6887 6888 6889 6890 6891 6892 6893 6894 6895 6896 6897 6898 6899 6900 6901 6902 6903 6904 6905 6906 6907 6908 6909 6910 6911 6912 6913 6914 6915 6916 6917 6918 6919 6920 6921 6922 6923 6924 6925 6926 6927 6928 6929 6930 6931 6932 6933 6934 6935 6936 6937 6938 6939 6940 6941 6942 6943 6944 6945 6946 6947 6948 6949 6950 6951 6952 6953 6954 6955 6956 6957 6958 6959 6960 6961 6962 6963 6964 6965 6966 6967 6968 6969 6970 6971 6972 6973 6974 6975 6976 6977 6978 6979 6980 6981 6982 6983 6984 6985 6986 6987 6988 6989 6990 6991 6992 6993 6994 6995 6996 6997 6998 6999 7000 7001 7002 7003 7004 7005 7006 7007 7008 7009 7010 7011 7012 7013 7014 7015 7016 7017 7018 7019 7020 7021 7022 7023 7024 7025 7026 7027 7028 7029 7030 7031 7032 7033 7034 7035 7036 7037 7038 7039 7040 7041 7042 7043 7044 7045 7046 7047 7048 7049 7050 7051 7052 7053 7054 7055 7056 7057 7058 7059 7060 7061 7062 7063 7064 7065 7066 7067 7068 7069 7070 7071 7072 7073 7074 7075 7076 7077 7078 7079 7080 7081 7082 7083 7084 7085 7086 7087 7088 7089 7090 7091 7092 7093 7094 7095 7096 7097 7098 7099 7100 7101 7102 7103 7104 7105 7106 7107 7108 7109 7110 7111 7112 7113 7114 7115 7116 7117 7118 7119 7120 7121 7122 7123 7124 7125 7126 7127 7128 7129 7130 7131 7132 7133 7134 7135 7136 7137 7138 7139 7140 7141 7142 7143 7144 7145 7146 7147 7148 7149 7150 7151 7152 7153 7154 7155 7156 7157 7158 7159 7160 7161 7162 7163 7164 7165 7166 7167 7168 7169 7170 7171 7172 7173 7174 7175 7176 7177 7178 7179 7180 7181 7182 7183 7184 7185 7186 7187 7188 7189 7190 7191 7192 7193 7194 7195 7196 7197 7198 7199 7200 7201 7202 7203 7204 7205 7206 7207 7208 7209 7210 7211 7212 7213 7214 7215 7216 7217 7218 7219 7220 7221 7222 7223 7224 7225 7226 7227 7228 7229 7230 7231 7232 7233 7234 7235 7236 7237 7238 7239 7240 7241 7242 7243 7244 7245 7246 7247 7248 7249 7250 7251 7252 7253 7254 7255 7256 7257 7258 7259 7260 7261 7262 7263 7264 7265 7266 7267 7268 7269 7270 7271 7272 7273 7274 7275 7276 7277 7278 7279 7280 7281 7282 7283 7284 7285 7286 7287 7288 7289 7290 7291 7292 7293 7294 7295 7296 7297 7298 7299 7300 7301 7302 7303 7304 7305 7306 7307 7308 7309 7310 7311 7312 7313 7314 7315 7316 7317 7318 7319 7320 7321 7322 7323 7324 7325 7326 7327 7328 7329 7330 7331 7332 7333 7334 7335 7336 7337 7338 7339 7340 7341 7342 7343 7344 7345 7346 7347 7348 7349 7350 7351 7352 7353 7354 7355 7356 7357 7358 7359 7360 7361 7362 7363 7364 7365 7366 7367 7368 7369 7370 7371 7372 7373 7374 7375 7376 7377 7378 7379 7380 7381 7382 7383 7384 7385 7386 7387 7388 7389 7390 7391 7392 7393 7394 7395 7396 7397 7398 7399 7400 7401 7402 7403 7404 7405 7406 7407 7408 7409 7410 7411 7412 7413 7414 7415 7416 7417 7418 7419 7420 7421 7422 7423 7424 7425 7426 7427 7428 7429 7430 7431 7432 7433 7434 7435 7436 7437 7438 7439 7440 7441 7442 7443 7444 7445 7446 7447 7448 7449 7450 7451 7452 7453 7454 7455 7456 7457 7458 7459 7460 7461 7462 7463 7464 7465 7466 7467 7468 7469 7470 7471 7472 7473 7474 7475 7476 7477 7478 7479 7480 7481 7482 7483 7484 7485 7486 7487 7488 7489 7490 7491 7492 7493 7494 7495 7496 7497 7498 7499 7500 7501 7502 7503 7504 7505 7506 7507 7508 7509 7510 7511 7512 7513 7514 7515 7516 7517 7518 7519 7520 7521 7522 7523 7524 7525 7526 7527 7528 7529 7530 7531 7532 7533 7534 7535 7536 7537 7538 7539 7540 7541 7542 7543 7544 7545 7546 7547 7548 7549 7550 7551 7552 7553 7554 7555 7556 7557 7558 7559 7560 7561 7562 7563 7564 7565 7566 7567 7568 7569 7570 7571 7572 7573 7574 7575 7576 7577 7578 7579 7580 7581 7582 7583 7584 7585 7586 7587 7588 7589 7590 7591 7592 7593 7594 7595 7596 7597 7598 7599 7600 7601 7602 7603 7604 7605 7606 7607 7608 7609 7610 7611 7612 7613 7614 7615 7616 7617 7618 7619 7620 7621 7622 7623 7624 7625 7626 7627 7628 7629 7630 7631 7632 7633 7634 7635 7636 7637 7638 7639 7640 7641 7642 7643 7644 7645 7646 7647 7648 7649 7650 7651 7652 7653 7654 7655 7656 7657 7658 7659 7660 7661 7662 7663 7664 7665 7666 7667 7668 7669 7670 7671 7672 7673 7674 7675 7676 7677 7678 7679 7680 7681 7682 7683 7684 7685 7686 7687 7688 7689 7690 7691 7692 7693 7694 7695 7696 7697 7698 7699 7700 7701 7702 7703 7704 7705 7706 7707 7708 7709 7710 7711 7712 7713 7714 7715 7716 7717 7718 7719 7720 7721 7722 7723 7724 7725 7726 7727 7728 7729 7730 7731 7732 7733 7734 7735 7736 7737 7738 7739 7740 7741 7742 7743 7744 7745 7746 7747 7748 7749 7750 7751 7752 7753 7754 7755 7756 7757 7758 7759 7760 7761 7762 7763 7764 7765 7766 7767 7768 7769 7770 7771 7772 7773 7774 7775 7776 7777 7778 7779 7780 7781 7782 7783 7784 7785 7786 7787 7788 7789 7790 7791 7792 7793 7794 7795 7796 7797 7798 7799 7800 7801 7802 7803 7804 7805 7806 7807 7808 7809 7810 7811 7812 7813 7814 7815 7816 7817 7818 7819 7820 7821 7822 7823 7824 7825 7826 7827 7828 7829 7830 7831 7832 7833 7834 7835 7836 7837 7838 7839 7840 7841 7842 7843 7844 7845 7846 7847 7848 7849 7850 7851 7852 7853 7854 7855 7856 7857 7858 7859 7860 7861 7862 7863 7864 7865 7866 7867 7868 7869 7870 7871 7872 7873 7874 7875 7876 7877 7878 7879 7880 7881 7882 7883 7884 7885 7886 7887 7888 7889 7890 7891 7892 7893 7894 7895 7896 7897 7898 7899 7900 7901 7902 7903 7904 7905 7906 7907 7908 7909 7910 7911 7912 7913 7914 7915 7916 7917 7918 7919 7920 7921 7922 7923 7924 7925 7926 7927 7928 7929 7930 7931 7932 7933 7934 7935 7936 7937 7938 7939 7940 7941 7942 7943 7944 7945 7946 7947 7948 7949 7950 7951 7952 7953 7954 7955 7956 7957 7958 7959 7960 7961 7962 7963 7964 7965 7966 7967 7968 7969 7970 7971 7972 7973 7974 7975 7976 7977 7978 7979 7980 7981 7982 7983 7984 7985 7986 7987 7988 7989 7990 7991 7992 7993 7994 7995 7996 7997 7998 7999 8000 8001 8002 8003 8004 8005 8006 8007 8008 8009 8010 8011 8012 8013 8014 8015 8016 8017 8018 8019 8020 8021 8022 8023 8024 8025 8026 8027 8028 8029 8030 8031 8032 8033 8034 8035 8036 8037 8038 8039 8040 8041 8042 8043 8044 8045 8046 8047 8048 8049 8050 8051 8052 8053 8054 8055 8056 8057 8058 8059 8060 8061 8062 8063 8064 8065 8066 8067 8068 8069 8070 8071 8072 8073 8074 8075 8076 8077 8078 8079 8080 8081 8082 8083 8084 8085 8086 8087 8088 8089 8090 8091 8092 8093 8094 8095 8096 8097 8098 8099 8100 8101 8102 8103 8104 8105 8106 8107 8108 8109 8110 8111 8112 8113 8114 8115 8116 8117 8118 8119 8120 8121 8122 8123 8124 8125 8126 8127 8128 8129 8130 8131 8132 8133 8134 8135 8136 8137 8138 8139 8140 8141 8142 8143 8144 8145 8146 8147 8148 8149 8150 8151 8152 8153 8154 8155 8156 8157 8158 8159 8160 8161 8162 8163 8164 8165 8166 8167 8168 8169 8170 8171 8172 8173 8174 8175 8176 8177 8178 8179 8180 8181 8182 8183 8184 8185 8186 8187 8188 8189 8190 8191 8192 8193 8194 8195 8196 8197 8198 8199 8200 8201 8202 8203 8204 8205 8206 8207 8208 8209 8210 8211 8212 8213 8214 8215 8216 8217 8218 8219 8220 8221 8222 8223 8224 8225 8226 8227 8228 8229 8230 8231 8232 8233 8234 8235 8236 8237 8238 8239 8240 8241 8242 8243 8244 8245 8246 8247 8248 8249 8250 8251 8252 8253 8254 8255 8256 8257 8258 8259 8260 8261 8262 8263 8264 8265 8266 8267 8268 8269 8270 8271 8272 8273 8274 8275 8276 8277 8278 8279 8280 8281 8282 8283 8284 8285 8286 8287 8288 8289 8290 8291 8292 8293 8294 8295 8296 8297 8298 8299 8300 8301 8302 8303 8304 8305 8306 8307 8308 8309 8310 8311 8312 8313 8314 8315 8316 8317 8318 8319 8320 8321 8322 8323 8324 8325 8326 8327 8328 8329 8330 8331 8332 8333 8334 8335 8336 8337 8338 8339 8340 8341 8342 8343 8344 8345 8346 8347 8348 8349 8350 8351 8352 8353 8354 8355 8356 8357 8358 8359 8360 8361 8362 8363 8364 8365 8366 8367 8368 8369 8370 8371 8372 8373 8374 8375 8376 8377 8378 8379 8380 8381 8382 8383 8384 8385 8386 8387 8388 8389 8390 8391 8392 8393 8394 8395 8396 8397 8398 8399 8400 8401 8402 8403 8404 8405 8406 8407 8408 8409 8410 8411 8412 8413 8414 8415 8416 8417 8418 8419 8420 8421 8422 8423 8424 8425 8426 8427 8428 8429 8430 8431 8432 8433 8434 8435 8436 8437 8438 8439 8440 8441 8442 8443 8444 8445 8446 8447 8448 8449 8450 8451 8452 8453 8454 8455 8456 8457 8458 8459 8460 8461 8462 8463 8464 8465 8466 8467 8468 8469 8470 8471 8472 8473 8474 8475 8476 8477 8478 8479 8480 8481 8482 8483 8484 8485 8486 8487 8488 8489 8490 8491 8492 8493 8494 8495 8496 8497 8498 8499 8500 8501 8502 8503 8504 8505 8506 8507 8508 8509 8510 8511 8512 8513 8514 8515 8516 8517 8518 8519 8520 8521 8522 8523 8524 8525 8526 8527 8528 8529 8530 8531 8532 8533 8534 8535 8536 8537 8538 8539 8540 8541 8542 8543 8544 8545 8546 8547 8548 8549 8550 8551 8552 8553 8554 8555 8556 8557 8558 8559 8560 8561 8562 8563 8564 8565 8566 8567 8568 8569 8570 8571 8572 8573 8574 8575 8576 8577 8578 8579 8580 8581 8582 8583 8584 8585 8586 8587 8588 8589 8590 8591 8592 8593 8594 8595 8596 8597 8598 8599 8600 8601 8602 8603 8604 8605 8606 8607 8608 8609 8610 8611 8612 8613 8614 8615 8616 8617 8618 8619 8620 8621 8622 8623 8624 8625 8626 8627 8628 8629 8630 8631 8632 8633 8634 8635 8636 8637 8638 8639 8640 8641 8642 8643 8644 8645 8646 8647 8648 8649 8650 8651 8652 8653 8654 8655 8656 8657 8658 8659 8660 8661 8662 8663 8664 8665 8666 8667 8668 8669 8670 8671 8672 8673 8674 8675 8676 8677 8678 8679 8680 8681 8682 8683 8684 8685 8686 8687 8688 8689 8690 8691 8692 8693 8694 8695 8696 8697 8698 8699 8700 8701 8702 8703 8704 8705 8706 8707 8708 8709 8710 8711 8712 8713 8714 8715 8716 8717 8718 8719 8720 8721 8722 8723 8724 8725 8726 8727 8728 8729 8730 8731 8732 8733 8734 8735 8736 8737 8738 8739 8740 8741 8742 8743 8744 8745 8746 8747 8748 8749 8750 8751 8752 8753 8754 8755 8756 8757 8758 8759 8760 8761 8762 8763 8764 8765 8766 8767 8768 8769 8770 8771 8772 8773 8774 8775 8776 8777 8778 8779 8780 8781 8782 8783 8784 8785 8786 8787 8788 8789 8790 8791 8792 8793 8794 8795 8796 8797 8798 8799 8800 8801 8802 8803 8804 8805 8806 8807 8808 8809 8810 8811 8812 8813 8814 8815 8816 8817 8818 8819 8820 8821 8822 8823 8824 8825 8826 8827 8828 8829 8830 8831 8832 8833 8834 8835 8836 8837 8838 8839 8840 8841 8842 8843 8844 8845 8846 8847 8848 8849 8850 8851 8852 8853 8854 8855 8856 8857 8858 8859 8860 8861 8862 8863 8864 8865 8866 8867 8868 8869 8870 8871 8872 8873 8874 8875 8876 8877 8878 8879 8880 8881 8882 8883 8884 8885 8886 8887 8888 8889 8890 8891 8892 8893 8894 8895 8896 8897 8898 8899 8900 8901 8902 8903 8904 8905 8906 8907 8908 8909 8910 8911 8912 8913 8914 8915 8916 8917 8918 8919 8920 8921 8922 8923 8924 8925 8926 8927 8928 8929 8930 8931 8932 8933 8934 8935 8936 8937 8938 8939 8940 8941 8942 8943 8944 8945 8946 8947 8948 8949 8950 8951 8952 8953 8954 8955 8956 8957 8958 8959 8960 8961 8962 8963 8964 8965 8966 8967 8968 8969 8970 8971 8972 8973 8974 8975 8976 8977 8978 8979 8980 8981 8982 8983 8984 8985 8986 8987 8988 8989 8990 8991 8992 8993 8994 8995 8996 8997 8998 8999 9000 9001 9002 9003 9004 9005 9006 9007 9008 9009 9010 9011 9012 9013 9014 9015 9016 9017 9018 9019 9020 9021 9022 9023 9024 9025 9026 9027 9028 9029 9030 9031 9032 9033 9034 9035 9036 9037 9038 9039 9040 9041 9042 9043 9044 9045 9046 9047 9048 9049 9050 9051 9052 9053 9054 9055 9056 9057 9058 9059 9060 9061 9062 9063 9064 9065 9066 9067 9068 9069 9070 9071 9072 9073 9074 9075 9076 9077 9078 9079 9080 9081 9082 9083 9084 9085 9086 9087 9088 9089 9090 9091 9092 9093 9094 9095 9096 9097 9098 9099 9100 9101 9102 9103 9104 9105 9106 9107 9108 9109 9110 9111 9112 9113 9114 9115 9116 9117 9118 9119 9120 9121 9122 9123 9124 9125 9126 9127 9128 9129 9130 9131 9132 9133 9134 9135 9136 9137 9138 9139 9140 9141 9142 9143 9144 9145 9146 9147 9148 9149 9150 9151 9152 9153 9154 9155 9156 9157 9158 9159 9160 9161 9162 9163 9164 9165 9166 9167 9168 9169 9170 9171 9172 9173 9174 9175 9176 9177 9178 9179 9180 9181 9182 9183 9184 9185 9186 9187 9188 9189 9190 9191 9192 9193 9194 9195 9196 9197 9198 9199 9200 9201 9202 9203 9204 9205 9206 9207 9208 9209 9210 9211 9212 9213 9214 9215 9216 9217 9218 9219 9220 9221 9222 9223 9224 9225 9226 9227 9228 9229 9230 9231 9232 9233 9234 9235 9236 9237 9238 9239 9240 9241 9242 9243 9244 9245 9246 9247 9248 9249 9250 9251 9252 9253 9254 9255 9256 9257 9258 9259 9260 9261 9262 9263 9264 9265 9266 9267 9268 9269 9270 9271 9272 9273 9274 9275 9276 9277 9278 9279 9280 9281 9282 9283 9284 9285 9286 9287 9288 9289 9290 9291 9292 9293 9294 9295 9296 9297 9298 9299 9300 9301 9302 9303 9304 9305 9306 9307 9308 9309 9310 9311 9312 9313 9314 9315 9316 9317 9318 9319 9320 9321 9322 9323 9324 9325 9326 9327 9328 9329 9330 9331 9332 9333 9334 9335 9336 9337 9338 9339 9340 9341 9342 9343 9344 9345 9346 9347 9348 9349 9350 9351 9352 9353 9354 9355 9356 9357 9358 9359 9360 9361 9362 9363 9364 9365 9366 9367 9368 9369 9370 9371 9372 9373 9374 9375 9376 9377 9378 9379 9380 9381 9382 9383 9384 9385 9386 9387 9388 9389 9390 9391 9392 9393 9394 9395 9396 9397 9398 9399 9400 9401 9402 9403 9404 9405 9406 9407 9408 9409 9410 9411 9412 9413 9414 9415 9416 9417 9418 9419 9420 9421 9422 9423 9424 9425 9426 9427 9428 9429 9430 9431 9432 9433 9434 9435 9436 9437 9438 9439 9440 9441 9442 9443 9444 9445 9446 9447 9448 9449 9450 9451 9452 9453 9454 9455 9456 9457 9458 9459 9460 9461 9462 9463 9464 9465 9466 9467 9468 9469 9470 9471 9472 9473 9474 9475 9476 9477 9478 9479 9480 9481 9482 9483 9484 9485 9486 9487 9488 9489 9490 9491 9492 9493 9494 9495 9496 9497 9498 9499 9500 9501 9502 9503 9504 9505 9506 9507 9508 9509 9510 9511 9512 9513 9514 9515 9516 9517 9518 9519 9520 9521 9522 9523 9524 9525 9526 9527 9528 9529 9530 9531 9532 9533 9534 9535 9536 9537 9538 9539 9540 9541 9542 9543 9544 9545 9546 9547 9548 9549 9550 9551 9552 9553 9554 9555 9556 9557 9558 9559 9560 9561 9562 9563 9564 9565 9566 9567 9568 9569 9570 9571 9572 9573 9574 9575 9576 9577 9578 9579 9580 9581 9582 9583 9584 9585 9586 9587 9588 9589 9590 9591 9592 9593 9594 9595 9596 9597 9598 9599 9600 9601 9602 9603 9604 9605 9606 9607 9608 9609 9610 9611 9612 9613 9614 9615 9616 9617 9618 9619 9620 9621 9622 9623 9624 9625 9626 9627 9628 9629 9630 9631 9632 9633 9634 9635 9636 9637 9638 9639 9640 9641 9642 9643 9644 9645 9646 9647 9648 9649 9650 9651 9652 9653 9654 9655 9656 9657 9658 9659 9660 9661 9662 9663 9664 9665 9666 9667 9668 9669 9670 9671 9672 9673 9674 9675 9676 9677 9678 9679 9680 9681 9682 9683 9684 9685 9686 9687 9688 9689 9690 9691 9692 9693 9694 9695 9696 9697 9698 9699 9700 9701 9702 9703 9704 9705 9706 9707 9708 9709 9710 9711 9712 9713 9714 9715 9716 9717 9718 9719 9720 9721 9722 9723 9724 9725 9726 9727 9728 9729 9730 9731 9732 9733 9734 9735 9736 9737 9738 9739 9740 9741 9742 9743 9744 9745 9746 9747 9748 9749 9750 9751 9752 9753 9754 9755 9756 9757 9758 9759 9760 9761 9762 9763 9764 9765 9766 9767 9768 9769 9770 9771 9772 9773 9774 9775 9776 9777 9778 9779 9780 9781 9782 9783 9784 9785 9786 9787 9788 9789 9790 9791 9792 9793 9794 9795 9796 9797 9798 9799 9800 9801 9802 9803 9804 9805 9806 9807 9808 9809 9810 9811 9812 9813 9814 9815 9816 9817 9818 9819 9820 9821 9822 9823 9824 9825 9826 9827 9828 9829 9830 9831 9832 9833 9834 9835 9836 9837 9838 9839 9840 9841 9842 9843 9844 9845 9846 9847 9848 9849 9850 9851 9852 9853 9854 9855 9856 9857 9858 9859 9860 9861 9862 9863 9864 9865 9866 9867 9868 9869 9870 9871 9872 9873 9874 9875 9876 9877 9878 9879 9880 9881 9882 9883 9884 9885 9886 9887 9888 9889 9890 9891 9892 9893 9894 9895 9896 9897 9898 9899 9900 9901 9902 9903 9904 9905 9906 9907 9908 9909 9910 9911 9912 9913 9914 9915 9916 9917 9918 9919 9920 9921 9922 9923 9924 9925 9926 9927 9928 9929 9930 9931 9932 9933 9934 9935 9936 9937 9938 9939 9940 9941 9942 9943 9944 9945 9946 9947 9948 9949 9950 9951 9952 9953 9954 9955 9956 9957 9958 9959 9960 9961 9962 9963 9964 9965 9966 9967 9968 9969 9970 9971 9972 9973 9974 9975 9976 9977 9978 9979 9980 9981 9982 9983 9984 9985 9986 9987 9988 9989 9990 9991 9992 9993 9994 9995 9996 9997 9998 9999 10000 10001 10002 10003 10004 10005 10006 10007 10008 10009 10010 10011 10012 10013 10014 10015 10016 10017 10018 10019 10020 10021 10022 10023 10024 10025 10026 10027 10028 10029 10030 10031 10032 10033 10034 10035 10036 10037 10038 10039 10040 10041 10042 10043 10044 10045 10046 10047 10048 10049 10050 10051 10052 10053 10054 10055 10056 10057 10058 10059 10060 10061 10062 10063 10064 10065 10066 10067 10068 10069 10070 10071 10072 10073 10074 10075 10076 10077 10078 10079 10080 10081 10082 10083 10084 10085 10086 10087 10088 10089 10090 10091 10092 10093 10094 10095 10096 10097 10098 10099 10100 10101 10102 10103 10104 10105 10106 10107 10108 10109 10110 10111 10112 10113 10114 10115 10116 10117 10118 10119 10120 10121 10122 10123 10124 10125 10126 10127 10128 10129 10130 10131 10132 10133 10134 10135 10136 10137 10138 10139 10140 10141 10142 10143 10144 10145 10146 10147 10148 10149 10150 10151 10152 10153 10154 10155 10156 10157 10158 10159 10160 10161 10162 10163 10164 10165 10166 10167 10168 10169 10170 10171 10172 10173 10174 10175 10176 10177 10178 10179 10180 10181 10182 10183 10184 10185 10186 10187 10188 10189 10190 10191 10192 10193 10194 10195 10196 10197 10198 10199 10200 10201 10202 10203 10204 10205 10206 10207 10208 10209 10210 10211 10212 10213 10214 10215 10216 10217 10218 10219 10220 10221 10222 10223 10224 10225 10226 10227 10228 10229 10230 10231 10232 10233 10234 10235 10236 10237 10238 10239 10240 10241 10242 10243 10244 10245 10246 10247 10248 10249 10250 10251 10252 10253 10254 10255 10256 10257 10258 10259 10260 10261 10262 10263 10264 10265 10266 10267 10268 10269 10270 10271 10272 10273 10274 10275 10276 10277 10278 10279 10280 10281 10282 10283 10284 10285 10286 10287 10288 10289 10290 10291 10292 10293 10294 10295 10296 10297 10298 10299 10300 10301 10302 10303 10304 10305 10306 10307 10308 10309 10310 10311 10312 10313 10314 10315 10316 10317 10318 10319 10320 10321 10322 10323 10324 10325 10326 10327 10328 10329 10330 10331 10332 10333 10334 10335 10336 10337 10338 10339 10340 10341 10342 10343 10344 10345 10346 10347 10348 10349 10350 10351 10352 10353 10354 10355 10356 10357 10358 10359 10360 10361 10362 10363 10364 10365 10366 10367 10368 10369 10370 10371 10372 10373 10374 10375 10376 10377 10378 10379 10380 10381 10382 10383 10384 10385 10386 10387 10388 10389 10390 10391 10392 10393 10394 10395 10396 10397 10398 10399 10400 10401 10402 10403 10404 10405 10406 10407 10408 10409 10410 10411 10412 10413 10414 10415 10416 10417 10418 10419 10420 10421 10422 10423 10424 10425 10426 10427 10428 10429 10430 10431 10432 10433 10434 10435 10436 10437 10438 10439 10440 10441 10442 10443 10444 10445 10446 10447 10448 10449 10450 10451 10452 10453 10454 10455 10456 10457 10458 10459 10460 10461 10462 10463 10464 10465 10466 10467 10468 10469 10470 10471 10472 10473 10474 10475 10476 10477 10478 10479 10480 10481 10482 10483 10484 10485 10486 10487 10488 10489 10490 10491 10492 10493 10494 10495 10496 10497 10498 10499 10500 10501 10502 10503 10504 10505 10506 10507 10508 10509 10510 10511 10512 10513 10514 10515 10516 10517 10518 10519 10520 10521 10522 10523 10524 10525 10526 10527 10528 10529 10530 10531 10532 10533 10534 10535 10536 10537 10538 10539 10540 10541 10542 10543 10544 10545 10546 10547 10548 10549 10550 10551 10552 10553 10554 10555 10556 10557 10558 10559 10560 10561 10562 10563 10564 10565 10566 10567 10568 10569 10570 10571 10572 10573 10574 10575 10576 10577 10578 10579 10580 10581 10582 10583 10584 10585 10586 10587 10588 10589 10590 10591 10592 10593 10594 10595 10596 10597 10598 10599 10600 10601 10602 10603 10604 10605 10606 10607 10608 10609 10610 10611 10612 10613 10614 10615 10616 10617 10618 10619 10620 10621 10622 10623 10624 10625 10626 10627 10628 10629 10630 10631 10632 10633 10634 10635 10636 10637 10638 10639 10640 10641 10642 10643 10644 10645 10646 10647 10648 10649 10650 10651 10652 10653 10654 10655 10656 10657 10658 10659 10660 10661 10662 10663 10664 10665 10666 10667 10668 10669 10670 10671 10672 10673 10674 10675 10676 10677 10678 10679 10680 10681 10682 10683 10684 10685 10686 10687 10688 10689 10690 10691 10692 10693 10694 10695 10696 10697 10698 10699 10700 10701 10702 10703 10704 10705 10706 10707 10708 10709 10710 10711 10712 10713 10714 10715 10716 10717 10718 10719 10720 10721 10722 10723 10724 10725 10726 10727 10728 10729 10730 10731 10732 10733 10734 10735 10736 10737 10738 10739 10740 10741 10742 10743 10744 10745 10746 10747 10748 10749 10750 10751 10752 10753 10754 10755 10756 10757 10758 10759 10760 10761 10762 10763 10764 10765 10766 10767 10768 10769 10770 10771 10772 10773 10774 10775 10776 10777 10778 10779 10780 10781 10782 10783 10784 10785 10786 10787 10788 10789 10790 10791 10792 10793 10794 10795 10796 10797 10798 10799 10800 10801 10802 10803 10804 10805 10806 10807 10808 10809 10810 10811 10812 10813 10814 10815 10816 10817 10818 10819 10820 10821 10822 10823 10824 10825 10826 10827 10828 10829 10830 10831 10832 10833 10834 10835 10836 10837 10838 10839 10840 10841 10842 10843 10844 10845 10846 10847 10848 10849 10850 10851 10852 10853 10854 10855 10856 10857 10858 10859 10860 10861 10862 10863 10864 10865 10866 10867 10868 10869 10870 10871 10872 10873 10874 10875 10876 10877 10878 10879 10880 10881 10882 10883 10884 10885 10886 10887 10888 10889 10890 10891 10892 10893 10894 10895 10896 10897 10898 10899 10900 10901 10902 10903 10904 10905 10906 10907 10908 10909 10910 10911 10912 10913 10914 10915 10916 10917 10918 10919 10920 10921 10922 10923 10924 10925 10926 10927 10928 10929 10930 10931 10932 10933 10934 10935 10936 10937 10938 10939 10940 10941 10942 10943 10944 10945 10946 10947 10948 10949 10950 10951 10952 10953 10954 10955 10956 10957 10958 10959 10960 10961 10962 10963 10964 10965 10966 10967 10968 10969 10970 10971 10972 10973 10974 10975 10976 10977 10978 10979 10980 10981 10982 10983 10984 10985 10986 10987 10988 10989 10990 10991 10992 10993 10994 10995 10996 10997 10998 10999 11000 11001 11002 11003 11004 11005 11006 11007 11008 11009 11010 11011 11012 11013 11014 11015 11016 11017 11018 11019 11020 11021 11022 11023 11024 11025 11026 11027 11028 11029 11030 11031 11032 11033 11034 11035 11036 11037 11038 11039 11040 11041 11042 11043 11044 11045 11046 11047 11048 11049 11050 11051 11052 11053 11054 11055 11056 11057 11058 11059 11060 11061 11062 11063 11064 11065 11066 11067 11068 11069 11070 11071 11072 11073 11074 11075 11076 11077 11078 11079 11080 11081 11082 11083 11084 11085 11086 11087 11088 11089 11090 11091 11092 11093 11094 11095 11096 11097 11098 11099 11100 11101 11102 11103 11104 11105 11106 11107 11108 11109 11110 11111 11112 11113 11114 11115 11116 11117 11118 11119 11120 11121 11122 11123 11124 11125 11126 11127 11128 11129 11130 11131 11132 11133 11134 11135 11136 11137 11138 11139 11140 11141 11142 11143 11144 11145 11146 11147 11148 11149 11150 11151 11152 11153 11154 11155 11156 11157 11158 11159 11160 11161 11162 11163 11164 11165 11166 11167 11168 11169 11170 11171 11172 11173 11174 11175 11176 11177 11178 11179 11180 11181 11182 11183 11184 11185 11186 11187 11188 11189 11190 11191 11192 11193 11194 11195 11196 11197 11198 11199 11200 11201 11202 11203 11204 11205 11206 11207 11208 11209 11210 11211 11212 11213 11214 11215 11216 11217 11218 11219 11220 11221 11222 11223 11224 11225 11226 11227 11228 11229 11230 11231 11232 11233 11234 11235 11236 11237 11238 11239 11240 11241 11242 11243 11244 11245 11246 11247 11248 11249 11250 11251 11252 11253 11254 11255 11256 11257 11258 11259 11260 11261 11262 11263 11264 11265 11266 11267 11268 11269 11270 11271 11272 11273 11274 11275 11276 11277 11278 11279 11280 11281 11282 11283 11284 11285 11286 11287 11288 11289 11290 11291 11292 11293 11294 11295 11296 11297 11298 11299 11300 11301 11302 11303 11304 11305 11306 11307 11308 11309 11310 11311 11312 11313 11314 11315 11316 11317 11318 11319 11320 11321 11322 11323 11324 11325 11326 11327 11328 11329 11330 11331 11332 11333 11334 11335 11336 11337 11338 11339 11340 11341 11342 11343 11344 11345 11346 11347 11348 11349 11350 11351 11352 11353 11354 11355 11356 11357 11358 11359 11360 11361 11362 11363 11364 11365 11366 11367 11368 11369 11370 11371 11372 11373 11374 11375 11376 11377 11378 11379 11380 11381 11382 11383 11384 11385 11386 11387 11388 11389 11390 11391 11392 11393 11394 11395 11396 11397 11398 11399 11400 11401 11402 11403 11404 11405 11406 11407 11408 11409 11410 11411 11412 11413 11414 11415 11416 11417 11418 11419 11420 11421 11422 11423 11424 11425 11426 11427 11428 11429 11430 11431 11432 11433 11434 11435 11436 11437 11438 11439 11440 11441 11442 11443 11444 11445 11446 11447 11448 11449 11450 11451 11452 11453 11454 11455 11456 11457 11458 11459 11460 11461 11462 11463 11464 11465 11466 11467 11468 11469 11470 11471 11472 11473 11474 11475 11476 11477 11478 11479 11480 11481 11482 11483 11484 11485 11486 11487 11488 11489 11490 11491 11492 11493 11494 11495 11496 11497 11498 11499 11500 11501 11502 11503 11504 11505 11506 11507 11508 11509 11510 11511 11512 11513 11514 11515 11516 11517 11518 11519 11520 11521 11522 11523 11524 11525 11526 11527 11528 11529 11530 11531 11532 11533 11534 11535 11536 11537 11538 11539 11540 11541 11542 11543 11544 11545 11546 11547 11548 11549 11550 11551 11552 11553 11554 11555 11556 11557 11558 11559 11560 11561 11562 11563 11564 11565 11566 11567 11568 11569 11570 11571 11572 11573 11574 11575 11576 11577 11578 11579 11580 11581 11582 11583 11584 11585 11586 11587 11588 11589 11590 11591 11592 11593 11594 11595 11596 11597 11598 11599 11600 11601 11602 11603 11604 11605 11606 11607 11608 11609 11610 11611 11612 11613 11614 11615 11616 11617 11618 11619 11620 11621 11622 11623 11624 11625 11626 11627 11628 11629 11630 11631 11632 11633 11634 11635 11636 11637 11638 11639 11640 11641 11642 11643 11644 11645 11646 11647 11648 11649 11650 11651 11652 11653 11654 11655 11656 11657 11658 11659 11660 11661 11662 11663 11664 11665 11666 11667 11668 11669 11670 11671 11672 11673 11674 11675 11676 11677 11678 11679 11680 11681 11682 11683 11684 11685 11686 11687 11688 11689 11690 11691 11692 11693 11694 11695 11696 11697 11698 11699 11700 11701 11702 11703 11704 11705 11706 11707 11708 11709 11710 11711 11712 11713 11714 11715 11716 11717 11718 11719 11720 11721 11722 11723 11724 11725 11726 11727 11728 11729 11730 11731 11732 11733 11734 11735 11736 11737 11738 11739 11740 11741 11742 11743 11744 11745 11746 11747 11748 11749 11750 11751 11752 11753 11754 11755 11756 11757 11758 11759 11760 11761 11762 11763 11764 11765 11766 11767 11768 11769 11770 11771 11772 11773 11774 11775 11776 11777 11778 11779 11780 11781 11782 11783 11784 11785 11786 11787 11788 11789 11790 11791 11792 11793 11794 11795 11796 11797 11798 11799 11800 11801 11802 11803 11804 11805 11806 11807 11808 11809 11810 11811 11812 11813 11814 11815 11816 11817 11818 11819 11820 11821 11822 11823 11824 11825 11826 11827 11828 11829 11830 11831 11832 11833 11834 11835 11836 11837 11838 11839 11840 11841 11842 11843 11844 11845 11846 11847 11848 11849 11850 11851 11852 11853 11854 11855 11856 11857 11858 11859 11860 11861 11862 11863 11864 11865 11866 11867 11868 11869 11870 11871 11872 11873 11874 11875 11876 11877 11878 11879 11880 11881 11882 11883 11884 11885 11886 11887 11888 11889 11890 11891 11892 11893 11894 11895 11896 11897 11898 11899 11900 11901 11902 11903 11904 11905 11906 11907 11908 11909 11910 11911 11912 11913 11914 11915 11916 11917 11918 11919 11920 11921 11922 11923 11924 11925 11926 11927 11928 11929 11930 11931 11932 11933 11934 11935 11936 11937 11938 11939 11940 11941 11942 11943 11944 11945 11946 11947 11948 11949 11950 11951 11952 11953 11954 11955 11956 11957 11958 11959 11960 11961 11962 11963 11964 11965 11966 11967 11968 11969 11970 11971 11972 11973 11974 11975 11976 11977 11978 11979 11980 11981 11982 11983 11984 11985 11986 11987 11988 11989 11990 11991 11992 11993 11994 11995 11996 11997 11998 11999 12000 12001 12002 12003 12004 12005 12006 12007 12008 12009 12010 12011 12012 12013 12014 12015 12016 12017 12018 12019 12020 12021 12022 12023 12024 12025 12026 12027 12028 12029 12030 12031 12032 12033 12034 12035 12036 12037 12038 12039 12040 12041 12042 12043 12044 12045 12046 12047 12048 12049 12050 12051 12052 12053 12054 12055 12056 12057 12058 12059 12060 12061 12062 12063 12064 12065 12066 12067 12068 12069 12070 12071 12072 12073 12074 12075 12076 12077 12078 12079 12080 12081 12082 12083 12084 12085 12086 12087 12088 12089 12090 12091 12092 12093 12094 12095 12096 12097 12098 12099 12100 12101 12102 12103 12104 12105 12106 12107 12108 12109 12110 12111 12112 12113 12114 12115 12116 12117 12118 12119 12120 12121 12122 12123 12124 12125 12126 12127 12128 12129 12130 12131 12132 12133 12134 12135 12136 12137 12138 12139 12140 12141 12142 12143 12144 12145 12146 12147 12148 12149 12150 12151 12152 12153 12154 12155 12156 12157 12158 12159 12160 12161 12162 12163 12164 12165 12166 12167 12168 12169 12170 12171 12172 12173 12174 12175 12176 12177 12178 12179 12180 12181 12182 12183 12184 12185 12186 12187 12188 12189 12190 12191 12192 12193 12194 12195 12196 12197 12198 12199 12200 12201 12202 12203 12204 12205 12206 12207 12208 12209 12210 12211 12212 12213 12214 12215 12216 12217 12218 12219 12220 12221 12222 12223 12224 12225 12226 12227 12228 12229 12230 12231 12232 12233 12234 12235 12236 12237 12238 12239 12240 12241 12242 12243 12244 12245 12246 12247 12248 12249 12250 12251 12252 12253 12254 12255 12256 12257 12258 12259 12260 12261 12262 12263 12264 12265 12266 12267 12268 12269 12270 12271 12272 12273 12274 12275 12276 12277 12278 12279 12280 12281 12282 12283 12284 12285 12286 12287 12288 12289 12290 12291 12292 12293 12294 12295 12296 12297 12298 12299 12300 12301 12302 12303 12304 12305 12306 12307 12308 12309 12310 12311 12312 12313 12314 12315 12316 12317 12318 12319 12320 12321 12322 12323 12324 12325 12326 12327 12328 12329 12330 12331 12332 12333 12334 12335 12336 12337 12338 12339 12340 12341 12342 12343 12344 12345 12346 12347 12348 12349 12350 12351 12352 12353 12354 12355 12356 12357 12358 12359 12360 12361 12362 12363 12364 12365 12366 12367 12368 12369 12370 12371 12372 12373 12374 12375 12376 12377 12378 12379 12380 12381 12382 12383 12384 12385 12386 12387 12388 12389 12390 12391 12392 12393 12394 12395 12396 12397 12398 12399 12400 12401 12402 12403 12404 12405 12406 12407 12408 12409 12410 12411 12412 12413 12414 12415 12416 12417 12418 12419 12420 12421 12422 12423 12424 12425 12426 12427 12428 12429 12430 12431 12432 12433 12434 12435 12436 12437 12438 12439 12440 12441 12442 12443 12444 12445 12446 12447 12448 12449 12450 12451 12452 12453 12454 12455 12456 12457 12458 12459 12460 12461 12462 12463 12464 12465 12466 12467 12468 12469 12470 12471 12472 12473 12474 12475 12476 12477 12478 12479 12480 12481 12482 12483 12484 12485 12486 12487 12488 12489 12490 12491 12492 12493 12494 12495 12496 12497 12498 12499 12500 12501 12502 12503 12504 12505 12506 12507 12508 12509 12510 12511 12512 12513 12514 12515 12516 12517 12518 12519 12520 12521 12522 12523 12524 12525 12526 12527 12528 12529 12530 12531 12532 12533 12534 12535 12536 12537 12538 12539 12540 12541 12542 12543 12544 12545 12546 12547 12548 12549 12550 12551 12552 12553 12554 12555 12556 12557 12558 12559 12560 12561 12562 12563 12564 12565 12566 12567 12568 12569 12570 12571 12572 12573 12574 12575 12576 12577 12578 12579 12580 12581 12582 12583 12584 12585 12586 12587 12588 12589 12590 12591 12592 12593 12594 12595 12596 12597 12598 12599 12600 12601 12602 12603 12604 12605 12606 12607 12608 12609 12610 12611 12612 12613 12614 12615 12616 12617 12618 12619 12620 12621 12622 12623 12624 12625 12626 12627 12628 12629 12630 12631 12632 12633 12634 12635 12636 12637 12638 12639 12640 12641 12642 12643 12644 12645 12646 12647 12648 12649 12650 12651 12652 12653 12654 12655 12656 12657 12658 12659 12660 12661 12662 12663 12664 12665 12666 12667 12668 12669 12670 12671 12672 12673 12674 12675 12676 12677 12678 12679 12680 12681 12682 12683 12684 12685 12686 12687 12688 12689 12690 12691 12692 12693 12694 12695 12696 12697 12698 12699 12700 12701 12702 12703 12704 12705 12706 12707 12708 12709 12710 12711 12712 12713 12714 12715 12716 12717 12718 12719 12720 12721 12722 12723 12724 12725 12726 12727 12728 12729 12730 12731 12732 12733 12734 12735 12736 12737 12738 12739 12740 12741 12742 12743 12744 12745 12746 12747 12748 12749 12750 12751 12752 12753 12754 12755 12756 12757 12758 12759 12760 12761 12762 12763 12764 12765 12766 12767 12768 12769 12770 12771 12772 12773 12774 12775 12776 12777 12778 12779 12780 12781 12782 12783 12784 12785 12786 12787 12788 12789 12790 12791 12792 12793 12794 12795 12796 12797 12798 12799 12800 12801 12802 12803 12804 12805 12806 12807 12808 12809 12810 12811 12812 12813 12814 12815 12816 12817 12818 12819 12820 12821 12822 12823 12824 12825 12826 12827 12828 12829 12830 12831 12832 12833 12834 12835 12836 12837 12838 12839 12840 12841 12842 12843 12844 12845 12846 12847 12848 12849 12850 12851 12852 12853 12854 12855 12856 12857 12858 12859 12860 12861 12862 12863 12864 12865 12866 12867 12868 12869 12870 12871 12872 12873 12874 12875 12876 12877 12878 12879 12880 12881 12882 12883 12884 12885 12886 12887 12888 12889 12890 12891 12892 12893 12894 12895 12896 12897 12898 12899 12900 12901 12902 12903 12904 12905 12906 12907 12908 12909 12910 12911 12912 12913 12914 12915 12916 12917 12918 12919 12920 12921 12922 12923 12924 12925 12926 12927 12928 12929 12930 12931 12932 12933 12934 12935 12936 12937 12938 12939 12940 12941 12942 12943 12944 12945 12946 12947 12948 12949 12950 12951 12952 12953 12954 12955 12956 12957 12958 12959 12960 12961 12962 12963 12964 12965 12966 12967 12968 12969 12970 12971 12972 12973 12974 12975 12976 12977 12978 12979 12980 12981 12982 12983 12984 12985 12986 12987 12988 12989 12990 12991 12992 12993 12994 12995 12996 12997 12998 12999 13000 13001 13002 13003 13004 13005 13006 13007 13008 13009 13010 13011 13012 13013 13014 13015 13016 13017 13018 13019 13020 13021 13022 13023 13024 13025 13026 13027 13028 13029 13030 13031 13032 13033 13034 13035 13036 13037 13038 13039 13040 13041 13042 13043 13044 13045 13046 13047 13048 13049 13050 13051 13052 13053 13054 13055 13056 13057 13058 13059 13060 13061 13062 13063 13064 13065 13066 13067 13068 13069 13070 13071 13072 13073 13074 13075 13076 13077 13078 13079 13080 13081 13082 13083 13084 13085 13086 13087 13088 13089 13090 13091 13092 13093 13094 13095 13096 13097 13098 13099 13100 13101 13102 13103 13104 13105 13106 13107 13108 13109 13110 13111 13112 13113 13114 13115 13116 13117 13118 13119 13120 13121 13122 13123 13124 13125 13126 13127 13128 13129 13130 13131 13132 13133 13134 13135 13136 13137 13138 13139 13140 13141 13142 13143 13144 13145 13146 13147 13148 13149 13150 13151 13152 13153 13154 13155 13156 13157 13158 13159 13160 13161 13162 13163 13164 13165 13166 13167 13168 13169 13170 13171 13172 13173 13174 13175 13176 13177 13178 13179 13180 13181 13182 13183 13184 13185 13186 13187 13188 13189 13190 13191 13192 13193 13194 13195 13196 13197 13198 13199 13200 13201 13202 13203 13204 13205 13206 13207 13208 13209 13210 13211 13212 13213 13214 13215 13216 13217 13218 13219 13220 13221 13222 13223 13224 13225 13226 13227 13228 13229 13230 13231 13232 13233 13234 13235 13236 13237 13238 13239 13240 13241 13242 13243 13244 13245 13246 13247 13248 13249 13250 13251 13252 13253 13254 13255 13256 13257 13258 13259 13260 13261 13262 13263 13264 13265 13266 13267 13268 13269 13270 13271 13272 13273 13274 13275 13276 13277 13278 13279 13280 13281 13282 13283 13284 13285 13286 13287 13288 13289 13290 13291 13292 13293 13294 13295 13296 13297 13298 13299 13300 13301 13302 13303 13304 13305 13306 13307 13308 13309 13310 13311 13312 13313 13314 13315 13316 13317 13318 13319 13320 13321 13322 13323 13324 13325 13326 13327 13328 13329 13330 13331 13332 13333 13334 13335 13336 13337 13338 13339 13340 13341 13342 13343 13344 13345 13346 13347 13348 13349 13350 13351 13352 13353 13354 13355 13356 13357 13358 13359 13360 13361 13362 13363 13364 13365 13366 13367 13368 13369 13370 13371 13372 13373 13374 13375 13376 13377 13378 13379 13380 13381 13382 13383 13384 13385 13386 13387 13388 13389 13390 13391 13392 13393 13394 13395 13396 13397 13398 13399 13400 13401 13402 13403 13404 13405 13406 13407 13408 13409 13410 13411 13412 13413 13414 13415 13416 13417 13418 13419 13420 13421 13422 13423 13424 13425 13426 13427 13428 13429 13430 13431 13432 13433 13434 13435 13436 13437 13438 13439 13440 13441 13442 13443 13444 13445 13446 13447 13448 13449 13450 13451 13452 13453 13454 13455 13456 13457 13458 13459 13460 13461 13462 13463 13464 13465 13466 13467 13468 13469 13470 13471 13472 13473 13474 13475 13476 13477 13478 13479 13480 13481 13482 13483 13484 13485 13486 13487 13488 13489 13490 13491 13492 13493 13494 13495 13496 13497 13498 13499 13500 13501 13502 13503 13504 13505 13506 13507 13508 13509 13510 13511 13512 13513 13514 13515 13516 13517 13518 13519 13520 13521 13522 13523 13524 13525 13526 13527 13528 13529 13530 13531 13532 13533 13534 13535 13536 13537 13538 13539 13540 13541 13542 13543 13544 13545 13546 13547 13548 13549 13550 13551 13552 13553 13554 13555 13556 13557 13558 13559 13560 13561 13562 13563 13564 13565 13566 13567 13568 13569 13570 13571 13572 13573 13574 13575 13576 13577 13578 13579 13580 13581 13582 13583 13584 13585 13586 13587 13588 13589 13590 13591 13592 13593 13594 13595 13596 13597 13598 13599 13600 13601 13602 13603 13604 13605 13606 13607 13608 13609 13610 13611 13612 13613 13614 13615 13616 13617 13618 13619 13620 13621 13622 13623 13624 13625 13626 13627 13628 13629 13630 13631 13632 13633 13634 13635 13636 13637 13638 13639 13640 13641 13642 13643 13644 13645 13646 13647 13648 13649 13650 13651 13652 13653 13654 13655 13656 13657 13658 13659 13660 13661 13662 13663 13664 13665 13666 13667 13668 13669 13670 13671 13672 13673 13674 13675 13676 13677 13678 13679 13680 13681 13682 13683 13684 13685 13686 13687 13688 13689 13690 13691 13692 13693 13694 13695 13696 13697 13698 13699 13700 13701 13702 13703 13704 13705 13706 13707 13708 13709 13710 13711 13712 13713 13714 13715 13716 13717 13718 13719 13720 13721 13722 13723 13724 13725 13726 13727 13728 13729 13730 13731 13732 13733 13734 13735 13736 13737 13738 13739 13740 13741 13742 13743 13744 13745 13746 13747 13748 13749 13750 13751 13752 13753 13754 13755 13756 13757 13758 13759 13760 13761 13762 13763 13764 13765 13766 13767 13768 13769 13770 13771 13772 13773 13774 13775 13776 13777 13778 13779 13780 13781 13782 13783 13784 13785 13786 13787 13788 13789 13790 13791 13792 13793 13794 13795 13796 13797 13798 13799 13800 13801 13802 13803 13804 13805 13806 13807 13808 13809 13810 13811 13812 13813 13814 13815 13816 13817 13818 13819 13820 13821 13822 13823 13824 13825 13826 13827 13828 13829 13830 13831 13832 13833 13834 13835 13836 13837 13838 13839 13840 13841 13842 13843 13844 13845 13846 13847 13848 13849 13850 13851 13852 13853 13854 13855 13856 13857 13858 13859 13860 13861 13862 13863 13864 13865 13866 13867 13868 13869 13870 13871 13872 13873 13874 13875 13876 13877 13878 13879 13880 13881 13882 13883 13884 13885 13886 13887 13888 13889 13890 13891 13892 13893 13894 13895 13896 13897 13898 13899 13900 13901 13902 13903 13904 13905 13906 13907 13908 13909 13910 13911 13912 13913 13914 13915 13916 13917 13918 13919 13920 13921 13922 13923 13924 13925 13926 13927 13928 13929 13930 13931 13932 13933 13934 13935 13936 13937 13938 13939 13940 13941 13942 13943 13944 13945 13946 13947 13948 13949 13950 13951 13952 13953 13954 13955 13956 13957 13958 13959 13960 13961 13962 13963 13964 13965 13966 13967 13968 13969 13970 13971 13972 13973 13974 13975 13976 13977 13978 13979 13980 13981 13982 13983 13984 13985 13986 13987 13988 13989 13990 13991 13992 13993 13994 13995 13996 13997 13998 13999 14000 14001 14002 14003 14004 14005 14006 14007 14008 14009 14010 14011 14012 14013 14014 14015 14016 14017 14018 14019 14020 14021 14022 14023 14024 14025 14026 14027 14028 14029 14030 14031 14032 14033 14034 14035 14036 14037 14038 14039 14040 14041 14042 14043 14044 14045 14046 14047 14048 14049 14050 14051 14052 14053 14054 14055 14056 14057 14058 14059 14060 14061 14062 14063 14064 14065 14066 14067 14068 14069 14070 14071 14072 14073 14074 14075 14076 14077 14078 14079 14080 14081 14082 14083 14084 14085 14086 14087 14088 14089 14090 14091 14092 14093 14094 14095 14096 14097 14098 14099 14100 14101 14102 14103 14104 14105 14106 14107 14108 14109 14110 14111 14112 14113 14114 14115 14116 14117 14118 14119 14120 14121 14122 14123 14124 14125 14126 14127 14128 14129 14130 14131 14132 14133 14134 14135 14136 14137 14138 14139 14140 14141 14142 14143 14144 14145 14146 14147 14148 14149 14150 14151 14152 14153 14154 14155 14156 14157 14158 14159 14160 14161 14162 14163 14164 14165 14166 14167 14168 14169 14170 14171 14172 14173 14174 14175 14176 14177 14178 14179 14180 14181 14182 14183 14184 14185 14186 14187 14188 14189 14190 14191 14192 14193 14194 14195 14196 14197 14198 14199 14200 14201 14202 14203 14204 14205 14206 14207 14208 14209 14210 14211 14212 14213 14214 14215 14216 14217 14218 14219 14220 14221 14222 14223 14224 14225 14226 14227 14228 14229 14230 14231 14232 14233 14234 14235 14236 14237 14238 14239 14240 14241 14242 14243 14244 14245 14246 14247 14248 14249 14250 14251 14252 14253 14254 14255 14256 14257 14258 14259 14260 14261 14262 14263 14264 14265 14266 14267 14268 14269 14270 14271 14272 14273 14274 14275 14276 14277 14278 14279 14280 14281 14282 14283 14284 14285 14286 14287 14288 14289 14290 14291 14292 14293 14294 14295 14296 14297 14298 14299 14300 14301 14302 14303 14304 14305 14306 14307 14308 14309 14310 14311 14312 14313 14314 14315 14316 14317 14318 14319 14320 14321 14322 14323 14324 14325 14326 14327 14328 14329 14330 14331 14332 14333 14334 14335 14336 14337 14338 14339 14340 14341 14342 14343 14344 14345 14346 14347 14348 14349 14350 14351 14352 14353 14354 14355 14356 14357 14358 14359 14360 14361 14362 14363 14364 14365 14366 14367 14368 14369 14370 14371 14372 14373 14374 14375 14376 14377 14378 14379 14380 14381 14382 14383 14384 14385 14386 14387 14388 14389 14390 14391 14392 14393 14394 14395 14396 14397 14398 14399 14400 14401 14402 14403 14404 14405 14406 14407 14408 14409 14410 14411 14412 14413 14414 14415 14416 14417 14418 14419 14420 14421 14422 14423 14424 14425 14426 14427 14428 14429 14430 14431 14432 14433 14434 14435 14436 14437 14438 14439 14440 14441 14442 14443 14444 14445 14446 14447 14448 14449 14450 14451 14452 14453 14454 14455 14456 14457 14458 14459 14460 14461 14462 14463 14464 14465 14466 14467 14468 14469 14470 14471 14472 14473 14474 14475 14476 14477 14478 14479 14480 14481 14482 14483 14484 14485 14486 14487 14488 14489 14490 14491 14492 14493 14494 14495 14496 14497 14498 14499 14500 14501 14502 14503 14504 14505 14506 14507 14508 14509 14510 14511 14512 14513 14514 14515 14516 14517 14518 14519 14520 14521 14522 14523 14524 14525 14526 14527 14528 14529 14530 14531 14532 14533 14534 14535 14536 14537 14538 14539 14540 14541 14542 14543 14544 14545 14546 14547 14548 14549 14550 14551 14552 14553 14554 14555 14556 14557 14558 14559 14560 14561 14562 14563 14564 14565 14566 14567 14568 14569 14570 14571 14572 14573 14574 14575 14576 14577 14578 14579 14580 14581 14582 14583 14584 14585 14586 14587 14588 14589 14590 14591 14592 14593 14594 14595 14596 14597 14598 14599 14600 14601 14602 14603 14604 14605 14606 14607 14608 14609 14610 14611 14612 14613 14614 14615 14616 14617 14618 14619 14620 14621 14622 14623 14624 14625 14626 14627 14628 14629 14630 14631 14632 14633 14634 14635 14636 14637 14638 14639 14640 14641 14642 14643 14644 14645 14646 14647 14648 14649 14650 14651 14652 14653 14654 14655 14656 14657 14658 14659 14660 14661 14662 14663 14664 14665 14666 14667 14668 14669 14670 14671 14672 14673 14674 14675 14676 14677 14678 14679 14680 14681 14682 14683 14684 14685 14686 14687 14688 14689 14690 14691 14692 14693 14694 14695 14696 14697 14698 14699 14700 14701 14702 14703 14704 14705 14706 14707 14708 14709 14710 14711 14712 14713 14714 14715 14716 14717 14718 14719 14720 14721 14722 14723 14724 14725 14726 14727 14728 14729 14730 14731 14732 14733 14734 14735 14736 14737 14738 14739 14740 14741 14742 14743 14744 14745 14746 14747 14748 14749 14750 14751 14752 14753 14754 14755 14756 14757 14758 14759 14760 14761 14762 14763 14764 14765 14766 14767 14768 14769 14770 14771 14772 14773 14774 14775 14776 14777 14778 14779 14780 14781 14782 14783 14784 14785 14786 14787 14788 14789 14790 14791 14792 14793 14794 14795 14796 14797 14798 14799 14800 14801 14802 14803 14804 14805 14806 14807 14808 14809 14810 14811 14812 14813 14814 14815 14816 14817 14818 14819 14820 14821 14822 14823 14824 14825 14826 14827 14828 14829 14830 14831 14832 14833 14834 14835 14836 14837 14838 14839 14840 14841 14842 14843 14844 14845 14846 14847 14848 14849 14850 14851 14852 14853 14854 14855 14856 14857 14858 14859 14860 14861 14862 14863 14864 14865 14866 14867 14868 14869 14870 14871 14872 14873 14874 14875 14876 14877 14878 14879 14880 14881 14882 14883 14884 14885 14886 14887 14888 14889 14890 14891 14892 14893 14894 14895 14896 14897 14898 14899 14900 14901 14902 14903 14904 14905 14906 14907 14908 14909 14910 14911 14912 14913 14914 14915 14916 14917 14918 14919 14920 14921 14922 14923 14924 14925 14926 14927 14928 14929 14930 14931 14932 14933 14934 14935 14936 14937 14938 14939 14940 14941 14942 14943 14944 14945 14946 14947 14948 14949 14950 14951 14952 14953 14954 14955 14956 14957 14958 14959 14960 14961 14962 14963 14964 14965 14966 14967 14968 14969 14970 14971 14972 14973 14974 14975 14976 14977 14978 14979 14980 14981 14982 14983 14984 14985 14986 14987 14988 14989 14990 14991 14992 14993 14994 14995 14996 14997 14998 14999 15000 15001 15002 15003 15004 15005 15006 15007 15008 15009 15010 15011 15012 15013 15014 15015 15016 15017 15018 15019 15020 15021 15022 15023 15024 15025 15026 15027 15028 15029 15030 15031 15032 15033 15034 15035 15036 15037 15038 15039 15040 15041 15042 15043 15044 15045 15046 15047 15048 15049 15050 15051 15052 15053 15054 15055 15056 15057 15058 15059 15060 15061 15062 15063 15064 15065 15066 15067 15068 15069 15070 15071 15072 15073 15074 15075 15076 15077 15078 15079 15080 15081 15082 15083 15084 15085 15086 15087 15088 15089 15090 15091 15092 15093 15094 15095 15096 15097 15098 15099 15100 15101 15102 15103 15104 15105 15106 15107 15108 15109 15110 15111 15112 15113 15114 15115 15116 15117 15118 15119 15120 15121 15122 15123 15124 15125 15126 15127 15128 15129 15130 15131 15132 15133 15134 15135 15136 15137 15138 15139 15140 15141 15142 15143 15144 15145 15146 15147 15148 15149 15150 15151 15152 15153 15154 15155 15156 15157 15158 15159 15160 15161 15162 15163 15164 15165 15166 15167 15168 15169 15170 15171 15172 15173 15174 15175 15176 15177 15178 15179 15180 15181 15182 15183 15184 15185 15186 15187 15188 15189 15190 15191 15192 15193 15194 15195 15196 15197 15198 15199 15200 15201 15202 15203 15204 15205 15206 15207 15208 15209 15210 15211 15212 15213 15214 15215 15216 15217 15218 15219 15220 15221 15222 15223 15224 15225 15226 15227 15228 15229 15230 15231 15232 15233 15234 15235 15236 15237 15238 15239 15240 15241 15242 15243 15244 15245 15246 15247 15248 15249 15250 15251 15252 15253 15254 15255 15256 15257 15258 15259 15260 15261 15262 15263 15264 15265 15266 15267 15268 15269 15270 15271 15272 15273 15274 15275 15276 15277 15278 15279 15280 15281 15282 15283 15284 15285 15286 15287 15288 15289 15290 15291 15292 15293 15294 15295 15296 15297 15298 15299 15300 15301 15302 15303 15304 15305 15306 15307 15308 15309 15310 15311 15312 15313 15314 15315 15316 15317 15318 15319 15320 15321 15322 15323 15324 15325 15326 15327 15328 15329 15330 15331 15332 15333 15334 15335 15336 15337 15338 15339 15340 15341 15342 15343 15344 15345 15346 15347 15348 15349 15350 15351 15352 15353 15354 15355 15356 15357 15358 15359 15360 15361 15362 15363 15364 15365 15366 15367 15368 15369 15370 15371 15372 15373 15374 15375 15376 15377 15378 15379 15380 15381 15382 15383 15384 15385 15386 15387 15388 15389 15390 15391 15392 15393 15394 15395 15396 15397 15398 15399 15400 15401 15402 15403 15404 15405 15406 15407 15408 15409 15410 15411 15412 15413 15414 15415 15416 15417 15418 15419 15420 15421 15422 15423 15424 15425 15426 15427 15428 15429 15430 15431 15432 15433 15434 15435 15436 15437 15438 15439 15440 15441 15442 15443 15444 15445 15446 15447 15448 15449 15450 15451 15452 15453 15454 15455 15456 15457 15458 15459 15460 15461 15462 15463 15464 15465 15466 15467 15468 15469 15470 15471 15472 15473 15474 15475 15476 15477 15478 15479 15480 15481 15482 15483 15484 15485 15486 15487 15488 15489 15490 15491 15492 15493 15494 15495 15496 15497 15498 15499 15500 15501 15502 15503 15504 15505 15506 15507 15508 15509 15510 15511 15512 15513 15514 15515 15516 15517 15518 15519 15520 15521 15522 15523 15524 15525 15526 15527 15528 15529 15530 15531 15532 15533 15534 15535 15536 15537 15538 15539 15540 15541 15542 15543 15544 15545 15546 15547 15548 15549 15550 15551 15552 15553 15554 15555 15556 15557 15558 15559 15560 15561 15562 15563 15564 15565 15566 15567 15568 15569 15570 15571 15572 15573 15574 15575 15576 15577 15578 15579 15580 15581 15582 15583 15584 15585 15586 15587 15588 15589 15590 15591 15592 15593 15594 15595 15596 15597 15598 15599 15600 15601 15602 15603 15604 15605 15606 15607 15608 15609 15610 15611 15612 15613 15614 15615 15616 15617 15618 15619 15620 15621 15622 15623 15624 15625 15626 15627 15628 15629 15630 15631 15632 15633 15634 15635 15636 15637 15638 15639 15640 15641 15642 15643 15644 15645 15646 15647 15648 15649 15650 15651 15652 15653 15654 15655 15656 15657 15658 15659 15660 15661 15662 15663 15664 15665 15666 15667 15668 15669 15670 15671 15672 15673 15674 15675 15676 15677 15678 15679 15680 15681 15682 15683 15684 15685 15686 15687 15688 15689 15690 15691 15692 15693 15694 15695 15696 15697 15698 15699 15700 15701 15702 15703 15704 15705 15706 15707 15708 15709 15710 15711 15712 15713 15714 15715 15716 15717 15718 15719 15720 15721 15722 15723 15724 15725 15726 15727 15728 15729 15730 15731 15732 15733 15734 15735 15736 15737 15738 15739 15740 15741 15742 15743 15744 15745 15746 15747 15748 15749 15750 15751 15752 15753 15754 15755 15756 15757 15758 15759 15760 15761 15762 15763 15764 15765 15766 15767 15768 15769 15770 15771 15772 15773 15774 15775 15776 15777 15778 15779 15780 15781 15782 15783 15784 15785 15786 15787 15788 15789 15790 15791 15792 15793 15794 15795 15796 15797 15798 15799 15800 15801 15802 15803 15804 15805 15806 15807 15808 15809 15810 15811 15812 15813 15814 15815 15816 15817 15818 15819 15820 15821 15822 15823 15824 15825 15826 15827 15828 15829 15830 15831 15832 15833 15834 15835 15836 15837 15838 15839 15840 15841 15842 15843 15844 15845 15846 15847 15848 15849 15850 15851 15852 15853 15854 15855 15856 15857 15858 15859 15860 15861 15862 15863 15864 15865 15866 15867 15868 15869 15870 15871 15872 15873 15874 15875 15876 15877 15878 15879 15880 15881 15882 15883 15884 15885 15886 15887 15888 15889 15890 15891 15892 15893 15894 15895 15896 15897 15898 15899 15900 15901 15902 15903 15904 15905 15906 15907 15908 15909 15910 15911 15912 15913 15914 15915 15916 15917 15918 15919 15920 15921 15922 15923 15924 15925 15926 15927 15928 15929 15930 15931 15932 15933 15934 15935 15936 15937 15938 15939 15940 15941 15942 15943 15944 15945 15946 15947 15948 15949 15950 15951 15952 15953 15954 15955 15956 15957 15958 15959 15960 15961 15962 15963 15964 15965 15966 15967 15968 15969 15970 15971 15972 15973 15974 15975 15976 15977 15978 15979 15980 15981 15982 15983 15984 15985 15986 15987 15988 15989 15990 15991 15992 15993 15994 15995 15996 15997 15998 15999 16000 16001 16002 16003 16004 16005 16006 16007 16008 16009 16010 16011 16012 16013 16014 16015 16016 16017 16018 16019 16020 16021 16022 16023 16024 16025 16026 16027 16028 16029 16030 16031 16032 16033 16034 16035 16036 16037 16038 16039 16040 16041 16042 16043 16044 16045 16046 16047 16048 16049 16050 16051 16052 16053 16054 16055 16056 16057 16058 16059 16060 16061 16062 16063 16064 16065 16066 16067 16068 16069 16070 16071 16072 16073 16074 16075 16076 16077 16078 16079 16080 16081 16082 16083 16084 16085 16086 16087 16088 16089 16090 16091 16092 16093 16094 16095 16096 16097 16098 16099 16100 16101 16102 16103 16104 16105 16106 16107 16108 16109 16110 16111 16112 16113 16114 16115 16116 16117 16118 16119 16120 16121 16122 16123 16124 16125 16126 16127 16128 16129 16130 16131 16132 16133 16134 16135 16136 16137 16138 16139 16140 16141 16142 16143 16144 16145 16146 16147 16148 16149 16150 16151 16152 16153 16154 16155 16156 16157 16158 16159 16160 16161 16162 16163 16164 16165 16166 16167 16168 16169 16170 16171 16172 16173 16174 16175 16176 16177 16178 16179 16180 16181 16182 16183 16184 16185 16186 16187 16188 16189 16190 16191 16192 16193 16194 16195 16196 16197 16198 16199 16200 16201 16202 16203 16204 16205 16206 16207 16208 16209 16210 16211 16212 16213 16214 16215 16216 16217 16218 16219 16220 16221 16222 16223 16224 16225 16226 16227 16228 16229 16230 16231 16232 16233 16234 16235 16236 16237 16238 16239 16240 16241 16242 16243 16244 16245 16246 16247 16248 16249 16250 16251 16252 16253 16254 16255 16256 16257 16258 16259 16260 16261 16262 16263 16264 16265 16266 16267 16268 16269 16270 16271 16272 16273 16274 16275 16276 16277 16278 16279 16280 16281 16282 16283 16284 16285 16286 16287 16288 16289 16290 16291 16292 16293 16294 16295 16296 16297 16298 16299 16300 16301 16302 16303 16304 16305 16306 16307 16308 16309 16310 16311 16312 16313 16314 16315 16316 16317 16318 16319 16320 16321 16322 16323 16324 16325 16326 16327 16328 16329 16330 16331 16332 16333 16334 16335 16336 16337 16338 16339 16340 16341 16342 16343 16344 16345 16346 16347 16348 16349 16350 16351 16352 16353 16354 16355 16356 16357 16358 16359 16360 16361 16362 16363 16364 16365 16366 16367 16368 16369 16370 16371 16372 16373 16374 16375 16376 16377 16378 16379 16380 16381 16382 16383 16384 16385 16386 16387 16388 16389 16390 16391 16392 16393 16394 16395 16396 16397 16398 16399 16400 16401 16402 16403 16404 16405 16406 16407 16408 16409 16410 16411 16412 16413 16414 16415 16416 16417 16418 16419 16420 16421 16422 16423 16424 16425 16426 16427 16428 16429 16430 16431 16432 16433 16434 16435 16436 16437 16438 16439 16440 16441 16442 16443 16444 16445 16446 16447 16448 16449 16450 16451 16452 16453 16454 16455 16456 16457 16458 16459 16460 16461 16462 16463 16464 16465 16466 16467 16468 16469 16470 16471 16472 16473 16474 16475 16476 16477 16478 16479 16480 16481 16482 16483 16484 16485 16486 16487 16488 16489 16490 16491 16492 16493 16494 16495 16496 16497 16498 16499 16500 16501 16502 16503 16504 16505 16506 16507 16508 16509 16510 16511 16512 16513 16514 16515 16516 16517 16518 16519 16520 16521 16522 16523 16524 16525 16526 16527 16528 16529 16530 16531 16532 16533 16534 16535 16536 16537 16538 16539 16540 16541 16542 16543 16544 16545 16546 16547 16548 16549 16550 16551 16552 16553 16554 16555 16556 16557 16558 16559 16560 16561 16562 16563 16564 16565 16566 16567 16568 16569 16570 16571 16572 16573 16574 16575 16576 16577 16578 16579 16580 16581 16582 16583 16584 16585 16586 16587 16588 16589 16590 16591 16592 16593 16594 16595 16596 16597 16598 16599 16600 16601 16602 16603 16604 16605 16606 16607 16608 16609 16610 16611 16612 16613 16614 16615 16616 16617 16618 16619 16620 16621 16622 16623 16624 16625 16626 16627 16628 16629 16630 16631 16632 16633 16634 16635 16636 16637 16638 16639 16640 16641 16642 16643 16644 16645 16646 16647 16648 16649 16650 16651 16652 16653 16654 16655 16656 16657 16658 16659 16660 16661 16662 16663 16664 16665 16666 16667 16668 16669 16670 16671 16672 16673 16674 16675 16676 16677 16678 16679 16680 16681 16682 16683 16684 16685 16686 16687 16688 16689 16690 16691 16692 16693 16694 16695 16696 16697 16698 16699 16700 16701 16702 16703 16704 16705 16706 16707 16708 16709 16710 16711 16712 16713 16714 16715 16716 16717 16718 16719 16720 16721 16722 16723 16724 16725 16726 16727 16728 16729 16730 16731 16732 16733 16734 16735 16736 16737 16738 16739 16740 16741 16742 16743 16744 16745 16746 16747 16748 16749 16750 16751 16752 16753 16754 16755 16756 16757 16758 16759 16760 16761 16762 16763 16764 16765 16766 16767 16768 16769 16770 16771 16772 16773 16774 16775 16776 16777 16778 16779 16780 16781 16782 16783 16784 16785 16786 16787 16788 16789 16790 16791 16792 16793 16794 16795 16796 16797 16798 16799 16800 16801 16802 16803 16804 16805 16806 16807 16808 16809 16810 16811 16812 16813 16814 16815 16816 16817 16818 16819 16820 16821 16822 16823 16824 16825 16826 16827 16828 16829 16830 16831 16832 16833 16834 16835 16836 16837 16838 16839 16840 16841 16842 16843 16844 16845 16846 16847 16848 16849 16850 16851 16852 16853 16854 16855 16856 16857 16858 16859 16860 16861 16862 16863 16864 16865 16866 16867 16868 16869 16870 16871 16872 16873 16874 16875 16876 16877 16878 16879 16880 16881 16882 16883 16884 16885 16886 16887 16888 16889 16890 16891 16892 16893 16894 16895 16896 16897 16898 16899 16900 16901 16902 16903 16904 16905 16906 16907 16908 16909 16910 16911 16912 16913 16914 16915 16916 16917 16918 16919 16920 16921 16922 16923 16924 16925 16926 16927 16928 16929 16930 16931 16932 16933 16934 16935 16936 16937 16938 16939 16940 16941 16942 16943 16944 16945 16946 16947 16948 16949 16950 16951 16952 16953 16954 16955 16956 16957 16958 16959 16960 16961 16962 16963 16964 16965 16966 16967 16968 16969 16970 16971 16972 16973 16974 16975 16976 16977 16978 16979 16980 16981 16982 16983 16984 16985 16986 16987 16988 16989 16990 16991 16992 16993 16994 16995 16996 16997 16998 16999 17000 17001 17002 17003 17004 17005 17006 17007 17008 17009 17010 17011 17012 17013 17014 17015 17016 17017 17018 17019 17020 17021 17022 17023 17024 17025 17026 17027 17028 17029 17030 17031 17032 17033 17034 17035 17036 17037 17038 17039 17040 17041 17042 17043 17044 17045 17046 17047 17048 17049 17050 17051 17052 17053 17054 17055 17056 17057 17058 17059 17060 17061 17062 17063 17064 17065 17066 17067 17068 17069 17070 17071 17072 17073 17074 17075 17076 17077 17078 17079 17080 17081 17082 17083 17084 17085 17086 17087 17088 17089 17090 17091 17092 17093 17094 17095 17096 17097 17098 17099 17100 17101 17102 17103 17104 17105 17106 17107 17108 17109 17110 17111 17112 17113 17114 17115 17116 17117 17118 17119 17120 17121 17122 17123 17124 17125 17126 17127 17128 17129 17130 17131 17132 17133 17134 17135 17136 17137 17138 17139 17140 17141 17142 17143 17144 17145 17146 17147 17148 17149 17150 17151 17152 17153 17154 17155 17156 17157 17158 17159 17160 17161 17162 17163 17164 17165 17166 17167 17168 17169 17170 17171 17172 17173 17174 17175 17176 17177 17178 17179 17180 17181 17182 17183 17184 17185 17186 17187 17188 17189 17190 17191 17192 17193 17194 17195 17196 17197 17198 17199 17200 17201 17202 17203 17204 17205 17206 17207 17208 17209 17210 17211 17212 17213 17214 17215 17216 17217 17218 17219 17220 17221 17222 17223 17224 17225 17226 17227 17228 17229 17230 17231 17232 17233 17234 17235 17236 17237 17238 17239 17240 17241 17242 17243 17244 17245 17246 17247 17248 17249 17250 17251 17252 17253 17254 17255 17256 17257 17258 17259 17260 17261 17262 17263 17264 17265 17266 17267 17268 17269 17270 17271 17272 17273 17274 17275 17276 17277 17278 17279 17280 17281 17282 17283 17284 17285 17286 17287 17288 17289 17290 17291 17292 17293 17294 17295 17296 17297 17298 17299 17300 17301 17302 17303 17304 17305 17306 17307 17308 17309 17310 17311 17312 17313 17314 17315 17316 17317 17318 17319 17320 17321 17322 17323 17324 17325 17326 17327 17328 17329 17330 17331 17332 17333 17334 17335 17336 17337 17338 17339 17340 17341 17342 17343 17344 17345 17346 17347 17348 17349 17350 17351 17352 17353 17354 17355 17356 17357 17358 17359 17360 17361 17362 17363 17364 17365 17366 17367 17368 17369 17370 17371 17372 17373 17374 17375 17376 17377 17378 17379 17380 17381 17382 17383 17384 17385 17386 17387 17388 17389 17390 17391 17392 17393 17394 17395 17396 17397 17398 17399 17400 17401 17402 17403 17404 17405 17406 17407 17408 17409 17410 17411 17412 17413 17414 17415 17416 17417 17418 17419 17420 17421 17422 17423 17424 17425 17426 17427 17428 17429 17430 17431 17432 17433 17434 17435 17436 17437 17438 17439 17440 17441 17442 17443 17444 17445 17446 17447 17448 17449 17450 17451 17452 17453 17454 17455 17456 17457 17458 17459 17460 17461 17462 17463 17464 17465 17466 17467 17468 17469 17470 17471 17472 17473 17474 17475 17476 17477 17478 17479 17480 17481 17482 17483 17484 17485 17486 17487 17488 17489 17490 17491 17492 17493 17494 17495 17496 17497 17498 17499 17500 17501 17502 17503 17504 17505 17506 17507 17508 17509 17510 17511 17512 17513 17514 17515 17516 17517 17518 17519 17520 17521 17522 17523 17524 17525 17526 17527 17528 17529 17530 17531 17532 17533 17534 17535 17536 17537 17538 17539 17540 17541 17542 17543 17544 17545 17546 17547 17548 17549 17550 17551 17552 17553 17554 17555 17556 17557 17558 17559 17560 17561 17562 17563 17564 17565 17566 17567 17568 17569 17570 17571 17572 17573 17574 17575 17576 17577 17578 17579 17580 17581 17582 17583 17584 17585 17586 17587 17588 17589 17590 17591 17592 17593 17594 17595 17596 17597 17598 17599 17600 17601 17602 17603 17604 17605 17606 17607 17608 17609 17610 17611 17612 17613 17614 17615 17616 17617 17618 17619 17620 17621 17622 17623 17624 17625 17626 17627 17628 17629 17630 17631 17632 17633 17634 17635 17636 17637 17638 17639 17640 17641 17642 17643 17644 17645 17646 17647 17648 17649 17650 17651 17652 17653 17654 17655 17656 17657 17658 17659 17660 17661 17662 17663 17664 17665 17666 17667 17668 17669 17670 17671 17672 17673 17674 17675 17676 17677 17678 17679 17680 17681 17682 17683 17684 17685 17686 17687 17688 17689 17690 17691 17692 17693 17694 17695 17696 17697 17698 17699 17700 17701 17702 17703 17704 17705 17706 17707 17708 17709 17710 17711 17712 17713 17714 17715 17716 17717 17718 17719 17720 17721 17722 17723 17724 17725 17726 17727 17728 17729 17730 17731 17732 17733 17734 17735 17736 17737 17738 17739 17740 17741 17742 17743 17744 17745 17746 17747 17748 17749 17750 17751 17752 17753 17754 17755 17756 17757 17758 17759 17760 17761 17762 17763 17764 17765 17766 17767 17768 17769 17770 17771 17772 17773 17774 17775 17776 17777 17778 17779 17780 17781 17782 17783 17784 17785 17786 17787 17788 17789 17790 17791 17792 17793 17794 17795 17796 17797 17798 17799 17800 17801 17802 17803 17804 17805 17806 17807 17808 17809 17810 17811 17812 17813 17814 17815 17816 17817 17818 17819 17820 17821 17822 17823 17824 17825 17826 17827 17828 17829 17830 17831 17832 17833 17834 17835 17836 17837 17838 17839 17840 17841 17842 17843 17844 17845 17846 17847 17848 17849 17850 17851 17852 17853 17854 17855 17856 17857 17858 17859 17860 17861 17862 17863 17864 17865 17866 17867 17868 17869 17870 17871 17872 17873 17874 17875 17876 17877 17878 17879 17880 17881 17882 17883 17884 17885 17886 17887 17888 17889 17890 17891 17892 17893 17894 17895 17896 17897 17898 17899 17900 17901 17902 17903 17904 17905 17906 17907 17908 17909 17910 17911 17912 17913 17914 17915 17916 17917 17918 17919 17920 17921 17922 17923 17924 17925 17926 17927 17928 17929 17930 17931 17932 17933 17934 17935 17936 17937 17938 17939 17940 17941 17942 17943 17944 17945 17946 17947 17948 17949 17950 17951 17952 17953 17954 17955 17956 17957 17958 17959 17960 17961 17962 17963 17964 17965 17966 17967 17968 17969 17970 17971 17972 17973 17974 17975 17976 17977 17978 17979 17980 17981 17982 17983 17984 17985 17986 17987 17988 17989 17990 17991 17992 17993 17994 17995 17996 17997 17998 17999 18000 18001 18002 18003 18004 18005 18006 18007 18008 18009 18010 18011 18012 18013 18014 18015 18016 18017 18018 18019 18020 18021 18022 18023 18024 18025 18026 18027 18028 18029 18030 18031 18032 18033 18034 18035 18036 18037 18038 18039 18040 18041 18042 18043 18044 18045 18046 18047 18048 18049 18050 18051 18052 18053 18054 18055 18056 18057 18058 18059 18060 18061 18062 18063 18064 18065 18066 18067 18068 18069 18070 18071 18072 18073 18074 18075 18076 18077 18078 18079 18080 18081 18082 18083 18084 18085 18086 18087 18088 18089 18090 18091 18092 18093 18094 18095 18096 18097 18098 18099 18100 18101 18102 18103 18104 18105 18106 18107 18108 18109 18110 18111 18112 18113 18114 18115 18116 18117 18118 18119 18120 18121 18122 18123 18124 18125 18126 18127 18128 18129 18130 18131 18132 18133 18134 18135 18136 18137 18138 18139 18140 18141 18142 18143 18144 18145 18146 18147 18148 18149 18150 18151 18152 18153 18154 18155 18156 18157 18158 18159 18160 18161 18162 18163 18164 18165 18166 18167 18168 18169 18170 18171 18172 18173 18174 18175 18176 18177 18178 18179 18180 18181 18182 18183 18184 18185 18186 18187 18188 18189 18190 18191 18192 18193 18194 18195 18196 18197 18198 18199 18200 18201 18202 18203 18204 18205 18206 18207 18208 18209 18210 18211 18212 18213 18214 18215 18216 18217 18218 18219 18220 18221 18222 18223 18224 18225 18226 18227 18228 18229 18230 18231 18232 18233 18234 18235 18236 18237 18238 18239 18240 18241 18242 18243 18244 18245 18246 18247 18248 18249 18250 18251 18252 18253 18254 18255 18256 18257 18258 18259 18260 18261 18262 18263 18264 18265 18266 18267 18268 18269 18270 18271 18272 18273 18274 18275 18276 18277 18278 18279 18280 18281 18282 18283 18284 18285 18286 18287 18288 18289 18290 18291 18292 18293 18294 18295 18296 18297 18298 18299 18300 18301 18302 18303 18304 18305 18306 18307 18308 18309 18310 18311 18312 18313 18314 18315 18316 18317 18318 18319 18320 18321 18322 18323 18324 18325 18326 18327 18328 18329 18330 18331 18332 18333 18334 18335 18336 18337 18338 18339 18340 18341 18342 18343 18344 18345 18346 18347 18348 18349 18350 18351 18352 18353 18354 18355 18356 18357 18358 18359 18360 18361 18362 18363 18364 18365 18366 18367 18368 18369 18370 18371 18372 18373 18374 18375 18376 18377 18378 18379 18380 18381 18382 18383 18384 18385 18386 18387 18388 18389 18390 18391 18392 18393 18394 18395 18396 18397 18398 18399 18400 18401 18402 18403 18404 18405 18406 18407 18408 18409 18410 18411 18412 18413 18414 18415 18416 18417 18418 18419 18420 18421 18422 18423 18424 18425 18426 18427 18428 18429 18430 18431 18432 18433 18434 18435 18436 18437 18438 18439 18440 18441 18442 18443 18444 18445 18446 18447 18448 18449 18450 18451 18452 18453 18454 18455 18456 18457 18458 18459 18460 18461 18462 18463 18464 18465 18466 18467 18468 18469 18470 18471 18472 18473 18474 18475 18476 18477 18478 18479 18480 18481 18482 18483 18484 18485 18486 18487 18488 18489 18490 18491 18492 18493 18494 18495 18496 18497 18498 18499 18500 18501 18502 18503 18504 18505 18506 18507 18508 18509 18510 18511 18512 18513 18514 18515 18516 18517 18518 18519 18520 18521 18522 18523 18524 18525 18526 18527 18528 18529 18530 18531 18532 18533 18534 18535 18536 18537 18538 18539 18540 18541 18542 18543 18544 18545 18546 18547 18548 18549 18550 18551 18552 18553 18554 18555 18556 18557 18558 18559 18560 18561 18562 18563 18564 18565 18566 18567 18568 18569 18570 18571 18572 18573 18574 18575 18576 18577 18578 18579 18580 18581 18582 18583 18584 18585 18586 18587 18588 18589 18590 18591 18592 18593 18594 18595 18596 18597 18598 18599 18600 18601 18602 18603 18604 18605 18606 18607 18608 18609 18610 18611 18612 18613 18614 18615 18616 18617 18618 18619 18620 18621 18622 18623 18624 18625 18626 18627 18628 18629 18630 18631 18632 18633 18634 18635 18636 18637 18638 18639 18640 18641 18642 18643 18644 18645 18646 18647 18648 18649 18650 18651 18652 18653 18654 18655 18656 18657 18658 18659 18660 18661 18662 18663 18664 18665 18666 18667 18668 18669 18670 18671 18672 18673 18674 18675 18676 18677 18678 18679 18680 18681 18682 18683 18684 18685 18686 18687 18688 18689 18690 18691 18692 18693 18694 18695 18696 18697 18698 18699 18700 18701 18702 18703 18704 18705 18706 18707 18708 18709 18710 18711 18712 18713 18714 18715 18716 18717 18718 18719 18720 18721 18722 18723 18724 18725 18726 18727 18728 18729 18730 18731 18732 18733 18734 18735 18736 18737 18738 18739 18740 18741 18742 18743 18744 18745 18746 18747 18748 18749 18750 18751 18752 18753 18754 18755 18756 18757 18758 18759 18760 18761 18762 18763 18764 18765 18766 18767 18768 18769 18770 18771 18772 18773 18774 18775 18776 18777 18778 18779 18780 18781 18782 18783 18784 18785 18786 18787 18788 18789 18790 18791 18792 18793 18794 18795 18796 18797 18798 18799 18800 18801 18802 18803 18804 18805 18806 18807 18808 18809 18810 18811 18812 18813 18814 18815 18816 18817 18818 18819 18820 18821 18822 18823 18824 18825 18826 18827 18828 18829 18830 18831 18832 18833 18834 18835 18836 18837 18838 18839 18840 18841 18842 18843 18844 18845 18846 18847 18848 18849 18850 18851 18852 18853 18854 18855 18856 18857 18858 18859 18860 18861 18862 18863 18864 18865 18866 18867 18868 18869 18870 18871 18872 18873 18874 18875 18876 18877 18878 18879 18880 18881 18882 18883 18884 18885 18886 18887 18888 18889 18890 18891 18892 18893 18894 18895 18896 18897 18898 18899 18900 18901 18902 18903 18904 18905 18906 18907 18908 18909 18910 18911 18912 18913 18914 18915 18916 18917 18918 18919 18920 18921 18922 18923 18924 18925 18926 18927 18928 18929 18930 18931 18932 18933 18934 18935 18936 18937 18938 18939 18940 18941 18942 18943 18944 18945 18946 18947 18948 18949 18950 18951 18952 18953 18954 18955 18956 18957 18958 18959 18960 18961 18962 18963 18964 18965 18966 18967 18968 18969 18970 18971 18972 18973 18974 18975 18976 18977 18978 18979 18980 18981 18982 18983 18984 18985 18986 18987 18988 18989 18990 18991 18992 18993 18994 18995 18996 18997 18998 18999 19000 19001 19002 19003 19004 19005 19006 19007 19008 19009 19010 19011 19012 19013 19014 19015 19016 19017 19018 19019 19020 19021 19022 19023 19024 19025 19026 19027 19028 19029 19030 19031 19032 19033 19034 19035 19036 19037 19038 19039 19040 19041 19042 19043 19044 19045 19046 19047 19048 19049 19050 19051 19052 19053 19054 19055 19056 19057 19058 19059 19060 19061 19062 19063 19064 19065 19066 19067 19068 19069 19070 19071 19072 19073 19074 19075 19076 19077 19078 19079 19080 19081 19082 19083 19084 19085 19086 19087 19088 19089 19090 19091 19092 19093 19094 19095 19096 19097 19098 19099 19100 19101 19102 19103 19104 19105 19106 19107 19108 19109 19110 19111 19112 19113 19114 19115 19116 19117 19118 19119 19120 19121 19122 19123 19124 19125 19126 19127 19128 19129 19130 19131 19132 19133 19134 19135 19136 19137 19138 19139 19140 19141 19142 19143 19144 19145 19146 19147 19148 19149 19150 19151 19152 19153 19154 19155 19156 19157 19158 19159 19160 19161 19162 19163 19164 19165 19166 19167 19168 19169 19170 19171 19172 19173 19174 19175 19176 19177 19178 19179 19180 19181 19182 19183 19184 19185 19186 19187 19188 19189 19190 19191 19192 19193 19194 19195 19196 19197 19198 19199 19200 19201 19202 19203 19204 19205 19206 19207 19208 19209 19210 19211 19212 19213 19214 19215 19216 19217 19218 19219 19220 19221 19222 19223 19224 19225 19226 19227 19228 19229 19230 19231 19232 19233 19234 19235 19236 19237 19238 19239 19240 19241 19242 19243 19244 19245 19246 19247 19248 19249 19250 19251 19252 19253 19254 19255 19256 19257 19258 19259 19260 19261 19262 19263 19264 19265 19266 19267 19268 19269 19270 19271 19272 19273 19274 19275 19276 19277 19278 19279 19280 19281 19282 19283 19284 19285 19286 19287 19288 19289 19290 19291 19292 19293 19294 19295 19296 19297 19298 19299 19300 19301 19302 19303 19304 19305 19306 19307 19308 19309 19310 19311 19312 19313 19314 19315 19316 19317 19318 19319 19320 19321 19322 19323 19324 19325 19326 19327 19328 19329 19330 19331 19332 19333 19334 19335 19336 19337 19338 19339 19340 19341 19342 19343 19344 19345 19346 19347 19348 19349 19350 19351 19352 19353 19354 19355 19356 19357 19358 19359 19360 19361 19362 19363 19364 19365 19366 19367 19368 19369 19370 19371 19372 19373 19374 19375 19376 19377 19378 19379 19380 19381 19382 19383 19384 19385 19386 19387 19388 19389 19390 19391 19392 19393 19394 19395 19396 19397 19398 19399 19400 19401 19402 19403 19404 19405 19406 19407 19408 19409 19410 19411 19412 19413 19414 19415 19416 19417 19418 19419 19420 19421 19422 19423 19424 19425 19426 19427 19428 19429 19430 19431 19432 19433 19434 19435 19436 19437 19438 19439 19440 19441 19442 19443 19444 19445 19446 19447 19448 19449 19450 19451 19452 19453 19454 19455 19456 19457 19458 19459 19460 19461 19462 19463 19464 19465 19466 19467 19468 19469 19470 19471 19472 19473 19474 19475 19476 19477 19478 19479 19480 19481 19482 19483 19484 19485 19486 19487 19488 19489 19490 19491 19492 19493 19494 19495 19496 19497 19498 19499 19500 19501 19502 19503 19504 19505 19506 19507 19508 19509 19510 19511 19512 19513 19514 19515 19516 19517 19518 19519 19520 19521 19522 19523 19524 19525 19526 19527 19528 19529 19530 19531 19532 19533 19534 19535 19536 19537 19538 19539 19540 19541 19542 19543 19544 19545 19546 19547 19548 19549 19550 19551 19552 19553 19554 19555 19556 19557 19558 19559 19560 19561 19562 19563 19564 19565 19566 19567 19568 19569 19570 19571 19572 19573 19574 19575 19576 19577 19578 19579 19580 19581 19582 19583 19584 19585 19586 19587 19588 19589 19590 19591 19592 19593 19594 19595 19596 19597 19598 19599 19600 19601 19602 19603 19604 19605 19606 19607 19608 19609 19610 19611 19612 19613 19614 19615 19616 19617 19618 19619 19620 19621 19622 19623 19624 19625 19626 19627 19628 19629 19630 19631 19632 19633 19634 19635 19636 19637 19638 19639 19640 19641 19642 19643 19644 19645 19646 19647 19648 19649 19650 19651 19652 19653 19654 19655 19656 19657 19658 19659 19660 19661 19662 19663 19664 19665 19666 19667 19668 19669 19670 19671 19672 19673 19674 19675 19676 19677 19678 19679 19680 19681 19682 19683 19684 19685 19686 19687 19688 19689 19690 19691 19692 19693 19694 19695 19696 19697 19698 19699 19700 19701 19702 19703 19704 19705 19706 19707 19708 19709 19710 19711 19712 19713 19714 19715 19716 19717 19718 19719 19720 19721 19722 19723 19724 19725 19726 19727 19728 19729 19730 19731 19732 19733 19734 19735 19736 19737 19738 19739 19740 19741 19742 19743 19744 19745 19746 19747 19748 19749 19750 19751 19752 19753 19754 19755 19756 19757 19758 19759 19760 19761 19762 19763 19764 19765 19766 19767 19768 19769 19770 19771 19772 19773 19774 19775 19776 19777 19778 19779 19780 19781 19782 19783 19784 19785 19786 19787 19788 19789 19790 19791 19792 19793 19794 19795 19796 19797 19798 19799 19800 19801 19802 19803 19804 19805 19806 19807 19808 19809 19810 19811 19812 19813 19814 19815 19816 19817 19818 19819 19820 19821 19822 19823 19824 19825 19826 19827 19828 19829 19830 19831 19832 19833 19834 19835 19836 19837 19838 19839 19840 19841 19842 19843 19844 19845 19846 19847 19848 19849 19850 19851 19852 19853 19854 19855 19856 19857 19858 19859 19860 19861 19862 19863 19864 19865 19866 19867 19868 19869 19870 19871 19872 19873 19874 19875 19876 19877 19878 19879 19880 19881 19882 19883 19884 19885 19886 19887 19888 19889 19890 19891 19892 19893 19894 19895 19896 19897 19898 19899 19900 19901 19902 19903 19904 19905 19906 19907 19908 19909 19910 19911 19912 19913 19914 19915 19916 19917 19918 19919 19920 19921 19922 19923 19924 19925 19926 19927 19928 19929 19930 19931 19932 19933 19934 19935 19936 19937 19938 19939 19940 19941 19942 19943 19944 19945 19946 19947 19948 19949 19950 19951 19952 19953 19954 19955 19956 19957 19958 19959 19960 19961 19962 19963 19964 19965 19966 19967 19968 19969 19970 19971 19972 19973 19974 19975 19976 19977 19978 19979 19980 19981 19982 19983 19984 19985 19986 19987 19988 19989 19990 19991 19992 19993 19994 19995 19996 19997 19998 19999 20000 20001 20002 20003 20004 20005 20006 20007 20008 20009 20010 20011 20012 20013 20014 20015 20016 20017 20018 20019 20020 20021 20022 20023 20024 20025 20026 20027 20028 20029 20030 20031 20032 20033 20034 20035 20036 20037 20038 20039 20040 20041 20042 20043 20044 20045 20046 20047 20048 20049 20050 20051 20052 20053 20054 20055 20056 20057 20058 20059 20060 20061 20062 20063 20064 20065 20066 20067 20068 20069 20070 20071 20072 20073 20074 20075 20076 20077 20078 20079 20080 20081 20082 20083 20084 20085 20086 20087 20088 20089 20090 20091 20092 20093 20094 20095 20096 20097 20098 20099 20100 20101 20102 20103 20104 20105 20106 20107 20108 20109 20110 20111 20112 20113 20114 20115 20116 20117 20118 20119 20120 20121 20122 20123 20124 20125 20126 20127 20128 20129 20130 20131 20132 20133 20134 20135 20136 20137 20138 20139 20140 20141 20142 20143 20144 20145 20146 20147 20148 20149 20150 20151 20152 20153 20154 20155 20156 20157 20158 20159 20160 20161 20162 20163 20164 20165 20166 20167 20168 20169 20170 20171 20172 20173 20174 20175 20176 20177 20178 20179 20180 20181 20182 20183 20184 20185 20186 20187 20188 20189 20190 20191 20192 20193 20194 20195 20196 20197 20198 20199 20200 20201 20202 20203 20204 20205 20206 20207 20208 20209 20210 20211 20212 20213 20214 20215 20216 20217 20218 20219 20220 20221 20222 20223 20224 20225 20226 20227 20228 20229 20230 20231 20232 20233 20234 20235 20236 20237 20238 20239 20240 20241 20242 20243 20244 20245 20246 20247 20248 20249 20250 20251 20252 20253 20254 20255 20256 20257 20258 20259 20260 20261 20262 20263 20264 20265 20266 20267 20268 20269 20270 20271 20272 20273 20274 20275 20276 20277 20278 20279 20280 20281 20282 20283 20284 20285 20286 20287 20288 20289 20290 20291 20292 20293 20294 20295 20296 20297 20298 20299 20300 20301 20302 20303 20304 20305 20306 20307 20308 20309 20310 20311 20312 20313 20314 20315 20316 20317 20318 20319 20320 20321 20322 20323 20324 20325 20326 20327 20328 20329 20330 20331 20332 20333 20334 20335 20336 20337 20338 20339 20340 20341 20342 20343 20344 20345 20346 20347 20348 20349 20350 20351 20352 20353 20354 20355 20356 20357 20358 20359 20360 20361 20362 20363 20364 20365 20366 20367 20368 20369 20370 20371 20372 20373 20374 20375 20376 20377 20378 20379 20380 20381 20382 20383 20384 20385 20386 20387 20388 20389 20390 20391 20392 20393 20394 20395 20396 20397 20398 20399 20400 20401 20402 20403 20404 20405 20406 20407 20408 20409 20410 20411 20412 20413 20414 20415 20416 20417 20418 20419 20420 20421 20422 20423 20424 20425 20426 20427 20428 20429 20430 20431 20432 20433 20434 20435 20436 20437 20438 20439 20440 20441 20442 20443 20444 20445 20446 20447 20448 20449 20450 20451 20452 20453 20454 20455 20456 20457 20458 20459 20460 20461 20462 20463 20464 20465 20466 20467 20468 20469 20470 20471 20472 20473 20474 20475 20476 20477 20478 20479 20480 20481 20482 20483 20484 20485 20486 20487 20488 20489 20490 20491 20492 20493 20494 20495 20496 20497 20498 20499 20500 20501 20502 20503 20504 20505 20506 20507 20508 20509 20510 20511 20512 20513 20514 20515 20516 20517 20518 20519 20520 20521 20522 20523 20524 20525 20526 20527 20528 20529 20530 20531 20532 20533 20534 20535 20536 20537 20538 20539 20540 20541 20542 20543 20544 20545 20546 20547 20548 20549 20550 20551 20552 20553 20554 20555 20556 20557 20558 20559 20560 20561 20562 20563 20564 20565 20566 20567 20568 20569 20570 20571 20572 20573 20574 20575 20576 20577 20578 20579 20580 20581 20582 20583 20584 20585 20586 20587 20588 20589 20590 20591 20592 20593 20594 20595 20596 20597 20598 20599 20600 20601 20602 20603 20604 20605 20606 20607 20608 20609 20610 20611 20612 20613 20614 20615 20616 20617 20618 20619 20620 20621 20622 20623 20624 20625 20626 20627 20628 20629 20630 20631 20632 20633 20634 20635 20636 20637 20638 20639 20640 20641 20642 20643 20644 20645 20646 20647 20648 20649 20650 20651 20652 20653 20654 20655 20656 20657 20658 20659 20660 20661 20662 20663 20664 20665 20666 20667 20668 20669 20670 20671 20672 20673 20674 20675 20676 20677 20678 20679 20680 20681 20682 20683 20684 20685 20686 20687 20688 20689 20690 20691 20692 20693 20694 20695 20696 20697 20698 20699 20700 20701 20702 20703 20704 20705 20706 20707 20708 20709 20710 20711 20712 20713 20714 20715 20716 20717 20718 20719 20720 20721 20722 20723 20724 20725 20726 20727 20728 20729 20730 20731 20732 20733 20734 20735 20736 20737 20738 20739 20740 20741 20742 20743 20744 20745 20746 20747 20748 20749 20750 20751 20752 20753 20754 20755 20756 20757 20758 20759 20760 20761 20762 20763 20764 20765 20766 20767 20768 20769 20770 20771 20772 20773 20774 20775 20776 20777 20778 20779 20780 20781 20782 20783 20784 20785 20786 20787 20788 20789 20790 20791 20792 20793 20794 20795 20796 20797 20798 20799 20800 20801 20802 20803 20804 20805 20806 20807 20808 20809 20810 20811 20812 20813 20814 20815 20816 20817 20818 20819 20820 20821 20822 20823 20824 20825 20826 20827 20828 20829 20830 20831 20832 20833 20834 20835 20836 20837 20838 20839 20840 20841 20842 20843 20844 20845 20846 20847 20848 20849 20850 20851 20852 20853 20854 20855 20856 20857 20858 20859 20860 20861 20862 20863 20864 20865 20866 20867 20868 20869 20870 20871 20872 20873 20874 20875 20876 20877 20878 20879 20880 20881 20882 20883 20884 20885 20886 20887 20888 20889 20890 20891 20892 20893 20894 20895 20896 20897 20898 20899 20900 20901 20902 20903 20904 20905 20906 20907 20908 20909 20910 20911 20912 20913 20914 20915 20916 20917 20918 20919 20920 20921 20922 20923 20924 20925 20926 20927 20928 20929 20930 20931 20932 20933 20934 20935 20936 20937 20938 20939 20940 20941 20942 20943 20944 20945 20946 20947 20948 20949 20950 20951 20952 20953 20954 20955 20956 20957 20958 20959 20960 20961 20962 20963 20964 20965 20966 20967 20968 20969 20970 20971 20972 20973 20974 20975 20976 20977 20978 20979 20980 20981 20982 20983 20984 20985 20986 20987 20988 20989 20990 20991 20992 20993 20994 20995 20996 20997 20998 20999 21000 21001 21002 21003 21004 21005 21006 21007 21008 21009 21010 21011 21012 21013 21014 21015 21016 21017 21018 21019 21020 21021 21022 21023 21024 21025 21026 21027 21028 21029 21030 21031 21032 21033 21034 21035 21036 21037 21038 21039 21040 21041 21042 21043 21044 21045 21046 21047 21048 21049 21050 21051 21052 21053 21054 21055 21056 21057 21058 21059 21060 21061 21062 21063 21064 21065 21066 21067 21068 21069 21070 21071 21072 21073 21074 21075 21076 21077 21078 21079 21080 21081 21082 21083 21084 21085 21086 21087 21088 21089 21090 21091 21092 21093 21094 21095 21096 21097 21098 21099 21100 21101 21102 21103 21104 21105 21106 21107 21108 21109 21110 21111 21112 21113 21114 21115 21116 21117 21118 21119 21120 21121 21122 21123 21124 21125 21126 21127 21128 21129 21130 21131 21132 21133 21134 21135 21136 21137 21138 21139 21140 21141 21142 21143 21144 21145 21146 21147 21148 21149 21150 21151 21152 21153 21154 21155 21156 21157 21158 21159 21160 21161 21162 21163 21164 21165 21166 21167 21168 21169 21170 21171 21172 21173 21174 21175 21176 21177 21178 21179 21180 21181 21182 21183 21184 21185 21186 21187 21188 21189 21190 21191 21192 21193 21194 21195 21196 21197 21198 21199 21200 21201 21202 21203 21204 21205 21206 21207 21208 21209 21210 21211 21212 21213 21214 21215 21216 21217 21218 21219 21220 21221 21222 21223 21224 21225 21226 21227 21228 21229 21230 21231 21232 21233 21234 21235 21236 21237 21238 21239 21240 21241 21242 21243 21244 21245 21246 21247 21248 21249 21250 21251 21252 21253 21254 21255 21256 21257 21258 21259 21260 21261 21262 21263 21264 21265 21266 21267 21268 21269 21270 21271 21272 21273 21274 21275 21276 21277 21278 21279 21280 21281 21282 21283 21284 21285 21286 21287 21288 21289 21290 21291 21292 21293 21294 21295 21296 21297 21298 21299 21300 21301 21302 21303 21304 21305 21306 21307 21308 21309 21310 21311 21312 21313 21314 21315 21316 21317 21318 21319 21320 21321 21322 21323 21324 21325 21326 21327 21328 21329 21330 21331 21332 21333 21334 21335 21336 21337 21338 21339 21340 21341 21342 21343 21344 21345 21346 21347 21348 21349 21350 21351 21352 21353 21354 21355 21356 21357 21358 21359 21360 21361 21362 21363 21364 21365 21366 21367 21368 21369 21370 21371 21372 21373 21374 21375 21376 21377 21378 21379 21380 21381 21382 21383 21384 21385 21386 21387 21388 21389 21390 21391 21392 21393 21394 21395 21396 21397 21398 21399 21400 21401 21402 21403 21404 21405 21406 21407 21408 21409 21410 21411 21412 21413 21414 21415 21416 21417 21418 21419 21420 21421 21422 21423 21424 21425 21426 21427 21428 21429 21430 21431 21432 21433 21434 21435 21436 21437 21438 21439 21440 21441 21442 21443 21444 21445 21446 21447 21448 21449 21450 21451 21452 21453 21454 21455 21456 21457 21458 21459 21460 21461 21462 21463 21464 21465 21466 21467 21468 21469 21470 21471 21472 21473 21474 21475 21476 21477 21478 21479 21480 21481 21482 21483 21484 21485 21486 21487 21488 21489 21490 21491 21492 21493 21494 21495 21496 21497 21498 21499 21500 21501 21502 21503 21504 21505 21506 21507 21508 21509 21510 21511 21512 21513 21514 21515 21516 21517 21518 21519 21520 21521 21522 21523 21524 21525 21526 21527 21528 21529 21530 21531 21532 21533 21534 21535 21536 21537 21538 21539 21540 21541 21542 21543 21544 21545 21546 21547 21548 21549 21550 21551 21552 21553 21554 21555 21556 21557 21558 21559 21560 21561 21562 21563 21564 21565 21566 21567 21568 21569 21570 21571 21572 21573 21574 21575 21576 21577 21578 21579 21580 21581 21582 21583 21584 21585 21586 21587 21588 21589 21590 21591 21592 21593 21594 21595 21596 21597 21598 21599 21600 21601 21602 21603 21604 21605 21606 21607 21608 21609 21610 21611 21612 21613 21614 21615 21616 21617 21618 21619 21620 21621 21622 21623 21624 21625 21626 21627 21628 21629 21630 21631 21632 21633 21634 21635 21636 21637 21638 21639 21640 21641 21642 21643 21644 21645 21646 21647 21648 21649 21650 21651 21652 21653 21654 21655 21656 21657 21658 21659 21660 21661 21662 21663 21664 21665 21666 21667 21668 21669 21670 21671 21672 21673 21674 21675 21676 21677 21678 21679 21680 21681 21682 21683 21684 21685 21686 21687 21688 21689 21690 21691 21692 21693 21694 21695 21696 21697 21698 21699 21700 21701 21702 21703 21704 21705 21706 21707 21708 21709 21710 21711 21712 21713 21714 21715 21716 21717 21718 21719 21720 21721 21722 21723 21724 21725 21726 21727 21728 21729 21730 21731 21732 21733 21734 21735 21736 21737 21738 21739 21740 21741 21742 21743 21744 21745 21746 21747 21748 21749 21750 21751 21752 21753 21754 21755 21756 21757 21758 21759 21760 21761 21762 21763 21764 21765 21766 21767 21768 21769 21770 21771 21772 21773 21774 21775 21776 21777 21778 21779 21780 21781 21782 21783 21784 21785 21786 21787 21788 21789 21790 21791 21792 21793 21794 21795 21796 21797 21798 21799 21800 21801 21802 21803 21804 21805 21806 21807 21808 21809 21810 21811 21812 21813 21814 21815 21816 21817 21818 21819 21820 21821 21822 21823 21824 21825 21826 21827 21828 21829 21830 21831 21832 21833 21834 21835 21836 21837 21838 21839 21840 21841 21842 21843 21844 21845 21846 21847 21848 21849 21850 21851 21852 21853 21854 21855 21856 21857 21858 21859 21860 21861 21862 21863 21864 21865 21866 21867 21868 21869 21870 21871 21872 21873 21874 21875 21876 21877 21878 21879 21880 21881 21882 21883 21884 21885 21886 21887 21888 21889 21890 21891 21892 21893 21894 21895 21896 21897 21898 21899 21900 21901 21902 21903 21904 21905 21906 21907 21908 21909 21910 21911 21912 21913 21914 21915 21916 21917 21918 21919 21920 21921 21922 21923 21924 21925 21926 21927 21928 21929 21930 21931 21932 21933 21934 21935 21936 21937 21938 21939 21940 21941 21942 21943 21944 21945 21946 21947 21948 21949 21950 21951 21952 21953 21954 21955 21956 21957 21958 21959 21960 21961 21962 21963 21964 21965 21966 21967 21968 21969 21970 21971 21972 21973 21974 21975 21976 21977 21978 21979 21980 21981 21982 21983 21984 21985 21986 21987 21988 21989 21990 21991 21992 21993 21994 21995 21996 21997 21998 21999 22000 22001 22002 22003 22004 22005 22006 22007 22008 22009 22010 22011 22012 22013 22014 22015 22016 22017 22018 22019 22020 22021 22022 22023 22024 22025 22026 22027 22028 22029 22030 22031 22032 22033 22034 22035 22036 22037 22038 22039 22040 22041 22042 22043 22044 22045 22046 22047 22048 22049 22050 22051 22052 22053 22054 22055 22056 22057 22058 22059 22060 22061 22062 22063 22064 22065 22066 22067 22068 22069 22070 22071 22072 22073 22074 22075 22076 22077 22078 22079 22080 22081 22082 22083 22084 22085 22086 22087 22088 22089 22090 22091 22092 22093 22094 22095 22096 22097 22098 22099 22100 22101 22102 22103 22104 22105 22106 22107 22108 22109 22110 22111 22112 22113 22114 22115 22116 22117 22118 22119 22120 22121 22122 22123 22124 22125 22126 22127 22128 22129 22130 22131 22132 22133 22134 22135 22136 22137 22138 22139 22140 22141 22142 22143 22144 22145 22146 22147 22148 22149 22150 22151 22152 22153 22154 22155 22156 22157 22158 22159 22160 22161 22162 22163 22164 22165 22166 22167 22168 22169 22170 22171 22172 22173 22174 22175 22176 22177 22178 22179 22180 22181 22182 22183 22184 22185 22186 22187 22188 22189 22190 22191 22192 22193 22194 22195 22196 22197 22198 22199 22200 22201 22202 22203 22204 22205 22206 22207 22208 22209 22210 22211 22212 22213 22214 22215 22216 22217 22218 22219 22220 22221 22222 22223 22224 22225 22226 22227 22228 22229 22230 22231 22232 22233 22234 22235 22236 22237 22238 22239 22240 22241 22242 22243 22244 22245 22246 22247 22248 22249 22250 22251 22252 22253 22254 22255 22256 22257 22258 22259 22260 22261 22262 22263 22264 22265 22266 22267 22268 22269 22270 22271 22272 22273 22274 22275 22276 22277 22278 22279 22280 22281 22282 22283 22284 22285 22286 22287 22288 22289 22290 22291 22292 22293 22294 22295 22296 22297 22298 22299 22300 22301 22302 22303 22304 22305 22306 22307 22308 22309 22310 22311 22312 22313 22314 22315 22316 22317 22318 22319 22320 22321 22322 22323 22324 22325 22326 22327 22328 22329 22330 22331 22332 22333 22334 22335 22336 22337 22338 22339 22340 22341 22342 22343 22344 22345 22346 22347 22348 22349 22350 22351 22352 22353 22354 22355 22356 22357 22358 22359 22360 22361 22362 22363 22364 22365 22366 22367 22368 22369 22370 22371 22372 22373 22374 22375 22376 22377 22378 22379 22380 22381 22382 22383 22384 22385 22386 22387 22388 22389 22390 22391 22392 22393 22394 22395 22396 22397 22398 22399 22400 22401 22402 22403 22404 22405 22406 22407 22408 22409 22410 22411 22412 22413 22414 22415 22416 22417 22418 22419 22420 22421 22422 22423 22424 22425 22426 22427 22428 22429 22430 22431 22432 22433 22434 22435 22436 22437 22438 22439 22440 22441 22442 22443 22444 22445 22446 22447 22448 22449 22450 22451 22452 22453 22454 22455 22456 22457 22458 22459 22460 22461 22462 22463 22464 22465 22466 22467 22468 22469 22470 22471 22472 22473 22474 22475 22476 22477 22478 22479 22480 22481 22482 22483 22484 22485 22486 22487 22488 22489 22490 22491 22492 22493 22494 22495 22496 22497 22498 22499 22500 22501 22502 22503 22504 22505 22506 22507 22508 22509 22510 22511 22512 22513 22514 22515 22516 22517 22518 22519 22520 22521 22522 22523 22524 22525 22526 22527 22528 22529 22530 22531 22532 22533 22534 22535 22536 22537 22538 22539 22540 22541 22542 22543 22544 22545 22546 22547 22548 22549 22550 22551 22552 22553 22554 22555 22556 22557 22558 22559 22560 22561 22562 22563 22564 22565 22566 22567 22568 22569 22570 22571 22572 22573 22574 22575 22576 22577 22578 22579 22580 22581 22582 22583 22584 22585 22586 22587 22588 22589 22590 22591 22592 22593 22594 22595 22596 22597 22598 22599 22600 22601 22602 22603 22604 22605 22606 22607 22608 22609 22610 22611 22612 22613 22614 22615 22616 22617 22618 22619 22620 22621 22622 22623 22624 22625 22626 22627 22628 22629 22630 22631 22632 22633 22634 22635 22636 22637 22638 22639 22640 22641 22642 22643 22644 22645 22646 22647 22648 22649 22650 22651 22652 22653 22654 22655 22656 22657 22658 22659 22660 22661 22662 22663 22664 22665 22666 22667 22668 22669 22670 22671 22672 22673 22674 22675 22676 22677 22678 22679 22680 22681 22682 22683 22684 22685 22686 22687 22688 22689 22690 22691 22692 22693 22694 22695 22696 22697 22698 22699 22700 22701 22702 22703 22704 22705 22706 22707 22708 22709 22710 22711 22712 22713 22714 22715 22716 22717 22718 22719 22720 22721 22722 22723 22724 22725 22726 22727 22728 22729 22730 22731 22732 22733 22734 22735 22736 22737 22738 22739 22740 22741 22742 22743 22744 22745 22746 22747 22748 22749 22750 22751 22752 22753 22754 22755 22756 22757 22758 22759 22760 22761 22762 22763 22764 22765 22766 22767 22768 22769 22770 22771 22772 22773 22774 22775 22776 22777 22778 22779 22780 22781 22782 22783 22784 22785 22786 22787 22788 22789 22790 22791 22792 22793 22794 22795 22796 22797 22798 22799 22800 22801 22802 22803 22804 22805 22806 22807 22808 22809 22810 22811 22812 22813 22814 22815 22816 22817 22818 22819 22820 22821 22822 22823 22824 22825 22826 22827 22828 22829 22830 22831 22832 22833 22834 22835 22836 22837 22838 22839 22840 22841 22842 22843 22844 22845 22846 22847 22848 22849 22850 22851 22852 22853 22854 22855 22856 22857 22858 22859 22860 22861 22862 22863 22864 22865 22866 22867 22868 22869 22870 22871 22872 22873 22874 22875 22876 22877 22878 22879 22880 22881 22882 22883 22884 22885 22886 22887 22888 22889 22890 22891 22892 22893 22894 22895 22896 22897 22898 22899 22900 22901 22902 22903 22904 22905 22906 22907 22908 22909 22910 22911 22912 22913 22914 22915 22916 22917 22918 22919 22920 22921 22922 22923 22924 22925 22926 22927 22928 22929 22930 22931 22932 22933 22934 22935 22936 22937 22938 22939 22940 22941 22942 22943 22944 22945 22946 22947 22948 22949 22950 22951 22952 22953 22954 22955 22956 22957 22958 22959 22960 22961 22962 22963 22964 22965 22966 22967 22968 22969 22970 22971 22972 22973 22974 22975 22976 22977 22978 22979 22980 22981 22982 22983 22984 22985 22986 22987 22988 22989 22990 22991 22992 22993 22994 22995 22996 22997 22998 22999 23000 23001 23002 23003 23004 23005 23006 23007 23008 23009 23010 23011 23012 23013 23014 23015 23016 23017 23018 23019 23020 23021 23022 23023 23024 23025 23026 23027 23028 23029 23030 23031 23032 23033 23034 23035 23036 23037 23038 23039 23040 23041 23042 23043 23044 23045 23046 23047 23048 23049 23050 23051 23052 23053 23054 23055 23056 23057 23058 23059 23060 23061 23062 23063 23064 23065 23066 23067 23068 23069 23070 23071 23072 23073 23074 23075 23076 23077 23078 23079 23080 23081 23082 23083 23084 23085 23086 23087 23088 23089 23090 23091 23092 23093 23094 23095 23096 23097 23098 23099 23100 23101 23102 23103 23104 23105 23106 23107 23108 23109 23110 23111 23112 23113 23114 23115 23116 23117 23118 23119 23120 23121 23122 23123 23124 23125 23126 23127 23128 23129 23130 23131 23132 23133 23134 23135 23136 23137 23138 23139 23140 23141 23142 23143 23144 23145 23146 23147 23148 23149 23150 23151 23152 23153 23154 23155 23156 23157 23158 23159 23160 23161 23162 23163 23164 23165 23166 23167 23168 23169 23170 23171 23172 23173 23174 23175 23176 23177 23178 23179 23180 23181 23182 23183 23184 23185 23186 23187 23188 23189 23190 23191 23192 23193 23194 23195 23196 23197 23198 23199 23200 23201 23202 23203 23204 23205 23206 23207 23208 23209 23210 23211 23212 23213 23214 23215 23216 23217 23218 23219 23220 23221 23222 23223 23224 23225 23226 23227 23228 23229 23230 23231 23232 23233 23234 23235 23236 23237 23238 23239 23240 23241 23242 23243 23244 23245 23246 23247 23248 23249 23250 23251 23252 23253 23254 23255 23256 23257 23258 23259 23260 23261 23262 23263 23264 23265 23266 23267 23268 23269 23270 23271 23272 23273 23274 23275 23276 23277 23278 23279 23280 23281 23282 23283 23284 23285 23286 23287 23288 23289 23290 23291 23292 23293 23294 23295 23296 23297 23298 23299 23300 23301 23302 23303 23304 23305 23306 23307 23308 23309 23310 23311 23312 23313 23314 23315 23316 23317 23318 23319 23320 23321 23322 23323 23324 23325 23326 23327 23328 23329 23330 23331 23332 23333 23334 23335 23336 23337 23338 23339 23340 23341 23342 23343 23344 23345 23346 23347 23348 23349 23350 23351 23352 23353 23354 23355 23356 23357 23358 23359 23360 23361 23362 23363 23364 23365 23366 23367 23368 23369 23370 23371 23372 23373 23374 23375 23376 23377 23378 23379 23380 23381 23382 23383 23384 23385 23386 23387 23388 23389 23390 23391 23392 23393 23394 23395 23396 23397 23398 23399 23400 23401 23402 23403 23404 23405 23406 23407 23408 23409 23410 23411 23412 23413 23414 23415 23416 23417 23418 23419 23420 23421 23422 23423 23424 23425 23426 23427 23428 23429 23430 23431 23432 23433 23434 23435 23436 23437 23438 23439 23440 23441 23442 23443 23444 23445 23446 23447 23448 23449 23450 23451 23452 23453 23454 23455 23456 23457 23458 23459 23460 23461 23462 23463 23464 23465 23466 23467 23468 23469 23470 23471 23472 23473 23474 23475 23476 23477 23478 23479 23480 23481 23482 23483 23484 23485 23486 23487 23488 23489 23490 23491 23492 23493 23494 23495 23496 23497 23498 23499 23500 23501 23502 23503 23504 23505 23506 23507 23508 23509 23510 23511 23512 23513 23514 23515 23516 23517 23518 23519 23520 23521 23522 23523 23524 23525 23526 23527 23528 23529 23530 23531 23532 23533 23534 23535 23536 23537 23538 23539 23540 23541 23542 23543 23544 23545 23546 23547 23548 23549 23550 23551 23552 23553 23554 23555 23556 23557 23558 23559 23560 23561 23562 23563 23564 23565 23566 23567 23568 23569 23570 23571 23572 23573 23574 23575 23576 23577 23578 23579 23580 23581 23582 23583 23584 23585 23586 23587 23588 23589 23590 23591 23592 23593 23594 23595 23596 23597 23598 23599 23600 23601 23602 23603 23604 23605 23606 23607 23608 23609 23610 23611 23612 23613 23614 23615 23616 23617 23618 23619 23620 23621 23622 23623 23624 23625 23626 23627 23628 23629 23630 23631 23632 23633 23634 23635 23636 23637 23638 23639 23640 23641 23642 23643 23644 23645 23646 23647 23648 23649 23650 23651 23652 23653 23654 23655 23656 23657 23658 23659 23660 23661 23662 23663 23664 23665 23666 23667 23668 23669 23670 23671 23672 23673 23674 23675 23676 23677 23678 23679 23680 23681 23682 23683 23684 23685 23686 23687 23688 23689 23690 23691 23692 23693 23694 23695 23696 23697 23698 23699 23700 23701 23702 23703 23704 23705 23706 23707 23708 23709 23710 23711 23712 23713 23714 23715 23716 23717 23718 23719 23720 23721 23722 23723 23724 23725 23726 23727 23728 23729 23730 23731 23732 23733 23734 23735 23736 23737 23738 23739 23740 23741 23742 23743 23744 23745 23746 23747 23748 23749 23750 23751 23752 23753 23754 23755 23756 23757 23758 23759 23760 23761 23762 23763 23764 23765 23766 23767 23768 23769 23770 23771 23772 23773 23774 23775 23776 23777 23778 23779 23780 23781 23782 23783 23784 23785 23786 23787 23788 23789 23790 23791 23792 23793 23794 23795 23796 23797 23798 23799 23800 23801 23802 23803 23804 23805 23806 23807 23808 23809 23810 23811 23812 23813 23814 23815 23816 23817 23818 23819 23820 23821 23822 23823 23824 23825 23826 23827 23828 23829 23830 23831 23832 23833 23834 23835 23836 23837 23838 23839 23840 23841 23842 23843 23844 23845 23846 23847 23848 23849 23850 23851 23852 23853 23854 23855 23856 23857 23858 23859 23860 23861 23862 23863 23864 23865 23866 23867 23868 23869 23870 23871 23872 23873 23874 23875 23876 23877 23878 23879 23880 23881 23882 23883 23884 23885 23886 23887 23888 23889 23890 23891 23892 23893 23894 23895 23896 23897 23898 23899 23900 23901 23902 23903 23904 23905 23906 23907 23908 23909 23910 23911 23912 23913 23914 23915 23916 23917 23918 23919 23920 23921 23922 23923 23924 23925 23926 23927 23928 23929 23930 23931 23932 23933 23934 23935 23936 23937 23938 23939 23940 23941 23942 23943 23944 23945 23946 23947 23948 23949 23950 23951 23952 23953 23954 23955 23956 23957 23958 23959 23960 23961 23962 23963 23964 23965 23966 23967 23968 23969 23970 23971 23972 23973 23974 23975 23976 23977 23978 23979 23980 23981 23982 23983 23984 23985 23986 23987 23988 23989 23990 23991 23992 23993 23994 23995 23996 23997 23998 23999 24000 24001 24002 24003 24004 24005 24006 24007 24008 24009 24010 24011 24012 24013 24014 24015 24016 24017 24018 24019 24020 24021 24022 24023 24024 24025 24026 24027 24028 24029 24030 24031 24032 24033 24034 24035 24036 24037 24038 24039 24040 24041 24042 24043 24044 24045 24046 24047 24048 24049 24050 24051 24052 24053 24054 24055 24056 24057 24058 24059 24060 24061 24062 24063 24064 24065 24066 24067 24068 24069 24070 24071 24072 24073 24074 24075 24076 24077 24078 24079 24080 24081 24082 24083 24084 24085 24086 24087 24088 24089 24090 24091 24092 24093 24094 24095 24096 24097 24098 24099 24100 24101 24102 24103 24104 24105 24106 24107 24108 24109 24110 24111 24112 24113 24114 24115 24116 24117 24118 24119 24120 24121 24122 24123 24124 24125 24126 24127 24128 24129 24130 24131 24132 24133 24134 24135 24136 24137 24138 24139 24140 24141 24142 24143 24144 24145 24146 24147 24148 24149 24150 24151 24152 24153 24154 24155 24156 24157 24158 24159 24160 24161 24162 24163 24164 24165 24166 24167 24168 24169 24170 24171 24172 24173 24174 24175 24176 24177 24178 24179 24180 24181 24182 24183 24184 24185 24186 24187 24188 24189 24190 24191 24192 24193 24194 24195 24196 24197 24198 24199 24200 24201 24202 24203 24204 24205 24206 24207 24208 24209 24210 24211 24212 24213 24214 24215 24216 24217 24218 24219 24220 24221 24222 24223 24224 24225 24226 24227 24228 24229 24230 24231 24232 24233 24234 24235 24236 24237 24238 24239 24240 24241 24242 24243 24244 24245 24246 24247 24248 24249 24250 24251 24252 24253 24254 24255 24256 24257 24258 24259 24260 24261 24262 24263 24264 24265 24266 24267 24268 24269 24270 24271 24272 24273 24274 24275 24276 24277 24278 24279 24280 24281 24282 24283 24284 24285 24286 24287 24288 24289 24290 24291 24292 24293 24294 24295 24296 24297 24298 24299 24300 24301 24302 24303 24304 24305 24306 24307 24308 24309 24310 24311 24312 24313 24314 24315 24316 24317 24318 24319 24320 24321 24322 24323 24324 24325 24326 24327 24328 24329 24330 24331 24332 24333 24334 24335 24336 24337 24338 24339 24340 24341 24342 24343 24344 24345 24346 24347 24348 24349 24350 24351 24352 24353 24354 24355 24356 24357 24358 24359 24360 24361 24362 24363 24364 24365 24366 24367 24368 24369 24370 24371 24372 24373 24374 24375 24376 24377 24378 24379 24380 24381 24382 24383 24384 24385 24386 24387 24388 24389 24390 24391 24392 24393 24394 24395 24396 24397 24398 24399 24400 24401 24402 24403 24404 24405 24406 24407 24408 24409 24410 24411 24412 24413 24414 24415 24416 24417 24418 24419 24420 24421 24422 24423 24424 24425 24426 24427 24428 24429 24430 24431 24432 24433 24434 24435 24436 24437 24438 24439 24440 24441 24442 24443 24444 24445 24446 24447 24448 24449 24450 24451 24452 24453 24454 24455 24456 24457 24458 24459 24460 24461 24462 24463 24464 24465 24466 24467 24468 24469 24470 24471 24472 24473 24474 24475 24476 24477 24478 24479 24480 24481 24482 24483 24484 24485 24486 24487 24488 24489 24490 24491 24492 24493 24494 24495 24496 24497 24498 24499 24500 24501 24502 24503 24504 24505 24506 24507 24508 24509 24510 24511 24512 24513 24514 24515 24516 24517 24518 24519 24520 24521 24522 24523 24524 24525 24526 24527 24528 24529 24530 24531 24532 24533 24534 24535 24536 24537 24538 24539 24540 24541 24542 24543 24544 24545 24546 24547 24548 24549 24550 24551 24552 24553 24554 24555 24556 24557 24558 24559 24560 24561 24562 24563 24564 24565 24566 24567 24568 24569 24570 24571 24572 24573 24574 24575 24576 24577 24578 24579 24580 24581 24582 24583 24584 24585 24586 24587 24588 24589 24590 24591 24592 24593 24594 24595 24596 24597 24598 24599 24600 24601 24602 24603 24604 24605 24606 24607 24608 24609 24610 24611 24612 24613 24614 24615 24616 24617 24618 24619 24620 24621 24622 24623 24624 24625 24626 24627 24628 24629 24630 24631 24632 24633 24634 24635 24636 24637 24638 24639 24640 24641 24642 24643 24644 24645 24646 24647 24648 24649 24650 24651 24652 24653 24654 24655 24656 24657 24658 24659 24660 24661 24662 24663 24664 24665 24666 24667 24668 24669 24670 24671 24672 24673 24674 24675 24676 24677 24678 24679 24680 24681 24682 24683 24684 24685 24686 24687 24688 24689 24690 24691 24692 24693 24694 24695 24696 24697 24698 24699 24700 24701 24702 24703 24704 24705 24706 24707 24708 24709 24710 24711 24712 24713 24714 24715 24716 24717 24718 24719 24720 24721 24722 24723 24724 24725 24726 24727 24728 24729 24730 24731 24732 24733 24734 24735 24736 24737 24738 24739 24740 24741 24742 24743 24744 24745 24746 24747 24748 24749 24750 24751 24752 24753 24754 24755 24756 24757 24758 24759 24760 24761 24762 24763 24764 24765 24766 24767 24768 24769 24770 24771 24772 24773 24774 24775 24776 24777 24778 24779 24780 24781 24782 24783 24784 24785 24786 24787 24788 24789 24790 24791 24792 24793 24794 24795 24796 24797 24798 24799 24800 24801 24802 24803 24804 24805 24806 24807 24808 24809 24810 24811 24812 24813 24814 24815 24816 24817 24818 24819 24820 24821 24822 24823 24824 24825 24826 24827 24828 24829 24830 24831 24832 24833 24834 24835 24836 24837 24838 24839 24840 24841 24842 24843 24844 24845 24846 24847 24848 24849 24850 24851 24852 24853 24854 24855 24856 24857 24858 24859 24860 24861 24862 24863 24864 24865 24866 24867 24868 24869 24870 24871 24872 24873 24874 24875 24876 24877 24878 24879 24880 24881 24882 24883 24884 24885 24886 24887 24888 24889 24890 24891 24892 24893 24894 24895 24896 24897 24898 24899 24900 24901 24902 24903 24904 24905 24906 24907 24908 24909 24910 24911 24912 24913 24914 24915 24916 24917 24918 24919 24920 24921 24922 24923 24924 24925 24926 24927 24928 24929 24930 24931 24932 24933 24934 24935 24936 24937 24938 24939 24940 24941 24942 24943 24944 24945 24946 24947 24948 24949 24950 24951 24952 24953 24954 24955 24956 24957 24958 24959 24960 24961 24962 24963 24964 24965 24966 24967 24968 24969 24970 24971 24972 24973 24974 24975 24976 24977 24978 24979 24980 24981 24982 24983 24984 24985 24986 24987 24988 24989 24990 24991 24992 24993 24994 24995 24996 24997 24998 24999 25000 25001 25002 25003 25004 25005 25006 25007 25008 25009 25010 25011 25012 25013 25014 25015 25016 25017 25018 25019 25020 25021 25022 25023 25024 25025 25026 25027 25028 25029 25030 25031 25032 25033 25034 25035 25036 25037 25038 25039 25040 25041 25042 25043 25044 25045 25046 25047 25048 25049 25050 25051 25052 25053 25054 25055 25056 25057 25058 25059 25060 25061 25062 25063 25064 25065 25066 25067 25068 25069 25070 25071 25072 25073 25074 25075 25076 25077 25078 25079 25080 25081 25082 25083 25084 25085 25086 25087 25088 25089 25090 25091 25092 25093 25094 25095 25096 25097 25098 25099 25100 25101 25102 25103 25104 25105 25106 25107 25108 25109 25110 25111 25112 25113 25114 25115 25116 25117 25118 25119 25120 25121 25122 25123 25124 25125 25126 25127 25128 25129 25130 25131 25132 25133 25134 25135 25136 25137 25138 25139 25140 25141 25142 25143 25144 25145 25146 25147 25148 25149 25150 25151 25152 25153 25154 25155 25156 25157 25158 25159 25160 25161 25162 25163 25164 25165 25166 25167 25168 25169 25170 25171 25172 25173 25174 25175 25176 25177 25178 25179 25180 25181 25182 25183 25184 25185 25186 25187 25188 25189 25190 25191 25192 25193 25194 25195 25196 25197 25198 25199 25200 25201 25202 25203 25204 25205 25206 25207 25208 25209 25210 25211 25212 25213 25214 25215 25216 25217 25218 25219 25220 25221 25222 25223 25224 25225 25226 25227 25228 25229 25230 25231 25232 25233 25234 25235 25236 25237 25238 25239 25240 25241 25242 25243 25244 25245 25246 25247 25248 25249 25250 25251 25252 25253 25254 25255 25256 25257 25258 25259 25260 25261 25262 25263 25264 25265 25266 25267 25268 25269 25270 25271 25272 25273 25274 25275 25276 25277 25278 25279 25280 25281 25282 25283 25284 25285 25286 25287 25288 25289 25290 25291 25292 25293 25294 25295 25296 25297 25298 25299 25300 25301 25302 25303 25304 25305 25306 25307 25308 25309 25310 25311 25312 25313 25314 25315 25316 25317 25318 25319 25320 25321 25322 25323 25324 25325 25326 25327 25328 25329 25330 25331 25332 25333 25334 25335 25336 25337 25338 25339 25340 25341 25342 25343 25344 25345 25346 25347 25348 25349 25350 25351 25352 25353 25354 25355 25356 25357 25358 25359 25360 25361 25362 25363 25364 25365 25366 25367 25368 25369 25370 25371 25372 25373 25374 25375 25376 25377 25378 25379 25380 25381 25382 25383 25384 25385 25386 25387 25388 25389 25390 25391 25392 25393 25394 25395 25396 25397 25398 25399 25400 25401 25402 25403 25404 25405 25406 25407 25408 25409 25410 25411 25412 25413 25414 25415 25416 25417 25418 25419 25420 25421 25422 25423 25424 25425 25426 25427 25428 25429 25430 25431 25432 25433 25434 25435 25436 25437 25438 25439 25440 25441 25442 25443 25444 25445 25446 25447 25448 25449 25450 25451 25452 25453 25454 25455 25456 25457 25458 25459 25460 25461 25462 25463 25464 25465 25466 25467 25468 25469 25470 25471 25472 25473 25474 25475 25476 25477 25478 25479 25480 25481 25482 25483 25484 25485 25486 25487 25488 25489 25490 25491 25492 25493 25494 25495 25496 25497 25498 25499 25500 25501 25502 25503 25504 25505 25506 25507 25508 25509 25510 25511 25512 25513 25514 25515 25516 25517 25518 25519 25520 25521 25522 25523 25524 25525 25526 25527 25528 25529 25530 25531 25532 25533 25534 25535 25536 25537 25538 25539 25540 25541 25542 25543 25544 25545 25546 25547 25548 25549 25550 25551 25552 25553 25554 25555 25556 25557 25558 25559 25560 25561 25562 25563 25564 25565 25566 25567 25568 25569 25570 25571 25572 25573 25574 25575 25576 25577 25578 25579 25580 25581 25582 25583 25584 25585 25586 25587 25588 25589 25590 25591 25592 25593 25594 25595 25596 25597 25598 25599 25600 25601 25602 25603 25604 25605 25606 25607 25608 25609 25610 25611 25612 25613 25614 25615 25616 25617 25618 25619 25620 25621 25622 25623 25624 25625 25626 25627 25628 25629 25630 25631 25632 25633 25634 25635 25636 25637 25638 25639 25640 25641 25642 25643 25644 25645 25646 25647 25648 25649 25650 25651 25652 25653 25654 25655 25656 25657 25658 25659 25660 25661 25662 25663 25664 25665 25666 25667 25668 25669 25670 25671 25672 25673 25674 25675 25676 25677 25678 25679 25680 25681 25682 25683 25684 25685 25686 25687 25688 25689 25690 25691 25692 25693 25694 25695 25696 25697 25698 25699 25700 25701 25702 25703 25704 25705 25706 25707 25708 25709 25710 25711 25712 25713 25714 25715 25716 25717 25718 25719 25720 25721 25722 25723 25724 25725 25726 25727 25728 25729 25730 25731 25732 25733 25734 25735 25736 25737 25738 25739 25740 25741 25742 25743 25744 25745 25746 25747 25748 25749 25750 25751 25752 25753 25754 25755 25756 25757 25758 25759 25760 25761 25762 25763 25764 25765 25766 25767 25768 25769 25770 25771 25772 25773 25774 25775 25776 25777 25778 25779 25780 25781 25782 25783 25784 25785 25786 25787 25788 25789 25790 25791 25792 25793 25794 25795 25796 25797 25798 25799 25800 25801 25802 25803 25804 25805 25806 25807 25808 25809 25810 25811 25812 25813 25814 25815 25816 25817 25818 25819 25820 25821 25822 25823 25824 25825 25826 25827 25828 25829 25830 25831 25832 25833 25834 25835 25836 25837 25838 25839 25840 25841 25842 25843 25844 25845 25846 25847 25848 25849 25850 25851 25852 25853 25854 25855 25856 25857 25858 25859 25860 25861 25862 25863 25864 25865 25866 25867 25868 25869 25870 25871 25872 25873 25874 25875 25876 25877 25878 25879 25880 25881 25882 25883 25884 25885 25886 25887 25888 25889 25890 25891 25892 25893 25894 25895 25896 25897 25898 25899 25900 25901 25902 25903 25904 25905 25906 25907 25908 25909 25910 25911 25912 25913 25914 25915 25916 25917 25918 25919 25920 25921 25922 25923 25924 25925 25926 25927 25928 25929 25930 25931 25932 25933 25934 25935 25936 25937 25938 25939 25940 25941 25942 25943 25944 25945 25946 25947 25948 25949 25950 25951 25952 25953 25954 25955 25956 25957 25958 25959 25960 25961 25962 25963 25964 25965 25966 25967 25968 25969 25970 25971 25972 25973 25974 25975 25976 25977 25978 25979 25980 25981 25982 25983 25984 25985 25986 25987 25988 25989 25990 25991 25992 25993 25994 25995 25996 25997 25998 25999 26000 26001 26002 26003 26004 26005 26006 26007 26008 26009 26010 26011 26012 26013 26014 26015 26016 26017 26018 26019 26020 26021 26022 26023 26024 26025 26026 26027 26028 26029 26030 26031 26032 26033 26034 26035 26036 26037 26038 26039 26040 26041 26042 26043 26044 26045 26046 26047 26048 26049 26050 26051 26052 26053 26054 26055 26056 26057 26058 26059 26060 26061 26062 26063 26064 26065 26066 26067 26068 26069 26070 26071 26072 26073 26074 26075 26076 26077 26078 26079 26080 26081 26082 26083 26084 26085 26086 26087 26088 26089 26090 26091 26092 26093 26094 26095 26096 26097 26098 26099 26100 26101 26102 26103 26104 26105 26106 26107 26108 26109 26110 26111 26112 26113 26114 26115 26116 26117 26118 26119 26120 26121 26122 26123 26124 26125 26126 26127 26128 26129 26130 26131 26132 26133 26134 26135 26136 26137 26138 26139 26140 26141 26142 26143 26144 26145 26146 26147 26148 26149 26150 26151 26152 26153 26154 26155 26156 26157 26158 26159 26160 26161 26162 26163 26164 26165 26166 26167 26168 26169 26170 26171 26172 26173 26174 26175 26176 26177 26178 26179 26180 26181 26182 26183 26184 26185 26186 26187 26188 26189 26190 26191 26192 26193 26194 26195 26196 26197 26198 26199 26200 26201 26202 26203 26204 26205 26206 26207 26208 26209 26210 26211 26212 26213 26214 26215 26216 26217 26218 26219 26220 26221 26222 26223 26224 26225 26226 26227 26228 26229 26230 26231 26232 26233 26234 26235 26236 26237 26238 26239 26240 26241 26242 26243 26244 26245 26246 26247 26248 26249 26250 26251 26252 26253 26254 26255 26256 26257 26258 26259 26260 26261 26262 26263 26264 26265 26266 26267 26268 26269 26270 26271 26272 26273 26274 26275 26276 26277 26278 26279 26280 26281 26282 26283 26284 26285 26286 26287 26288 26289 26290 26291 26292 26293 26294 26295 26296 26297 26298 26299 26300 26301 26302 26303 26304 26305 26306 26307 26308 26309 26310 26311 26312 26313 26314 26315 26316 26317 26318 26319 26320 26321 26322 26323 26324 26325 26326 26327 26328 26329 26330 26331 26332 26333 26334 26335 26336 26337 26338 26339 26340 26341 26342 26343 26344 26345 26346 26347 26348 26349 26350 26351 26352 26353 26354 26355 26356 26357 26358 26359 26360 26361 26362 26363 26364 26365 26366 26367 26368 26369 26370 26371 26372 26373 26374 26375 26376 26377 26378 26379 26380 26381 26382 26383 26384 26385 26386 26387 26388 26389 26390 26391 26392 26393 26394 26395 26396 26397 26398 26399 26400 26401 26402 26403 26404 26405 26406 26407 26408 26409 26410 26411 26412 26413 26414 26415 26416 26417 26418 26419 26420 26421 26422 26423 26424 26425 26426 26427 26428 26429 26430 26431 26432 26433 26434 26435 26436 26437 26438 26439 26440 26441 26442 26443 26444 26445 26446 26447 26448 26449 26450 26451 26452 26453 26454 26455 26456 26457 26458 26459 26460 26461 26462 26463 26464 26465 26466 26467 26468 26469 26470 26471 26472 26473 26474 26475 26476 26477 26478 26479 26480 26481 26482 26483 26484 26485 26486 26487 26488 26489 26490 26491 26492 26493 26494 26495 26496 26497 26498 26499 26500 26501 26502 26503 26504 26505 26506 26507 26508 26509 26510 26511 26512 26513 26514 26515 26516 26517 26518 26519 26520 26521 26522 26523 26524 26525 26526 26527 26528 26529 26530 26531 26532 26533 26534 26535 26536 26537 26538 26539 26540 26541 26542 26543 26544 26545 26546 26547 26548 26549 26550 26551 26552 26553 26554 26555 26556 26557 26558 26559 26560 26561 26562 26563 26564 26565 26566 26567 26568 26569 26570 26571 26572 26573 26574 26575 26576 26577 26578 26579 26580 26581 26582 26583 26584 26585 26586 26587 26588 26589 26590 26591 26592 26593 26594 26595 26596 26597 26598 26599 26600 26601 26602 26603 26604 26605 26606 26607 26608 26609 26610 26611 26612 26613 26614 26615 26616 26617 26618 26619 26620 26621 26622 26623 26624 26625 26626 26627 26628 26629 26630 26631 26632 26633 26634 26635 26636 26637 26638 26639 26640 26641 26642 26643 26644 26645 26646 26647 26648 26649 26650 26651 26652 26653 26654 26655 26656 26657 26658 26659 26660 26661 26662 26663 26664 26665 26666 26667 26668 26669 26670 26671 26672 26673 26674 26675 26676 26677 26678 26679 26680 26681 26682 26683 26684 26685 26686 26687 26688 26689 26690 26691 26692 26693 26694 26695 26696 26697 26698 26699 26700 26701 26702 26703 26704 26705 26706 26707 26708 26709 26710 26711 26712 26713 26714 26715 26716 26717 26718 26719 26720 26721 26722 26723 26724 26725 26726 26727 26728 26729 26730 26731 26732 26733 26734 26735 26736 26737 26738 26739 26740 26741 26742 26743 26744 26745 26746 26747 26748 26749 26750 26751 26752 26753 26754 26755 26756 26757 26758 26759 26760 26761 26762 26763 26764 26765 26766 26767 26768 26769 26770 26771 26772 26773 26774 26775 26776 26777 26778 26779 26780 26781 26782 26783 26784 26785 26786 26787 26788 26789 26790 26791 26792 26793 26794 26795 26796 26797 26798 26799 26800 26801 26802 26803 26804 26805 26806 26807 26808 26809 26810 26811 26812 26813 26814 26815 26816 26817 26818 26819 26820 26821 26822 26823 26824 26825 26826 26827 26828 26829 26830 26831 26832 26833 26834 26835 26836 26837 26838 26839 26840 26841 26842 26843 26844 26845 26846 26847 26848 26849 26850 26851 26852 26853 26854 26855 26856 26857 26858 26859 26860 26861 26862 26863 26864 26865 26866 26867 26868 26869 26870 26871 26872 26873 26874 26875 26876 26877 26878 26879 26880 26881 26882 26883 26884 26885 26886 26887 26888 26889 26890 26891 26892 26893 26894 26895 26896 26897 26898 26899 26900 26901 26902 26903 26904 26905 26906 26907 26908 26909 26910 26911 26912 26913 26914 26915 26916 26917 26918 26919 26920 26921 26922 26923 26924 26925 26926 26927 26928 26929 26930 26931 26932 26933 26934 26935 26936 26937 26938 26939 26940 26941 26942 26943 26944 26945 26946 26947 26948 26949 26950 26951 26952 26953 26954 26955 26956 26957 26958 26959 26960 26961 26962 26963 26964 26965 26966 26967 26968 26969 26970 26971 26972 26973 26974 26975 26976 26977 26978 26979 26980 26981 26982 26983 26984 26985 26986 26987 26988 26989 26990 26991 26992 26993 26994 26995 26996 26997 26998 26999 27000 27001 27002 27003 27004 27005 27006 27007 27008 27009 27010 27011 27012 27013 27014 27015 27016 27017 27018 27019 27020 27021 27022 27023 27024 27025 27026 27027 27028 27029 27030 27031 27032 27033 27034 27035 27036 27037 27038 27039 27040 27041 27042 27043 27044 27045 27046 27047 27048 27049 27050 27051 27052 27053 27054 27055 27056 27057 27058 27059 27060 27061 27062 27063 27064 27065 27066 27067 27068 27069 27070 27071 27072 27073 27074 27075 27076 27077 27078 27079 27080 27081 27082 27083 27084 27085 27086 27087 27088 27089 27090 27091 27092 27093 27094 27095 27096 27097 27098 27099 27100 27101 27102 27103 27104 27105 27106 27107 27108 27109 27110 27111 27112 27113 27114 27115 27116 27117 27118 27119 27120 27121 27122 27123 27124 27125 27126 27127 27128 27129 27130 27131 27132 27133 27134 27135 27136 27137 27138 27139 27140 27141 27142 27143 27144 27145 27146 27147 27148 27149 27150 27151 27152 27153 27154 27155 27156 27157 27158 27159 27160 27161 27162 27163 27164 27165 27166 27167 27168 27169 27170 27171 27172 27173 27174 27175 27176 27177 27178 27179 27180 27181 27182 27183 27184 27185 27186 27187 27188 27189 27190 27191 27192 27193 27194 27195 27196 27197 27198 27199 27200 27201 27202 27203 27204 27205 27206 27207 27208 27209 27210 27211 27212 27213 27214 27215 27216 27217 27218 27219 27220 27221 27222 27223 27224 27225 27226 27227 27228 27229 27230 27231 27232 27233 27234 27235 27236 27237 27238 27239 27240 27241 27242 27243 27244 27245 27246 27247 27248 27249 27250 27251 27252 27253 27254 27255 27256 27257 27258 27259 27260 27261 27262 27263 27264 27265 27266 27267 27268 27269 27270 27271 27272 27273 27274 27275 27276 27277 27278 27279 27280 27281 27282 27283 27284 27285 27286 27287 27288 27289 27290 27291 27292 27293 27294 27295 27296 27297 27298 27299 27300 27301 27302 27303 27304 27305 27306 27307 27308 27309 27310 27311 27312 27313 27314 27315 27316 27317 27318 27319 27320 27321 27322 27323 27324 27325 27326 27327 27328 27329 27330 27331 27332 27333 27334 27335 27336 27337 27338 27339 27340 27341 27342 27343 27344 27345 27346 27347 27348 27349 27350 27351 27352 27353 27354 27355 27356 27357 27358 27359 27360 27361 27362 27363 27364 27365 27366 27367 27368 27369 27370 27371 27372 27373 27374 27375 27376 27377 27378 27379 27380 27381 27382 27383 27384 27385 27386 27387 27388 27389 27390 27391 27392 27393 27394 27395 27396 27397 27398 27399 27400 27401 27402 27403 27404 27405 27406 27407 27408 27409 27410 27411 27412 27413 27414 27415 27416 27417 27418 27419 27420 27421 27422 27423 27424 27425 27426 27427 27428 27429 27430 27431 27432 27433 27434 27435 27436 27437 27438 27439 27440 27441 27442 27443 27444 27445 27446 27447 27448 27449 27450 27451 27452 27453 27454 27455 27456 27457 27458 27459 27460 27461 27462 27463 27464 27465 27466 27467 27468 27469 27470 27471 27472 27473 27474 27475 27476 27477 27478 27479 27480 27481 27482 27483 27484 27485 27486 27487 27488 27489 27490 27491 27492 27493 27494 27495 27496 27497 27498 27499 27500 27501 27502 27503 27504 27505 27506 27507 27508 27509 27510 27511 27512 27513 27514 27515 27516 27517 27518 27519 27520 27521 27522 27523 27524 27525 27526 27527 27528 27529 27530 27531 27532 27533 27534 27535 27536 27537 27538 27539 27540 27541 27542 27543 27544 27545 27546 27547 27548 27549 27550 27551 27552 27553 27554 27555 27556 27557 27558 27559 27560 27561 27562 27563 27564 27565 27566 27567 27568 27569 27570 27571 27572 27573 27574 27575 27576 27577 27578 27579 27580 27581 27582 27583 27584 27585 27586 27587 27588 27589 27590 27591 27592 27593 27594 27595 27596 27597 27598 27599 27600 27601 27602 27603 27604 27605 27606 27607 27608 27609 27610 27611 27612 27613 27614 27615 27616 27617 27618 27619 27620 27621 27622 27623 27624 27625 27626 27627 27628 27629 27630 27631 27632 27633 27634 27635 27636 27637 27638 27639 27640 27641 27642 27643 27644 27645 27646 27647 27648 27649 27650 27651 27652 27653 27654 27655 27656 27657 27658 27659 27660 27661 27662 27663 27664 27665 27666 27667 27668 27669 27670 27671 27672 27673 27674 27675 27676 27677 27678 27679 27680 27681 27682 27683 27684 27685 27686 27687 27688 27689 27690 27691 27692 27693 27694 27695 27696 27697 27698 27699 27700 27701 27702 27703 27704 27705 27706 27707 27708 27709 27710 27711 27712 27713 27714 27715 27716 27717 27718 27719 27720 27721 27722 27723 27724 27725 27726 27727 27728 27729 27730 27731 27732 27733 27734 27735 27736 27737 27738 27739 27740 27741 27742 27743 27744 27745 27746 27747 27748 27749 27750 27751 27752 27753 27754 27755 27756 27757 27758 27759 27760 27761 27762 27763 27764 27765 27766 27767 27768 27769 27770 27771 27772 27773 27774 27775 27776 27777 27778 27779 27780 27781 27782 27783 27784 27785 27786 27787 27788 27789 27790 27791 27792 27793 27794 27795 27796 27797 27798 27799 27800 27801 27802 27803 27804 27805 27806 27807 27808 27809 27810 27811 27812 27813 27814 27815 27816 27817 27818 27819 27820 27821 27822 27823 27824 27825 27826 27827 27828 27829 27830 27831 27832 27833 27834 27835 27836 27837 27838 27839 27840 27841 27842 27843 27844 27845 27846 27847 27848 27849 27850 27851 27852 27853 27854 27855 27856 27857 27858 27859 27860 27861 27862 27863 27864 27865 27866 27867 27868 27869 27870 27871 27872 27873 27874 27875 27876 27877 27878 27879 27880 27881 27882 27883 27884 27885 27886 27887 27888 27889 27890 27891 27892 27893 27894 27895 27896 27897 27898 27899 27900 27901 27902 27903 27904 27905 27906 27907 27908 27909 27910 27911 27912 27913 27914 27915 27916 27917 27918 27919 27920 27921 27922 27923 27924 27925 27926 
</DataArray>
<DataArray type="UInt32" Name="offsets" format="ascii">
3 6 9 11 14 17 20 23 26 29 32 34 37 40 43 46 49 52 55 58 61 64 66 69 72 74 77 80 83 86 89 92 94 97 100 103 106 109 111 114 117 119 122 124 127 130 133 136 139 142 145 148 151 153 155 158 161 163 166 169 172 175 177 180 183 186 189 192 194 196 199 202 205 208 211 213 216 219 222 225 228 230 233 236 239 241 244 247 249 251 254 256 259 261 263 266 269 272 275 278 281 283 286 289 292 294 297 300 303 306 309 312 315 318 321 324 327 330 333 336 339 342 345 348 351 353 356 359 361 363 366 369 372 375 377 380 383 386 389 392 395 398 401 404 407 410 413 416 419 422 425 428 431 434 437 440 443 446 449 452 455 457 460 462 465 468 471 474 476 479 482 484 487 490 492 495 498 501 504 507 509 512 515 518 521 524 527 530 533 536 539 542 545 547 550 553 556 558 561 564 566 569 572 575 578 580 582 585 588 591 594 596 599 602 605 608 611 614 617 620 623 626 629 632 635 638 641 644 647 650 653 656 659 662 665 667 670 673 675 678 681 684 687 690 693 696 699 702 704 707 709 712 715 718 721 724 726 729 731 734 737 740 743 746 748 751 753 756 759 762 765 768 771 774 776 779 781 784 787 790 792 795 798 800 803 806 809 811 814 817 820 823 826 829 832 835 838 840 843 846 848 850 853 855 858 861 863 866 869 872 875 877 880 883 886 889 892 895 898 901 904 907 910 913 916 919 922 925 928 931 934 936 939 942 945 948 950 953 956 959 961 964 966 969 972 975 978 981 984 987 989 992 995 998 1001 1004 1007 1010 1012 1015 1018 1021 1023 1025 1028 1031 1034 1037 1040 1043 1046 1049 1052 1054 1057 1060 1063 1066 1069 1071 1074 1077 1080 1083 1086 1089 1092 1095 1098 1100 1103 1106 1108 1111 1113 1116 1119 1122 1125 1127 1130 1133 1136 1139 1142 1145 1147 1150 1152 1155 1157 1160 1162 1164 1167 1170 1173 1176 1179 1182 1185 1188 1191 1193 1196 1199 1201 1204 1207 1210 1213 1215 1218 1220 1223 1226 1229 1231 1233 1236 1239 1242 1245 1247 1250 1253 1256 1258 1260 1262 1265 1268 1270 1273 1276 1279 1281 1284 1286 1288 1290 1293 1295 1298 1301 1304 1307 1310 1313 1316 1319 1322 1325 1328 1331 1334 1337 1340 1343 1345 1348 1350 1353 1355 1357 1360 1363 1366 1369 1371 1374 1377 1379 1382 1384 1386 1389 1391 1394 1397 1400 1403 1406 1408 1411 1414 1417 1420 1423 1426 1429 1432 1435 1438 1440 1443 1446 1449 1452 1454 1457 1460 1463 1466 1469 1471 1474 1476 1478 1481 1484 1487 1489 1492 1494 1497 1500 1503 1506 1509 1512 1514 1517 1519 1522 1525 1528 1531 1533 1536 1539 1542 1545 1548 1550 1553 1556 1559 1561 1564 1567 1570 1573 1576 1579 1582 1585 1588 1591 1593 1596 1599 1602 1605 1607 1610 1613 1616 1619 1621 1624 1627 1630 1633 1636 1639 1642 1645 1648 1650 1652 1655 1658 1661 1664 1667 1670 1673 1676 1679 1682 1684 1687 1690 1693 1696 1698 1701 1704 1707 1710 1713 1716 1719 1721 1724 1726 1729 1731 1734 1737 1740 1743 1746 1749 1752 1755 1758 1761 1764 1767 1770 1773 1776 1779 1782 1785 1788 1791 1794 1797 1800 1803 1806 1809 1812 1815 1818 1821 1823 1826 1828 1831 1834 1837 1840 1843 1846 1849 1852 1855 1858 1861 1864 1867 1870 1873 1876 1879 1882 1885 1888 1890 1893 1896 1899 1902 1905 1908 1911 1914 1917 1920 1923 1926 1929 1931 1933 1936 1939 1942 1945 1948 1950 1953 1956 1958 1961 1964 1967 1969 1972 1975 1978 1981 1984 1987 1990 1993 1996 1999 2001 2004 2007 2010 2013 2016 2018 2021 2024 2027 2030 2033 2036 2039 2042 2044 2046 2049 2052 2054 2057 2060 2063 2066 2068 2071 2074 2077 2080 2083 2086 2089 2092 2095 2098 2101 2104 2107 2110 2113 2115 2118 2121 2124 2127 2130 2132 2135 2138 2141 2143 2146 2149 2152 2155 2158 2161 2164 2167 2170 2173 2176 2179 2182 2185 2188 2191 2194 2196 2199 2202 2205 2208 2211 2214 2217 2220 2223 2226 2229 2231 2234 2237 2240 2243 2246 2249 2252 2254 2256 2259 2262 2265 2267 2270 2273 2276 2278 2281 2284 2287 2290 2293 2296 2298 2301 2304 2307 2309 2312 2314 2317 2319 2322 2325 2328 2331 2334 2337 2340 2343 2346 2349 2352 2355 2358 2360 2363 2366 2369 2371 2374 2377 2379 2382 2385 2388 2390 2392 2395 2398 2400 2403 2406 2409 2412 2415 2418 2421 2423 2426 2428 2430 2433 2436 2439 2442 2444 2447 2450 2453 2456 2459 2462 2465 2468 2471 2474 2476 2479 2481 2484 2487 2490 2493 2496 2499 2502 2505 2508 2511 2514 2517 2520 2523 2526 2529 2532 2535 2538 2541 2543 2546 2549 2552 2555 2557 2559 2562 2565 2568 2571 2574 2577 2579 2582 2585 2588 2591 2594 2596 2598 2601 2604 2607 2610 2612 2615 2618 2621 2624 2627 2630 2633 2635 2638 2641 2644 2647 2649 2651 2654 2657 2660 2663 2666 2669 2672 2675 2678 2681 2684 2687 2690 2693 2696 2699 2702 2705 2708 2711 2714 2717 2720 2723 2726 2729 2732 2734 2737 2740 2743 2746 2749 2752 2754 2757 2760 2763 2766 2769 2772 2775 2778 2781 2784 2787 2790 2793 2796 2799 2802 2805 2808 2811 2814 2817 2820 2822 2825 2828 2830 2833 2836 2839 2842 2845 2848 2851 2853 2856 2859 2861 2864 2867 2870 2873 2875 2878 2880 2883 2886 2889 2892 2894 2897 2900 2903 2906 2909 2912 2915 2918 2921 2924 2927 2930 2933 2936 2939 2942 2945 2947 2950 2953 2956 2959 2961 2964 2967 2969 2972 2975 2977 2980 2983 2986 2989 2992 2995 2998 3000 3003 3006 3009 3012 3015 3017 3020 3023 3026 3029 3032 3034 3037 3040 3043 3046 3049 3052 3055 3058 3061 3064 3067 3070 3073 3076 3079 3082 3085 3088 3091 3094 3097 3100 3103 3106 3109 3112 3115 3118 3121 3124 3127 3130 3133 3136 3139 3141 3144 3147 3150 3152 3155 3158 3161 3164 3167 3170 3173 3176 3179 3182 3184 3187 3190 3193 3196 3199 3202 3205 3208 3211 3214 3217 3220 3223 3226 3229 3231 3234 3236 3239 3242 3245 3248 3251 3254 3257 3260 3263 3266 3269 3272 3275 3278 3281 3284 3287 3290 3293 3296 3299 3302 3305 3308 3311 3314 3317 3320 3322 3325 3328 3331 3334 3337 3340 3342 3345 3348 3350 3352 3355 3358 3361 3364 3367 3370 3373 3375 3378 3381 3383 3386 3388 3391 3394 3397 3400 3403 3405 3408 3411 3414 3417 3420 3423 3426 3429 3432 3435 3438 3441 3444 3446 3449 3452 3455 3458 3461 3464 3467 3470 3473 3476 3479 3482 3485 3488 3491 3494 3497 3500 3503 3506 3509 3512 3515 3518 3521 3524 3527 3530 3533 3536 3539 3542 3545 3548 3551 3553 3556 3559 3561 3564 3567 3570 3573 3576 3578 3581 3584 3587 3590 3593 3596 3598 3601 3604 3607 3610 3613 3616 3619 3622 3625 3627 3630 3633 3636 3639 3642 3645 3648 3651 3654 3657 3660 3663 3666 3669 3672 3675 3678 3681 3684 3687 3690 3693 3696 3699 3702 3705 3708 3711 3714 3717 3720 3723 3726 3729 3732 3735 3738 3741 3744 3747 3750 3753 3756 3759 3762 3765 3768 3771 3774 3776 3779 3782 3785 3788 3791 3794 3797 3800 3803 3806 3809 3812 3815 3818 3821 3824 3827 3830 3833 3836 3839 3842 3845 3847 3850 3853 3856 3859 3862 3865 3868 3871 3874 3877 3879 3882 3885 3887 3890 3893 3896 3899 3902 3905 3908 3910 3912 3915 3918 3921 3924 3927 3930 3933 3936 3939 3942 3945 3948 3951 3954 3956 3959 3962 3965 3968 3971 3974 3976 3979 3982 3985 3988 3991 3994 3997 4000 4002 4005 4008 4011 4014 4017 4020 4023 4026 4029 4031 4034 4037 4040 4043 4046 4049 4052 4055 4058 4061 4064 4067 4069 4072 4074 4076 4079 4082 4085 4088 4090 4093 4096 4099 4102 4104 4107 4109 4112 4114 4117 4119 4121 4124 4126 4129 4132 4135 4137 4139 4142 4145 4148 4151 4153 4156 4159 4162 4165 4168 4171 4174 4177 4180 4183 4186 4189 4191 4194 4197 4200 4203 4206 4209 4211 4214 4217 4220 4223 4226 4228 4231 4234 4237 4239 4242 4245 4247 4250 4253 4256 4258 4261 4264 4267 4270 4273 4276 4278 4281 4284 4286 4289 4291 4294 4297 4300 4303 4306 4309 4312 4315 4318 4321 4324 4327 4330 4333 4336 4339 4342 4345 4347 4350 4353 4356 4358 4360 4363 4366 4368 4371 4374 4377 4380 4382 4385 4388 4391 4394 4397 4400 4403 4406 4409 4412 4415 4418 4421 4424 4427 4430 4433 4435 4438 4441 4444 4447 4450 4453 4456 4459 4462 4464 4467 4470 4473 4476 4479 4482 4484 4487 4490 4493 4496 4499 4502 4505 4508 4511 4514 4517 4520 4523 4526 4529 4532 4535 4538 4541 4544 4547 4550 4553 4556 4559 4562 4565 4568 4571 4574 4577 4580 4583 4586 4589 4592 4595 4598 4600 4603 4606 4609 4612 4615 4618 4621 4623 4626 4629 4632 4635 4638 4640 4643 4646 4649 4652 4655 4658 4661 4663 4666 4669 4672 4675 4677 4679 4682 4685 4687 4689 4692 4695 4698 4701 4704 4707 4710 4713 4716 4719 4722 4725 4728 4731 4734 4736 4739 4742 4745 4748 4751 4754 4757 4760 4763 4765 4768 4771 4774 4777 4780 4783 4786 4789 4792 4795 4797 4800 4802 4805 4808 4811 4813 4815 4818 4821 4824 4827 4830 4833 4836 4839 4842 4845 4848 4851 4854 4857 4860 4863 4866 4869 4872 4875 4878 4880 4883 4886 4889 4892 4895 4898 4901 4904 4907 4910 4913 4916 4919 4922 4925 4928 4931 4934 4937 4940 4943 4946 4949 4952 4955 4958 4961 4964 4966 4969 4972 4974 4977 4980 4983 4985 4988 4991 4994 4996 4998 5000 5003 5006 5008 5011 5014 5017 5020 5023 5026 5029 5032 5034 5037 5040 5043 5046 5048 5051 5054 5057 5059 5062 5065 5068 5071 5074 5077 5079 5082 5085 5088 5091 5093 5096 5099 5101 5104 5107 5110 5113 5115 5118 5121 5124 5127 5129 5132 5135 5138 5141 5144 5147 5150 5152 5155 5157 5160 5163 5165 5168 5171 5174 5177 5179 5182 5185 5188 5190 5193 5196 5199 5202 5205 5208 5210 5213 5216 5219 5222 5225 5228 5231 5234 5237 5240 5243 5246 5249 5252 5255 5258 5260 5263 5266 5269 5272 5274 5277 5280 5282 5285 5288 5290 5293 5296 5299 5302 5304 5307 5310 5313 5316 5319 5322 5325 5328 5331 5334 5337 5340 5342 5345 5348 5351 5354 5357 5360 5362 5365 5368 5371 5374 5377 5380 5383 5386 5389 5392 5395 5397 5400 5403 5406 5409 5412 5415 5418 5421 5424 5427 5430 5433 5435 5438 5441 5444 5446 5449 5452 5455 5457 5460 5463 5466 5469 5471 5473 5476 5479 5482 5485 5488 5490 5493 5496 5499 5502 5505 5508 5511 5513 5516 5519 5522 5525 5527 5530 5533 5536 5539 5542 5545 5547 5550 5553 5556 5559 5562 5565 5567 5570 5573 5576 5579 5582 5584 5586 5589 5592 5595 5598 5600 5603 5606 5609 5612 5615 5617 5620 5623 5626 5629 5632 5634 5636 5639 5642 5644 5646 5649 5652 5655 5658 5660 5662 5665 5668 5671 5674 5676 5678 5681 5684 5686 5689 5692 5694 5697 5700 5703 5706 5709 5712 5715 5717 5720 5723 5725 5728 5731 5733 5736 5739 5742 5745 5748 5751 5754 5757 5760 5763 5766 5769 5772 5775 5778 5780 5783 5786 5789 5792 5795 5798 5801 5804 5807 5810 5812 5815 5818 5821 5823 5826 5828 5831 5834 5837 5840 5843 5846 5848 5851 5854 5857 5860 5863 5866 5869 5872 5875 5878 5881 5884 5887 5890 5892 5895 5897 5900 5903 5906 5909 5912 5915 5918 5921 5923 5926 5929 5932 5935 5938 5940 5943 5946 5949 5951 5954 5957 5959 5962 5965 5968 5971 5973 5976 5978 5981 5984 5987 5989 5992 5995 5998 6001 6004 6007 6009 6012 6015 6018 6021 6024 6027 6029 6032 6035 6037 6039 6042 6045 6048 6050 6052 6055 6057 6059 6062 6065 6068 6070 6073 6076 6079 6082 6084 6087 6089 6091 6094 6096 6098 6101 6104 6107 6110 6112 6115 6118 6120 6122 6125 6128 6131 6134 6137 6140 6143 6145 6147 6150 6153 6156 6159 6162 6165 6168 6171 6174 6177 6180 6183 6186 6189 6192 6194 6197 6199 6202 6205 6208 6211 6214 6216 6219 6222 6224 6227 6230 6233 6236 6239 6242 6245 6248 6251 6254 6257 6260 6263 6266 6269 6272 6275 6278 6281 6284 6287 6290 6293 6296 6299 6302 6304 6307 6309 6312 6315 6318 6321 6324 6327 6330 6333 6336 6338 6340 6343 6346 6348 6351 6353 6356 6359 6362 6365 6368 6371 6374 6377 6380 6383 6386 6388 6391 6394 6397 6400 6402 6405 6408 6411 6414 6417 6420 6422 6425 6427 6430 6433 6436 6439 6442 6445 6448 6451 6454 6457 6460 6463 6466 6469 6471 6474 6477 6480 6483 6486 6489 6492 6495 6498 6501 6504 6507 6510 6513 6516 6519 6522 6525 6528 6531 6534 6537 6540 6542 6544 6547 6550 6553 6556 6559 6562 6565 6568 6571 6574 6577 6580 6582 6585 6588 6591 6594 6597 6600 6603 6606 6609 6612 6615 6618 6620 6623 6626 6629 6632 6635 6637 6640 6642 6645 6648 6651 6654 6657 6660 6663 6666 6669 6672 6675 6678 6680 6683 6685 6688 6691 6694 6697 6700 6702 6705 6708 6711 6714 6717 6720 6723 6726 6728 6731 6734 6736 6739 6742 6744 6747 6750 6753 6755 6758 6761 6764 6767 6770 6773 6776 6779 6782 6785 6788 6791 6794 6797 6800 6803 6806 6808 6811 6813 6815 6818 6821 6824 6827 6830 6832 6835 6838 6841 6844 6847 6850 6853 6856 6859 6862 6865 6867 6870 6873 6876 6879 6882 6885 6887 6890 6893 6896 6899 6901 6904 6907 6910 6913 6916 6919 6921 6924 6927 6930 6933 6935 6938 6941 6944 6947 6949 6952 6955 6958 6961 6963 6966 6968 6971 6974 6977 6980 6982 6985 6988 6991 6994 6997 7000 7003 7006 7009 7012 7015 7018 7021 7024 7026 7029 7032 7034 7037 7040 7043 7046 7049 7052 7055 7058 7061 7064 7067 7070 7073 7076 7079 7082 7085 7088 7091 7094 7097 7100 7103 7106 7109 7112 7115 7118 7121 7124 7127 7130 7133 7136 7139 7142 7145 7148 7151 7154 7157 7160 7163 7166 7169 7172 7175 7177 7180 7183 7186 7188 7191 7194 7197 7200 7203 7205 7208 7211 7214 7216 7219 7222 7225 7228 7231 7234 7237 7240 7243 7246 7249 7252 7255 7258 7261 7264 7266 7269 7271 7274 7277 7280 7283 7286 7289 7292 7294 7297 7300 7303 7305 7308 7311 7314 7317 7320 7323 7326 7329 7332 7335 7338 7341 7344 7347 7350 7353 7356 7359 7362 7365 7368 7371 7374 7376 7379 7382 7385 7388 7391 7394 7397 7400 7403 7406 7409 7412 7415 7418 7421 7423 7426 7429 7432 7435 7438 7441 7444 7447 7450 7453 7456 7458 7461 7464 7466 7469 7472 7475 7478 7481 7484 7487 7490 7493 7496 7499 7502 7505 7508 7511 7514 7517 7520 7523 7526 7529 7532 7535 7538 7541 7544 7547 7549 7552 7554 7557 7560 7563 7566 7569 7571 7574 7577 7580 7583 7585 7588 7591 7594 7597 7600 7603 7606 7609 7611 7613 7616 7619 7622 7625 7628 7631 7633 7636 7638 7641 7643 7646 7649 7652 7654 7657 7660 7663 7666 7669 7672 7675 7678 7681 7684 7687 7689 7692 7695 7697 7700 7703 7706 7709 7711 7714 7717 7720 7723 7726 7729 7732 7735 7738 7741 7744 7747 7749 7752 7755 7758 7761 7764 7766 7769 7772 7775 7777 7780 7783 7786 7789 7792 7794 7796 7799 7802 7804 7807 7810 7813 7816 7819 7821 7824 7827 7829 7832 7835 7837 7840 7843 7846 7849 7852 7855 7858 7861 7864 7867 7869 7872 7875 7878 7881 7884 7886 7889 7892 7895 7898 7901 7904 7907 7909 7912 7915 7918 7921 7923 7926 7929 7932 7935 7938 7941 7944 7946 7948 7951 7954 7956 7958 7961 7963 7966 7969 7971 7974 7977 7979 7981 7984 7986 7988 7991 7993 7996 7999 8001 8004 8006 8009 8012 8014 8017 8020 8022 8025 8028 8031 8034 8037 8040 8043 8046 8049 8052 8055 8058 8061 8064 8067 8070 8073 8076 8079 8081 8084 8087 8090 8093 8096 8099 8102 8105 8108 8111 8114 8117 8120 8122 8125 8127 8130 8133 8136 8138 8141 8143 8146 8149 8152 8155 8158 8161 8164 8167 8170 8173 8176 8178 8181 8184 8186 8189 8192 8195 8198 8201 8204 8207 8210 8213 8216 8219 8222 8225 8228 8231 8234 8237 8240 8243 8246 8249 8252 8255 8258 8261 8264 8267 8270 8273 8276 8279 8281 8284 8286 8289 8292 8295 8298 8301 8303 8306 8309 8312 8314 8317 8320 8323 8326 8329 8332 8335 8338 8340 8343 8346 8348 8351 8353 8356 8358 8360 8362 8365 8368 8371 8374 8376 8379 8382 8385 8388 8391 8394 8397 8400 8403 8406 8408 8411 8414 8416 8419 8422 8425 8428 8431 8433 8436 8439 8442 8445 8447 8450 8453 8456 8459 8462 8465 8468 8471 8474 8476 8479 8482 8484 8487 8490 8493 8496 8498 8501 8504 8507 8509 8512 8514 8517 8520 8522 8525 8527 8530 8533 8535 8538 8541 8544 8547 8550 8553 8556 8559 8562 8565 8568 8571 8574 8577 8580 8583 8585 8588 8591 8593 8595 8598 8601 8604 8607 8610 8612 8614 8617 8619 8622 8625 8628 8630 8632 8634 8637 8640 8643 8646 8648 8650 8653 8656 8658 8661 8663 8666 8668 8670 8673 8676 8679 8682 8685 8687 8690 8693 8696 8699 8702 8705 8707 8710 8713 8716 8718 8721 8724 8727 8730 8732 8735 8738 8740 8743 8746 8749 8752 8754 8757 8760 8763 8766 8769 8771 8774 8776 8779 8781 8784 8787 8790 8793 8796 8799 8802 8805 8808 8811 8814 8817 8820 8823 8826 8829 8832 8834 8837 8840 8843 8845 8848 8851 8854 8857 8860 8863 8866 8868 8871 8874 8877 8880 8882 8885 8888 8891 8894 8896 8899 8902 8905 8907 8910 8913 8916 8919 8922 8925 8928 8930 8933 8936 8938 8941 8944 8947 8949 8952 8954 8957 8960 8963 8966 8969 8972 8975 8978 8981 8984 8987 8990 8993 8996 8998 9001 9004 9007 9010 9013 9016 9019 9022 9025 9028 9031 9034 9037 9039 9042 9045 9048 9051 9053 9056 9059 9062 9065 9068 9071 9074 9077 9080 9083 9086 9089 9092 9095 9098 9101 9104 9107 9110 9113 9116 9119 9122 9125 9128 9131 9134 9136 9138 9141 9144 9147 9150 9153 9155 9158 9161 9163 9166 9169 9172 9175 9178 9181 9184 9187 9190 9193 9196 9199 9202 9205 9208 9211 9214 9217 9220 9223 9226 9229 9232 9235 9238 9241 9243 9246 9249 9252 9255 9258 9261 9264 9267 9269 9271 9274 9277 9280 9283 9286 9289 9292 9295 9298 9301 9304 9307 9310 9313 9316 9318 9321 9324 9326 9329 9331 9334 9337 9340 9343 9346 9349 9352 9354 9357 9360 9363 9365 9368 9370 9373 9376 9379 9382 9385 9387 9390 9393 9396 9399 9401 9404 9407 9410 9413 9416 9419 9422 9424 9427 9430 9433 9436 9439 9442 9444 9447 9450 9453 9456 9459 9462 9465 9468 9471 9474 9477 9479 9482 9485 9488 9491 9494 9497 9500 9502 9505 9507 9510 9513 9516 9519 9522 9525 9528 9531 9534 9537 9540 9543 9546 9549 9552 9554 9557 9560 9563 9566 9569 9572 9575 9578 9581 9584 9587 9590 9592 9595 9598 9601 9604 9606 9609 9612 9615 9618 9621 9624 9626 9629 9632 9635 9638 9641 9643 9646 9649 9652 9655 9657 9660 9663 9666 9669 9672 9675 9678 9681 9683 9686 9689 9692 9695 9698 9701 9704 9707 9710 9713 9715 9718 9721 9724 9726 9729 9732 9734 9736 9739 9742 9745 9748 9751 9753 9756 9759 9762 9765 9768 9771 9774 9777 9780 9782 9785 9788 9791 9794 9797 9800 9803 9806 9809 9812 9815 9818 9821 9824 9827 9830 9833 9836 9839 9842 9845 9848 9851 9854 9856 9859 9862 9865 9868 9871 9874 9877 9880 9883 9886 9889 9892 9895 9898 9900 9903 9906 9908 9911 9914 9917 9919 9922 9925 9928 9930 9933 9936 9939 9942 9945 9947 9950 9953 9956 9959 9962 9965 9968 9970 9973 9976 9979 9981 9984 9986 9989 9992 9995 9998 10001 10004 10007 10010 10013 10016 10019 10022 10024 10027 10030 10033 10036 10039 10042 10045 10048 10051 10053 10056 10059 10062 10064 10067 10070 10073 10076 10079 10082 10085 10088 10091 10094 10097 10100 10103 10106 10109 10112 10115 10118 10121 10124 10127 10130 10133 10136 10139 10142 10145 10148 10151 10154 10157 10160 10162 10165 10168 10171 10174 10177 10180 10183 10186 10189 10192 10195 10198 10201 10204 10207 10210 10213 10216 10219 10222 10225 10228 10230 10233 10236 10239 10242 10245 10247 10250 10253 10256 10259 10262 10265 10268 10271 10274 10277 10280 10283 10286 10289 10292 10295 10298 10301 10304 10307 10310 10312 10315 10318 10321 10324 10327 10330 10333 10336 10339 10342 10345 10348 10351 10354 10357 10360 10363 10366 10369 10372 10375 10378 10381 10384 10386 10388 10391 10394 10397 10400 10402 10404 10407 10410 10412 10415 10417 10420 10423 10426 10429 10431 10434 10437 10440 10442 10445 10448 10451 10453 10456 10458 10461 10463 10466 10469 10472 10475 10478 10481 10483 10486 10489 10492 10495 10498 10501 10504 10507 10510 10513 10516 10519 10522 10525 10528 10531 10534 10537 10540 10543 10546 10549 10552 10554 10557 10560 10562 10565 10567 10570 10573 10575 10578 10581 10584 10587 10590 10593 10596 10599 10601 10604 10607 10610 10613 10616 10619 10622 10625 10628 10631 10634 10637 10640 10643 10646 10649 10652 10655 10658 10661 10664 10667 10670 10673 10676 10679 10682 10685 10688 10691 10694 10697 10700 10703 10706 10709 10712 10715 10718 10721 10723 10726 10729 10732 10734 10737 10740 10742 10745 10748 10751 10754 10757 10760 10763 10766 10769 10772 10775 10778 10781 10784 10787 10790 10793 10796 10799 10802 10805 10808 10811 10814 10817 10820 10823 10826 10829 10832 10835 10838 10841 10844 10847 10850 10853 10856 10859 10862 10865 10868 10871 10874 10877 10880 10883 10886 10889 10892 10895 10898 10901 10904 10907 10910 10913 10915 10918 10921 10924 10927 10930 10932 10935 10938 10941 10944 10947 10950 10952 10955 10958 10961 10964 10967 10970 10972 10975 10978 10981 10984 10987 10990 10993 10996 10999 11002 11005 11008 11011 11014 11017 11020 11023 11026 11029 11032 11035 11038 11041 11044 11047 11050 11053 11056 11059 11062 11064 11067 11070 11073 11076 11079 11081 11084 11087 11090 11093 11096 11098 11101 11104 11107 11110 11113 11115 11118 11121 11124 11127 11130 11133 11136 11139 11142 11144 11147 11150 11153 11156 11159 11162 11165 11167 11170 11172 11175 11178 11181 11184 11186 11189 11191 11194 11197 11200 11203 11206 11209 11212 11215 11218 11220 11223 11226 11228 11230 11232 11235 11238 11241 11244 11247 11250 11253 11256 11259 11262 11265 11268 11271 11274 11277 11280 11283 11286 11289 11292 11295 11298 11301 11304 11307 11309 11312 11314 11317 11320 11322 11325 11328 11331 11334 11337 11340 11343 11346 11348 11350 11353 11355 11358 11361 11364 11366 11369 11372 11375 11378 11381 11384 11386 11389 11391 11393 11396 11399 11402 11404 11407 11410 11412 11415 11418 11421 11423 11426 11429 11432 11435 11438 11441 11444 11446 11449 11452 11454 11457 11460 11463 11466 11468 11471 11473 11476 11479 11482 11485 11488 11490 11493 11496 11498 11501 11503 11506 11509 11512 11515 11518 11521 11524 11527 11529 11532 11535 11538 11541 11544 11546 11549 11551 11554 11557 11560 11563 11566 11568 11571 11574 11577 11579 11582 11585 11588 11591 11594 11597 11599 11602 11605 11607 11610 11613 11616 11619 11622 11624 11627 11629 11632 11635 11638 11640 11643 11646 11648 11651 11654 11656 11659 11662 11665 11668 11671 11674 11677 11680 11683 11686 11688 11691 11693 11696 11699 11701 11704 11706 11709 11712 11714 11717 11720 11722 11725 11728 11730 11733 11735 11738 11741 11744 11747 11750 11753 11756 11758 11761 11764 11767 11770 11773 11776 11778 11781 11783 11786 11789 11792 11795 11798 11801 11803 11806 11808 11811 11814 11817 11820 11822 11824 11827 11830 11833 11836 11839 11842 11845 11848 11851 11854 11857 11860 11863 11866 11869 11872 11875 11878 11881 11884 11887 11890 11893 11896 11899 11902 11905 11908 11911 11914 11917 11920 11923 11926 11929 11932 11935 11938 11941 11944 11947 11949 11952 11955 11957 11960 11963 11966 11969 11972 11975 11978 11981 11984 11987 11990 11993 11996 11999 12001 12004 12007 12010 12013 12015 12018 12021 12024 12027 12029 12032 12035 12038 12041 12043 12046 12049 12052 12055 12057 12060 12062 12065 12068 12071 12074 12076 12079 12081 12084 12087 12090 12093 12096 12099 12102 12105 12108 12111 12114 12117 12120 12123 12126 12129 12132 12135 12138 12141 12144 12147 12150 12153 12156 12159 12162 12165 12168 12171 12174 12177 12180 12182 12185 12188 12191 12194 12196 12199 12202 12205 12207 12210 12213 12216 12219 12221 12224 12227 12230 12233 12236 12239 12241 12244 12247 12250 12253 12256 12259 12261 12264 12267 12270 12273 12275 12278 12280 12283 12286 12289 12292 12295 12298 12301 12304 12307 12310 12313 12316 12319 12322 12325 12328 12331 12334 12336 12339 12342 12345 12348 12351 12354 12357 12360 12363 12366 12369 12372 12375 12378 12381 12383 12386 12389 12392 12395 12398 12401 12404 12407 12410 12413 12416 12419 12421 12424 12426 12429 12432 12435 12438 12441 12444 12447 12450 12453 12456 12459 12462 12465 12468 12471 12474 12477 12480 12483 12486 12488 12491 12494 12497 12500 12502 12504 12507 12510 12513 12515 12518 12521 12523 12526 12528 12531 12533 12536 12539 12542 12545 12548 12551 12554 12557 12559 12562 12565 12568 12571 12574 12577 12580 12583 12586 12589 12592 12595 12598 12601 12604 12607 12610 12613 12616 12619 12622 12624 12627 12630 12633 12636 12638 12640 12643 12646 12649 12652 12655 12658 12661 12664 12667 12670 12673 12675 12678 12681 12683 12686 12689 12692 12695 12698 12701 12703 12706 12709 12712 12714 12717 12719 12722 12725 12728 12731 12734 12737 12740 12743 12746 12749 12752 12755 12758 12760 12763 12766 12769 12772 12775 12778 12781 12783 12786 12789 12791 12793 12796 12799 12801 12804 12807 12810 12813 12816 12819 12821 12824 12827 12830 12833 12836 12838 12841 12844 12847 12850 12853 12855 12858 12861 12864 12866 12869 12871 12874 12877 12880 12882 12885 12888 12891 12893 12896 12899 12902 12905 12908 12911 12914 12917 12920 12923 12926 12929 12931 12934 12937 12940 12942 12945 12948 12951 12954 12957 12960 12962 12965 12968 12970 12972 12975 12978 12980 12983 12986 12989 12992 12994 12997 13000 13003 13006 13009 13012 13015 13018 13021 13024 13027 13030 13033 13036 13039 13042 13045 13048 13051 13054 13057 13060 13063 13066 13069 13072 13075 13077 13080 13083 13086 13088 13091 13094 13097 13100 13103 13106 13109 13112 13115 13118 13121 13124 13126 13128 13131 13134 13137 13140 13143 13146 13149 13152 13155 13158 13161 13164 13167 13170 13173 13176 13179 13182 13185 13188 13190 13193 13196 13199 13201 13204 13207 13210 13213 13215 13218 13221 13223 13226 13229 13232 13235 13238 13241 13243 13246 13249 13252 13255 13258 13261 13264 13267 13269 13272 13275 13278 13281 13283 13286 13288 13291 13294 13296 13299 13302 13305 13307 13310 13313 13316 13318 13321 13324 13327 13329 13332 13335 13338 13341 13344 13347 13349 13352 13355 13358 13361 13364 13367 13370 13373 13376 13379 13382 13385 13388 13391 13394 13397 13400 13403 13406 13409 13412 13415 13418 13421 13424 13427 13430 13433 13436 13439 13442 13445 13448 13451 13454 13457 13460 13463 13466 13469 13472 13475 13478 13481 13484 13487 13490 13493 13496 13499 13502 13505 13508 13511 13514 13517 13520 13523 13526 13529 13532 13535 13538 13541 13544 13547 13550 13552 13555 13558 13560 13563 13566 13569 13572 13574 13577 13580 13583 13586 13589 13592 13595 13598 13601 13603 13606 13609 13611 13614 13617 13620 13623 13625 13628 13631 13634 13636 13639 13642 13645 13648 13651 13653 13656 13658 13661 13664 13667 13669 13672 13675 13678 13680 13683 13686 13689 13692 13695 13697 13700 13703 13705 13707 13710 13713 13715 13718 13721 13724 13726 13729 13732 13735 13737 13740 13742 13745 13747 13750 13753 13756 13758 13760 13763 13766 13768 13771 13774 13777 13780 13782 13785 13788 13790 13793 13795 13798 13800 13803 13806 13809 13812 13815 13818 13821 13823 13826 13829 13832 13835 13838 13841 13844 13847 13850 13853 13856 13859 13862 13865 13868 13870 13873 13876 13879 13882 13885 13888 13891 13894 13897 13900 13903 13906 13909 13912 13915 13918 13920 13923 13926 13929 13931 13934 13937 13939 13942 13945 13948 13951 13954 13957 13960 13963 13966 13969 13972 13975 13978 13981 13984 13987 13990 13993 13996 13998 14001 14003 14006 14008 14011 14014 14016 14019 14022 14025 14028 14031 14034 14037 14039 14042 14045 14048 14051 14054 14056 14059 14062 14065 14068 14070 14073 14076 14079 14082 14085 14087 14090 14093 14096 14098 14101 14103 14106 14109 14112 14115 14118 14121 14124 14127 14130 14133 14136 14138 14141 14144 14147 14150 14153 14156 14159 14162 14165 14168 14171 14174 14177 14180 14183 14186 14189 14192 14195 14198 14200 14203 14206 14209 14212 14215 14218 14221 14224 14227 14230 14233 14236 14239 14242 14245 14248 14251 14254 14257 14260 14263 14266 14268 14271 14274 14277 14279 14282 14285 14288 14291 14294 14297 14300 14303 14306 14309 14312 14314 14317 14320 14323 14326 14329 14331 14334 14337 14340 14343 14346 14349 14352 14355 14358 14361 14364 14367 14370 14373 14376 14379 14382 14385 14388 14391 14394 14397 14400 14403 14406 14408 14411 14414 14417 14420 14423 14426 14429 14432 14435 14438 14441 14444 14447 14450 14453 14456 14459 14462 14465 14468 14471 14474 14477 14480 14483 14486 14489 14491 14494 14497 14500 14503 14506 14509 14512 14515 14518 14521 14524 14527 14529 14532 14534 14537 14540 14543 14545 14548 14551 14554 14557 14560 14562 14565 14568 14571 14574 14577 14580 14583 14586 14589 14592 14595 14598 14601 14604 14607 14610 14613 14616 14618 14621 14624 14627 14630 14633 14636 14639 14642 14645 14648 14651 14654 14657 14660 14663 14666 14669 14672 14675 14678 14681 14684 14687 14690 14693 14696 14699 14702 14705 14708 14711 14714 14717 14720 14723 14726 14729 14732 14735 14738 14741 14744 14747 14750 14753 14756 14759 14762 14764 14767 14770 14773 14775 14778 14781 14784 14787 14790 14793 14796 14799 14802 14805 14808 14811 14814 14817 14820 14823 14826 14828 14831 14834 14837 14840 14842 14845 14848 14851 14854 14857 14860 14863 14866 14869 14871 14874 14877 14880 14882 14885 14888 14891 14894 14896 14899 14902 14905 14908 14911 14914 14917 14920 14923 14926 14929 14932 14935 14938 14941 14944 14947 14950 14952 14955 14958 14961 14964 14967 14970 14973 14976 14978 14980 14983 14986 14989 14992 14995 14998 15000 15002 15005 15008 15011 15014 15017 15020 15023 15026 15029 15032 15035 15038 15041 15044 15047 15050 15052 15055 15058 15061 15064 15067 15070 15073 15076 15078 15081 15083 15086 15089 15092 15095 15097 15100 15103 15105 15108 15111 15114 15117 15120 15123 15126 15129 15132 15134 15137 15140 15143 15146 15149 15152 15155 15158 15161 15164 15166 15169 15172 15175 15177 15180 15183 15186 15189 15192 15195 15198 15201 15203 15206 15208 15211 15213 15216 15219 15221 15224 15227 15230 15232 15235 15238 15240 15243 15245 15247 15250 15253 15256 15259 15262 15265 15268 15271 15274 15276 15279 15282 15284 15286 15289 15292 15295 15298 15301 15304 15307 15310 15313 15316 15319 15321 15324 15327 15330 15332 15335 15338 15341 15344 15347 15350 15353 15356 15359 15361 15364 15367 15370 15373 15376 15379 15382 15385 15388 15391 15394 15396 15399 15402 15405 15408 15411 15414 15417 15420 15423 15426 15429 15432 15435 15438 15441 15444 15447 15450 15453 15456 15459 15462 15465 15468 15471 15474 15477 15480 15483 15486 15489 15492 15495 15498 15501 15504 15507 15510 15512 15515 15518 15521 15524 15527 15530 15532 15535 15538 15540 15543 15546 15549 15552 15555 15558 15561 15564 15567 15570 15573 15575 15578 15581 15584 15587 15589 15592 15595 15597 15600 15603 15606 15608 15611 15614 15617 15620 15623 15626 15629 15632 15635 15638 15641 15643 15646 15648 15651 15654 15657 15660 15663 15666 15668 15671 15674 15677 15680 15682 15685 15687 15689 15692 15694 15697 15700 15702 15705 15707 15709 15712 15715 15718 15721 15723 15725 15727 15730 15733 15736 15738 15741 15744 15747 15749 15752 15755 15758 15761 15764 15766 15769 15771 15773 15775 15778 15781 15783 15786 15789 15792 15794 15797 15800 15803 15806 15809 15812 15815 15817 15820 15823 15826 15829 15832 15835 15838 15841 15844 15847 15850 15853 15856 15859 15862 15865 15868 15871 15874 15877 15880 15883 15885 15888 15891 15893 15896 15899 15902 15905 15908 15911 15914 15917 15920 15923 15926 15928 15931 15934 15937 15940 15943 15946 15949 15952 15955 15958 15961 15964 15967 15970 15973 15976 15979 15982 15985 15988 15991 15994 15996 15999 16001 16003 16006 16009 16011 16014 16017 16020 16023 16025 16028 16031 16034 16037 16040 16043 16046 16049 16052 16055 16058 16061 16064 16067 16069 16072 16075 16077 16080 16083 16085 16088 16090 16093 16095 16098 16101 16103 16106 16109 16112 16114 16117 16120 16123 16126 16128 16131 16134 16137 16140 16142 16145 16148 16151 16154 16157 16160 16163 16165 16168 16171 16174 16176 16179 16182 16184 16187 16190 16193 16196 16199 16202 16205 16208 16211 16214 16217 16220 16223 16226 16229 16232 16235 16238 16241 16244 16247 16249 16252 16255 16258 16261 16264 16267 16270 16273 16276 16279 16282 16285 16288 16291 16294 16297 16300 16303 16306 16309 16312 16315 16318 16320 16322 16325 16327 16330 16333 16336 16339 16341 16344 16347 16350 16353 16356 16359 16362 16365 16368 16370 16373 16376 16379 16382 16385 16388 16391 16394 16397 16400 16403 16406 16409 16412 16415 16418 16421 16424 16427 16430 16433 16436 16439 16442 16445 16448 16451 16454 16457 16460 16463 16466 16469 16472 16475 16478 16481 16484 16487 16490 16493 16496 16499 16502 16505 16508 16511 16514 16517 16520 16523 16526 16529 16532 16535 16538 16541 16544 16547 16549 16552 16555 16557 16560 16563 16565 16568 16571 16574 16577 16580 16583 16586 16589 16592 16595 16598 16601 16604 16606 16609 16612 16615 16617 16620 16623 16626 16629 16632 16634 16637 16640 16643 16646 16649 16651 16654 16657 16660 16663 16666 16669 16672 16675 16678 16680 16683 16686 16689 16692 16695 16698 16701 16704 16707 16710 16713 16716 16719 16722 16725 16728 16730 16733 16735 16738 16741 16744 16747 16750 16753 16756 16759 16762 16765 16768 16771 16774 16777 16780 16783 16786 16789 16792 16795 16797 16800 16803 16806 16809 16812 16815 16818 16821 16824 16827 16830 16833 16836 16839 16842 16845 16848 16851 16854 16857 16860 16863 16866 16869 16872 16874 16877 16880 16883 16886 16889 16892 16895 16898 16901 16904 16907 16910 16913 16916 16919 16921 16924 16927 16930 16933 16936 16939 16941 16944 16947 16949 16952 16955 16958 16960 16963 16966 16969 16972 16975 16978 16981 16984 16987 16990 16993 16996 16999 17001 17004 17007 17009 17011 17014 17017 17020 17022 17025 17028 17031 17033 17036 17039 17042 17045 17048 17051 17054 17057 17060 17063 17066 17069 17072 17075 17078 17080 17083 17085 17088 17091 17094 17096 17099 17102 17105 17108 17111 17114 17116 17119 17122 17125 17128 17131 17134 17137 17140 17143 17146 17149 17152 17155 17158 17161 17164 17167 17170 17173 17176 17179 17182 17185 17188 17190 17193 17196 17199 17201 17204 17207 17210 17213 17216 17219 17222 17225 17228 17231 17234 17237 17240 17243 17246 17249 17252 17255 17258 17260 17263 17266 17269 17272 17275 17278 17281 17284 17287 17290 17293 17295 17298 17301 17304 17307 17310 17313 17316 17319 17322 17325 17328 17331 17334 17337 17340 17343 17346 17349 17352 17355 17358 17361 17364 17367 17370 17373 17376 17379 17382 17385 17388 17391 17394 17397 17400 17403 17406 17409 17412 17414 17417 17420 17423 17426 17429 17432 17435 17438 17441 17444 17447 17450 17453 17456 17459 17462 17465 17468 17471 17474 17477 17480 17483 17486 17489 17492 17495 17498 17501 17504 17506 17509 17512 17515 17517 17520 17522 17525 17528 17531 17534 17536 17539 17542 17545 17548 17551 17554 17557 17559 17562 17565 17568 17571 17574 17576 17579 17582 17585 17588 17591 17594 17597 17600 17602 17605 17608 17611 17614 17617 17620 17623 17625 17628 17631 17633 17636 17639 17641 17644 17647 17649 17652 17655 17657 17660 17663 17666 17669 17672 17675 17678 17681 17684 17687 17690 17692 17695 17698 17701 17704 17707 17709 17712 17715 17718 17720 17722 17725 17728 17731 17733 17736 17739 17742 17745 17748 17751 17754 17757 17760 17763 17766 17769 17772 17775 17778 17781 17784 17787 17790 17793 17796 17799 17802 17805 17808 17811 17814 17817 17820 17822 17825 17828 17831 17834 17836 17839 17842 17845 17848 17851 17854 17857 17860 17863 17866 17869 17872 17875 17878 17881 17884 17887 17890 17893 17895 17898 17901 17904 17907 17910 17913 17916 17919 17922 17925 17928 17931 17934 17937 17940 17943 17946 17949 17952 17955 17958 17961 17964 17967 17970 17973 17976 17978 17981 17984 17987 17990 17993 17996 17999 18002 18005 18008 18011 18014 18017 18020 18022 18025 18028 18031 18034 18036 18039 18042 18044 18047 18050 18053 18056 18059 18062 18065 18068 18070 18073 18076 18079 18081 18084 18087 18089 18092 18095 18098 18101 18104 18107 18110 18113 18116 18119 18122 18125 18128 18131 18134 18137 18140 18143 18146 18149 18152 18155 18158 18161 18164 18167 18170 18173 18176 18179 18182 18185 18187 18190 18192 18195 18198 18201 18204 18207 18210 18213 18216 18219 18222 18225 18228 18231 18234 18237 18240 18243 18246 18249 18252 18255 18258 18261 18264 18267 18270 18273 18275 18278 18281 18283 18286 18289 18292 18295 18298 18301 18304 18307 18310 18312 18315 18318 18321 18324 18327 18330 18333 18336 18338 18341 18344 18347 18350 18353 18356 18359 18362 18365 18368 18371 18374 18377 18380 18383 18386 18389 18392 18395 18398 18401 18404 18407 18410 18413 18416 18419 18422 18425 18428 18431 18434 18437 18440 18443 18446 18448 18451 18454 18457 18460 18463 18466 18469 18472 18474 18477 18480 18483 18486 18489 18491 18494 18497 18500 18503 18505 18508 18511 18513 18516 18519 18522 18525 18528 18531 18534 18537 18540 18543 18545 18548 18551 18554 18556 18559 18562 18565 18567 18570 18573 18576 18579 18582 18585 18588 18591 18594 18596 18599 18602 18605 18608 18611 18614 18617 18620 18622 18625 18628 18631 18634 18637 18640 18643 18646 18649 18652 18655 18658 18661 18664 18667 18670 18673 18676 18679 18682 18685 18688 18691 18694 18697 18700 18703 18705 18708 18711 18713 18716 18718 18721 18724 18727 18729 18732 18735 18738 18741 18744 18747 18750 18753 18756 18759 18762 18764 18767 18770 18773 18776 18779 18781 18784 18787 18790 18793 18795 18798 18801 18804 18807 18810 18813 18816 18819 18822 18825 18827 18830 18833 18836 18839 18842 18845 18848 18851 18854 18857 18860 18863 18866 18869 18872 18875 18878 18880 18883 18885 18888 18891 18894 18897 18899 18902 18905 18908 18911 18913 18916 18919 18921 18924 18927 18930 18933 18936 18939 18941 18944 18947 18950 18953 18956 18959 18961 18964 18967 18970 18973 18976 18979 18982 18985 18988 18991 18994 18997 19000 19003 19006 19008 19011 19014 19017 19020 19023 19026 19029 19032 19035 19038 19041 19044 19046 19049 19052 19055 19058 19061 19064 19067 19070 19073 19076 19079 19082 19085 19088 19091 19094 19096 19099 19102 19105 19107 19109 19112 19115 19118 19121 19124 19127 19130 19133 19136 19139 19141 19144 19146 19149 19152 19154 19157 19160 19163 19166 19169 19172 19175 19178 19181 19184 19187 19190 19193 19195 19198 19201 19204 19207 19209 19212 19215 19218 19221 19224 19227 19230 19233 19236 19239 19242 19245 19248 19251 19254 19257 19260 19263 19265 19268 19271 19274 19277 19280 19283 19286 19289 19291 19294 19297 19300 19303 19306 19309 19312 19315 19318 19321 19324 19327 19330 19333 19336 19339 19342 19345 19348 19351 19353 19356 19359 19362 19365 19368 19371 19374 19377 19380 19383 19386 19389 19392 19395 19398 19401 19404 19407 19410 19413 19416 19418 19421 19423 19426 19429 19432 19435 19437 19440 19443 19446 19449 19452 19455 19458 19461 19464 19467 19470 19473 19476 19479 19482 19485 19488 19491 19493 19496 19499 19501 19504 19507 19510 19512 19515 19518 19520 19523 19525 19527 19530 19533 19535 19538 19541 19544 19547 19550 19553 19556 19559 19562 19564 19566 19569 19571 19574 19577 19580 19583 19586 19589 19592 19594 19597 19600 19603 19606 19608 19611 19614 19617 19620 19623 19626 19629 19632 19635 19638 19641 19644 19646 19649 19652 19655 19658 19661 19663 19666 19668 19671 19673 19676 19679 19682 19685 19688 19691 19694 19697 19700 19703 19706 19709 19712 19715 19718 19721 19724 19727 19730 19733 19736 19739 19742 19745 19748 19751 19754 19757 19760 19763 19766 19769 19772 19775 19778 19781 19784 19787 19790 19793 19796 19799 19802 19805 19808 19811 19814 19817 19820 19823 19826 19828 19831 19834 19837 19840 19843 19846 19848 19851 19854 19857 19860 19862 19865 19868 19871 19873 19876 19879 19882 19885 19887 19890 19893 19896 19899 19902 19905 19908 19911 19914 19917 19920 19923 19926 19929 19932 19935 19938 19941 19944 19947 19950 19953 19956 19959 19962 19965 19968 19971 19974 19977 19980 19983 19986 19989 19991 19994 19997 20000 20003 20006 20009 20012 20015 20017 20020 20023 20026 20029 20032 20035 20038 20041 20043 20046 20049 20052 20055 20058 20061 20064 20067 20070 20073 20076 20078 20081 20083 20086 20089 20092 20095 20097 20100 20103 20106 20109 20112 20114 20117 20120 20123 20126 20129 20132 20135 20138 20141 20144 20147 20150 20153 20156 20159 20162 20165 20168 20171 20174 20177 20180 20183 20186 20189 20192 20195 20198 20201 20204 20207 20210 20213 20216 20219 20221 20224 20226 20229 20232 20235 20238 20241 20244 20247 20250 20253 20255 20257 20260 20262 20265 20268 20271 20274 20277 20280 20283 20286 20288 20291 20294 20297 20300 20303 20306 20309 20312 20315 20318 20321 20324 20327 20330 20333 20336 20339 20342 20345 20348 20351 20354 20357 20360 20363 20366 20368 20371 20374 20377 20380 20383 20386 20389 20392 20395 20398 20401 20404 20407 20410 20413 20416 20419 20422 20424 20427 20430 20433 20436 20439 20442 20445 20448 20451 20454 20457 20460 20463 20466 20469 20472 20475 20478 20481 20484 20487 20490 20493 20496 20499 20502 20505 20507 20510 20513 20516 20519 20521 20524 20527 20530 20533 20536 20539 20542 20545 20548 20551 20554 20557 20560 20563 20566 20569 20572 20575 20578 20581 20584 20587 20590 20592 20595 20598 20601 20604 20607 20610 20613 20616 20619 20622 20625 20628 20631 20634 20637 20640 20643 20645 20648 20650 20653 20656 20659 20662 20665 20668 20671 20674 20677 20680 20683 20686 20689 20692 20695 20698 20701 20704 20707 20710 20713 20716 20719 20722 20725 20728 20731 20734 20737 20740 20743 20746 20749 20752 20755 20758 20761 20764 20767 20770 20773 20776 20779 20781 20784 20786 20789 20792 20794 20796 20799 20802 20805 20808 20811 20814 20817 20820 20823 20826 20828 20831 20834 20837 20840 20843 20846 20849 20852 20855 20858 20861 20864 20867 20870 20873 20876 20879 20882 20885 20888 20891 20893 20896 20899 20902 20905 20908 20911 20914 20917 20920 20923 20926 20929 20932 20935 20938 20941 20944 20947 20950 20953 20956 20959 20962 20965 20968 20971 20974 20977 20980 20983 20986 20989 20992 20995 20998 21001 21004 21007 21010 21013 21016 21019 21022 21025 21028 21031 21034 21037 21040 21043 21046 21048 21051 21054 21057 21060 21063 21066 21069 21072 21075 21078 21081 21084 21086 21089 21091 21094 21097 21100 21102 21105 21108 21111 21114 21117 21120 21123 21125 21127 21130 21133 21136 21139 21142 21145 21148 21151 21154 21157 21160 21163 21166 21169 21172 21175 21177 21180 21183 21186 21189 21192 21194 21196 21199 21202 21205 21208 21211 21214 21217 21219 21222 21225 21228 21231 21234 21236 21239 21242 21245 21248 21251 21253 21256 21259 21262 21265 21268 21271 21274 21277 21280 21283 21286 21289 21292 21295 21298 21301 21304 21307 21310 21313 21316 21319 21322 21325 21328 21331 21334 21337 21340 21343 21346 21349 21352 21354 21357 21360 21363 21366 21369 21371 21374 21377 21380 21383 21386 21389 21392 21395 21398 21401 21404 21407 21410 21413 21416 21419 21422 21425 21428 21430 21433 21436 21439 21442 21445 21448 21451 21454 21457 21460 21463 21466 21468 21471 21474 21477 21480 21482 21485 21488 21491 21494 21497 21499 21502 21505 21507 21510 21513 21516 21519 21522 21525 21528 21531 21534 21537 21540 21543 21546 21548 21550 21553 21556 21558 21561 21563 21566 21569 21572 21575 21578 21581 21584 21587 21589 21592 21595 21598 21601 21604 21607 21610 21612 21615 21618 21621 21624 21627 21630 21633 21635 21638 21641 21644 21647 21650 21653 21656 21659 21662 21665 21668 21671 21674 21677 21680 21683 21686 21689 21692 21695 21698 21701 21703 21706 21709 21712 21715 21718 21721 21724 21727 21730 21733 21736 21739 21742 21745 21748 21751 21754 21757 21760 21763 21765 21768 21771 21774 21777 21780 21783 21785 21788 21790 21793 21795 21798 21800 21803 21806 21809 21812 21815 21818 21821 21824 21827 21829 21832 21835 21838 21841 21844 21847 21850 21852 21855 21858 21861 21864 21866 21869 21872 21875 21878 21881 21884 21886 21889 21892 21895 21898 21901 21903 21906 21909 21912 21915 21918 21921 21924 21926 21929 21932 21935 21937 21939 21942 21945 21948 21951 21953 21956 21959 21962 21964 21967 21970 21973 21976 21978 21981 21983 21986 21989 21991 21994 21997 22000 22003 22006 22009 22011 22014 22017 22020 22023 22025 22028 22031 22034 22037 22040 22043 22046 22049 22052 22055 22058 22061 22064 22067 22069 22072 22075 22078 22080 22083 22086 22089 22092 22095 22098 22101 22104 22107 22110 22113 22116 22119 22122 22125 22128 22131 22134 22137 22140 22143 22146 22149 22152 22155 22158 22160 22163 22166 22169 22172 22174 22177 22179 22181 22184 22187 22190 22192 22194 22196 22199 22202 22205 22208 22211 22214 22217 22219 22221 22224 22227 22230 22233 22236 22239 22242 22245 22248 22251 22254 22257 22260 22263 22266 22269 22272 22275 22278 22281 22284 22287 22290 22293 22296 22299 22301 22303 22306 22309 22312 22315 22318 22321 22324 22327 22330 22333 22336 22339 22342 22345 22348 22351 22354 22357 22360 22363 22366 22368 22371 22374 22377 22379 22382 22385 22388 22391 22394 22396 22399 22402 22405 22408 22411 22414 22416 22419 22422 22424 22427 22430 22433 22436 22439 22442 22445 22447 22450 22452 22455 22458 22461 22464 22466 22469 22472 22474 22476 22479 22481 22484 22487 22490 22493 22496 22499 22502 22505 22508 22511 22514 22517 22520 22523 22526 22529 22532 22535 22538 22541 22544 22547 22550 22553 22556 22559 22562 22565 22568 22571 22573 22576 22578 22580 22583 22586 22589 22592 22594 22597 22600 22602 22605 22608 22611 22613 22616 22619 22622 22625 22628 22630 22633 22636 22639 22642 22645 22648 22651 22654 22657 22660 22663 22665 22668 22671 22674 22676 22679 22682 22685 22688 22691 22694 22697 22700 22703 22706 22709 22711 22714 22717 22720 22723 22726 22729 22732 22735 22738 22741 22743 22746 22749 22752 22755 22758 22761 22764 22767 22770 22773 22776 22779 22782 22785 22788 22791 22794 22797 22800 22803 22806 22809 22812 22815 22818 22821 22824 22827 22830 22833 22836 22839 22842 22845 22848 22851 22854 22857 22860 22863 22866 22869 22872 22875 22878 22881 22884 22887 22890 22893 22896 22898 22901 22904 22907 22910 22913 22916 22919 22922 22925 22928 22931 22934 22937 22940 22943 22946 22949 22952 22955 22958 22961 22964 22967 22970 22973 22976 22978 22981 22984 22987 22990 22993 22996 22999 23002 23004 23007 23010 23013 23016 23019 23022 23025 23027 23029 23032 23035 23038 23040 23043 23046 23049 23052 23055 23058 23061 23064 23067 23070 23073 23076 23079 23081 23084 23087 23090 23093 23096 23099 23102 23105 23108 23111 23114 23117 23120 23123 23126 23128 23131 23134 23137 23140 23143 23145 23148 23151 23154 23157 23160 23163 23166 23168 23171 23174 23177 23180 23183 23186 23189 23192 23194 23197 23200 23203 23206 23209 23212 23215 23218 23221 23224 23226 23228 23231 23234 23237 23240 23243 23246 23249 23252 23255 23258 23260 23263 23266 23269 23272 23274 23277 23280 23283 23286 23289 23292 23295 23298 23300 23303 23306 23309 23312 23314 23317 23320 23323 23326 23329 23331 23334 23337 23340 23342 23345 23348 23351 23353 23356 23358 23361 23364 23367 23370 23372 23375 23377 23380 23383 23386 23389 23392 23394 23397 23400 23403 23406 23409 23412 23415 23418 23421 23424 23427 23430 23432 23435 23438 23441 23444 23446 23449 23452 23455 23457 23460 23463 23465 23468 23471 23474 23476 23478 23480 23483 23486 23488 23491 23494 23497 23500 23502 23505 23508 23511 23514 23517 23520 23523 23526 23529 23532 23535 23537 23540 23543 23546 23549 23552 23555 23558 23561 23564 23567 23569 23572 23575 23577 23580 23583 23586 23588 23591 23594 23597 23600 23603 23606 23609 23612 23615 23618 23621 23624 23627 23630 23633 23636 23639 23642 23645 23648 23651 23654 23657 23660 23663 23666 23669 23672 23675 23678 23680 23683 23686 23689 23692 23695 23698 23701 23704 23707 23710 23713 23715 23718 23721 23724 23726 23729 23732 23735 23738 23741 23744 23747 23750 23753 23756 23759 23762 23765 23767 23770 23773 23776 23779 23782 23785 23787 23790 23792 23795 23797 23800 23803 23806 23809 23812 23815 23818 23821 23824 23827 23830 23833 23836 23839 23842 23844 23847 23849 23852 23855 23858 23861 23864 23867 23870 23873 23876 23879 23882 23885 23888 23891 23894 23897 23900 23903 23906 23909 23912 23915 23918 23921 23924 23927 23930 23933 23935 23938 23941 23943 23946 23949 23952 23955 23958 23960 23963 23966 23969 23972 23975 23978 23981 23984 23987 23990 23993 23996 23999 24002 24005 24008 24011 24014 24017 24020 24023 24026 24029 24032 24035 24038 24041 24044 24047 24050 24053 24056 24059 24062 24065 24068 24071 24074 24077 24080 24083 24086 24089 24092 24095 24098 24101 24104 24107 24109 24112 24115 24118 24121 24124 24127 24129 24132 24135 24138 24141 24144 24147 24149 24152 24155 24158 24161 24164 24167 24170 24173 24175 24178 24181 24184 24186 24189 24191 24194 24196 24199 24202 24205 24208 24211 24213 24216 24219 24221 24224 24226 24228 24231 24233 24236 24238 24241 24244 24247 24250 24253 24256 24259 24262 24265 24268 24271 24274 24277 24280 24283 24286 24289 24292 24295 24297 24300 24303 24306 24309 24312 24315 24318 24320 24323 24326 24329 24332 24335 24338 24340 24343 24345 24348 24351 24354 24357 24360 24363 24366 24369 24371 24374 24376 24379 24382 24384 24387 24390 24393 24396 24399 24402 24405 24408 24411 24414 24417 24420 24423 24426 24429 24432 24435 24438 24441 24443 24446 24448 24451 24454 24457 24460 24463 24466 24469 24472 24475 24478 24481 24484 24487 24489 24492 24495 24498 24501 24504 24507 24510 24512 24515 24518 24521 24524 24527 24530 24533 24536 24539 24542 24545 24548 24550 24553 24556 24558 24561 24564 24566 24569 24572 24574 24577 24580 24583 24586 24589 24592 24595 24598 24601 24604 24607 24610 24613 24616 24619 24622 24625 24628 24631 24634 24637 24640 24643 24646 24648 24651 24654 24657 24660 24662 24665 24667 24670 24673 24676 24679 24682 24685 24688 24691 24694 24697 24700 24702 24705 24708 24711 24714 24716 24719 24722 24725 24728 24731 24734 24737 24740 24742 24745 24748 24751 24754 24757 24760 24763 24766 24768 24771 24773 24776 24779 24782 24785 24787 24790 24793 24796 24799 24802 24805 24808 24811 24813 24816 24819 24822 24825 24828 24831 24834 24837 24840 24843 24846 24849 24852 24855 24857 24859 24862 24865 24867 24870 24873 24876 24879 24882 24885 24888 24891 24894 24897 24900 24903 24906 24909 24912 24915 24918 24921 24924 24927 24930 24933 24936 24939 24942 24945 24948 24951 24954 24957 24960 24963 24966 24969 24972 24975 24978 24981 24984 24987 24990 24993 24996 24999 25002 25005 25008 25011 25014 25017 25020 25023 25026 25029 25032 25035 25038 25041 25044 25047 25050 25053 25056 25059 25062 25065 25068 25071 25074 25077 25080 25083 25086 25089 25092 25095 25098 25101 25104 25107 25110 25113 25116 25119 25122 25125 25128 25131 25134 25137 25140 25143 25146 25149 25152 25155 25157 25160 25163 25165 25168 25171 25174 25177 25180 25183 25186 25188 25191 25193 25196 25199 25202 25205 25208 25211 25213 25216 25219 25222 25225 25228 25231 25234 25236 25239 25242 25245 25247 25250 25253 25255 25258 25261 25264 25266 25268 25271 25273 25276 25279 25282 25284 25287 25289 25292 25295 25298 25301 25304 25307 25309 25312 25315 25318 25321 25323 25326 25329 25332 25335 25338 25341 25344 25347 25350 25353 25355 25357 25360 25363 25366 25369 25372 25375 25378 25381 25384 25387 25389 25392 25394 25397 25400 25402 25405 25408 25411 25414 25417 25420 25423 25426 25429 25431 25434 25437 25440 25443 25446 25449 25452 25455 25458 25461 25464 25466 25469 25472 25475 25478 25481 25484 25487 25490 25493 25496 25499 25501 25504 25507 25510 25512 25515 25517 25520 25523 25526 25529 25531 25534 25537 25539 25542 25545 25548 25550 25553 25556 25559 25562 25565 25568 25571 25574 25576 25579 25582 25585 25588 25591 25594 25597 25600 25603 25606 25609 25612 25615 25618 25621 25624 25627 25630 25633 25635 25638 25641 25644 25647 25650 25653 25655 25658 25661 25664 25667 25669 25672 25675 25678 25681 25684 25687 25689 25692 25695 25698 25701 25704 25707 25710 25713 25716 25719 25722 25725 25728 25730 25733 25736 25739 25742 25744 25747 25749 25752 25755 25757 25760 25763 25766 25769 25772 25775 25778 25780 25782 25785 25788 25791 25793 25795 25798 25801 25803 25806 25809 25811 25814 25817 25820 25822 25825 25828 25831 25834 25837 25840 25843 25846 25849 25852 25855 25858 25861 25864 25867 25870 25873 25876 25879 25881 25884 25887 25890 25892 25895 25897 25899 25902 25905 25907 25910 25913 25916 25919 25922 25925 25928 25931 25934 25936 25939 25942 25944 25947 25950 25953 25956 25958 25961 25964 25967 25970 25973 25976 25979 25982 25985 25987 25990 25993 25996 25998 26001 26004 26006 26009 26012 26015 26017 26020 26023 26026 26029 26032 26035 26037 26040 26043 26045 26048 26051 26054 26057 26060 26063 26066 26069 26072 26075 26077 26080 26083 26086 26089 26091 26094 26097 26100 26103 26106 26108 26111 26114 26117 26120 26123 26126 26129 26132 26135 26138 26141 26144 26147 26150 26153 26156 26159 26161 26164 26167 26170 26173 26176 26178 26181 26184 26187 26190 26193 26196 26199 26202 26205 26207 26210 26213 26216 26219 26222 26225 26228 26231 26234 26237 26240 26243 26246 26249 26252 26255 26258 26261 26264 26267 26269 26272 26274 26276 26279 26282 26284 26287 26290 26293 26295 26298 26301 26304 26307 26310 26312 26315 26318 26320 26323 26325 26328 26331 26334 26337 26340 26343 26346 26349 26352 26355 26358 26361 26363 26366 26369 26372 26375 26378 26381 26384 26387 26390 26393 26396 26399 26401 26404 26407 26410 26413 26416 26419 26421 26424 26427 26430 26433 26435 26437 26440 26442 26445 26447 26450 26452 26454 26457 26460 26463 26465 26468 26471 26474 26477 26480 26483 26485 26488 26491 26494 26496 26499 26502 26505 26508 26511 26514 26517 26520 26523 26526 26529 26532 26535 26537 26540 26543 26546 26549 26552 26555 26558 26561 26564 26567 26570 26573 26576 26579 26582 26585 26588 26591 26594 26597 26600 26603 26606 26609 26612 26615 26618 26621 26624 26627 26630 26633 26636 26639 26642 26645 26648 26650 26653 26656 26659 26662 26665 26668 26671 26674 26677 26680 26683 26686 26689 26691 26694 26697 26700 26702 26705 26707 26710 26713 26716 26719 26722 26725 26728 26731 26734 26737 26740 26743 26746 26749 26752 26755 26758 26761 26764 26767 26770 26773 26776 26779 26782 26785 26788 26791 26794 26797 26800 26803 26806 26809 26812 26815 26818 26821 26824 26827 26830 26833 26836 26839 26842 26845 26848 26851 26854 26857 26860 26863 26866 26869 26872 26875 26878 26881 26884 26887 26890 26893 26896 26899 26902 26905 26908 26911 26914 26916 26919 26922 26925 26928 26931 26934 26936 26939 26941 26944 26946 26949 26951 26954 26957 26960 26962 26965 26968 26971 26974 26976 26979 26982 26985 26988 26991 26994 26997 27000 27003 27006 27009 27012 27015 27017 27020 27023 27026 27029 27032 27035 27038 27041 27044 27046 27049 27052 27055 27057 27060 27063 27066 27069 27072 27074 27077 27080 27082 27085 27087 27090 27093 27096 27099 27102 27104 27106 27109 27111 27114 27117 27120 27123 27126 27129 27131 27134 27137 27140 27143 27146 27149 27152 27155 27158 27161 27164 27167 27170 27173 27176 27179 27182 27185 27188 27191 27194 27197 27200 27203 27206 27208 27211 27214 27217 27220 27222 27225 27228 27231 27233 27236 27239 27242 27245 27248 27251 27254 27257 27260 27263 27266 27269 27272 27275 27278 27280 27282 27285 27288 27291 27294 27296 27299 27302 27305 27308 27311 27314 27316 27319 27322 27325 27328 27331 27334 27337 27339 27342 27345 27347 27350 27353 27355 27358 27361 27364 27367 27370 27373 27376 27379 27382 27385 27388 27391 27394 27397 27400 27403 27405 27408 27411 27414 27416 27419 27422 27425 27428 27431 27434 27437 27440 27443 27445 27448 27451 27454 27457 27460 27462 27465 27468 27471 27474 27477 27480 27483 27486 27489 27492 27495 27498 27501 27504 27506 27509 27512 27515 27518 27521 27524 27526 27529 27532 27535 27537 27539 27541 27544 27547 27549 27552 27555 27558 27561 27564 27567 27570 27573 27576 27579 27582 27585 27588 27590 27593 27596 27599 27602 27605 27608 27611 27614 27617 27620 27623 27626 27629 27632 27635 27638 27641 27644 27647 27650 27653 27656 27659 27662 27665 27668 27671 27674 27677 27680 27683 27686 27688 27691 27694 27697 27700 27703 27706 27709 27711 27714 27717 27719 27722 27725 27728 27731 27734 27736 27739 27742 27745 27748 27750 27753 27756 27759 27762 27765 27768 27770 27773 27776 27779 27782 27785 27788 27791 27794 27797 27800 27803 27806 27809 27812 27815 27817 27819 27822 27825 27828 27830 27832 27835 27838 27841 27843 27846 27849 27852 27854 27857 27860 27863 27865 27868 27871 27874 27877 27880 27883 27885 27888 27891 27894 27897 27900 27902 27905 27908 27911 27914 27916 27918 27921 27924 27927 
</DataArray>
<DataArray type="UInt32" Name="types" format="ascii">
5 5 5 3 5 5 5 5 5 5 5 3 5 5 5 5 5 5 5 5 5 5 3 5 5 3 5 5 5 5 5 5 3 5 5 5 5 5 3 5 5 3 5 3 5 5 5 5 5 5 5 5 5 3 3 5 5 3 5 5 5 5 3 5 5 5 5 5 3 3 5 5 5 5 5 3 5 5 5 5 5 3 5 5 5 3 5 5 3 3 5 3 5 3 3 5 5 5 5 5 5 3 5 5 5 3 5 5 5 5 5 5 5 5 5 5 5 5 5 5 5 5 5 5 5 3 5 5 3 3 5 5 5 5 3 5 5 5 5 5 5 5 5 5 5 5 5 5 5 5 5 5 5 5 5 5 5 5 5 5 5 3 5 3 5 5 5 5 3 5 5 3 5 5 3 5 5 5 5 5 3 5 5 5 5 5 5 5 5 5 5 5 5 3 5 5 5 3 5 5 3 5 5 5 5 3 3 5 5 5 5 3 5 5 5 5 5 5 5 5 5 5 5 5 5 5 5 5 5 5 5 5 5 5 5 3 5 5 3 5 5 5 5 5 5 5 5 5 3 5 3 5 5 5 5 5 3 5 3 5 5 5 5 5 3 5 3 5 5 5 5 5 5 5 3 5 3 5 5 5 3 5 5 3 5 5 5 3 5 5 5 5 5 5 5 5 5 3 5 5 3 3 5 3 5 5 3 5 5 5 5 3 5 5 5 5 5 5 5 5 5 5 5 5 5 5 5 5 5 5 5 3 5 5 5 5 3 5 5 5 3 5 3 5 5 5 5 5 5 5 3 5 5 5 5 5 5 5 3 5 5 5 3 3 5 5 5 5 5 5 5 5 5 3 5 5 5 5 5 3 5 5 5 5 5 5 5 5 5 3 5 5 3 5 3 5 5 5 5 3 5 5 5 5 5 5 3 5 3 5 3 5 3 3 5 5 5 5 5 5 5 5 5 3 5 5 3 5 5 5 5 3 5 3 5 5 5 3 3 5 5 5 5 3 5 5 5 3 3 3 5 5 3 5 5 5 3 5 3 3 3 5 3 5 5 5 5 5 5 5 5 5 5 5 5 5 5 5 5 3 5 3 5 3 3 5 5 5 5 3 5 5 3 5 3 3 5 3 5 5 5 5 5 3 5 5 5 5 5 5 5 5 5 5 3 5 5 5 5 3 5 5 5 5 5 3 5 3 3 5 5 5 3 5 3 5 5 5 5 5 5 3 5 3 5 5 5 5 3 5 5 5 5 5 3 5 5 5 3 5 5 5 5 5 5 5 5 5 5 3 5 5 5 5 3 5 5 5 5 3 5 5 5 5 5 5 5 5 5 3 3 5 5 5 5 5 5 5 5 5 5 3 5 5 5 5 3 5 5 5 5 5 5 5 3 5 3 5 3 5 5 5 5 5 5 5 5 5 5 5 5 5 5 5 5 5 5 5 5 5 5 5 5 5 5 5 5 5 5 3 5 3 5 5 5 5 5 5 5 5 5 5 5 5 5 5 5 5 5 5 5 5 3 5 5 5 5 5 5 5 5 5 5 5 5 5 3 3 5 5 5 5 5 3 5 5 3 5 5 5 3 5 5 5 5 5 5 5 5 5 5 3 5 5 5 5 5 3 5 5 5 5 5 5 5 5 3 3 5 5 3 5 5 5 5 3 5 5 5 5 5 5 5 5 5 5 5 5 5 5 5 3 5 5 5 5 5 3 5 5 5 3 5 5 5 5 5 5 5 5 5 5 5 5 5 5 5 5 5 3 5 5 5 5 5 5 5 5 5 5 5 3 5 5 5 5 5 5 5 3 3 5 5 5 3 5 5 5 3 5 5 5 5 5 5 3 5 5 5 3 5 3 5 3 5 5 5 5 5 5 5 5 5 5 5 5 5 3 5 5 5 3 5 5 3 5 5 5 3 3 5 5 3 5 5 5 5 5 5 5 3 5 3 3 5 5 5 5 3 5 5 5 5 5 5 5 5 5 5 3 5 3 5 5 5 5 5 5 5 5 5 5 5 5 5 5 5 5 5 5 5 5 3 5 5 5 5 3 3 5 5 5 5 5 5 3 5 5 5 5 5 3 3 5 5 5 5 3 5 5 5 5 5 5 5 3 5 5 5 5 3 3 5 5 5 5 5 5 5 5 5 5 5 5 5 5 5 5 5 5 5 5 5 5 5 5 5 5 5 3 5 5 5 5 5 5 3 5 5 5 5 5 5 5 5 5 5 5 5 5 5 5 5 5 5 5 5 5 5 3 5 5 3 5 5 5 5 5 5 5 3 5 5 3 5 5 5 5 3 5 3 5 5 5 5 3 5 5 5 5 5 5 5 5 5 5 5 5 5 5 5 5 5 3 5 5 5 5 3 5 5 3 5 5 3 5 5 5 5 5 5 5 3 5 5 5 5 5 3 5 5 5 5 5 3 5 5 5 5 5 5 5 5 5 5 5 5 5 5 5 5 5 5 5 5 5 5 5 5 5 5 5 5 5 5 5 5 5 5 5 3 5 5 5 3 5 5 5 5 5 5 5 5 5 5 3 5 5 5 5 5 5 5 5 5 5 5 5 5 5 5 3 5 3 5 5 5 5 5 5 5 5 5 5 5 5 5 5 5 5 5 5 5 5 5 5 5 5 5 5 5 5 3 5 5 5 5 5 5 3 5 5 3 3 5 5 5 5 5 5 5 3 5 5 3 5 3 5 5 5 5 5 3 5 5 5 5 5 5 5 5 5 5 5 5 5 3 5 5 5 5 5 5 5 5 5 5 5 5 5 5 5 5 5 5 5 5 5 5 5 5 5 5 5 5 5 5 5 5 5 5 5 3 5 5 3 5 5 5 5 5 3 5 5 5 5 5 5 3 5 5 5 5 5 5 5 5 5 3 5 5 5 5 5 5 5 5 5 5 5 5 5 5 5 5 5 5 5 5 5 5 5 5 5 5 5 5 5 5 5 5 5 5 5 5 5 5 5 5 5 5 5 5 5 5 5 5 5 3 5 5 5 5 5 5 5 5 5 5 5 5 5 5 5 5 5 5 5 5 5 5 5 3 5 5 5 5 5 5 5 5 5 5 3 5 5 3 5 5 5 5 5 5 5 3 3 5 5 5 5 5 5 5 5 5 5 5 5 5 5 3 5 5 5 5 5 5 3 5 5 5 5 5 5 5 5 3 5 5 5 5 5 5 5 5 5 3 5 5 5 5 5 5 5 5 5 5 5 5 3 5 3 3 5 5 5 5 3 5 5 5 5 3 5 3 5 3 5 3 3 5 3 5 5 5 3 3 5 5 5 5 3 5 5 5 5 5 5 5 5 5 5 5 5 3 5 5 5 5 5 5 3 5 5 5 5 5 3 5 5 5 3 5 5 3 5 5 5 3 5 5 5 5 5 5 3 5 5 3 5 3 5 5 5 5 5 5 5 5 5 5 5 5 5 5 5 5 5 5 3 5 5 5 3 3 5 5 3 5 5 5 5 3 5 5 5 5 5 5 5 5 5 5 5 5 5 5 5 5 5 3 5 5 5 5 5 5 5 5 5 3 5 5 5 5 5 5 3 5 5 5 5 5 5 5 5 5 5 5 5 5 5 5 5 5 5 5 5 5 5 5 5 5 5 5 5 5 5 5 5 5 5 5 5 5 5 3 5 5 5 5 5 5 5 3 5 5 5 5 5 3 5 5 5 5 5 5 5 3 5 5 5 5 3 3 5 5 3 3 5 5 5 5 5 5 5 5 5 5 5 5 5 5 5 3 5 5 5 5 5 5 5 5 5 3 5 5 5 5 5 5 5 5 5 5 3 5 3 5 5 5 3 3 5 5 5 5 5 5 5 5 5 5 5 5 5 5 5 5 5 5 5 5 5 3 5 5 5 5 5 5 5 5 5 5 5 5 5 5 5 5 5 5 5 5 5 5 5 5 5 5 5 5 3 5 5 3 5 5 5 3 5 5 5 3 3 3 5 5 3 5 5 5 5 5 5 5 5 3 5 5 5 5 3 5 5 5 3 5 5 5 5 5 5 3 5 5 5 5 3 5 5 3 5 5 5 5 3 5 5 5 5 3 5 5 5 5 5 5 5 3 5 3 5 5 3 5 5 5 5 3 5 5 5 3 5 5 5 5 5 5 3 5 5 5 5 5 5 5 5 5 5 5 5 5 5 5 5 3 5 5 5 5 3 5 5 3 5 5 3 5 5 5 5 3 5 5 5 5 5 5 5 5 5 5 5 5 3 5 5 5 5 5 5 3 5 5 5 5 5 5 5 5 5 5 5 3 5 5 5 5 5 5 5 5 5 5 5 5 3 5 5 5 3 5 5 5 3 5 5 5 5 3 3 5 5 5 5 5 3 5 5 5 5 5 5 5 3 5 5 5 5 3 5 5 5 5 5 5 3 5 5 5 5 5 5 3 5 5 5 5 5 3 3 5 5 5 5 3 5 5 5 5 5 3 5 5 5 5 5 3 3 5 5 3 3 5 5 5 5 3 3 5 5 5 5 3 3 5 5 3 5 5 3 5 5 5 5 5 5 5 3 5 5 3 5 5 3 5 5 5 5 5 5 5 5 5 5 5 5 5 5 5 3 5 5 5 5 5 5 5 5 5 5 3 5 5 5 3 5 3 5 5 5 5 5 5 3 5 5 5 5 5 5 5 5 5 5 5 5 5 5 3 5 3 5 5 5 5 5 5 5 5 3 5 5 5 5 5 3 5 5 5 3 5 5 3 5 5 5 5 3 5 3 5 5 5 3 5 5 5 5 5 5 3 5 5 5 5 5 5 3 5 5 3 3 5 5 5 3 3 5 3 3 5 5 5 3 5 5 5 5 3 5 3 3 5 3 3 5 5 5 5 3 5 5 3 3 5 5 5 5 5 5 5 3 3 5 5 5 5 5 5 5 5 5 5 5 5 5 5 5 3 5 3 5 5 5 5 5 3 5 5 3 5 5 5 5 5 5 5 5 5 5 5 5 5 5 5 5 5 5 5 5 5 5 5 5 5 5 3 5 3 5 5 5 5 5 5 5 5 5 3 3 5 5 3 5 3 5 5 5 5 5 5 5 5 5 5 5 3 5 5 5 5 3 5 5 5 5 5 5 3 5 3 5 5 5 5 5 5 5 5 5 5 5 5 5 5 3 5 5 5 5 5 5 5 5 5 5 5 5 5 5 5 5 5 5 5 5 5 5 5 3 3 5 5 5 5 5 5 5 5 5 5 5 5 3 5 5 5 5 5 5 5 5 5 5 5 5 3 5 5 5 5 5 3 5 3 5 5 5 5 5 5 5 5 5 5 5 5 3 5 3 5 5 5 5 5 3 5 5 5 5 5 5 5 5 3 5 5 3 5 5 3 5 5 5 3 5 5 5 5 5 5 5 5 5 5 5 5 5 5 5 5 5 3 5 3 3 5 5 5 5 5 3 5 5 5 5 5 5 5 5 5 5 5 3 5 5 5 5 5 5 3 5 5 5 5 3 5 5 5 5 5 5 3 5 5 5 5 3 5 5 5 5 3 5 5 5 5 3 5 3 5 5 5 5 3 5 5 5 5 5 5 5 5 5 5 5 5 5 5 3 5 5 3 5 5 5 5 5 5 5 5 5 5 5 5 5 5 5 5 5 5 5 5 5 5 5 5 5 5 5 5 5 5 5 5 5 5 5 5 5 5 5 5 5 5 5 5 5 5 5 3 5 5 5 3 5 5 5 5 5 3 5 5 5 3 5 5 5 5 5 5 5 5 5 5 5 5 5 5 5 5 3 5 3 5 5 5 5 5 5 5 3 5 5 5 3 5 5 5 5 5 5 5 5 5 5 5 5 5 5 5 5 5 5 5 5 5 5 5 3 5 5 5 5 5 5 5 5 5 5 5 5 5 5 5 3 5 5 5 5 5 5 5 5 5 5 5 3 5 5 3 5 5 5 5 5 5 5 5 5 5 5 5 5 5 5 5 5 5 5 5 5 5 5 5 5 5 5 3 5 3 5 5 5 5 5 3 5 5 5 5 3 5 5 5 5 5 5 5 5 3 3 5 5 5 5 5 5 3 5 3 5 3 5 5 5 3 5 5 5 5 5 5 5 5 5 5 5 3 5 5 3 5 5 5 5 3 5 5 5 5 5 5 5 5 5 5 5 5 3 5 5 5 5 5 3 5 5 5 3 5 5 5 5 5 3 3 5 5 3 5 5 5 5 5 3 5 5 3 5 5 3 5 5 5 5 5 5 5 5 5 5 3 5 5 5 5 5 3 5 5 5 5 5 5 5 3 5 5 5 5 3 5 5 5 5 5 5 5 3 3 5 5 3 3 5 3 5 5 3 5 5 3 3 5 3 3 5 3 5 5 3 5 3 5 5 3 5 5 3 5 5 5 5 5 5 5 5 5 5 5 5 5 5 5 5 5 5 5 3 5 5 5 5 5 5 5 5 5 5 5 5 5 3 5 3 5 5 5 3 5 3 5 5 5 5 5 5 5 5 5 5 5 3 5 5 3 5 5 5 5 5 5 5 5 5 5 5 5 5 5 5 5 5 5 5 5 5 5 5 5 5 5 5 5 5 5 5 3 5 3 5 5 5 5 5 3 5 5 5 3 5 5 5 5 5 5 5 5 3 5 5 3 5 3 5 3 3 3 5 5 5 5 3 5 5 5 5 5 5 5 5 5 5 3 5 5 3 5 5 5 5 5 3 5 5 5 5 3 5 5 5 5 5 5 5 5 5 3 5 5 3 5 5 5 5 3 5 5 5 3 5 3 5 5 3 5 3 5 5 3 5 5 5 5 5 5 5 5 5 5 5 5 5 5 5 5 3 5 5 3 3 5 5 5 5 5 3 3 5 3 5 5 5 3 3 3 5 5 5 5 3 3 5 5 3 5 3 5 3 3 5 5 5 5 5 3 5 5 5 5 5 5 3 5 5 5 3 5 5 5 5 3 5 5 3 5 5 5 5 3 5 5 5 5 5 3 5 3 5 3 5 5 5 5 5 5 5 5 5 5 5 5 5 5 5 5 5 3 5 5 5 3 5 5 5 5 5 5 5 3 5 5 5 5 3 5 5 5 5 3 5 5 5 3 5 5 5 5 5 5 5 3 5 5 3 5 5 5 3 5 3 5 5 5 5 5 5 5 5 5 5 5 5 5 5 3 5 5 5 5 5 5 5 5 5 5 5 5 5 3 5 5 5 5 3 5 5 5 5 5 5 5 5 5 5 5 5 5 5 5 5 5 5 5 5 5 5 5 5 5 5 5 3 3 5 5 5 5 5 3 5 5 3 5 5 5 5 5 5 5 5 5 5 5 5 5 5 5 5 5 5 5 5 5 5 5 5 5 5 3 5 5 5 5 5 5 5 5 3 3 5 5 5 5 5 5 5 5 5 5 5 5 5 5 5 3 5 5 3 5 3 5 5 5 5 5 5 5 3 5 5 5 3 5 3 5 5 5 5 5 3 5 5 5 5 3 5 5 5 5 5 5 5 3 5 5 5 5 5 5 3 5 5 5 5 5 5 5 5 5 5 5 3 5 5 5 5 5 5 5 3 5 3 5 5 5 5 5 5 5 5 5 5 5 5 5 5 5 3 5 5 5 5 5 5 5 5 5 5 5 5 3 5 5 5 5 3 5 5 5 5 5 5 3 5 5 5 5 5 3 5 5 5 5 3 5 5 5 5 5 5 5 5 3 5 5 5 5 5 5 5 5 5 5 3 5 5 5 3 5 5 3 3 5 5 5 5 5 3 5 5 5 5 5 5 5 5 5 3 5 5 5 5 5 5 5 5 5 5 5 5 5 5 5 5 5 5 5 5 5 5 5 5 3 5 5 5 5 5 5 5 5 5 5 5 5 5 5 3 5 5 3 5 5 5 3 5 5 5 3 5 5 5 5 5 3 5 5 5 5 5 5 5 3 5 5 5 3 5 3 5 5 5 5 5 5 5 5 5 5 5 5 3 5 5 5 5 5 5 5 5 5 3 5 5 5 3 5 5 5 5 5 5 5 5 5 5 5 5 5 5 5 5 5 5 5 5 5 5 5 5 5 5 5 5 5 5 5 5 3 5 5 5 5 5 5 5 5 5 5 5 5 5 5 5 5 5 5 5 5 5 5 3 5 5 5 5 5 3 5 5 5 5 5 5 5 5 5 5 5 5 5 5 5 5 5 5 5 5 5 3 5 5 5 5 5 5 5 5 5 5 5 5 5 5 5 5 5 5 5 5 5 5 5 5 3 3 5 5 5 5 3 3 5 5 3 5 3 5 5 5 5 3 5 5 5 3 5 5 5 3 5 3 5 3 5 5 5 5 5 5 3 5 5 5 5 5 5 5 5 5 5 5 5 5 5 5 5 5 5 5 5 5 5 5 3 5 5 3 5 3 5 5 3 5 5 5 5 5 5 5 5 3 5 5 5 5 5 5 5 5 5 5 5 5 5 5 5 5 5 5 5 5 5 5 5 5 5 5 5 5 5 5 5 5 5 5 5 5 5 5 5 5 3 5 5 5 3 5 5 3 5 5 5 5 5 5 5 5 5 5 5 5 5 5 5 5 5 5 5 5 5 5 5 5 5 5 5 5 5 5 5 5 5 5 5 5 5 5 5 5 5 5 5 5 5 5 5 5 5 5 5 5 5 5 5 5 5 3 5 5 5 5 5 3 5 5 5 5 5 5 3 5 5 5 5 5 5 3 5 5 5 5 5 5 5 5 5 5 5 5 5 5 5 5 5 5 5 5 5 5 5 5 5 5 5 5 5 5 3 5 5 5 5 5 3 5 5 5 5 5 3 5 5 5 5 5 3 5 5 5 5 5 5 5 5 5 3 5 5 5 5 5 5 5 3 5 3 5 5 5 5 3 5 3 5 5 5 5 5 5 5 5 5 3 5 5 3 3 3 5 5 5 5 5 5 5 5 5 5 5 5 5 5 5 5 5 5 5 5 5 5 5 5 5 3 5 3 5 5 3 5 5 5 5 5 5 5 5 3 3 5 3 5 5 5 3 5 5 5 5 5 5 3 5 3 3 5 5 5 3 5 5 3 5 5 5 3 5 5 5 5 5 5 5 3 5 5 3 5 5 5 5 3 5 3 5 5 5 5 5 3 5 5 3 5 3 5 5 5 5 5 5 5 5 3 5 5 5 5 5 3 5 3 5 5 5 5 5 3 5 5 5 3 5 5 5 5 5 5 3 5 5 3 5 5 5 5 5 3 5 3 5 5 5 3 5 5 3 5 5 3 5 5 5 5 5 5 5 5 5 5 3 5 3 5 5 3 5 3 5 5 3 5 5 3 5 5 3 5 3 5 5 5 5 5 5 5 3 5 5 5 5 5 5 3 5 3 5 5 5 5 5 5 3 5 3 5 5 5 5 3 3 5 5 5 5 5 5 5 5 5 5 5 5 5 5 5 5 5 5 5 5 5 5 5 5 5 5 5 5 5 5 5 5 5 5 5 5 5 5 5 5 5 3 5 5 3 5 5 5 5 5 5 5 5 5 5 5 5 5 5 3 5 5 5 5 3 5 5 5 5 3 5 5 5 5 3 5 5 5 5 3 5 3 5 5 5 5 3 5 3 5 5 5 5 5 5 5 5 5 5 5 5 5 5 5 5 5 5 5 5 5 5 5 5 5 5 5 5 5 5 5 5 5 3 5 5 5 5 3 5 5 5 3 5 5 5 5 3 5 5 5 5 5 5 3 5 5 5 5 5 5 3 5 5 5 5 3 5 3 5 5 5 5 5 5 5 5 5 5 5 5 5 5 5 5 5 5 3 5 5 5 5 5 5 5 5 5 5 5 5 5 5 5 3 5 5 5 5 5 5 5 5 5 5 5 5 3 5 3 5 5 5 5 5 5 5 5 5 5 5 5 5 5 5 5 5 5 5 5 3 5 5 5 5 3 3 5 5 5 3 5 5 3 5 3 5 3 5 5 5 5 5 5 5 5 3 5 5 5 5 5 5 5 5 5 5 5 5 5 5 5 5 5 5 5 5 5 3 5 5 5 5 3 3 5 5 5 5 5 5 5 5 5 5 5 3 5 5 3 5 5 5 5 5 5 3 5 5 5 3 5 3 5 5 5 5 5 5 5 5 5 5 5 5 5 3 5 5 5 5 5 5 5 3 5 5 3 3 5 5 3 5 5 5 5 5 5 3 5 5 5 5 5 3 5 5 5 5 5 3 5 5 5 3 5 3 5 5 5 3 5 5 5 3 5 5 5 5 5 5 5 5 5 5 5 5 3 5 5 5 3 5 5 5 5 5 5 3 5 5 3 3 5 5 3 5 5 5 5 3 5 5 5 5 5 5 5 5 5 5 5 5 5 5 5 5 5 5 5 5 5 5 5 5 5 5 5 3 5 5 5 3 5 5 5 5 5 5 5 5 5 5 5 5 3 3 5 5 5 5 5 5 5 5 5 5 5 5 5 5 5 5 5 5 5 5 3 5 5 5 3 5 5 5 5 3 5 5 3 5 5 5 5 5 5 3 5 5 5 5 5 5 5 5 3 5 5 5 5 3 5 3 5 5 3 5 5 5 3 5 5 5 3 5 5 5 3 5 5 5 5 5 5 3 5 5 5 5 5 5 5 5 5 5 5 5 5 5 5 5 5 5 5 5 5 5 5 5 5 5 5 5 5 5 5 5 5 5 5 5 5 5 5 5 5 5 5 5 5 5 5 5 5 5 5 5 5 5 5 5 5 5 5 5 5 5 5 5 5 5 5 3 5 5 3 5 5 5 5 3 5 5 5 5 5 5 5 5 5 3 5 5 3 5 5 5 5 3 5 5 5 3 5 5 5 5 5 3 5 3 5 5 5 3 5 5 5 3 5 5 5 5 5 3 5 5 3 3 5 5 3 5 5 5 3 5 5 5 3 5 3 5 3 5 5 5 3 3 5 5 3 5 5 5 5 3 5 5 3 5 3 5 3 5 5 5 5 5 5 5 3 5 5 5 5 5 5 5 5 5 5 5 5 5 5 5 3 5 5 5 5 5 5 5 5 5 5 5 5 5 5 5 5 3 5 5 5 3 5 5 3 5 5 5 5 5 5 5 5 5 5 5 5 5 5 5 5 5 5 5 3 5 3 5 3 5 5 3 5 5 5 5 5 5 5 3 5 5 5 5 5 3 5 5 5 5 3 5 5 5 5 5 3 5 5 5 3 5 3 5 5 5 5 5 5 5 5 5 5 5 3 5 5 5 5 5 5 5 5 5 5 5 5 5 5 5 5 5 5 5 5 3 5 5 5 5 5 5 5 5 5 5 5 5 5 5 5 5 5 5 5 5 5 5 3 5 5 5 3 5 5 5 5 5 5 5 5 5 5 5 3 5 5 5 5 5 3 5 5 5 5 5 5 5 5 5 5 5 5 5 5 5 5 5 5 5 5 5 5 5 5 5 3 5 5 5 5 5 5 5 5 5 5 5 5 5 5 5 5 5 5 5 5 5 5 5 5 5 5 5 3 5 5 5 5 5 5 5 5 5 5 5 5 3 5 3 5 5 5 3 5 5 5 5 5 3 5 5 5 5 5 5 5 5 5 5 5 5 5 5 5 5 5 5 3 5 5 5 5 5 5 5 5 5 5 5 5 5 5 5 5 5 5 5 5 5 5 5 5 5 5 5 5 5 5 5 5 5 5 5 5 5 5 5 5 5 5 5 5 5 5 5 5 3 5 5 5 3 5 5 5 5 5 5 5 5 5 5 5 5 5 5 5 5 5 3 5 5 5 5 3 5 5 5 5 5 5 5 5 5 3 5 5 5 3 5 5 5 5 3 5 5 5 5 5 5 5 5 5 5 5 5 5 5 5 5 5 5 3 5 5 5 5 5 5 5 5 3 3 5 5 5 5 5 5 3 3 5 5 5 5 5 5 5 5 5 5 5 5 5 5 5 5 3 5 5 5 5 5 5 5 5 3 5 3 5 5 5 5 3 5 5 3 5 5 5 5 5 5 5 5 5 3 5 5 5 5 5 5 5 5 5 5 3 5 5 5 3 5 5 5 5 5 5 5 5 3 5 3 5 3 5 5 3 5 5 5 3 5 5 3 5 3 3 5 5 5 5 5 5 5 5 5 3 5 5 3 3 5 5 5 5 5 5 5 5 5 5 5 3 5 5 5 3 5 5 5 5 5 5 5 5 5 3 5 5 5 5 5 5 5 5 5 5 5 3 5 5 5 5 5 5 5 5 5 5 5 5 5 5 5 5 5 5 5 5 5 5 5 5 5 5 5 5 5 5 5 5 5 5 5 5 5 5 3 5 5 5 5 5 5 3 5 5 3 5 5 5 5 5 5 5 5 5 5 5 3 5 5 5 5 3 5 5 3 5 5 5 3 5 5 5 5 5 5 5 5 5 5 5 3 5 3 5 5 5 5 5 5 3 5 5 5 5 3 5 3 3 5 3 5 5 3 5 3 3 5 5 5 5 3 3 3 5 5 5 3 5 5 5 3 5 5 5 5 5 3 5 3 3 3 5 5 3 5 5 5 3 5 5 5 5 5 5 5 3 5 5 5 5 5 5 5 5 5 5 5 5 5 5 5 5 5 5 5 5 5 5 3 5 5 3 5 5 5 5 5 5 5 5 5 5 5 3 5 5 5 5 5 5 5 5 5 5 5 5 5 5 5 5 5 5 5 5 5 5 3 5 3 3 5 5 3 5 5 5 5 3 5 5 5 5 5 5 5 5 5 5 5 5 5 5 3 5 5 3 5 5 3 5 3 5 3 5 5 3 5 5 5 3 5 5 5 5 3 5 5 5 5 3 5 5 5 5 5 5 5 3 5 5 5 3 5 5 3 5 5 5 5 5 5 5 5 5 5 5 5 5 5 5 5 5 5 5 5 5 3 5 5 5 5 5 5 5 5 5 5 5 5 5 5 5 5 5 5 5 5 5 5 5 3 3 5 3 5 5 5 5 3 5 5 5 5 5 5 5 5 5 3 5 5 5 5 5 5 5 5 5 5 5 5 5 5 5 5 5 5 5 5 5 5 5 5 5 5 5 5 5 5 5 5 5 5 5 5 5 5 5 5 5 5 5 5 5 5 5 5 5 5 5 5 5 5 5 5 5 5 5 3 5 5 3 5 5 3 5 5 5 5 5 5 5 5 5 5 5 5 5 3 5 5 5 3 5 5 5 5 5 3 5 5 5 5 5 3 5 5 5 5 5 5 5 5 5 3 5 5 5 5 5 5 5 5 5 5 5 5 5 5 5 5 3 5 3 5 5 5 5 5 5 5 5 5 5 5 5 5 5 5 5 5 5 5 5 3 5 5 5 5 5 5 5 5 5 5 5 5 5 5 5 5 5 5 5 5 5 5 5 5 5 3 5 5 5 5 5 5 5 5 5 5 5 5 5 5 5 3 5 5 5 5 5 5 3 5 5 3 5 5 5 3 5 5 5 5 5 5 5 5 5 5 5 5 5 3 5 5 3 3 5 5 5 3 5 5 5 3 5 5 5 5 5 5 5 5 5 5 5 5 5 5 5 3 5 3 5 5 5 3 5 5 5 5 5 5 3 5 5 5 5 5 5 5 5 5 5 5 5 5 5 5 5 5 5 5 5 5 5 5 5 3 5 5 5 3 5 5 5 5 5 5 5 5 5 5 5 5 5 5 5 5 5 5 5 3 5 5 5 5 5 5 5 5 5 5 5 3 5 5 5 5 5 5 5 5 5 5 5 5 5 5 5 5 5 5 5 5 5 5 5 5 5 5 5 5 5 5 5 5 5 5 5 5 5 5 5 3 5 5 5 5 5 5 5 5 5 5 5 5 5 5 5 5 5 5 5 5 5 5 5 5 5 5 5 5 5 5 3 5 5 5 3 5 3 5 5 5 5 3 5 5 5 5 5 5 5 3 5 5 5 5 5 3 5 5 5 5 5 5 5 5 3 5 5 5 5 5 5 5 3 5 5 3 5 5 3 5 5 3 5 5 3 5 5 5 5 5 5 5 5 5 5 5 3 5 5 5 5 5 3 5 5 5 3 3 5 5 5 3 5 5 5 5 5 5 5 5 5 5 5 5 5 5 5 5 5 5 5 5 5 5 5 5 5 5 5 5 5 3 5 5 5 5 3 5 5 5 5 5 5 5 5 5 5 5 5 5 5 5 5 5 5 5 3 5 5 5 5 5 5 5 5 5 5 5 5 5 5 5 5 5 5 5 5 5 5 5 5 5 5 5 3 5 5 5 5 5 5 5 5 5 5 5 5 5 5 3 5 5 5 5 3 5 5 3 5 5 5 5 5 5 5 5 3 5 5 5 3 5 5 3 5 5 5 5 5 5 5 5 5 5 5 5 5 5 5 5 5 5 5 5 5 5 5 5 5 5 5 5 5 5 5 5 3 5 3 5 5 5 5 5 5 5 5 5 5 5 5 5 5 5 5 5 5 5 5 5 5 5 5 5 5 5 3 5 5 3 5 5 5 5 5 5 5 5 5 3 5 5 5 5 5 5 5 5 3 5 5 5 5 5 5 5 5 5 5 5 5 5 5 5 5 5 5 5 5 5 5 5 5 5 5 5 5 5 5 5 5 5 5 5 5 3 5 5 5 5 5 5 5 5 3 5 5 5 5 5 3 5 5 5 5 3 5 5 3 5 5 5 5 5 5 5 5 5 5 3 5 5 5 3 5 5 5 3 5 5 5 5 5 5 5 5 5 3 5 5 5 5 5 5 5 5 3 5 5 5 5 5 5 5 5 5 5 5 5 5 5 5 5 5 5 5 5 5 5 5 5 5 5 5 3 5 5 3 5 3 5 5 5 3 5 5 5 5 5 5 5 5 5 5 5 3 5 5 5 5 5 3 5 5 5 5 3 5 5 5 5 5 5 5 5 5 5 3 5 5 5 5 5 5 5 5 5 5 5 5 5 5 5 5 5 3 5 3 5 5 5 5 3 5 5 5 5 3 5 5 3 5 5 5 5 5 5 3 5 5 5 5 5 5 3 5 5 5 5 5 5 5 5 5 5 5 5 5 5 5 3 5 5 5 5 5 5 5 5 5 5 5 5 3 5 5 5 5 5 5 5 5 5 5 5 5 5 5 5 5 3 5 5 5 3 3 5 5 5 5 5 5 5 5 5 5 3 5 3 5 5 3 5 5 5 5 5 5 5 5 5 5 5 5 5 3 5 5 5 5 3 5 5 5 5 5 5 5 5 5 5 5 5 5 5 5 5 5 5 3 5 5 5 5 5 5 5 5 3 5 5 5 5 5 5 5 5 5 5 5 5 5 5 5 5 5 5 5 5 3 5 5 5 5 5 5 5 5 5 5 5 5 5 5 5 5 5 5 5 5 5 3 5 3 5 5 5 5 3 5 5 5 5 5 5 5 5 5 5 5 5 5 5 5 5 5 5 3 5 5 3 5 5 5 3 5 5 3 5 3 3 5 5 3 5 5 5 5 5 5 5 5 5 3 3 5 3 5 5 5 5 5 5 5 3 5 5 5 5 3 5 5 5 5 5 5 5 5 5 5 5 5 3 5 5 5 5 5 3 5 3 5 3 5 5 5 5 5 5 5 5 5 5 5 5 5 5 5 5 5 5 5 5 5 5 5 5 5 5 5 5 5 5 5 5 5 5 5 5 5 5 5 5 5 5 5 5 5 5 5 5 5 5 5 3 5 5 5 5 5 5 3 5 5 5 5 3 5 5 5 3 5 5 5 5 3 5 5 5 5 5 5 5 5 5 5 5 5 5 5 5 5 5 5 5 5 5 5 5 5 5 5 5 5 5 5 5 5 5 5 3 5 5 5 5 5 5 5 5 3 5 5 5 5 5 5 5 5 3 5 5 5 5 5 5 5 5 5 5 5 3 5 3 5 5 5 5 3 5 5 5 5 5 3 5 5 5 5 5 5 5 5 5 5 5 5 5 5 5 5 5 5 5 5 5 5 5 5 5 5 5 5 5 5 5 5 5 5 5 3 5 3 5 5 5 5 5 5 5 5 5 3 3 5 3 5 5 5 5 5 5 5 5 3 5 5 5 5 5 5 5 5 5 5 5 5 5 5 5 5 5 5 5 5 5 5 5 5 5 5 3 5 5 5 5 5 5 5 5 5 5 5 5 5 5 5 5 5 5 3 5 5 5 5 5 5 5 5 5 5 5 5 5 5 5 5 5 5 5 5 5 5 5 5 5 5 5 3 5 5 5 5 3 5 5 5 5 5 5 5 5 5 5 5 5 5 5 5 5 5 5 5 5 5 5 5 3 5 5 5 5 5 5 5 5 5 5 5 5 5 5 5 5 5 3 5 3 5 5 5 5 5 5 5 5 5 5 5 5 5 5 5 5 5 5 5 5 5 5 5 5 5 5 5 5 5 5 5 5 5 5 5 5 5 5 5 5 5 5 5 3 5 3 5 5 3 3 5 5 5 5 5 5 5 5 5 5 3 5 5 5 5 5 5 5 5 5 5 5 5 5 5 5 5 5 5 5 5 5 3 5 5 5 5 5 5 5 5 5 5 5 5 5 5 5 5 5 5 5 5 5 5 5 5 5 5 5 5 5 5 5 5 5 5 5 5 5 5 5 5 5 5 5 5 5 5 5 5 5 5 5 3 5 5 5 5 5 5 5 5 5 5 5 5 3 5 3 5 5 5 3 5 5 5 5 5 5 5 3 3 5 5 5 5 5 5 5 5 5 5 5 5 5 5 5 5 3 5 5 5 5 5 3 3 5 5 5 5 5 5 5 3 5 5 5 5 5 3 5 5 5 5 5 3 5 5 5 5 5 5 5 5 5 5 5 5 5 5 5 5 5 5 5 5 5 5 5 5 5 5 5 5 5 5 5 5 5 3 5 5 5 5 5 3 5 5 5 5 5 5 5 5 5 5 5 5 5 5 5 5 5 5 5 3 5 5 5 5 5 5 5 5 5 5 5 5 3 5 5 5 5 3 5 5 5 5 5 3 5 5 3 5 5 5 5 5 5 5 5 5 5 5 5 5 3 3 5 5 3 5 3 5 5 5 5 5 5 5 5 3 5 5 5 5 5 5 5 3 5 5 5 5 5 5 5 3 5 5 5 5 5 5 5 5 5 5 5 5 5 5 5 5 5 5 5 5 5 5 3 5 5 5 5 5 5 5 5 5 5 5 5 5 5 5 5 5 5 5 5 3 5 5 5 5 5 5 3 5 3 5 3 5 3 5 5 5 5 5 5 5 5 5 3 5 5 5 5 5 5 5 3 5 5 5 5 3 5 5 5 5 5 5 3 5 5 5 5 5 3 5 5 5 5 5 5 5 3 5 5 5 3 3 5 5 5 5 3 5 5 5 3 5 5 5 5 3 5 3 5 5 3 5 5 5 5 5 5 3 5 5 5 5 3 5 5 5 5 5 5 5 5 5 5 5 5 5 5 3 5 5 5 3 5 5 5 5 5 5 5 5 5 5 5 5 5 5 5 5 5 5 5 5 5 5 5 5 5 5 3 5 5 5 5 3 5 3 3 5 5 5 3 3 3 5 5 5 5 5 5 5 3 3 5 5 5 5 5 5 5 5 5 5 5 5 5 5 5 5 5 5 5 5 5 5 5 5 5 5 3 3 5 5 5 5 5 5 5 5 5 5 5 5 5 5 5 5 5 5 5 5 5 3 5 5 5 3 5 5 5 5 5 3 5 5 5 5 5 5 3 5 5 3 5 5 5 5 5 5 5 3 5 3 5 5 5 5 3 5 5 3 3 5 3 5 5 5 5 5 5 5 5 5 5 5 5 5 5 5 5 5 5 5 5 5 5 5 5 5 5 5 5 5 5 3 5 3 3 5 5 5 5 3 5 5 3 5 5 5 3 5 5 5 5 5 3 5 5 5 5 5 5 5 5 5 5 5 3 5 5 5 3 5 5 5 5 5 5 5 5 5 5 5 3 5 5 5 5 5 5 5 5 5 5 3 5 5 5 5 5 5 5 5 5 5 5 5 5 5 5 5 5 5 5 5 5 5 5 5 5 5 5 5 5 5 5 5 5 5 5 5 5 5 5 5 5 5 5 5 5 5 5 5 5 5 5 3 5 5 5 5 5 5 5 5 5 5 5 5 5 5 5 5 5 5 5 5 5 5 5 5 5 5 3 5 5 5 5 5 5 5 5 3 5 5 5 5 5 5 5 3 3 5 5 5 3 5 5 5 5 5 5 5 5 5 5 5 5 5 3 5 5 5 5 5 5 5 5 5 5 5 5 5 5 5 3 5 5 5 5 5 3 5 5 5 5 5 5 5 3 5 5 5 5 5 5 5 5 3 5 5 5 5 5 5 5 5 5 5 3 3 5 5 5 5 5 5 5 5 5 5 3 5 5 5 5 3 5 5 5 5 5 5 5 5 3 5 5 5 5 3 5 5 5 5 5 3 5 5 5 3 5 5 5 3 5 3 5 5 5 5 3 5 3 5 5 5 5 5 3 5 5 5 5 5 5 5 5 5 5 5 5 3 5 5 5 5 3 5 5 5 3 5 5 3 5 5 5 3 3 3 5 5 3 5 5 5 5 3 5 5 5 5 5 5 5 5 5 5 5 3 5 5 5 5 5 5 5 5 5 5 3 5 5 3 5 5 5 3 5 5 5 5 5 5 5 5 5 5 5 5 5 5 5 5 5 5 5 5 5 5 5 5 5 5 5 5 5 5 3 5 5 5 5 5 5 5 5 5 5 5 3 5 5 5 3 5 5 5 5 5 5 5 5 5 5 5 5 5 3 5 5 5 5 5 5 3 5 3 5 3 5 5 5 5 5 5 5 5 5 5 5 5 5 5 5 3 5 3 5 5 5 5 5 5 5 5 5 5 5 5 5 5 5 5 5 5 5 5 5 5 5 5 5 5 5 5 3 5 5 3 5 5 5 5 5 3 5 5 5 5 5 5 5 5 5 5 5 5 5 5 5 5 5 5 5 5 5 5 5 5 5 5 5 5 5 5 5 5 5 5 5 5 5 5 5 5 5 5 5 5 5 5 5 5 5 3 5 5 5 5 5 5 3 5 5 5 5 5 5 3 5 5 5 5 5 5 5 5 3 5 5 5 3 5 3 5 3 5 5 5 5 5 3 5 5 3 5 3 3 5 3 5 3 5 5 5 5 5 5 5 5 5 5 5 5 5 5 5 5 5 5 5 3 5 5 5 5 5 5 5 3 5 5 5 5 5 5 3 5 3 5 5 5 5 5 5 5 5 3 5 3 5 5 3 5 5 5 5 5 5 5 5 5 5 5 5 5 5 5 5 5 5 5 3 5 3 5 5 5 5 5 5 5 5 5 5 5 5 5 3 5 5 5 5 5 5 5 3 5 5 5 5 5 5 5 5 5 5 5 5 3 5 5 3 5 5 3 5 5 3 5 5 5 5 5 5 5 5 5 5 5 5 5 5 5 5 5 5 5 5 5 5 5 5 3 5 5 5 5 3 5 3 5 5 5 5 5 5 5 5 5 5 5 3 5 5 5 5 3 5 5 5 5 5 5 5 5 3 5 5 5 5 5 5 5 5 3 5 3 5 5 5 5 3 5 5 5 5 5 5 5 5 3 5 5 5 5 5 5 5 5 5 5 5 5 5 5 3 3 5 5 3 5 5 5 5 5 5 5 5 5 5 5 5 5 5 5 5 5 5 5 5 5 5 5 5 5 5 5 5 5 5 5 5 5 5 5 5 5 5 5 5 5 5 5 5 5 5 5 5 5 5 5 5 5 5 5 5 5 5 5 5 5 5 5 5 5 5 5 5 5 5 5 5 5 5 5 5 5 5 5 5 5 5 5 5 5 5 5 5 5 5 5 5 5 5 5 5 3 5 5 3 5 5 5 5 5 5 5 3 5 3 5 5 5 5 5 5 3 5 5 5 5 5 5 5 3 5 5 5 3 5 5 3 5 5 5 3 3 5 3 5 5 5 3 5 3 5 5 5 5 5 5 3 5 5 5 5 3 5 5 5 5 5 5 5 5 5 5 3 3 5 5 5 5 5 5 5 5 5 5 3 5 3 5 5 3 5 5 5 5 5 5 5 5 5 3 5 5 5 5 5 5 5 5 5 5 5 3 5 5 5 5 5 5 5 5 5 5 5 3 5 5 5 3 5 3 5 5 5 5 3 5 5 3 5 5 5 3 5 5 5 5 5 5 5 5 3 5 5 5 5 5 5 5 5 5 5 5 5 5 5 5 5 5 5 5 3 5 5 5 5 5 5 3 5 5 5 5 3 5 5 5 5 5 5 3 5 5 5 5 5 5 5 5 5 5 5 5 5 3 5 5 5 5 3 5 3 5 5 3 5 5 5 5 5 5 5 3 3 5 5 5 3 3 5 5 3 5 5 3 5 5 5 3 5 5 5 5 5 5 5 5 5 5 5 5 5 5 5 5 5 5 5 3 5 5 5 3 5 3 3 5 5 3 5 5 5 5 5 5 5 5 5 3 5 5 3 5 5 5 5 3 5 5 5 5 5 5 5 5 5 3 5 5 5 3 5 5 3 5 5 5 3 5 5 5 5 5 5 3 5 5 3 5 5 5 5 5 5 5 5 5 5 3 5 5 5 5 3 5 5 5 5 5 3 5 5 5 5 5 5 5 5 5 5 5 5 5 5 5 5 5 3 5 5 5 5 5 3 5 5 5 5 5 5 5 5 5 3 5 5 5 5 5 5 5 5 5 5 5 5 5 5 5 5 5 5 5 5 3 5 3 3 5 5 3 5 5 5 3 5 5 5 5 5 3 5 5 3 5 3 5 5 5 5 5 5 5 5 5 5 5 5 3 5 5 5 5 5 5 5 5 5 5 5 5 3 5 5 5 5 5 5 3 5 5 5 5 3 3 5 3 5 3 5 3 3 5 5 5 3 5 5 5 5 5 5 3 5 5 5 3 5 5 5 5 5 5 5 5 5 5 5 5 5 3 5 5 5 5 5 5 5 5 5 5 5 5 5 5 5 5 5 5 5 5 5 5 5 5 5 5 5 5 5 5 5 5 5 5 5 5 5 3 5 5 5 5 5 5 5 5 5 5 5 5 5 3 5 5 5 3 5 3 5 5 5 5 5 5 5 5 5 5 5 5 5 5 5 5 5 5 5 5 5 5 5 5 5 5 5 5 5 5 5 5 5 5 5 5 5 5 5 5 5 5 5 5 5 5 5 5 5 5 5 5 5 5 5 5 5 5 5 5 5 5 5 5 5 5 5 5 5 3 5 5 5 5 5 5 3 5 3 5 3 5 3 5 5 5 3 5 5 5 5 3 5 5 5 5 5 5 5 5 5 5 5 5 5 3 5 5 5 5 5 5 5 5 5 3 5 5 5 3 5 5 5 5 5 3 5 5 3 5 3 5 5 5 5 5 3 3 5 3 5 5 5 5 5 5 3 5 5 5 5 5 5 5 5 5 5 5 5 5 5 5 5 5 5 5 5 5 5 5 5 5 3 5 5 5 5 3 5 5 5 3 5 5 5 5 5 5 5 5 5 5 5 5 5 5 5 3 3 5 5 5 5 3 5 5 5 5 5 5 3 5 5 5 5 5 5 5 3 5 5 3 5 5 3 5 5 5 5 5 5 5 5 5 5 5 5 5 5 5 5 3 5 5 5 3 5 5 5 5 5 5 5 5 5 3 5 5 5 5 5 3 5 5 5 5 5 5 5 5 5 5 5 5 5 5 3 5 5 5 5 5 5 3 5 5 5 3 3 3 5 5 3 5 5 5 5 5 5 5 5 5 5 5 5 5 3 5 5 5 5 5 5 5 5 5 5 5 5 5 5 5 5 5 5 5 5 5 5 5 5 5 5 5 5 5 5 5 5 3 5 5 5 5 5 5 5 3 5 5 3 5 5 5 5 5 3 5 5 5 5 3 5 5 5 5 5 5 3 5 5 5 5 5 5 5 5 5 5 5 5 5 5 5 3 3 5 5 5 3 3 5 5 5 3 5 5 5 3 5 5 5 3 5 5 5 5 5 5 3 5 5 5 5 5 3 5 5 5 5 3 3 5 5 5 
</DataArray>
</Cells>
<PointData Scalars="" Vectors="displacement," Tensors="">
<DataArray type="Float64" Name="displacement" NumberOfComponents="3" format="ascii">
-0.034997519521557316 -7.22435900893362e-07 0 -0.03465875449249526 -0.00015429823712307885 0 -0.0349992465537039 -1.5605281089828099e-08 0 -0.03465875449249526 -0.00015429823712307885 0 -0.032857023245120756 1.0725052002738851e-06 0 -0.034731832098379663 0.0001400944135487459 0 -0.034997519521557316 -7.22435900893362e-07 0 -0.03465875449249526 -0.00015429823712307885 0 -0.032857023245120756 1.0725052002738851e-06 0 -0.032852225116275988 -4.1004063050632325e-08 0 -0.033252549424227174 -0.00015889807953227452 0 -0.032848097342953686 -2.7811515593986491e-07 0 -0.031720365972904084 -0.00043467024543324747 0 -0.031133492718881193 -0.00019619449416471624 0 -0.031720365972904084 -0.00043467024543324747 0 -0.031133492718881193 -0.00019619449416471624 0 -0.031812575372026808 -8.6485331645231742e-07 0 -0.031133492718881193 -0.00019619449416471624 0 -0.031812575372026808 -8.6485331645231742e-07 0 -0.031430727584602143 4.0394377637352223e-05 0 -0.032848097342953686 -2.7811515593986491e-07 0 -0.031133492718881193 -0.00019619449416471624 0 -0.030881659676658242 -2.8959010030962747e-07 0 -0.032930327010594625 0.00011821373481525795 0 -0.034008091329372596 0.00023769076271151169 0 -0.033610188259589557 0.00078731656810550679 0 -0.032930327010594625 0.00011821373481525795 0 -0.031812575372026808 -8.6485331645231742e-07 0 -0.031963478618120614 0.0002342504992468108 0 -0.031720365972904084 -0.00043467024543324747 0 -0.032930327010594625 0.00011821373481525795 0 -0.031812575372026808 -8.6485331645231742e-07 0 -0.033252549424227174 -0.00015889807953227452 0 -0.03403903360933979 -0.00032243155113863655 0 -0.031720365972904084 -0.00043467024543324747 0 -0.032930327010594625 0.00011821373481525795 0 -0.034111149267085757 -0.00036114860349215647 0 -0.032930327010594625 0.00011821373481525795 0 -0.034111149267085757 -0.00036114860349215647 0 -0.034008091329372596 0.00023769076271151169 0 -0.034111149267085757 -0.00036114860349215647 0 -0.034622088184589291 -6.2178725236504396e-05 0 -0.034645976815916427 -0.000160562562545846 0 -0.034731832098379663 0.0001400944135487459 0 -0.034111149267085757 -0.00036114860349215647 0 -0.034622088184589291 -6.2178725236504396e-05 0 -0.03465875449249526 -0.00015429823712307885 0 -0.034731832098379663 0.0001400944135487459 0 -0.034622088184589291 -6.2178725236504396e-05 0 -0.03465875449249526 -0.00015429823712307885 0 -0.034622088184589291 -6.2178725236504396e-05 0 -0.0349992465537039 -1.5605281089828099e-08 0 -0.034622088184589291 -6.2178725236504396e-05 0 -0.0349992465537039 -1.5605281089828099e-08 0 -0.034645976815916427 -0.000160562562545846 0 -0.0349992465537039 -1.5605281089828099e-08 0 -0.034645976815916427 -0.000160562562545846 0 -0.03499937367462283 -3.8016725331436038e-07 0 -0.034645976815916427 -0.000160562562545846 0 -0.034849755326492815 -2.8665296398550856e-05 0 -0.034574021256370657 -3.430931984155254e-07 0 -0.034645976815916427 -0.000160562562545846 0 -0.03499937367462283 -3.8016725331436038e-07 0 -0.034849755326492815 -2.8665296398550856e-05 0 -0.034999986799262854 -1.710477220700296e-09 0 -0.034970403858378053 1.768328485538318e-06 0 -0.034849755326492815 -2.8665296398550856e-05 0 -0.034920094112322816 7.104417358330312e-05 0 -0.034957456733248085 -8.6171147388549213e-06 0 -0.03499937367462283 -3.8016725331436038e-07 0 -0.034849755326492815 -2.8665296398550856e-05 0 -0.034957456733248085 -8.6171147388549213e-06 0 -0.036355291939233265 0.00051356845543247727 0 -0.031271090614511068 -0.00054023618120137968 0 -0.034920094112322816 7.104417358330312e-05 0 -0.034957456733248085 -8.6171147388549213e-06 0 -0.034942653327485709 3.8383214765859178e-05 0 -0.034849755326492815 -2.8665296398550856e-05 0 -0.034920094112322816 7.104417358330312e-05 0 -0.034773047241543925 0.00015838368228924599 0 -0.034849755326492815 -2.8665296398550856e-05 0 -0.034773047241543925 0.00015838368228924599 0 -0.034574021256370657 -3.430931984155254e-07 0 -0.034773047241543925 0.00015838368228924599 0 -0.034892829818046034 0.00034307539885265206 0 -0.034387915339632757 0.00080680634283229529 0 -0.034920094112322816 7.104417358330312e-05 0 -0.034773047241543925 0.00015838368228924599 0 -0.034892829818046034 0.00034307539885265206 0 -0.028185551070240646 -0.0016866438517610506 0 -0.027623728925800253 -0.0019689356108737316 0 -0.026745889739125971 -0.0011829398294485754 0 -0.031460013235939339 -0.00064251442575875037 0 -0.031271090614511068 -0.00054023618120137968 0 -0.034920094112322816 7.104417358330312e-05 0 -0.034892829818046034 0.00034307539885265206 0 -0.035080204358169532 0.0001629577137211561 0 -0.034111149267085757 -0.00036114860349215647 0 -0.034574021256370657 -3.430931984155254e-07 0 -0.034008091329372596 0.00023769076271151169 0 -0.034111149267085757 -0.00036114860349215647 0 -0.034645976815916427 -0.000160562562545846 0 -0.034574021256370657 -3.430931984155254e-07 0 -0.034773047241543925 0.00015838368228924599 0 -0.034574021256370657 -3.430931984155254e-07 0 -0.034387915339632757 0.00080680634283229529 0 -0.034574021256370657 -3.430931984155254e-07 0 -0.034008091329372596 0.00023769076271151169 0 -0.034387915339632757 0.00080680634283229529 0 -0.031829075532045031 -0.00069987368366398279 0 -0.032098726365459206 -0.00017202381061241464 0 -0.034008091329372596 0.00023769076271151169 0 -0.034387915339632757 0.00080680634283229529 0 -0.033610188259589557 0.00078731656810550679 0 -0.034387915339632757 0.00080680634283229529 0 -0.033610188259589557 0.00078731656810550679 0 -0.033195382946288571 0.0014789601970011034 0 -0.031460013235939339 -0.00064251442575875037 0 -0.031829075532045031 -0.00069987368366398279 0 -0.0268529323384042 -0.0012795745505225454 0 -0.027014039442915128 -0.0013336749311587666 0 -0.026899842285028994 -0.0013691445213862806 0 -0.027804380333182305 -0.0020309544041063454 0 -0.028079206500891168 -0.0022898967560409608 0 -0.029375755807931694 -0.0021171170563948826 0 -0.028486992580222907 -0.0027424216928843576 0 -0.029487277161558089 -0.0030762373478341763 0 -0.029375755807931694 -0.0021171170563948826 0 -0.029487277161558089 -0.0030762373478341763 0 -0.030447847643663841 -0.0024994423670515933 0 -0.02732978481793389 -0.0023785806332920598 0 -0.027623728925800253 -0.0019689356108737316 0 -0.028486992580222907 -0.0027424216928843576 0 -0.02732978481793389 -0.0023785806332920598 0 -0.027623728925800253 -0.0019689356108737316 0 -0.027129786753914583 -0.0021729584003361353 0 -0.028185551070240646 -0.0016866438517610506 0 -0.029375755807931694 -0.0021171170563948826 0 -0.028486992580222907 -0.0027424216928843576 0 -0.028185551070240646 -0.0016866438517610506 0 -0.027623728925800253 -0.0019689356108737316 0 -0.028486992580222907 -0.0027424216928843576 0 -0.0268529323384042 -0.0012795745505225454 0 -0.026796376957749612 -0.0013400591304068368 0 -0.026899842285028994 -0.0013691445213862806 0 -0.024764863664426543 -0.0016817181382024365 0 -0.024395972291595801 -0.0011660305428502539 0 -0.024856080241881594 -0.0013225943798606027 0 -0.02670473129239918 -0.0012301853273587724 0 -0.0268529323384042 -0.0012795745505225454 0 -0.026796376957749612 -0.0013400591304068368 0 -0.026460742012396083 -0.0017437175950660115 0 -0.02546410576617026 -0.001153503752624868 0 -0.026460742012396083 -0.0017437175950660115 0 -0.027804380333182305 -0.0020309544041063454 0 -0.024395972291595801 -0.0011660305428502539 0 -0.024856080241881594 -0.0013225943798606027 0 -0.024929239423142891 -0.00090861950994051239 0 -0.026796376957749612 -0.0013400591304068368 0 -0.026899842285028994 -0.0013691445213862806 0 -0.026887497408883836 -0.0014642649198074 0 -0.02546410576617026 -0.001153503752624868 0 -0.025554947170396591 -0.0011704092290654123 0 -0.024395972291595801 -0.0011660305428502539 0 -0.024100593286273703 -0.00071874821718873061 0 -0.024485878225702071 -0.00052410925498397527 0 -0.024395972291595801 -0.0011660305428502539 0 -0.024929239423142891 -0.00090861950994051239 0 -0.024485878225702071 -0.00052410925498397527 0 -0.027014039442915128 -0.0013336749311587666 0 -0.026987964657679497 -0.0014550884519854814 0 -0.027075120291062009 -0.0014335853066595142 0 -0.027014039442915128 -0.0013336749311587666 0 -0.027075120291062009 -0.0014335853066595142 0 -0.027190038800304843 -0.0013942112139270562 0 -0.028079206500891168 -0.0022898967560409608 0 -0.0296707504353062 -0.0014936013566595775 0 -0.027014039442915128 -0.0013336749311587666 0 -0.026899842285028994 -0.0013691445213862806 0 -0.026987964657679497 -0.0014550884519854814 0 -0.026887497408883836 -0.0014642649198074 0 -0.026987964657679497 -0.0014550884519854814 0 -0.026978618338082138 -0.0015986676362421436 0 -0.026899842285028994 -0.0013691445213862806 0 -0.026887497408883836 -0.0014642649198074 0 -0.026987964657679497 -0.0014550884519854814 0 -0.026987964657679497 -0.0014550884519854814 0 -0.027075120291062009 -0.0014335853066595142 0 -0.027076927417964688 -0.0015353119783348434 0 -0.027075120291062009 -0.0014335853066595142 0 -0.027182594611449007 -0.001465149512441365 0 -0.027076927417964688 -0.0015353119783348434 0 -0.027568150071254457 -0.00060665797708890233 0 -0.025935994730523177 -0.00093625261245739138 0 -0.027568150071254457 -0.00060665797708890233 0 -0.0296707504353062 -0.0014936013566595775 0 -0.031360012468012614 -0.00055137401641962844 0 -0.031369279289529879 -0.00016380158300078644 0 -0.031552817907604912 -0.00023881924063047424 0 -0.027075120291062009 -0.0014335853066595142 0 -0.027182594611449007 -0.001465149512441365 0 -0.027190038800304843 -0.0013942112139270562 0 -0.029487277161558089 -0.0030762373478341763 0 -0.03041133736306376 -0.0034319094741613503 0 -0.030447847643663841 -0.0024994423670515933 0 -0.031442241948974117 -0.0001664690986564283 0 -0.031632884612209457 8.4586459814904366e-05 0 -0.031567457433629258 0.00043619850362196444 0 -0.031442241948974117 -0.0001664690986564283 0 -0.031665096348851174 -7.2103859914507911e-05 0 -0.031552817907604912 -0.00023881924063047424 0 -0.0296707504353062 -0.0014936013566595775 0 -0.03051734603537936 -0.0013905902730497056 0 -0.031769275539288808 5.4460776174239603e-05 0 -0.031872748091944646 -8.2628741961147031e-05 0 -0.031740363600986601 0.00038231959191338598 0 -0.031442241948974117 -0.0001664690986564283 0 -0.031632884612209457 8.4586459814904366e-05 0 -0.031665096348851174 -7.2103859914507911e-05 0 -0.031769275539288808 5.4460776174239603e-05 0 -0.031632884612209457 8.4586459814904366e-05 0 -0.031727065416859018 0.00016151911191632028 0 -0.031769275539288808 5.4460776174239603e-05 0 -0.031665096348851174 -7.2103859914507911e-05 0 -0.031872748091944646 -8.2628741961147031e-05 0 -0.031769275539288808 5.4460776174239603e-05 0 -0.031632884612209457 8.4586459814904366e-05 0 -0.031665096348851174 -7.2103859914507911e-05 0 -0.030409911169383224 -0.00050615086110795114 0 -0.029300039124036694 0.00013417391102353012 0 -0.031665096348851174 -7.2103859914507911e-05 0 -0.031751815288386991 -0.00018143628908489512 0 -0.031872748091944646 -8.2628741961147031e-05 0 -0.031665096348851174 -7.2103859914507911e-05 0 -0.031552817907604912 -0.00023881924063047424 0 -0.031785532008330251 -0.00020484596571771429 0 -0.029135928275453006 0.00015173706311060392 0 -0.02893757746252348 -9.9992674431896226e-06 0 -0.028783124036557566 0.00058403748039013179 0 -0.029300039124036694 0.00013417391102353012 0 -0.030109226679821351 0.000530446158564443 0 -0.026297270301408934 8.3267640061809802e-05 0 -0.026386927179021715 -4.3850049094012589e-05 0 -0.026256222160434939 -0.00014469962401170397 0 -0.026135158895454837 -3.9470289697060821e-05 0 -0.026297270301408934 8.3267640061809802e-05 0 -0.026256222160434939 -0.00014469962401170397 0 -0.030109226679821351 0.000530446158564443 0 -0.027682918100063215 0.00026624038650540065 0 -0.029300039124036694 0.00013417391102353012 0 -0.027682918100063215 0.00026624038650540065 0 -0.031360012468012614 -0.00055137401641962844 0 -0.031552817907604912 -0.00023881924063047424 0 -0.031785532008330251 -0.00020484596571771429 0 -0.027568150071254457 -0.00060665797708890233 0 -0.029300039124036694 0.00013417391102353012 0 -0.026386927179021715 -4.3850049094012589e-05 0 -0.026256222160434939 -0.00014469962401170397 0 -0.026415568771488561 -0.0002080315600710585 0 -0.027682918100063215 0.00026624038650540065 0 -0.02665645800011885 0.00046388838098053545 0 -0.027682918100063215 0.00026624038650540065 0 -0.024639863607941355 0.00028145375987578727 0 -0.029250524812110434 0.00045208805476398915 0 -0.028649605833879863 0.00027801107839063073 0 -0.028977848367318981 0.0012446054845763304 0 -0.026604581881180242 -6.5487811958605689e-05 0 -0.026013624949471563 0.00066921475880435779 0 -0.026373860125514532 0.00084868767893075568 0 -0.029250524812110434 0.00045208805476398915 0 -0.028649605833879863 0.00027801107839063073 0 -0.028970961613607769 9.1322987938094536e-05 0 -0.028649605833879863 0.00027801107839063073 0 -0.026940036985292737 1.9205903561831565e-06 0 -0.028977848367318981 0.0012446054845763304 0 -0.028649605833879863 0.00027801107839063073 0 -0.026940036985292737 1.9205903561831565e-06 0 -0.028644068983721373 4.9005546881452845e-05 0 -0.026450794327590305 2.0530003718966572e-08 0 -0.026931579764373756 -9.0437820325920194e-09 0 -0.026145682028024076 -3.253904727325992e-05 0 -0.026937745827664825 6.3078488074863139e-07 0 -0.02665645800011885 0.00046388838098053545 0 -0.026940036985292737 1.9205903561831565e-06 0 -0.028644068983721373 4.9005546881452845e-05 0 -0.028907953760956354 -1.9773852680658675e-07 0 -0.028644068983721373 4.9005546881452845e-05 0 -0.028970961613607769 9.1322987938094536e-05 0 -0.029570112774829946 0.0003074685405551508 0 -0.028995146368723673 0.00010890534121703149 0 -0.028970961613607769 9.1322987938094536e-05 0 -0.029570112774829946 0.0003074685405551508 0 -0.030109226679821351 0.000530446158564443 0 -0.029688301440312471 0.00053896385631690903 0 -0.031459062972094103 0.0020558629382025212 0 -0.030891476049453297 0.00088689999524741087 0 -0.029570112774829946 0.0003074685405551508 0 -0.028995146368723673 0.00010890534121703149 0 -0.029250524812110434 0.00045208805476398915 0 -0.028970961613607769 9.1322987938094536e-05 0 -0.028649605833879863 0.00027801107839063073 0 -0.028644068983721373 4.9005546881452845e-05 0 -0.028970961613607769 9.1322987938094536e-05 0 -0.030891476049453297 0.00088689999524741087 0 -0.030989983143180168 0.00036113007454871229 0 -0.031275390514566494 0.00066916471267316373 0 -0.030891476049453297 0.00088689999524741087 0 -0.029570112774829946 0.0003074685405551508 0 -0.030989983143180168 0.00036113007454871229 0 -0.029570112774829946 0.0003074685405551508 0 -0.030176813774611431 -1.3010768396964838e-05 0 -0.030883380239869741 6.4455613211324267e-05 0 -0.029570112774829946 0.0003074685405551508 0 -0.030989983143180168 0.00036113007454871229 0 -0.030883380239869741 6.4455613211324267e-05 0 -0.029570112774829946 0.0003074685405551508 0 -0.028907953760956354 -1.9773852680658675e-07 0 -0.030176813774611431 -1.3010768396964838e-05 0 -0.028644068983721373 4.9005546881452845e-05 0 -0.029570112774829946 0.0003074685405551508 0 -0.028907953760956354 -1.9773852680658675e-07 0 -0.031133492718881193 -0.00019619449416471624 0 -0.030881659676658242 -2.8959010030962747e-07 0 -0.030176813774611431 -1.3010768396964838e-05 0 -0.030881659676658242 -2.8959010030962747e-07 0 -0.028907953760956354 -1.9773852680658675e-07 0 -0.030176813774611431 -1.3010768396964838e-05 0 -0.030883380239869741 6.4455613211324267e-05 0 -0.031430727584602143 4.0394377637352223e-05 0 -0.031497066462192927 0.00023772099558855652 0 -0.030989983143180168 0.00036113007454871229 0 -0.030883380239869741 6.4455613211324267e-05 0 -0.031497066462192927 0.00023772099558855652 0 -0.031133492718881193 -0.00019619449416471624 0 -0.030176813774611431 -1.3010768396964838e-05 0 -0.030883380239869741 6.4455613211324267e-05 0 -0.031133492718881193 -0.00019619449416471624 0 -0.030883380239869741 6.4455613211324267e-05 0 -0.031430727584602143 4.0394377637352223e-05 0 -0.031812575372026808 -8.6485331645231742e-07 0 -0.031430727584602143 4.0394377637352223e-05 0 -0.031963478618120614 0.0002342504992468108 0 -0.031430727584602143 4.0394377637352223e-05 0 -0.031497066462192927 0.00023772099558855652 0 -0.031963478618120614 0.0002342504992468108 0 -0.031497066462192927 0.00023772099558855652 0 -0.031797565468672177 0.00032024219161424713 0 -0.031963478618120614 0.0002342504992468108 0 -0.031797565468672177 0.00032024219161424713 0 -0.031963478618120614 0.0002342504992468108 0 -0.031845500657956501 0.00036841735057035108 0 -0.032986481027529893 0.00055171192299225953 0 -0.032098726365459206 -0.00017202381061241464 0 -0.032930327010594625 0.00011821373481525795 0 -0.033610188259589557 0.00078731656810550679 0 -0.033195382946288571 0.0014789601970011034 0 -0.032930327010594625 0.00011821373481525795 0 -0.031963478618120614 0.0002342504992468108 0 -0.031845500657956501 0.00036841735057035108 0 -0.0296707504353062 -0.0014936013566595775 0 -0.032098726365459206 -0.00017202381061241464 0 -0.032098726365459206 -0.00017202381061241464 0 -0.031719442171379862 0.00012430389636913864 0 -0.031459062972094103 0.0020558629382025212 0 -0.031275390514566494 0.00066916471267316373 0 -0.031740363600986601 0.00038231959191338598 0 -0.031632884612209457 8.4586459814904366e-05 0 -0.031567457433629258 0.00043619850362196444 0 -0.031727065416859018 0.00016151911191632028 0 -0.03172902289856995 0.00029292571729525632 0 -0.031727065416859018 0.00016151911191632028 0 -0.031740363600986601 0.00038231959191338598 0 -0.031567457433629258 0.00043619850362196444 0 -0.03172902289856995 0.00029292571729525632 0 -0.031727065416859018 0.00016151911191632028 0 -0.030109226679821351 0.000530446158564443 0 -0.031900707505766637 0.00051088949443444677 0 -0.031769275539288808 5.4460776174239603e-05 0 -0.031727065416859018 0.00016151911191632028 0 -0.031740363600986601 0.00038231959191338598 0 -0.031459062972094103 0.0020558629382025212 0 -0.030891476049453297 0.00088689999524741087 0 -0.031275390514566494 0.00066916471267316373 0 -0.031497066462192927 0.00023772099558855652 0 -0.031275390514566494 0.00066916471267316373 0 -0.031740363600986601 0.00038231959191338598 0 -0.030989983143180168 0.00036113007454871229 0 -0.031497066462192927 0.00023772099558855652 0 -0.031275390514566494 0.00066916471267316373 0 -0.031497066462192927 0.00023772099558855652 0 -0.031797565468672177 0.00032024219161424713 0 -0.031740363600986601 0.00038231959191338598 0 -0.031567457433629258 0.00043619850362196444 0 -0.03172902289856995 0.00029292571729525632 0 -0.031731858255588628 0.00037879099334550432 0 -0.031797565468672177 0.00032024219161424713 0 -0.031845500657956501 0.00036841735057035108 0 -0.031731858255588628 0.00037879099334550432 0 -0.031797565468672177 0.00032024219161424713 0 -0.031731858255588628 0.00037879099334550432 0 -0.031740363600986601 0.00038231959191338598 0 -0.03172902289856995 0.00029292571729525632 0 -0.031731858255588628 0.00037879099334550432 0 -0.031740363600986601 0.00038231959191338598 0 -0.034912237839193103 -0.00018546085644504621 0 -0.034870072879197946 -0.00026038866645777472 0 -0.03486454426305316 -0.000223024140634198 0 -0.034870072879197946 -0.00026038866645777472 0 -0.034834947960613316 -0.00029304249687344487 0 -0.03486454426305316 -0.000223024140634198 0 -0.034912237839193103 -0.00018546085644504621 0 -0.034898077588153387 -0.00028906693933291265 0 -0.034870072879197946 -0.00026038866645777472 0 -0.034912237839193103 -0.00018546085644504621 0 -0.034973699146112251 -0.00017485600719122622 0 -0.034898077588153387 -0.00028906693933291265 0 -0.034912237839193103 -0.00018546085644504621 0 -0.034950447882256548 -0.00011639265898901713 0 -0.034973699146112251 -0.00017485600719122622 0 -0.034950447882256548 -0.00011639265898901713 0 -0.034981076244588134 -9.5947627722432215e-05 0 -0.034973699146112251 -0.00017485600719122622 0 -0.034950447882256548 -0.00011639265898901713 0 -0.034942902131616826 -5.932613417489535e-05 0 -0.034905495435547856 -0.00013290200675843662 0 -0.034912237839193103 -0.00018546085644504621 0 -0.034950447882256548 -0.00011639265898901713 0 -0.034905495435547856 -0.00013290200675843662 0 -0.034912237839193103 -0.00018546085644504621 0 -0.034905495435547856 -0.00013290200675843662 0 -0.03486454426305316 -0.000223024140634198 0 -0.034950447882256548 -0.00011639265898901713 0 -0.034942902131616826 -5.932613417489535e-05 0 -0.034973518580889894 -3.3244251677971014e-05 0 -0.034973518580889894 -3.3244251677971014e-05 0 -0.034999939903409945 -3.5723444935420032e-08 0 -0.034999961563734867 -1.7557661947097872e-10 0 -0.034942902131616826 -5.932613417489535e-05 0 -0.034973518580889894 -3.3244251677971014e-05 0 -0.034999961563734867 -1.7557661947097872e-10 0 -0.034999939903409945 -3.5723444935420032e-08 0 -0.034987942961204166 -4.0005544271748982e-05 0 -0.035000042454316371 -1.9916452498011588e-08 0 -0.034973518580889894 -3.3244251677971014e-05 0 -0.034999939903409945 -3.5723444935420032e-08 0 -0.034987942961204166 -4.0005544271748982e-05 0 -0.034950447882256548 -0.00011639265898901713 0 -0.034987942961204166 -4.0005544271748982e-05 0 -0.034981076244588134 -9.5947627722432215e-05 0 -0.034950447882256548 -0.00011639265898901713 0 -0.034973518580889894 -3.3244251677971014e-05 0 -0.034987942961204166 -4.0005544271748982e-05 0 -0.034987942961204166 -4.0005544271748982e-05 0 -0.034981076244588134 -9.5947627722432215e-05 0 -0.035012774316735502 -6.3852966340215107e-05 0 -0.035314980696993882 -0.00047376975541118545 0 -0.032495584329973903 -0.00036902120145705989 0 -0.034970465952905087 3.3959018185509013e-06 0 -0.034999958391294585 3.4672159076517299e-09 0 -0.034983698408971003 4.7073238083812959e-06 0 -0.032495584329973903 -0.00036902120145705989 0 -0.03500065091237612 7.9144934811290274e-07 0 -0.034987942961204166 -4.0005544271748982e-05 0 -0.034993209233292064 -4.4228777120042217e-05 0 -0.035000042454316371 -1.9916452498011588e-08 0 -0.034999958391294585 3.4672159076517299e-09 0 -0.034983698408971003 4.7073238083812959e-06 0 -0.034999976428151565 5.74332622733154e-09 0 -0.027199214260307615 -0.00020599400283217905 0 -0.027441457565029394 -0.00071822309315745651 0 -0.027802213935847531 -0.00041304773261372402 0 -0.034970465952905087 3.3959018185509013e-06 0 -0.034983698408971003 4.7073238083812959e-06 0 -0.034963299623484802 1.227098352385725e-05 0 -0.032495584329973903 -0.00036902120145705989 0 -0.031041662859378316 -0.00010954076069038428 0 -0.027441457565029394 -0.00071822309315745651 0 -0.027918929672961459 -0.00094615238404561423 0 -0.027802213935847531 -0.00041304773261372402 0 -0.034981076244588134 -9.5947627722432215e-05 0 -0.035012774316735502 -6.3852966340215107e-05 0 -0.034973699146112251 -0.00017485600719122622 0 -0.032495584329973903 -0.00036902120145705989 0 -0.030834810590179212 -0.00046004777770420458 0 -0.027199214260307615 -0.00020599400283217905 0 -0.027441457565029394 -0.00071822309315745651 0 -0.027043063136185031 -0.00083860995257890826 0 -0.027043063136185031 -0.00083860995257890826 0 -0.027288637636958265 -0.0011993483375566491 0 -0.026992972353779024 -0.0014500407608235063 0 -0.030834810590179212 -0.00046004777770420458 0 -0.031183443414742201 -0.00098898510447302198 0 -0.027441457565029394 -0.00071822309315745651 0 -0.027043063136185031 -0.00083860995257890826 0 -0.027288637636958265 -0.0011993483375566491 0 -0.027441457565029394 -0.00071822309315745651 0 -0.027288637636958265 -0.0011993483375566491 0 -0.027918929672961459 -0.00094615238404561423 0 -0.027288637636958265 -0.0011993483375566491 0 -0.027918929672961459 -0.00094615238404561423 0 -0.027795554258068386 -0.0014577361784257892 0 -0.027918929672961459 -0.00094615238404561423 0 -0.02854606192732043 -0.0012230344735104934 0 -0.027795554258068386 -0.0014577361784257892 0 -0.027918929672961459 -0.00094615238404561423 0 -0.02854606192732043 -0.0012230344735104934 0 -0.028524980649859231 -0.0006221175559926632 0 -0.031989759481812277 -0.0003344632505687326 0 -0.031041662859378316 -0.00010954076069038428 0 -0.027918929672961459 -0.00094615238404561423 0 -0.028524980649859231 -0.0006221175559926632 0 -0.027802213935847531 -0.00041304773261372402 0 -0.034958249749206888 2.4582252400887659e-05 0 -0.034982387134682776 8.2362103574982258e-06 0 -0.034963299623484802 1.227098352385725e-05 0 -0.034983698408971003 4.7073238083812959e-06 0 -0.034982387134682776 8.2362103574982258e-06 0 -0.034963299623484802 1.227098352385725e-05 0 -0.034983698408971003 4.7073238083812959e-06 0 -0.034982387134682776 8.2362103574982258e-06 0 -0.034999976428151565 5.74332622733154e-09 0 -0.034982387134682776 8.2362103574982258e-06 0 -0.034999976428151565 5.74332622733154e-09 0 -0.034999975430857276 6.0053998675415386e-09 0 -0.034982387134682776 8.2362103574982258e-06 0 -0.034999975430857276 6.0053998675415386e-09 0 -0.034979619742632868 1.13637960679317e-05 0 -0.034958249749206888 2.4582252400887659e-05 0 -0.034982387134682776 8.2362103574982258e-06 0 -0.034979619742632868 1.13637960679317e-05 0 -0.034979619742632868 1.13637960679317e-05 0 -0.034984280285782619 8.6599543468699726e-06 0 -0.034955970508670331 3.174484468381609e-05 0 -0.034999975430857276 6.0053998675415386e-09 0 -0.034979619742632868 1.13637960679317e-05 0 -0.034999974905235987 9.2920118525182896e-09 0 -0.034999994686516073 -1.5447455716847373e-09 0 -0.034999974905235987 9.2920118525182896e-09 0 -0.034984280285782619 8.6599543468699726e-06 0 -0.034979619742632868 1.13637960679317e-05 0 -0.034999974905235987 9.2920118525182896e-09 0 -0.034984280285782619 8.6599543468699726e-06 0 -0.034957456733248085 -8.6171147388549213e-06 0 -0.034942653327485709 3.8383214765859178e-05 0 -0.034955970508670331 3.174484468381609e-05 0 -0.034970403858378053 1.768328485538318e-06 0 -0.034961040040841856 2.7219696078284081e-05 0 -0.034920094112322816 7.104417358330312e-05 0 -0.034942653327485709 3.8383214765859178e-05 0 -0.034937425331568732 4.6758644305390611e-05 0 -0.034942653327485709 3.8383214765859178e-05 0 -0.034955970508670331 3.174484468381609e-05 0 -0.034937425331568732 4.6758644305390611e-05 0 -0.034958249749206888 2.4582252400887659e-05 0 -0.034979619742632868 1.13637960679317e-05 0 -0.034955970508670331 3.174484468381609e-05 0 -0.031989759481812277 -0.0003344632505687326 0 -0.031271090614511068 -0.00054023618120137968 0 -0.034958249749206888 2.4582252400887659e-05 0 -0.034955970508670331 3.174484468381609e-05 0 -0.034937425331568732 4.6758644305390611e-05 0 -0.025546837585370321 -0.0018668188609130016 0 -0.025711326412858383 -0.0018933692048043436 0 -0.026745889739125971 -0.0011829398294485754 0 -0.026401509279550938 -0.0017207252632124256 0 -0.031271090614511068 -0.00054023618120137968 0 -0.02854606192732043 -0.0012230344735104934 0 -0.028524980649859231 -0.0006221175559926632 0 -0.02935246939903419 -0.00090365294406757489 0 -0.027623728925800253 -0.0019689356108737316 0 -0.026840943033201708 -0.0017640506957251945 0 -0.026745889739125971 -0.0011829398294485754 0 -0.025711326412858383 -0.0018933692048043436 0 -0.026840943033201708 -0.0017640506957251945 0 -0.026745889739125971 -0.0011829398294485754 0 -0.024764863664426543 -0.0016817181382024365 0 -0.025179058806914779 -0.0018374952859105561 0 -0.025038566789100769 -0.0015769600657511566 0 -0.026460742012396083 -0.0017437175950660115 0 -0.025804402154062909 -0.0019495956689314965 0 -0.026460742012396083 -0.0017437175950660115 0 -0.026906232089755237 -0.0022004315656163997 0 -0.027623728925800253 -0.0019689356108737316 0 -0.026840943033201708 -0.0017640506957251945 0 -0.027129786753914583 -0.0021729584003361353 0 -0.027324039620208632 -0.0024157526737200881 0 -0.027129786753914583 -0.0021729584003361353 0 -0.026521291772558315 -0.0021433702826717926 0 -0.026840943033201708 -0.0017640506957251945 0 -0.027129786753914583 -0.0021729584003361353 0 -0.026521291772558315 -0.0021433702826717926 0 -0.025711326412858383 -0.0018933692048043436 0 -0.026840943033201708 -0.0017640506957251945 0 -0.026521291772558315 -0.0021433702826717926 0 -0.025719065194670449 -0.0019091862642693965 0 -0.025804402154062909 -0.0019495956689314965 0 -0.025179058806914779 -0.0018374952859105561 0 -0.025468151891342831 -0.0016546908138171312 0 -0.025038566789100769 -0.0015769600657511566 0 -0.025711326412858383 -0.0018933692048043436 0 -0.025179058806914779 -0.0018374952859105561 0 -0.025468151891342831 -0.0016546908138171312 0 -0.025711326412858383 -0.0018933692048043436 0 -0.025468151891342831 -0.0016546908138171312 0 -0.025683715773694316 -0.001780067885592197 0 -0.025468151891342831 -0.0016546908138171312 0 -0.025165897105080492 -0.001314194117120199 0 -0.025597667464404752 -0.0012073434351005166 0 -0.025468151891342831 -0.0016546908138171312 0 -0.025165897105080492 -0.001314194117120199 0 -0.025038566789100769 -0.0015769600657511566 0 -0.025165897105080492 -0.001314194117120199 0 -0.025038566789100769 -0.0015769600657511566 0 -0.024856080241881594 -0.0013225943798606027 0 -0.024764863664426543 -0.0016817181382024365 0 -0.025038566789100769 -0.0015769600657511566 0 -0.024856080241881594 -0.0013225943798606027 0 -0.025165897105080492 -0.001314194117120199 0 -0.024856080241881594 -0.0013225943798606027 0 -0.024929239423142891 -0.00090861950994051239 0 -0.024929239423142891 -0.00090861950994051239 0 -0.024772905026760716 -0.00033336440379248177 0 -0.024485878225702071 -0.00052410925498397527 0 -0.024929239423142891 -0.00090861950994051239 0 -0.025481873640989059 -0.00057946072619954111 0 -0.024772905026760716 -0.00033336440379248177 0 -0.025165897105080492 -0.001314194117120199 0 -0.024929239423142891 -0.00090861950994051239 0 -0.025597667464404752 -0.0012073434351005166 0 -0.024929239423142891 -0.00090861950994051239 0 -0.025597667464404752 -0.0012073434351005166 0 -0.025481873640989059 -0.00057946072619954111 0 -0.025597667464404752 -0.0012073434351005166 0 -0.025481873640989059 -0.00057946072619954111 0 -0.026094479013545415 -0.0007937653207939643 0 -0.026094479013545415 -0.0007937653207939643 0 -0.026432197561431316 -0.00053847237704804168 0 -0.026123710124216978 -0.00020952381687312896 0 -0.025481873640989059 -0.00057946072619954111 0 -0.026094479013545415 -0.0007937653207939643 0 -0.026123710124216978 -0.00020952381687312896 0 -0.026094479013545415 -0.0007937653207939643 0 -0.026206191610896035 -0.0013080116740573963 0 -0.026685425895950073 -0.00095245687045585655 0 -0.025597667464404752 -0.0012073434351005166 0 -0.026094479013545415 -0.0007937653207939643 0 -0.026206191610896035 -0.0013080116740573963 0 -0.026206191610896035 -0.0013080116740573963 0 -0.025776471402210666 -0.001588762894336787 0 -0.026206077788093848 -0.0018413370688339682 0 -0.025468151891342831 -0.0016546908138171312 0 -0.025597667464404752 -0.0012073434351005166 0 -0.025776471402210666 -0.001588762894336787 0 -0.025597667464404752 -0.0012073434351005166 0 -0.026206191610896035 -0.0013080116740573963 0 -0.025776471402210666 -0.001588762894336787 0 -0.025776471402210666 -0.001588762894336787 0 -0.025683715773694316 -0.001780067885592197 0 -0.026206077788093848 -0.0018413370688339682 0 -0.025468151891342831 -0.0016546908138171312 0 -0.025776471402210666 -0.001588762894336787 0 -0.025683715773694316 -0.001780067885592197 0 -0.025546837585370321 -0.0018668188609130016 0 -0.025683715773694316 -0.001780067885592197 0 -0.026206077788093848 -0.0018413370688339682 0 -0.026401509279550938 -0.0017207252632124256 0 -0.027159041846753343 -0.0015730208468978072 0 -0.025546837585370321 -0.0018668188609130016 0 -0.025711326412858383 -0.0018933692048043436 0 -0.025683715773694316 -0.001780067885592197 0 -0.027288637636958265 -0.0011993483375566491 0 -0.027795554258068386 -0.0014577361784257892 0 -0.027003859377051947 -0.0015321774442385639 0 -0.027159041846753343 -0.0015730208468978072 0 -0.026958338998852405 -0.0015743632563489252 0 -0.027288637636958265 -0.0011993483375566491 0 -0.027003859377051947 -0.0015321774442385639 0 -0.026992972353779024 -0.0014500407608235063 0 -0.027003859377051947 -0.0015321774442385639 0 -0.027228148766017906 -0.0012618725377786272 0 -0.026992972353779024 -0.0014500407608235063 0 -0.026206191610896035 -0.0013080116740573963 0 -0.026206077788093848 -0.0018413370688339682 0 -0.027003859377051947 -0.0015321774442385639 0 -0.026206191610896035 -0.0013080116740573963 0 -0.027003859377051947 -0.0015321774442385639 0 -0.026685425895950073 -0.00095245687045585655 0 -0.026685425895950073 -0.00095245687045585655 0 -0.026432197561431316 -0.00053847237704804168 0 -0.026823804619564545 -0.0002036867666217216 0 -0.026094479013545415 -0.0007937653207939643 0 -0.026685425895950073 -0.00095245687045585655 0 -0.026432197561431316 -0.00053847237704804168 0 -0.026685425895950073 -0.00095245687045585655 0 -0.027408471781885331 -0.00049349997709063616 0 -0.026823804619564545 -0.0002036867666217216 0 -0.027003859377051947 -0.0015321774442385639 0 -0.026685425895950073 -0.00095245687045585655 0 -0.027228148766017906 -0.0012618725377786272 0 -0.026685425895950073 -0.00095245687045585655 0 -0.027294743492717481 -0.0011717647308472953 0 -0.027408471781885331 -0.00049349997709063616 0 -0.026079707835103657 -0.001185788791967084 0 -0.029032861699593394 4.4484116599933332e-05 0 -0.02666555181578565 0.0015211396566440249 0 -0.026457867363378865 0.00062373010682097846 0 -0.025973423861954496 0.0012334708763644814 0 -0.029032861699593394 4.4484116599933332e-05 0 -0.026742688345015139 7.4983502665074451e-05 0 -0.026457867363378865 0.00062373010682097846 0 -0.025973423861954496 0.0012334708763644814 0 -0.025504897260046188 0.00072643905718246455 0 -0.02666555181578565 0.0015211396566440249 0 -0.025973423861954496 0.0012334708763644814 0 -0.02611614096379021 0.0017438198796036277 0 -0.025973423861954496 0.0012334708763644814 0 -0.02611614096379021 0.0017438198796036277 0 -0.025631503050323967 0.0015428652397697824 0 -0.034814669627911195 -0.00033113689145255473 0 -0.034814293973630443 -0.00032119544949020849 0 -0.034842431672625955 -0.00030725775143247361 0 -0.034814293973630443 -0.00032119544949020849 0 -0.034842431672625955 -0.00030725775143247361 0 -0.034807855832438152 -0.00032841987170838049 0 -0.029032861699593394 4.4484116599933332e-05 0 -0.031183443414742201 -0.00098898510447302198 0 -0.034814669627911195 -0.00033113689145255473 0 -0.034898077588153387 -0.00028906693933291265 0 -0.034842431672625955 -0.00030725775143247361 0 -0.029032861699593394 4.4484116599933332e-05 0 -0.030481594790911754 0.00072641187306875428 0 -0.034898077588153387 -0.00028906693933291265 0 -0.034870072879197946 -0.00026038866645777472 0 -0.034842431672625955 -0.00030725775143247361 0 -0.034870072879197946 -0.00026038866645777472 0 -0.034842431672625955 -0.00030725775143247361 0 -0.034834947960613316 -0.00029304249687344487 0 -0.034842431672625955 -0.00030725775143247361 0 -0.034834947960613316 -0.00029304249687344487 0 -0.034807855832438152 -0.00032841987170838049 0 -0.025458594177270002 0.00012690451012584242 0 -0.025458663169187462 0.00012355819475291216 0 -0.025448955734721283 0.0001166934402986054 0 -0.024826658076849778 -0.00047681196790630957 0 -0.024867042386822892 -0.00022750071595409094 0 -0.024768606601382061 -0.00018259399698420599 0 -0.025447455186575676 -0.00046590376276578374 0 -0.024245757733055647 -4.2499813813097858e-05 0 -0.02601449579295461 -0.0008881026381894274 0 -0.025923953198289867 -0.0013298173580207999 0 -0.025742560321977036 -0.00081204945371476814 0 -0.025447455186575676 -0.00046590376276578374 0 -0.02448025110945817 -0.00040626067039987724 0 -0.025458663169187462 0.00012355819475291216 0 -0.0254613878144943 0.00012113937036242808 0 -0.025466925642686447 0.00012648586487222838 0 -0.025458663169187462 0.00012355819475291216 0 -0.025453722681463686 0.0001172182178408582 0 -0.025448955734721283 0.0001166934402986054 0 -0.025458663169187462 0.00012355819475291216 0 -0.0254613878144943 0.00012113937036242808 0 -0.025453722681463686 0.0001172182178408582 0 -0.0254613878144943 0.00012113937036242808 0 -0.025466925642686447 0.00012648586487222838 0 -0.025475602134564498 0.00012104260667836996 0 -0.025458663169187462 0.00012355819475291216 0 -0.025466925642686447 0.00012648586487222838 0 -0.025465564462810612 0.00013004221310407876 0 -0.025458594177270002 0.00012690451012584242 0 -0.025458663169187462 0.00012355819475291216 0 -0.025465564462810612 0.00013004221310407876 0 -0.025465564462810612 0.00013004221310407876 0 -0.025470160377901285 0.00013463586012327932 0 -0.025474500922451158 0.0001348424329143324 0 -0.026292950419206599 -6.3982151348867695e-05 0 -0.02631978145409767 0.00035878841911843567 0 -0.025466925642686447 0.00012648586487222838 0 -0.025465564462810612 0.00013004221310407876 0 -0.025474500922451158 0.0001348424329143324 0 -0.025447455186575676 -0.00046590376276578374 0 -0.026292950419206599 -6.3982151348867695e-05 0 -0.025993799983902735 -0.00074636450630441388 0 -0.026139304655569667 -0.00024901967198257376 0 -0.025772148828264622 -0.00039644682631033169 0 -0.026016535980544323 -0.00088491643986495752 0 -0.025993799983902735 -0.00074636450630441388 0 -0.026139304655569667 -0.00024901967198257376 0 -0.025458594177270002 0.00012690451012584242 0 -0.025465564462810612 0.00013004221310407876 0 -0.025470160377901285 0.00013463586012327932 0 -0.025447455186575676 -0.00046590376276578374 0 -0.025575766605600309 -0.00067283171134040936 0 -0.025993799983902735 -0.00074636450630441388 0 -0.025742560321977036 -0.00081204945371476814 0 -0.025772148828264622 -0.00039644682631033169 0 -0.02601449579295461 -0.0008881026381894274 0 -0.025993799983902735 -0.00074636450630441388 0 -0.025742560321977036 -0.00081204945371476814 0 -0.026292950419206599 -6.3982151348867695e-05 0 -0.02562801397460001 0.00013587278159579144 0 -0.026139304655569667 -0.00024901967198257376 0 -0.025772148828264622 -0.00039644682631033169 0 -0.025601371894463407 0.00021965570939388424 0 -0.026457867363378865 0.00062373010682097846 0 -0.025601371894463407 0.00021965570939388424 0 -0.025504897260046188 0.00072643905718246455 0 -0.026457867363378865 0.00062373010682097846 0 -0.026268022453475336 -0.0003220533493730917 0 -0.025601371894463407 0.00021965570939388424 0 -0.026742688345015139 7.4983502665074451e-05 0 -0.026292950419206599 -6.3982151348867695e-05 0 -0.027408471781885331 -0.00049349997709063616 0 -0.027537279460789085 0.00022441794980916245 0 -0.027095585217239402 0.00013394529102224748 0 -0.027537279460789085 0.00022441794980916245 0 -0.027095585217239402 0.00013394529102224748 0 -0.027078392245783293 0.00061129388392554978 0 -0.027095585217239402 0.00013394529102224748 0 -0.026823804619564545 -0.0002036867666217216 0 -0.026524567690376959 0.00033400784146576376 0 -0.027408471781885331 -0.00049349997709063616 0 -0.027095585217239402 0.00013394529102224748 0 -0.026823804619564545 -0.0002036867666217216 0 -0.026432197561431316 -0.00053847237704804168 0 -0.026823804619564545 -0.0002036867666217216 0 -0.026123710124216978 -0.00020952381687312896 0 -0.026823804619564545 -0.0002036867666217216 0 -0.026524567690376959 0.00033400784146576376 0 -0.026123710124216978 -0.00020952381687312896 0 -0.026524567690376959 0.00033400784146576376 0 -0.026595223024259335 0.0010141345711906524 0 -0.026011201713761443 0.00076335370984513941 0 -0.026524567690376959 0.00033400784146576376 0 -0.027078392245783293 0.00061129388392554978 0 -0.026595223024259335 0.0010141345711906524 0 -0.027095585217239402 0.00013394529102224748 0 -0.026524567690376959 0.00033400784146576376 0 -0.027078392245783293 0.00061129388392554978 0 -0.02631978145409767 0.00035878841911843567 0 -0.025964166846703159 0.0008016204643502391 0 -0.025474500922451158 0.0001348424329143324 0 -0.025475602134564498 0.00012104260667836996 0 -0.025492882958036374 0.00013007084788689511 0 -0.025466925642686447 0.00012648586487222838 0 -0.025474500922451158 0.0001348424329143324 0 -0.025475602134564498 0.00012104260667836996 0 -0.025132334886358534 0.00064165052470907167 0 -0.025964166846703159 0.0008016204643502391 0 -0.025964166846703159 0.0008016204643502391 0 -0.026030808834728685 0.00080395088852423184 0 -0.026405345273560737 0.001022646043774717 0 -0.025871112148306962 0.0011511900962695352 0 -0.026092730956645799 0.0012764717813246393 0 -0.025964166846703159 0.0008016204643502391 0 -0.02601080198535698 0.0013386156976159913 0 -0.026405345273560737 0.001022646043774717 0 -0.025871112148306962 0.0011511900962695352 0 -0.025839313442490644 0.00076016056351536551 0 -0.025871112148306962 0.0011511900962695352 0 -0.025546647227002773 0.00097304831595982906 0 -0.025839313442490644 0.00076016056351536551 0 -0.025924898296445183 0.0012288201467048929 0 -0.02601080198535698 0.0013386156976159913 0 -0.025546647227002773 0.00097304831595982906 0 -0.025338071301668687 0.0004718109138063789 0 -0.025140483766566531 0.0010932555699844076 0 -0.025871112148306962 0.0011511900962695352 0 -0.025546647227002773 0.00097304831595982906 0 -0.025452750947010255 0.0013057625433994303 0 -0.025546647227002773 0.00097304831595982906 0 -0.025140483766566531 0.0010932555699844076 0 -0.025452750947010255 0.0013057625433994303 0 -0.025546647227002773 0.00097304831595982906 0 -0.025338071301668687 0.0004718109138063789 0 -0.025839313442490644 0.00076016056351536551 0 -0.025328643349749574 0.0004734201236798892 0 -0.026030808834728685 0.00080395088852423184 0 -0.025338071301668687 0.0004718109138063789 0 -0.026011201713761443 0.00076335370984513941 0 -0.025894884605057244 0.00024803564881009128 0 -0.026524567690376959 0.00033400784146576376 0 -0.026011201713761443 0.00076335370984513941 0 -0.025894884605057244 0.00024803564881009128 0 -0.026524567690376959 0.00033400784146576376 0 -0.025894884605057244 0.00024803564881009128 0 -0.026123710124216978 -0.00020952381687312896 0 -0.025481873640989059 -0.00057946072619954111 0 -0.026123710124216978 -0.00020952381687312896 0 -0.025427066622990491 -8.3520698882384839e-05 0 -0.025894884605057244 0.00024803564881009128 0 -0.026123710124216978 -0.00020952381687312896 0 -0.025427066622990491 -8.3520698882384839e-05 0 -0.025338071301668687 0.0004718109138063789 0 -0.025894884605057244 0.00024803564881009128 0 -0.025427066622990491 -8.3520698882384839e-05 0 -0.025427066622990491 -8.3520698882384839e-05 0 -0.024947018222706691 0.00018972977373826828 0 -0.024772905026760716 -0.00033336440379248177 0 -0.025338071301668687 0.0004718109138063789 0 -0.025427066622990491 -8.3520698882384839e-05 0 -0.024947018222706691 0.00018972977373826828 0 -0.025481873640989059 -0.00057946072619954111 0 -0.025427066622990491 -8.3520698882384839e-05 0 -0.024772905026760716 -0.00033336440379248177 0 -0.024947018222706691 0.00018972977373826828 0 -0.024772905026760716 -0.00033336440379248177 0 -0.02443698751329627 0.00022410048154983454 0 -0.02443698751329627 0.00022410048154983454 0 -0.024662736485229802 0.00075389868040700626 0 -0.023795921977063657 0.00068532905026143752 0 -0.024947018222706691 0.00018972977373826828 0 -0.02443698751329627 0.00022410048154983454 0 -0.024662736485229802 0.00075389868040700626 0 -0.025338071301668687 0.0004718109138063789 0 -0.024662736485229802 0.00075389868040700626 0 -0.025140483766566531 0.0010932555699844076 0 -0.025338071301668687 0.0004718109138063789 0 -0.024947018222706691 0.00018972977373826828 0 -0.024662736485229802 0.00075389868040700626 0 -0.024662736485229802 0.00075389868040700626 0 -0.025140483766566531 0.0010932555699844076 0 -0.024687254648682121 0.001444001116768609 0 -0.024662736485229802 0.00075389868040700626 0 -0.024687254648682121 0.001444001116768609 0 -0.024177281350548165 0.0012132344052741572 0 -0.024687254648682121 0.001444001116768609 0 -0.024060206344880968 0.001785708147890421 0 -0.024177281350548165 0.0012132344052741572 0 -0.025140483766566531 0.0010932555699844076 0 -0.024687254648682121 0.001444001116768609 0 -0.025217776695578759 0.0015638621392838855 0 -0.024687254648682121 0.001444001116768609 0 -0.024954460746596133 0.0019957129541704533 0 -0.025217776695578759 0.0015638621392838855 0 -0.024373170613431833 0.001944078940065065 0 -0.024032087535386156 0.0017990837160948338 0 -0.024687254648682121 0.001444001116768609 0 -0.024954460746596133 0.0019957129541704533 0 -0.024060206344880968 0.001785708147890421 0 -0.023675246725751439 0.0018936949351199225 0 -0.024060206344880968 0.001785708147890421 0 -0.023937647688500308 0.0018023137181000805 0 -0.023937647688500308 0.0018023137181000805 0 -0.023698264190830664 0.001757954178747314 0 -0.023960317742982386 0.0016852515224029044 0 -0.023675246725751439 0.0018936949351199225 0 -0.023937647688500308 0.0018023137181000805 0 -0.023698264190830664 0.001757954178747314 0 -0.018293992404067864 0.00087774808770083393 0 -0.023266217344853481 0.0015446693252596246 0 -0.020964149183605878 0.00069644356583696467 0 -0.021316300593438541 0.00093154651565865369 0 -0.021354597355388732 0.00064404512717075753 0 -0.023620062738366473 0.001214952033580129 0 -0.023698264190830664 0.001757954178747314 0 -0.023960317742982386 0.0016852515224029044 0 -0.023353771655402318 0.0014719636254950149 0 -0.023620062738366473 0.001214952033580129 0 -0.023010808909036104 0.0011784283555129338 0 -0.018293992404067864 0.00087774808770083393 0 -0.020360252259336322 0.00075183152084625545 0 -0.023353771655402318 0.0014719636254950149 0 -0.023620062738366473 0.001214952033580129 0 -0.023698264190830664 0.001757954178747314 0 -0.023656384236813606 0.0017553065308666183 0 -0.023175871961472184 0.00165859824759283 0 -0.023698264190830664 0.001757954178747314 0 -0.023536049877395031 0.0017807669431498668 0 -0.023461178850398039 0.0015943203399148844 0 -0.023353771655402318 0.0014719636254950149 0 -0.023698264190830664 0.001757954178747314 0 -0.022997536866119092 0.0017604378041728888 0 -0.023675246725751439 0.0018936949351199225 0 -0.023698264190830664 0.001757954178747314 0 -0.023536049877395031 0.0017807669431498668 0 -0.023536049877395031 0.0017807669431498668 0 -0.02342308059337482 0.0017084752044618835 0 -0.023461178850398039 0.0015943203399148844 0 -0.023536049877395031 0.0017807669431498668 0 -0.02342308059337482 0.0017084752044618835 0 -0.023340463357458572 0.0017799358066025162 0 -0.023536049877395031 0.0017807669431498668 0 -0.023340463357458572 0.0017799358066025162 0 -0.02328563742323948 0.0018083276254805144 0 -0.023340463357458572 0.0017799358066025162 0 -0.023230845204639701 0.0016881809022342149 0 -0.023245978837780946 0.0018315646755841055 0 -0.023829929984468794 0.0019124702008613871 0 -0.024094160392020458 0.0018405870116821107 0 -0.02342308059337482 0.0017084752044618835 0 -0.023345929349556722 0.0016752216870037078 0 -0.023461178850398039 0.0015943203399148844 0 -0.02342308059337482 0.0017084752044618835 0 -0.023340463357458572 0.0017799358066025162 0 -0.023345929349556722 0.0016752216870037078 0 -0.023340463357458572 0.0017799358066025162 0 -0.023345929349556722 0.0016752216870037078 0 -0.023230845204639701 0.0016881809022342149 0 -0.023345929349556722 0.0016752216870037078 0 -0.023185606294841891 0.0015725185206934156 0 -0.023230845204639701 0.0016881809022342149 0 -0.023345929349556722 0.0016752216870037078 0 -0.023461178850398039 0.0015943203399148844 0 -0.023185606294841891 0.0015725185206934156 0 -0.023353771655402318 0.0014719636254950149 0 -0.022997536866119092 0.0017604378041728888 0 -0.023010808909036104 0.0011784283555129338 0 -0.022997536866119092 0.0017604378041728888 0 -0.023010808909036104 0.0011784283555129338 0 -0.022618696382500164 0.001463735310741275 0 -0.020360252259336322 0.00075183152084625545 0 -0.019281468327243499 0.00080795548730153773 0 -0.023010808909036104 0.0011784283555129338 0 -0.022618696382500164 0.001463735310741275 0 -0.022125170326919304 0.0012543683712221876 0 -0.016901516984453434 0.00044245083916042907 0 -0.017057142044470196 0.00029715210495649739 0 -0.016917810151844737 0.00056312553017839331 0 -0.022618696382500164 0.001463735310741275 0 -0.022125170326919304 0.0012543683712221876 0 -0.022118676141884196 0.0016370863228122867 0 -0.023175871961472184 0.00165859824759283 0 -0.022705179400826978 0.0015373835104130196 0 -0.024094160392020458 0.0018405870116821107 0 -0.022639984775214346 0.0016145630127993643 0 -0.023035038637099683 0.0016203131986708018 0 -0.023245978837780946 0.0018315646755841055 0 -0.022727898768494147 0.0016794769586916645 0 -0.022933629596844751 0.0013549691561232653 0 -0.023035038637099683 0.0016203131986708018 0 -0.022727898768494147 0.0016794769586916645 0 -0.023461178850398039 0.0015943203399148844 0 -0.022933629596844751 0.0013549691561232653 0 -0.023185606294841891 0.0015725185206934156 0 -0.022997536866119092 0.0017604378041728888 0 -0.022618696382500164 0.001463735310741275 0 -0.022118676141884196 0.0016370863228122867 0 -0.022933629596844751 0.0013549691561232653 0 -0.023185606294841891 0.0015725185206934156 0 -0.023035038637099683 0.0016203131986708018 0 -0.023230845204639701 0.0016881809022342149 0 -0.023035038637099683 0.0016203131986708018 0 -0.023245978837780946 0.0018315646755841055 0 -0.023185606294841891 0.0015725185206934156 0 -0.023230845204639701 0.0016881809022342149 0 -0.023035038637099683 0.0016203131986708018 0 -0.023498811302259226 0.0018112877094045193 0 -0.022746863440459553 0.002143984347935697 0 -0.022816351017810516 0.0016227297905635324 0 -0.025676843769749408 0.0018209237599478198 0 -0.025580512907142673 0.002047222944016627 0 -0.025830140805310545 0.0018184009961188378 0 -0.024094160392020458 0.0018405870116821107 0 -0.024310491988609656 0.0020279948871842319 0 -0.025676843769749408 0.0018209237599478198 0 -0.025760911275538759 0.0017034479025496733 0 -0.025830140805310545 0.0018184009961188378 0 -0.025676843769749408 0.0018209237599478198 0 -0.025558135423470973 0.0018672382706164915 0 -0.025619233956722269 0.0016935615605161273 0 -0.025676843769749408 0.0018209237599478198 0 -0.025760911275538759 0.0017034479025496733 0 -0.025619233956722269 0.0016935615605161273 0 -0.025676843769749408 0.0018209237599478198 0 -0.025580512907142673 0.002047222944016627 0 -0.025558135423470973 0.0018672382706164915 0 -0.025580512907142673 0.002047222944016627 0 -0.025369736748180712 0.0018480743357269628 0 -0.025558135423470973 0.0018672382706164915 0 -0.024373170613431833 0.001944078940065065 0 -0.024094160392020458 0.0018405870116821107 0 -0.024954460746596133 0.0019957129541704533 0 -0.025580512907142673 0.002047222944016627 0 -0.025369736748180712 0.0018480743357269628 0 -0.023675246725751439 0.0018936949351199225 0 -0.023536049877395031 0.0017807669431498668 0 -0.02328563742323948 0.0018083276254805144 0 -0.024954460746596133 0.0019957129541704533 0 -0.025369736748180712 0.0018480743357269628 0 -0.025217776695578759 0.0015638621392838855 0 -0.025369736748180712 0.0018480743357269628 0 -0.025558135423470973 0.0018672382706164915 0 -0.025619233956722269 0.0016935615605161273 0 -0.025217776695578759 0.0015638621392838855 0 -0.025452750947010255 0.0013057625433994303 0 -0.025619233956722269 0.0016935615605161273 0 -0.025369736748180712 0.0018480743357269628 0 -0.025217776695578759 0.0015638621392838855 0 -0.025619233956722269 0.0016935615605161273 0 -0.025140483766566531 0.0010932555699844076 0 -0.025217776695578759 0.0015638621392838855 0 -0.025452750947010255 0.0013057625433994303 0 -0.025871112148306962 0.0011511900962695352 0 -0.025452750947010255 0.0013057625433994303 0 -0.025619233956722269 0.0016935615605161273 0 -0.025871112148306962 0.0011511900962695352 0 -0.025619233956722269 0.0016935615605161273 0 -0.026132646779758399 0.0013005051360835634 0 -0.025624147816772212 0.0017051977494139075 0 -0.02601080198535698 0.0013386156976159913 0 -0.025760911275538759 0.0017034479025496733 0 -0.025619233956722269 0.0016935615605161273 0 -0.025799363342591239 0.0015936279196114458 0 -0.025760911275538759 0.0017034479025496733 0 -0.025799363342591239 0.0015936279196114458 0 -0.025996376860501942 0.0017187326394080451 0 -0.02601080198535698 0.0013386156976159913 0 -0.024081062336790065 0.0014212688787022391 0 -0.02529146559469065 0.0013808575411900642 0 -0.025699844884053642 0.0010543213460657871 0 -0.024948739984491743 0.00063122061405667361 0 -0.024081062336790065 0.0014212688787022391 0 -0.024254067155455254 0.00057340574825115486 0 -0.024791958520480866 0.0011544379275013157 0 -0.024948739984491743 0.00063122061405667361 0 -0.024294614807799968 0.00092728514334654484 0 -0.024791958520480866 0.0011544379275013157 0 -0.02529146559469065 0.0013808575411900642 0 -0.024948739984491743 0.00063122061405667361 0 -0.02203327349904283 0.0024482825456673242 0 -0.022045328972653665 0.0017866132546742134 0 -0.021696699203770466 0.0017613507963987125 0 -0.02203327349904283 0.0024482825456673242 0 -0.02239826041592867 0.0018366557496505116 0 -0.022045328972653665 0.0017866132546742134 0 -0.024081062336790065 0.0014212688787022391 0 -0.024310491988609656 0.0020279948871842319 0 -0.02203327349904283 0.0024482825456673242 0 -0.02239826041592867 0.0018366557496505116 0 -0.022746863440459553 0.002143984347935697 0 -0.025760911275538759 0.0017034479025496733 0 -0.025996376860501942 0.0017187326394080451 0 -0.025830140805310545 0.0018184009961188378 0 -0.02239826041592867 0.0018366557496505116 0 -0.022746863440459553 0.002143984347935697 0 -0.022816351017810516 0.0016227297905635324 0 -0.022933629596844751 0.0013549691561232653 0 -0.022727898768494147 0.0016794769586916645 0 -0.022267578635795302 0.0011432771332804403 0 -0.022727898768494147 0.0016794769586916645 0 -0.022267578635795302 0.0011432771332804403 0 -0.022145261462089672 0.0014706234776075673 0 -0.02239826041592867 0.0018366557496505116 0 -0.022816351017810516 0.0016227297905635324 0 -0.022145261462089672 0.0014706234776075673 0 -0.022639984775214346 0.0016145630127993643 0 -0.022264139274682692 0.0015052590765697032 0 -0.022125170326919304 0.0012543683712221876 0 -0.022118676141884196 0.0016370863228122867 0 -0.02110527391470125 0.0014131721154943082 0 -0.019281468327243499 0.00080795548730153773 0 -0.020704815908156898 0.001001756259623854 0 -0.017057142044470196 0.00029715210495649739 0 -0.017549792586140506 6.6028143723932873e-05 0 -0.017421827774136811 0.00054804454924686492 0 -0.022705179400826978 0.0015373835104130196 0 -0.020704815908156898 0.001001756259623854 0 -0.022162444886630474 0.0011318668416022512 0 -0.021569678012140565 0.0012330641321394897 0 -0.021372550843915549 0.00092884495947378673 0 -0.020704815908156898 0.001001756259623854 0 -0.01940061273173288 0.00017078242017202163 0 -0.020704815908156898 0.001001756259623854 0 -0.022154958632057877 0.0011630098991348629 0 -0.017549792586140506 6.6028143723932873e-05 0 -0.018582369892689521 0.00017946710645272136 0 -0.017948692935224542 0.00057545764330879179 0 -0.017549792586140506 6.6028143723932873e-05 0 -0.017948692935224542 0.00057545764330879179 0 -0.017421827774136811 0.00054804454924686492 0 -0.022267578635795302 0.0011432771332804403 0 -0.021849125591784632 0.0014672418531194141 0 -0.021569678012140565 0.0012330641321394897 0 -0.021849125591784632 0.0014672418531194141 0 -0.021696699203770466 0.0017613507963987125 0 -0.021569678012140565 0.0012330641321394897 0 -0.022267578635795302 0.0011432771332804403 0 -0.021849125591784632 0.0014672418531194141 0 -0.022145261462089672 0.0014706234776075673 0 -0.02239826041592867 0.0018366557496505116 0 -0.022145261462089672 0.0014706234776075673 0 -0.022045328972653665 0.0017866132546742134 0 -0.021849125591784632 0.0014672418531194141 0 -0.022145261462089672 0.0014706234776075673 0 -0.022045328972653665 0.0017866132546742134 0 -0.021849125591784632 0.0014672418531194141 0 -0.022045328972653665 0.0017866132546742134 0 -0.021696699203770466 0.0017613507963987125 0 -0.019293166587048889 -9.7692239732771719e-05 0 -0.019832385920047987 -0.00043027946395726962 0 -0.019522515200169129 -0.0012244798022019374 0 -0.01940061273173288 0.00017078242017202163 0 -0.021519060060498734 0.00028374870562851537 0 -0.021569678012140565 0.0012330641321394897 0 -0.021372550843915549 0.00092884495947378673 0 -0.021194460898308388 0.001954732258743526 0 -0.021696699203770466 0.0017613507963987125 0 -0.021569678012140565 0.0012330641321394897 0 -0.021194460898308388 0.001954732258743526 0 -0.01940061273173288 0.00017078242017202163 0 -0.020021233314840094 6.4779372426732721e-05 0 -0.019293166587048889 -9.7692239732771719e-05 0 -0.019832385920047987 -0.00043027946395726962 0 -0.020266440815990702 0.00017296995239113354 0 -0.018699865882307494 -0.0001863161280627542 0 -0.019150681342551896 0.0005424886522579635 0 -0.020266440815990702 0.00017296995239113354 0 -0.019832385920047987 -0.00043027946395726962 0 -0.020266440815990702 0.00017296995239113354 0 -0.0203135042339277 -0.00014439492088912694 0 -0.019832385920047987 -0.00043027946395726962 0 -0.020164031443661596 -0.00086283856982591225 0 -0.019522515200169129 -0.0012244798022019374 0 -0.020470561773620673 -0.0015285055111200591 0 -0.021519060060498734 0.00028374870562851537 0 -0.019832385920047987 -0.00043027946395726962 0 -0.020164031443661596 -0.00086283856982591225 0 -0.0203135042339277 -0.00014439492088912694 0 -0.020470561773620673 -0.0015285055111200591 0 -0.022134238844872887 -0.0011677821337408617 0 -0.020343553233980717 -0.0016834384717341728 0 -0.020109040258104196 -0.0029618875040583856 0 -0.020690819846185263 -0.0020057131830423761 0 -0.021405541174135654 -0.0013299678618318765 0 -0.022185602689408251 -0.00088587623012893453 0 -0.021615785468888322 -0.00027369159924545708 0 -0.02203327349904283 0.0024482825456673242 0 -0.021696699203770466 0.0017613507963987125 0 -0.021194460898308388 0.001954732258743526 0 -0.021519060060498734 0.00028374870562851537 0 -0.023522454944756254 3.2708062361642481e-05 0 -0.024081062336790065 0.0014212688787022391 0 -0.021519060060498734 0.00028374870562851537 0 -0.023256688791782883 0.00036232091855065515 0 -0.023261549510297203 0.00070008473547392787 0 -0.02320529820841178 0.00072972197419187703 0 -0.023661561839515448 0.00059252268017794679 0 -0.023256688791782883 0.00036232091855065515 0 -0.023336190201050235 0.00073556493110047371 0 -0.023256688791782883 0.00036232091855065515 0 -0.023261549510297203 0.00070008473547392787 0 -0.023336190201050235 0.00073556493110047371 0 -0.0254613878144943 0.00012113937036242808 0 -0.025475602134564498 0.00012104260667836996 0 -0.02545504278635663 0.00011186028379257571 0 -0.025132334886358534 0.00064165052470907167 0 -0.024254067155455254 0.00057340574825115486 0 -0.0254613878144943 0.00012113937036242808 0 -0.02545504278635663 0.00011186028379257571 0 -0.025453722681463686 0.0001172182178408582 0 -0.023261549510297203 0.00070008473547392787 0 -0.023255557965549709 0.00077359618585964656 0 -0.02320529820841178 0.00072972197419187703 0 -0.023261549510297203 0.00070008473547392787 0 -0.023344837059979799 0.00073504213079187222 0 -0.023255557965549709 0.00077359618585964656 0 -0.024220052819985443 0.00022353049374844821 0 -0.023522454944756254 3.2708062361642481e-05 0 -0.02379421861643842 0.00047609478021041921 0 -0.024254067155455254 0.00057340574825115486 0 -0.024254067155455254 0.00057340574825115486 0 -0.024220052819985443 0.00022353049374844821 0 -0.02545504278635663 0.00011186028379257571 0 -0.025453722681463686 0.0001172182178408582 0 -0.025446553556532216 0.00011392268627521961 0 -0.025453722681463686 0.0001172182178408582 0 -0.025450672770200796 0.00011571864528535421 0 -0.025448955734721283 0.0001166934402986054 0 -0.024516548665575663 0.00035139892603758071 0 -0.024220052819985443 0.00022353049374844821 0 -0.023805476347179166 0.00018616789821195942 0 -0.023907042002436256 0.00013918136968977838 0 -0.023886121988656847 0.00025548809196265576 0 -0.022185602689408251 -0.00088587623012893453 0 -0.022030199587358586 7.7134166808768415e-05 0 -0.021615785468888322 -0.00027369159924545708 0 -0.023361761356089472 -3.2440913247086929e-05 0 -0.023799443167481522 -0.00049106768544878126 0 -0.023167869361855973 -0.0010284019777929219 0 -0.024245757733055647 -4.2499813813097858e-05 0 -0.023522454944756254 3.2708062361642481e-05 0 -0.023361761356089472 -3.2440913247086929e-05 0 -0.023752545203638772 -0.0002116692969355083 0 -0.023799443167481522 -0.00049106768544878126 0 -0.024220052819985443 0.00022353049374844821 0 -0.024245757733055647 -4.2499813813097858e-05 0 -0.02448025110945817 -0.00040626067039987724 0 -0.024245757733055647 -4.2499813813097858e-05 0 -0.02448025110945817 -0.00040626067039987724 0 -0.022134238844872887 -0.0011677821337408617 0 -0.02361129680449487 -0.00033816405088221338 0 -0.023597084366775545 -0.00042398200691730201 0 -0.023536950330705707 -0.0003658197628251465 0 -0.023522454944756254 3.2708062361642481e-05 0 -0.022134238844872887 -0.0011677821337408617 0 -0.022083049203466449 0.00069805084516840409 0 -0.022009808780873524 0.00084107374161789363 0 -0.021932738278583306 0.00066915377226523507 0 -0.022083049203466449 0.00069805084516840409 0 -0.022112888757655397 0.00086162552528366051 0 -0.022009808780873524 0.00084107374161789363 0 -0.022083049203466449 0.00069805084516840409 0 -0.022174034881577896 0.00071263365378463684 0 -0.022112888757655397 0.00086162552528366051 0 -0.022237250742607125 0.00064526323797489628 0 -0.022174034881577896 0.00071263365378463684 0 -0.022163353501963547 0.00064257415131334502 0 -0.022083049203466449 0.00069805084516840409 0 -0.022174034881577896 0.00071263365378463684 0 -0.022163353501963547 0.00064257415131334502 0 -0.022237250742607125 0.00064526323797489628 0 -0.022174034881577896 0.00071263365378463684 0 -0.022268631664210781 0.00070112117686550138 0 -0.022174034881577896 0.00071263365378463684 0 -0.022112888757655397 0.00086162552528366051 0 -0.022268631664210781 0.00070112117686550138 0 -0.022112888757655397 0.00086162552528366051 0 -0.022061974296746639 0.00095135564929076414 0 -0.022138863712438613 0.0010372425639347453 0 -0.022112888757655397 0.00086162552528366051 0 -0.022268631664210781 0.00070112117686550138 0 -0.022266135690089246 0.0011205369030462705 0 -0.022112888757655397 0.00086162552528366051 0 -0.022266135690089246 0.0011205369030462705 0 -0.022138863712438613 0.0010372425639347453 0 -0.022112888757655397 0.00086162552528366051 0 -0.022009808780873524 0.00084107374161789363 0 -0.022061974296746639 0.00095135564929076414 0 -0.022009808780873524 0.00084107374161789363 0 -0.022061974296746639 0.00095135564929076414 0 -0.022002558761271669 0.0009515726508553912 0 -0.022009808780873524 0.00084107374161789363 0 -0.021942226815129515 0.00087163457261285485 0 -0.022002558761271669 0.0009515726508553912 0 -0.022551728201806245 -0.00015098263543166247 0 -0.022084512489626829 -7.488016228093621e-07 0 -0.022935284932255821 -0.00012178869624541677 0 -0.022084512489626829 -7.488016228093621e-07 0 -0.022935284932255821 -0.00012178869624541677 0 -0.02405022631685973 9.8943134531735137e-07 0 -0.022935284932255821 -0.00012178869624541677 0 -0.02405022631685973 9.8943134531735137e-07 0 -0.022649531789044903 0.00011494786807975394 0 -0.022145820252678798 0.00035174876386695925 0 -0.022743782284534629 0.00050353188439951867 0 -0.022551728201806245 -0.00015098263543166247 0 -0.022935284932255821 -0.00012178869624541677 0 -0.022649531789044903 0.00011494786807975394 0 -0.021909589128000728 0.00078947329369154445 0 -0.022743782284534629 0.00050353188439951867 0 -0.022009808780873524 0.00084107374161789363 0 -0.021942226815129515 0.00087163457261285485 0 -0.0219696589734035 0.00076000712183548337 0 -0.022743782284534629 0.00050353188439951867 0 -0.024778068514693569 0.00021571108372550591 0 -0.022743782284534629 0.00050353188439951867 0 -0.024639863607941355 0.00028145375987578727 0 -0.021932738278583306 0.00066915377226523507 0 -0.02202007918050352 0.0004292167415378087 0 -0.022052564247857464 0.00056340510441377104 0 -0.024500749345349567 0.00046953194408952523 0 -0.024386754338576434 0.00026015774695490029 0 -0.024611078031298497 0.00010320869917323259 0 -0.02405022631685973 9.8943134531735137e-07 0 -0.022649531789044903 0.00011494786807975394 0 -0.02329681254381424 0.0010418022731477109 0 -0.024054114737154884 -7.6087866928647611e-10 0 -0.025090289246723636 4.969926114737352e-07 0 -0.025249429385462124 1.2076017873239611e-09 0 -0.024052724748379693 5.1507089376032899e-07 0 -0.024778068514693569 0.00021571108372550591 0 -0.026450794327590305 2.0530003718966572e-08 0 -0.026287714051624608 -0.00022235421610903113 0 -0.026145682028024076 -3.253904727325992e-05 0 -0.026444747423848496 2.383015129928885e-10 0 -0.025090289246723636 4.969926114737352e-07 0 -0.025249429385462124 1.2076017873239611e-09 0 -0.026445946200763858 -1.3917545549086037e-07 0 -0.024778068514693569 0.00021571108372550591 0 -0.024386754338576434 0.00026015774695490029 0 -0.02454746723471277 7.0295778281169631e-05 0 -0.024611078031298497 0.00010320869917323259 0 -0.024778068514693569 0.00021571108372550591 0 -0.02665645800011885 0.00046388838098053545 0 -0.02665645800011885 0.00046388838098053545 0 -0.024639863607941355 0.00028145375987578727 0 -0.02202007918050352 0.0004292167415378087 0 -0.022052564247857464 0.00056340510441377104 0 -0.022195371197383396 0.00052423615326904077 0 -0.024639863607941355 0.00028145375987578727 0 -0.024033644462554783 -1.6178320346930843e-05 0 -0.026256222160434939 -0.00014469962401170397 0 -0.026415568771488561 -0.0002080315600710585 0 -0.026104349542893899 -0.00035834676093938247 0 -0.022052564247857464 0.00056340510441377104 0 -0.022131807538856522 0.00059712725840784051 0 -0.022195371197383396 0.00052423615326904077 0 -0.022083049203466449 0.00069805084516840409 0 -0.021932738278583306 0.00066915377226523507 0 -0.022052564247857464 0.00056340510441377104 0 -0.022083049203466449 0.00069805084516840409 0 -0.022052564247857464 0.00056340510441377104 0 -0.022131807538856522 0.00059712725840784051 0 -0.022083049203466449 0.00069805084516840409 0 -0.022131807538856522 0.00059712725840784051 0 -0.022163353501963547 0.00064257415131334502 0 -0.024033644462554783 -1.6178320346930843e-05 0 -0.023556389114365563 -8.8211325725188642e-05 0 -0.025287391554974156 -0.00049701538419866232 0 -0.024884707512713707 -0.00070009139038961453 0 -0.02500752151459873 -0.00051969327557988617 0 -0.02223698782063134 0.00059097884352622492 0 -0.022194418621161806 0.00052684614178291687 0 -0.02231052279310999 0.00058039999327622017 0 -0.02223698782063134 0.00059097884352622492 0 -0.022207168977977809 0.00061206817410864754 0 -0.022190340009739729 0.00056932100533412552 0 -0.022237250742607125 0.00064526323797489628 0 -0.02223698782063134 0.00059097884352622492 0 -0.022274563837853482 0.00061460832733847967 0 -0.022237250742607125 0.00064526323797489628 0 -0.02223698782063134 0.00059097884352622492 0 -0.022207168977977809 0.00061206817410864754 0 -0.022131807538856522 0.00059712725840784051 0 -0.022163353501963547 0.00064257415131334502 0 -0.022190340009739729 0.00056932100533412552 0 -0.022207168977977809 0.00061206817410864754 0 -0.022163353501963547 0.00064257415131334502 0 -0.022190340009739729 0.00056932100533412552 0 -0.022237250742607125 0.00064526323797489628 0 -0.022207168977977809 0.00061206817410864754 0 -0.022163353501963547 0.00064257415131334502 0 -0.02223698782063134 0.00059097884352622492 0 -0.022190340009739729 0.00056932100533412552 0 -0.022194418621161806 0.00052684614178291687 0 -0.022131807538856522 0.00059712725840784051 0 -0.022190340009739729 0.00056932100533412552 0 -0.022195371197383396 0.00052423615326904077 0 -0.023529453003784062 0.0003746110468608802 0 -0.024033644462554783 -1.6178320346930843e-05 0 -0.025287391554974156 -0.00049701538419866232 0 -0.025109156961511357 -0.00030372549855196113 0 -0.02500752151459873 -0.00051969327557988617 0 -0.025320939598500333 7.9287571014606626e-05 0 -0.025287391554974156 -0.00049701538419866232 0 -0.025109156961511357 -0.00030372549855196113 0 -0.025320939598500333 7.9287571014606626e-05 0 -0.025109156961511357 -0.00030372549855196113 0 -0.024997209774027758 -0.00016762077357592811 0 -0.026135158895454837 -3.9470289697060821e-05 0 -0.026256222160434939 -0.00014469962401170397 0 -0.026104349542893899 -0.00035834676093938247 0 -0.027568150071254457 -0.00060665797708890233 0 -0.024033644462554783 -1.6178320346930843e-05 0 -0.025109156961511357 -0.00030372549855196113 0 -0.024997209774027758 -0.00016762077357592811 0 -0.024934683699613873 -0.00041242607500976633 0 -0.026987964657679497 -0.0014550884519854814 0 -0.027076927417964688 -0.0015353119783348434 0 -0.026978618338082138 -0.0015986676362421436 0 -0.024997209774027758 -0.00016762077357592811 0 -0.024934683699613873 -0.00041242607500976633 0 -0.024683556161835873 -0.00041597541288645123 0 -0.025109156961511357 -0.00030372549855196113 0 -0.024934683699613873 -0.00041242607500976633 0 -0.02500752151459873 -0.00051969327557988617 0 -0.024934683699613873 -0.00041242607500976633 0 -0.024683556161835873 -0.00041597541288645123 0 -0.024832989944229316 -0.00063288633689344482 0 -0.025935994730523177 -0.00093625261245739138 0 -0.025258064592713476 -0.00071474297806016192 0 -0.024100593286273703 -0.00071874821718873061 0 -0.023853933599349897 -0.00034039657759287216 0 -0.024174664743628303 -0.00038078070287407741 0 -0.025554947170396591 -0.0011704092290654123 0 -0.025258064592713476 -0.00071474297806016192 0 -0.025258064592713476 -0.00071474297806016192 0 -0.023826800636782199 -0.00031476334506584202 0 -0.024613909805441089 -0.00032897304013734693 0 -0.024544674360983471 -0.00068334361476297045 0 -0.024025754964074518 -0.00080758390686073056 0 -0.024544674360983471 -0.00068334361476297045 0 -0.024025754964074518 -0.00080758390686073056 0 -0.024350367937077313 -0.00096356154090056732 0 -0.023853933599349897 -0.00034039657759287216 0 -0.024174664743628303 -0.00038078070287407741 0 -0.02416273896300682 -7.6502222154531703e-05 0 -0.023826800636782199 -0.00031476334506584202 0 -0.023220350076172808 0.00021611507079263842 0 -0.024544674360983471 -0.00068334361476297045 0 -0.024884707512713707 -0.00070009139038961453 0 -0.024350367937077313 -0.00096356154090056732 0 -0.023556389114365563 -8.8211325725188642e-05 0 -0.023220350076172808 0.00021611507079263842 0 -0.02231052279310999 0.00058039999327622017 0 -0.022305506939289194 0.00063954995147618842 0 -0.022437726516375878 0.00063807640710298696 0 -0.022274563837853482 0.00061460832733847967 0 -0.02231052279310999 0.00058039999327622017 0 -0.022305506939289194 0.00063954995147618842 0 -0.02223698782063134 0.00059097884352622492 0 -0.022274563837853482 0.00061460832733847967 0 -0.02231052279310999 0.00058039999327622017 0 -0.024934683699613873 -0.00041242607500976633 0 -0.02500752151459873 -0.00051969327557988617 0 -0.024832989944229316 -0.00063288633689344482 0 -0.024884707512713707 -0.00070009139038961453 0 -0.02500752151459873 -0.00051969327557988617 0 -0.024832989944229316 -0.00063288633689344482 0 -0.024544674360983471 -0.00068334361476297045 0 -0.024884707512713707 -0.00070009139038961453 0 -0.024832989944229316 -0.00063288633689344482 0 -0.025258064592713476 -0.00071474297806016192 0 -0.024792825661496092 -0.00043647613025937662 0 -0.024613909805441089 -0.00032897304013734693 0 -0.024544674360983471 -0.00068334361476297045 0 -0.024832989944229316 -0.00063288633689344482 0 -0.024735006271918672 -0.00033032548037476711 0 -0.024095615955732976 -0.00010254340363856758 0 -0.024772905026760716 -0.00033336440379248177 0 -0.024485878225702071 -0.00052410925498397527 0 -0.024397045175354706 -0.00018513376605426132 0 -0.024485878225702071 -0.00052410925498397527 0 -0.024174664743628303 -0.00038078070287407741 0 -0.024397045175354706 -0.00018513376605426132 0 -0.024100593286273703 -0.00071874821718873061 0 -0.024485878225702071 -0.00052410925498397527 0 -0.024174664743628303 -0.00038078070287407741 0 -0.024174664743628303 -0.00038078070287407741 0 -0.02416273896300682 -7.6502222154531703e-05 0 -0.024397045175354706 -0.00018513376605426132 0 -0.023826800636782199 -0.00031476334506584202 0 -0.024095615955732976 -0.00010254340363856758 0 -0.024772905026760716 -0.00033336440379248177 0 -0.02443698751329627 0.00022410048154983454 0 -0.023824897192336911 -2.8017945902203416e-05 0 -0.02443698751329627 0.00022410048154983454 0 -0.023824897192336911 -2.8017945902203416e-05 0 -0.023795921977063657 0.00068532905026143752 0 -0.023795921977063657 0.00068532905026143752 0 -0.022885019635162707 0.00025372386610419403 0 -0.023070529027857885 0.00094920145042273903 0 -0.023399589089583346 0.00017233823531402598 0 -0.023824897192336911 -2.8017945902203416e-05 0 -0.023795921977063657 0.00068532905026143752 0 -0.023399589089583346 0.00017233823531402598 0 -0.023795921977063657 0.00068532905026143752 0 -0.023107070887977896 0.00031165064528822673 0 -0.023677510155720522 0.00067070472089230618 0 -0.023220350076172808 0.00021611507079263842 0 -0.023795921977063657 0.00068532905026143752 0 -0.023070529027857885 0.00094920145042273903 0 -0.023669022417980384 0.0014102833702012197 0 -0.024662736485229802 0.00075389868040700626 0 -0.023795921977063657 0.00068532905026143752 0 -0.024177281350548165 0.0012132344052741572 0 -0.023795921977063657 0.00068532905026143752 0 -0.024177281350548165 0.0012132344052741572 0 -0.023669022417980384 0.0014102833702012197 0 -0.022076308570873723 0.00077236619850966088 0 -0.023220350076172808 0.00021611507079263842 0 -0.022268631664210781 0.00070112117686550138 0 -0.022885019635162707 0.00025372386610419403 0 -0.02260651731255385 0.00076399110080956805 0 -0.022268631664210781 0.00070112117686550138 0 -0.022305506939289194 0.00063954995147618842 0 -0.022437726516375878 0.00063807640710298696 0 -0.022237250742607125 0.00064526323797489628 0 -0.022268631664210781 0.00070112117686550138 0 -0.022305506939289194 0.00063954995147618842 0 -0.022237250742607125 0.00064526323797489628 0 -0.022274563837853482 0.00061460832733847967 0 -0.022305506939289194 0.00063954995147618842 0 -0.022885019635162707 0.00025372386610419403 0 -0.023070529027857885 0.00094920145042273903 0 -0.02260651731255385 0.00076399110080956805 0 -0.023070529027857885 0.00094920145042273903 0 -0.02260651731255385 0.00076399110080956805 0 -0.022266135690089246 0.0011205369030462705 0 -0.022268631664210781 0.00070112117686550138 0 -0.02260651731255385 0.00076399110080956805 0 -0.022266135690089246 0.0011205369030462705 0 -0.022266135690089246 0.0011205369030462705 0 -0.021930045515457696 0.001132675321293418 0 -0.022078042008058643 0.001039914814903654 0 -0.022266135690089246 0.0011205369030462705 0 -0.022078042008058643 0.001039914814903654 0 -0.022138863712438613 0.0010372425639347453 0 -0.023070529027857885 0.00094920145042273903 0 -0.022266135690089246 0.0011205369030462705 0 -0.023062424269817316 0.0016848015230903201 0 -0.022252959186232213 0.0011338342260957428 0 -0.02251027005375834 0.0014000816617327286 0 -0.021930045515457696 0.001132675321293418 0 -0.022078042008058643 0.001039914814903654 0 -0.02181875957438513 0.00093912650740148539 0 -0.024060206344880968 0.001785708147890421 0 -0.024177281350548165 0.0012132344052741572 0 -0.023669022417980384 0.0014102833702012197 0 -0.023070529027857885 0.00094920145042273903 0 -0.023062424269817316 0.0016848015230903201 0 -0.023669022417980384 0.0014102833702012197 0 -0.023062424269817316 0.0016848015230903201 0 -0.023669022417980384 0.0014102833702012197 0 -0.023732303124492888 0.0019415944804537565 0 -0.02251027005375834 0.0014000816617327286 0 -0.022544943876361547 0.0014071683717712935 0 -0.021930045515457696 0.001132675321293418 0 -0.021638047606807383 0.001071711735936572 0 -0.02181875957438513 0.00093912650740148539 0 -0.024060206344880968 0.001785708147890421 0 -0.023937647688500308 0.0018023137181000805 0 -0.023732303124492888 0.0019415944804537565 0 -0.024060206344880968 0.001785708147890421 0 -0.023669022417980384 0.0014102833702012197 0 -0.023732303124492888 0.0019415944804537565 0 -0.021638047606807383 0.001071711735936572 0 -0.021316300593438541 0.00093154651565865369 0 -0.021566833823294738 0.00084919828694173709 0 -0.022544943876361547 0.0014071683717712935 0 -0.023266217344853481 0.0015446693252596246 0 -0.023937647688500308 0.0018023137181000805 0 -0.023732303124492888 0.0019415944804537565 0 -0.023960317742982386 0.0016852515224029044 0 -0.021638047606807383 0.001071711735936572 0 -0.021566833823294738 0.00084919828694173709 0 -0.02181875957438513 0.00093912650740148539 0 -0.021566833823294738 0.00084919828694173709 0 -0.02181875957438513 0.00093912650740148539 0 -0.021657284155760511 0.00063930480320803604 0 -0.021566833823294738 0.00084919828694173709 0 -0.021657284155760511 0.00063930480320803604 0 -0.021354597355388732 0.00064404512717075753 0 -0.021316300593438541 0.00093154651565865369 0 -0.021566833823294738 0.00084919828694173709 0 -0.021354597355388732 0.00064404512717075753 0 -0.022078042008058643 0.001039914814903654 0 -0.02181875957438513 0.00093912650740148539 0 -0.02192026070152241 0.00079655336456545701 0 -0.022078042008058643 0.001039914814903654 0 -0.02192026070152241 0.00079655336456545701 0 -0.022048231755669431 0.00093479179333441664 0 -0.02181875957438513 0.00093912650740148539 0 -0.02192026070152241 0.00079655336456545701 0 -0.021657284155760511 0.00063930480320803604 0 -0.013335476726118331 0.0010555572631694404 0 -0.014219164852671702 0.0011829198076452143 0 -0.013748466944529348 0.00062400463906448888 0 -0.017813951973387768 0.00094114323264543533 0 -0.018060036353919718 0.0010267295116496997 0 -0.018060036353919718 0.0010267295116496997 0 -0.018780612565895236 0.0012762134889131342 0 -0.014219164852671702 0.0011829198076452143 0 -0.015397299704060808 0.001327297184905239 0 -0.014614709691657677 0.00034382492791546008 0 -0.022048231755669431 0.00093479179333441664 0 -0.022062597800759729 0.0010131122864761794 0 -0.022011577640070362 0.001032863756549249 0 -0.022062597800759729 0.0010131122864761794 0 -0.022005465140056128 0.001010648089809655 0 -0.022011577640070362 0.001032863756549249 0 -0.022078042008058643 0.001039914814903654 0 -0.022048231755669431 0.00093479179333441664 0 -0.022062597800759729 0.0010131122864761794 0 -0.022078042008058643 0.001039914814903654 0 -0.022074852062827059 0.0010171574379840595 0 -0.022138863712438613 0.0010372425639347453 0 -0.022078042008058643 0.001039914814903654 0 -0.022062597800759729 0.0010131122864761794 0 -0.022074852062827059 0.0010171574379840595 0 -0.022062597800759729 0.0010131122864761794 0 -0.022074852062827059 0.0010171574379840595 0 -0.022005465140056128 0.001010648089809655 0 -0.022074852062827059 0.0010171574379840595 0 -0.022002558761271669 0.0009515726508553912 0 -0.022005465140056128 0.001010648089809655 0 -0.022074852062827059 0.0010171574379840595 0 -0.022061974296746639 0.00095135564929076414 0 -0.022002558761271669 0.0009515726508553912 0 -0.022074852062827059 0.0010171574379840595 0 -0.022061974296746639 0.00095135564929076414 0 -0.022138863712438613 0.0010372425639347453 0 -0.022145820252678798 0.00035174876386695925 0 -0.021724169565270693 0.0002434288758973957 0 -0.022084512489626829 -7.488016228093621e-07 0 -0.021241460280035158 -9.4772120775908836e-06 0 -0.020115848918519804 1.6916221715628264e-08 0 -0.022551728201806245 -0.00015098263543166247 0 -0.022084512489626829 -7.488016228093621e-07 0 -0.021241460280035158 -9.4772120775908836e-06 0 -0.021942226815129515 0.00087163457261285485 0 -0.021940763922615264 0.00097172201218350773 0 -0.022002558761271669 0.0009515726508553912 0 -0.021940763922615264 0.00097172201218350773 0 -0.022002558761271669 0.0009515726508553912 0 -0.022005465140056128 0.001010648089809655 0 -0.021724169565270693 0.0002434288758973957 0 -0.019506707910196402 0.0010198538981011213 0 -0.021241460280035158 -9.4772120775908836e-06 0 -0.020115848918519804 1.6916221715628264e-08 0 -0.019622126666642783 6.4786706652421216e-05 0 -0.021940763922615264 0.00097172201218350773 0 -0.022005465140056128 0.001010648089809655 0 -0.021921091427089978 0.0010366549709655757 0 -0.019539494867791524 5.6917965619410539e-05 0 -0.019509616188722833 6.2459799734204918e-05 0 -0.018151854792612276 0.00011944150621790258 0 -0.017522173862215239 0.0022037643490146171 0 -0.017068255695154001 0.0011762396506767745 0 -0.015397299704060808 0.001327297184905239 0 -0.020115848918519804 1.6916221715628264e-08 0 -0.019539494867791524 5.6917965619410539e-05 0 -0.018144760654053661 1.7158035040438589e-06 0 -0.019539494867791524 5.6917965619410539e-05 0 -0.018151854792612276 0.00011944150621790258 0 -0.018144760654053661 1.7158035040438589e-06 0 -0.020115848918519804 1.6916221715628264e-08 0 -0.019539494867791524 5.6917965619410539e-05 0 -0.019622126666642783 6.4786706652421216e-05 0 -0.019461808284379014 0.00094255431855999128 0 -0.019506707910196402 0.0010198538981011213 0 -0.017522173862215239 0.0022037643490146171 0 -0.017068255695154001 0.0011762396506767745 0 -0.018151854792612276 0.00011944150621790258 0 -0.019506707910196402 0.0010198538981011213 0 -0.018392581427738541 0.0002552867178156051 0 -0.022005465140056128 0.001010648089809655 0 -0.021921091427089978 0.0010366549709655757 0 -0.022011577640070362 0.001032863756549249 0 -0.019506707910196402 0.0010198538981011213 0 -0.018780612565895236 0.0012762134889131342 0 -0.017068255695154001 0.0011762396506767745 0 -0.015397299704060808 0.001327297184905239 0 -0.016845304424972576 0.00058172022610487612 0 -0.015397299704060808 0.001327297184905239 0 -0.016845304424972576 0.00058172022610487612 0 -0.015922152111036227 0.00012586590043591733 0 -0.015397299704060808 0.001327297184905239 0 -0.015922152111036227 0.00012586590043591733 0 -0.014614709691657677 0.00034382492791546008 0 -0.018144760654053661 1.7158035040438589e-06 0 -0.016845304424972576 0.00058172022610487612 0 -0.015922152111036227 0.00012586590043591733 0 -0.018151854792612276 0.00011944150621790258 0 -0.018144760654053661 1.7158035040438589e-06 0 -0.016845304424972576 0.00058172022610487612 0 -0.017068255695154001 0.0011762396506767745 0 -0.018151854792612276 0.00011944150621790258 0 -0.016845304424972576 0.00058172022610487612 0 -0.018144760654053661 1.7158035040438589e-06 0 -0.015922152111036227 0.00012586590043591733 0 -0.016176948831978132 -7.4868276954904389e-07 0 -0.015922152111036227 0.00012586590043591733 0 -0.014935965451245469 -6.074255462028997e-05 0 -0.014614709691657677 0.00034382492791546008 0 -0.014935965451245469 -6.074255462028997e-05 0 -0.016176948831978132 -7.4868276954904389e-07 0 -0.014687034748761608 -0.00017001503966548547 0 -0.015922152111036227 0.00012586590043591733 0 -0.014935965451245469 -6.074255462028997e-05 0 -0.016176948831978132 -7.4868276954904389e-07 0 -0.014219164852671702 0.0011829198076452143 0 -0.014614709691657677 0.00034382492791546008 0 -0.013748466944529348 0.00062400463906448888 0 -0.014935965451245469 -6.074255462028997e-05 0 -0.014614709691657677 0.00034382492791546008 0 -0.014133996993769013 4.8598557994552024e-05 0 -0.014614709691657677 0.00034382492791546008 0 -0.014133996993769013 4.8598557994552024e-05 0 -0.013748466944529348 0.00062400463906448888 0 -0.014133996993769013 4.8598557994552024e-05 0 -0.014074643313474529 -0.00025769293970104128 0 -0.013332665372978204 -0.00012466673418272156 0 -0.014133996993769013 4.8598557994552024e-05 0 -0.014346286285607714 -0.00025123069280616505 0 -0.014074643313474529 -0.00025769293970104128 0 -0.014935965451245469 -6.074255462028997e-05 0 -0.014133996993769013 4.8598557994552024e-05 0 -0.014346286285607714 -0.00025123069280616505 0 -0.014346286285607714 -0.00025123069280616505 0 -0.014074643313474529 -0.00025769293970104128 0 -0.014236790670688733 -0.00014842569569378108 0 -0.014074643313474529 -0.00025769293970104128 0 -0.013771974490822949 -0.00083124929460598939 0 -0.013332665372978204 -0.00012466673418272156 0 -0.014687034748761608 -0.00017001503966548547 0 -0.0138377585797376 -0.00015948247445650307 0 -0.014208077880180081 -1.9992838158277526e-07 0 -0.016176948831978132 -7.4868276954904389e-07 0 -0.014687034748761608 -0.00017001503966548547 0 -0.014208077880180081 -1.9992838158277526e-07 0 -0.014346286285607714 -0.00025123069280616505 0 -0.014687034748761608 -0.00017001503966548547 0 -0.0138377585797376 -0.00015948247445650307 0 -0.014935965451245469 -6.074255462028997e-05 0 -0.014346286285607714 -0.00025123069280616505 0 -0.014687034748761608 -0.00017001503966548547 0 -0.014346286285607714 -0.00025123069280616505 0 -0.0138377585797376 -0.00015948247445650307 0 -0.014236790670688733 -0.00014842569569378108 0 -0.0138377585797376 -0.00015948247445650307 0 -0.012622427568961736 0.00040614685630933586 0 -0.014236790670688733 -0.00014842569569378108 0 -0.0138377585797376 -0.00015948247445650307 0 -0.014208077880180081 -1.9992838158277526e-07 0 -0.012622427568961736 0.00040614685630933586 0 -0.014208077880180081 -1.9992838158277526e-07 0 -0.012622427568961736 0.00040614685630933586 0 -0.0122393294281967 9.1381423418292683e-07 0 -0.012622427568961736 0.00040614685630933586 0 -0.0122393294281967 9.1381423418292683e-07 0 -0.01152591612992202 3.7111461726378693e-05 0 -0.01152591612992202 3.7111461726378693e-05 0 -0.010377064330219286 -0.00012135736233498958 0 -0.01027037950463639 -6.9489978950845099e-07 0 -0.0122393294281967 9.1381423418292683e-07 0 -0.01152591612992202 3.7111461726378693e-05 0 -0.01027037950463639 -6.9489978950845099e-07 0 -0.01152591612992202 3.7111461726378693e-05 0 -0.010377064330219286 -0.00012135736233498958 0 -0.0095633936665813022 0.001105343884482047 0 -0.012478694658578487 0.00043181006155257253 0 -0.011838922705767037 0.00041748826485749313 0 -0.012622427568961736 0.00040614685630933586 0 -0.01152591612992202 3.7111461726378693e-05 0 -0.0095633936665813022 0.001105343884482047 0 -0.011838922705767037 0.00041748826485749313 0 -0.010794101542466929 2.5636113413773895e-06 0 -0.014074643313474529 -0.00025769293970104128 0 -0.014236790670688733 -0.00014842569569378108 0 -0.013771974490822949 -0.00083124929460598939 0 -0.0095633936665813022 0.001105343884482047 0 -0.0078146403248436809 0.000845242291334464 0 -0.0088576311833738416 0.0002747586159706735 0 -0.0078146403248436809 0.000845242291334464 0 -0.0088576311833738416 0.0002747586159706735 0 -0.0078805338228292547 -4.6270187885657366e-05 0 -0.010377064330219286 -0.00012135736233498958 0 -0.0088576311833738416 0.0002747586159706735 0 -0.0091695847962298092 -0.00026306301565040427 0 -0.010377064330219286 -0.00012135736233498958 0 -0.0095633936665813022 0.001105343884482047 0 -0.0088576311833738416 0.0002747586159706735 0 -0.0088576311833738416 0.0002747586159706735 0 -0.0091695847962298092 -0.00026306301565040427 0 -0.0078805338228292547 -4.6270187885657366e-05 0 -0.0078805338228292547 -4.6270187885657366e-05 0 -0.0084362884781276834 -0.00043349308724730879 0 -0.0072139570512359599 -0.00027903078483443273 0 -0.0091695847962298092 -0.00026306301565040427 0 -0.0078805338228292547 -4.6270187885657366e-05 0 -0.0084362884781276834 -0.00043349308724730879 0 -0.0084362884781276834 -0.00043349308724730879 0 -0.0074452623371125039 -0.00059198400852809017 0 -0.0072139570512359599 -0.00027903078483443273 0 -0.0084362884781276834 -0.00043349308724730879 0 -0.0074452623371125039 -0.00059198400852809017 0 -0.0086777364663473203 -0.00076335134038261652 0 -0.0091695847962298092 -0.00026306301565040427 0 -0.0084362884781276834 -0.00043349308724730879 0 -0.0091952795935670174 -0.0004660614911102127 0 -0.0084362884781276834 -0.00043349308724730879 0 -0.0091952795935670174 -0.0004660614911102127 0 -0.0086777364663473203 -0.00076335134038261652 0 -0.0091952795935670174 -0.0004660614911102127 0 -0.01027037950463639 -6.9489978950845099e-07 0 -0.0083021528470773511 -1.1380646982375144e-06 0 -0.010377064330219286 -0.00012135736233498958 0 -0.01027037950463639 -6.9489978950845099e-07 0 -0.0098269332912883194 -0.00021023705818438071 0 -0.0091952795935670174 -0.0004660614911102127 0 -0.01027037950463639 -6.9489978950845099e-07 0 -0.0098269332912883194 -0.00021023705818438071 0 -0.010377064330219286 -0.00012135736233498958 0 -0.0091695847962298092 -0.00026306301565040427 0 -0.0098269332912883194 -0.00021023705818438071 0 -0.0091695847962298092 -0.00026306301565040427 0 -0.0091952795935670174 -0.0004660614911102127 0 -0.0098269332912883194 -0.00021023705818438071 0 -0.0066990534932510502 -4.5890854328038248e-05 0 -0.0064765515660704228 -0.00029508329764934513 0 -0.0067281655343480358 -0.00029863655841880693 0 -0.0066990534932510502 -4.5890854328038248e-05 0 -0.0067281655343480358 -0.00029863655841880693 0 -0.0074502857074204782 -0.00052290848893472635 0 -0.0066990534932510502 -4.5890854328038248e-05 0 -0.0074502857074204782 -0.00052290848893472635 0 -0.0080078541549087404 -0.00028879170784885033 0 -0.005567192399426925 -0.00033182637733662447 0 -0.0062560067426249075 -0.00047344728392867419 0 -0.0043813699269214402 -0.00047392232392273206 0 -0.0044342233715288686 -0.00063317585890516328 0 -0.0043968162257279056 -0.00054123084491944308 0 -0.0066990534932510502 -4.5890854328038248e-05 0 -0.0064765515660704228 -0.00029508329764934513 0 -0.0059499897279411892 -0.00045186749724806786 0 -0.0064765515660704228 -0.00029508329764934513 0 -0.00667951086441644 -0.00043337413890770065 0 -0.0059499897279411892 -0.00045186749724806786 0 -0.0064765515660704228 -0.00029508329764934513 0 -0.00667951086441644 -0.00043337413890770065 0 -0.0072139570512359599 -0.00027903078483443273 0 -0.0074452623371125039 -0.00059198400852809017 0 -0.00667951086441644 -0.00043337413890770065 0 -0.0065775564091164118 -0.00073864598486029771 0 -0.0074452623371125039 -0.00059198400852809017 0 -0.00667951086441644 -0.00043337413890770065 0 -0.0072139570512359599 -0.00027903078483443273 0 -0.0078805338228292547 -4.6270187885657366e-05 0 -0.0072139570512359599 -0.00027903078483443273 0 -0.0070075058105993496 -2.808814455603921e-05 0 -0.0064765515660704228 -0.00029508329764934513 0 -0.0072139570512359599 -0.00027903078483443273 0 -0.0070075058105993496 -2.808814455603921e-05 0 -0.0064765515660704228 -0.00029508329764934513 0 -0.0070075058105993496 -2.808814455603921e-05 0 -0.0067281655343480358 -0.00029863655841880693 0 -0.0070075058105993496 -2.808814455603921e-05 0 -0.0068746022597603387 0.0001498528211474121 0 -0.0067281655343480358 -0.00029863655841880693 0 -0.0078146403248436809 0.000845242291334464 0 -0.0070075058105993496 -2.808814455603921e-05 0 -0.0068746022597603387 0.0001498528211474121 0 -0.0078146403248436809 0.000845242291334464 0 -0.0078805338228292547 -4.6270187885657366e-05 0 -0.0070075058105993496 -2.808814455603921e-05 0 -0.013771974490822949 -0.00083124929460598939 0 -0.012686924612527841 -0.0012776040769326628 0 -0.013332665372978204 -0.00012466673418272156 0 -0.010794101542466929 2.5636113413773895e-06 0 -0.0098082994151303168 -0.00057340515208432054 0 -0.0098082994151303168 -0.00057340515208432054 0 -0.0089926432658386773 -0.0011122711411652181 0 -0.012686924612527841 -0.0012776040769326628 0 -0.010888975696582223 -0.0016641934443211773 0 -0.011828517566785683 -0.00040702989536981268 0 -0.010888975696582223 -0.0016641934443211773 0 -0.010021206139044751 -0.00073415455636887436 0 -0.011828517566785683 -0.00040702989536981268 0 -0.0068746022597603387 0.0001498528211474121 0 -0.0069940959840184081 -0.00069875442383096197 0 -0.0067281655343480358 -0.00029863655841880693 0 -0.0069940959840184081 -0.00069875442383096197 0 -0.0067281655343480358 -0.00029863655841880693 0 -0.0074502857074204782 -0.00052290848893472635 0 -0.0069940959840184081 -0.00069875442383096197 0 -0.0074502857074204782 -0.00052290848893472635 0 -0.0084324450851712435 -0.0011711517183222821 0 -0.0089926432658386773 -0.0011122711411652181 0 -0.0085396418429740401 -0.0011853540278848301 0 -0.010888975696582223 -0.0016641934443211773 0 -0.010021206139044751 -0.00073415455636887436 0 -0.0084324450851712435 -0.0011711517183222821 0 -0.010021206139044751 -0.00073415455636887436 0 -0.010606822572032104 0.00026474221410833116 0 -0.011828517566785683 -0.00040702989536981268 0 -0.011445972075551415 0.00024844256188373169 0 -0.010822101344040581 -0.00016304775863433852 0 -0.010021206139044751 -0.00073415455636887436 0 -0.010606822572032104 0.00026474221410833116 0 -0.008607205762947651 -0.00069126645381032835 0 -0.012473113104957087 0.00041810373825054378 0 -0.012475485456269149 0.00050216614913302653 0 -0.012463849424690331 0.00051704945611785031 0 -0.010606822572032104 0.00026474221410833116 0 -0.011828517566785683 -0.00040702989536981268 0 -0.012475485456269149 0.00050216614913302653 0 -0.011445972075551415 0.00024844256188373169 0 -0.012371934612676792 0.00053407430426604806 0 -0.012473113104957087 0.00041810373825054378 0 -0.012292325778829551 0.00036376451637945377 0 -0.012371931852582171 0.00049047687949067516 0 -0.012463849424690331 0.00051704945611785031 0 -0.012423103507562547 0.00061291686728393816 0 -0.012371931852582171 0.00049047687949067516 0 -0.012473113104957087 0.00041810373825054378 0 -0.012463849424690331 0.00051704945611785031 0 -0.012371931852582171 0.00049047687949067516 0 -0.012686924612527841 -0.0012776040769326628 0 -0.011828517566785683 -0.00040702989536981268 0 -0.013332665372978204 -0.00012466673418272156 0 -0.011828517566785683 -0.00040702989536981268 0 -0.012475485456269149 0.00050216614913302653 0 -0.013332665372978204 -0.00012466673418272156 0 -0.012475485456269149 0.00050216614913302653 0 -0.013332665372978204 -0.00012466673418272156 0 -0.013238050997128662 0.00047809964633403794 0 -0.014133996993769013 4.8598557994552024e-05 0 -0.013332665372978204 -0.00012466673418272156 0 -0.013238050997128662 0.00047809964633403794 0 -0.014133996993769013 4.8598557994552024e-05 0 -0.013238050997128662 0.00047809964633403794 0 -0.013748466944529348 0.00062400463906448888 0 -0.012475485456269149 0.00050216614913302653 0 -0.013238050997128662 0.00047809964633403794 0 -0.012808778597837491 0.00063097795139523138 0 -0.013238050997128662 0.00047809964633403794 0 -0.012808778597837491 0.00063097795139523138 0 -0.013146049705595304 0.00073890740431269977 0 -0.017813951973387768 0.00094114323264543533 0 -0.016176759047932771 0.00087808420838562614 0 -0.013335476726118331 0.0010555572631694404 0 -0.012705155296116988 0.00083670076805304294 0 -0.012625864727650737 0.00085544929285817856 0 -0.013335476726118331 0.0010555572631694404 0 -0.013146049705595304 0.00073890740431269977 0 -0.012705155296116988 0.00083670076805304294 0 -0.012808778597837491 0.00063097795139523138 0 -0.013146049705595304 0.00073890740431269977 0 -0.012705155296116988 0.00083670076805304294 0 -0.013238050997128662 0.00047809964633403794 0 -0.013146049705595304 0.00073890740431269977 0 -0.013748466944529348 0.00062400463906448888 0 -0.013335476726118331 0.0010555572631694404 0 -0.013146049705595304 0.00073890740431269977 0 -0.013748466944529348 0.00062400463906448888 0 -0.012399664835929192 0.00064774766722832321 0 -0.012626462202508518 0.00072969361881964961 0 -0.012423103507562547 0.00061291686728393816 0 -0.012433723091523271 0.0006772848166181674 0 -0.012412419488429447 0.00067164169246532862 0 -0.012423103507562547 0.00061291686728393816 0 -0.012486004288828064 0.00058450542436130415 0 -0.012433723091523271 0.0006772848166181674 0 -0.012463849424690331 0.00051704945611785031 0 -0.012423103507562547 0.00061291686728393816 0 -0.012486004288828064 0.00058450542436130415 0 -0.012475485456269149 0.00050216614913302653 0 -0.012808778597837491 0.00063097795139523138 0 -0.012589279863672764 0.00065812286605296906 0 -0.012475485456269149 0.00050216614913302653 0 -0.012463849424690331 0.00051704945611785031 0 -0.012486004288828064 0.00058450542436130415 0 -0.012475485456269149 0.00050216614913302653 0 -0.012486004288828064 0.00058450542436130415 0 -0.012589279863672764 0.00065812286605296906 0 -0.012486004288828064 0.00058450542436130415 0 -0.012589279863672764 0.00065812286605296906 0 -0.012433723091523271 0.0006772848166181674 0 -0.012589279863672764 0.00065812286605296906 0 -0.012649959344363712 0.00083308086756960344 0 -0.012433723091523271 0.0006772848166181674 0 -0.016176759047932771 0.00087808420838562614 0 -0.017208651648923934 0.0010189587830037343 0 -0.016176759047932771 0.00087808420838562614 0 -0.012399664835929192 0.00064774766722832321 0 -0.012808778597837491 0.00063097795139523138 0 -0.012589279863672764 0.00065812286605296906 0 -0.012705155296116988 0.00083670076805304294 0 -0.012589279863672764 0.00065812286605296906 0 -0.012705155296116988 0.00083670076805304294 0 -0.012649959344363712 0.00083308086756960344 0 -0.015337098833983433 0.00098153293092540688 0 -0.016176759047932771 0.00087808420838562614 0 -0.014203541245430823 0.0011958695581392627 0 -0.013277631854078839 0.00086835736116162138 0 -0.01304837742218184 0.0013630540243891971 0 -0.013277631854078839 0.00086835736116162138 0 -0.01304837742218184 0.0013630540243891971 0 -0.012567557489419179 0.0010651959831703233 0 -0.013277631854078839 0.00086835736116162138 0 -0.012567557489419179 0.0010651959831703233 0 -0.012412419488429447 0.00067164169246532862 0 -0.012177753429735011 0.0014228771201674098 0 -0.01304837742218184 0.0013630540243891971 0 -0.012567557489419179 0.0010651959831703233 0 -0.018293992404067864 0.00087774808770083393 0 -0.017208651648923934 0.0010189587830037343 0 -0.012177753429735011 0.0014228771201674098 0 -0.012567557489419179 0.0010651959831703233 0 -0.012180522579596582 0.00099474708444379119 0 -0.012567557489419179 0.0010651959831703233 0 -0.012291983667289286 0.00081258467704762661 0 -0.012412419488429447 0.00067164169246532862 0 -0.012567557489419179 0.0010651959831703233 0 -0.012291983667289286 0.00081258467704762661 0 -0.012180522579596582 0.00099474708444379119 0 -0.012291983667289286 0.00081258467704762661 0 -0.012292442593069941 0.00064952525724560055 0 -0.012412419488429447 0.00067164169246532862 0 -0.012291983667289286 0.00081258467704762661 0 -0.012292442593069941 0.00064952525724560055 0 -0.012142648988311149 0.00073745391523758082 0 -0.012292442593069941 0.00064952525724560055 0 -0.012412419488429447 0.00067164169246532862 0 -0.012331006894385245 0.00057040985542378521 0 -0.012423103507562547 0.00061291686728393816 0 -0.012412419488429447 0.00067164169246532862 0 -0.012331006894385245 0.00057040985542378521 0 -0.012035617925732016 0.000502108933103862 0 -0.011948403266188868 0.00074723491503932897 0 -0.011750218329622463 0.00040030031461490322 0 -0.011948403266188868 0.00074723491503932897 0 -0.011714187620805797 0.00065180020117022763 0 -0.011750218329622463 0.00040030031461490322 0 -0.012142648988311149 0.00073745391523758082 0 -0.011948403266188868 0.00074723491503932897 0 -0.012180522579596582 0.00099474708444379119 0 -0.012292442593069941 0.00064952525724560055 0 -0.012035617925732016 0.000502108933103862 0 -0.012142648988311149 0.00073745391523758082 0 -0.012035617925732016 0.000502108933103862 0 -0.012142648988311149 0.00073745391523758082 0 -0.011948403266188868 0.00074723491503932897 0 -0.012291983667289286 0.00081258467704762661 0 -0.012142648988311149 0.00073745391523758082 0 -0.012180522579596582 0.00099474708444379119 0 -0.011948403266188868 0.00074723491503932897 0 -0.011640223883651806 0.00091296572897414836 0 -0.011714187620805797 0.00065180020117022763 0 -0.011948403266188868 0.00074723491503932897 0 -0.012180522579596582 0.00099474708444379119 0 -0.011640223883651806 0.00091296572897414836 0 -0.018293992404067864 0.00087774808770083393 0 -0.013656425398138284 0.00050499349796512315 0 -0.012177753429735011 0.0014228771201674098 0 -0.012180522579596582 0.00099474708444379119 0 -0.011640223883651806 0.00091296572897414836 0 -0.016841832155038691 0.00046884243229731564 0 -0.016901516984453434 0.00044245083916042907 0 -0.016918981733462818 0.00053621665997083943 0 -0.016901516984453434 0.00044245083916042907 0 -0.016918981733462818 0.00053621665997083943 0 -0.016917810151844737 0.00056312553017839331 0 -0.016917810151844737 0.00056312553017839331 0 -0.017180053536865074 0.00086409105501910233 0 -0.017183635920135165 0.00063141876414044213 0 -0.017057142044470196 0.00029715210495649739 0 -0.016917810151844737 0.00056312553017839331 0 -0.017183635920135165 0.00063141876414044213 0 -0.016804218217481733 0.00046987129872038996 0 -0.017219183466107145 0.00084667829632471077 0 -0.016917810151844737 0.00056312553017839331 0 -0.01680404821648647 0.00036154164442682245 0 -0.016630174485361835 0.00041523975560502736 0 -0.016918981733462818 0.00053621665997083943 0 -0.016917810151844737 0.00056312553017839331 0 -0.01680404821648647 0.00036154164442682245 0 -0.011640223883651806 0.00091296572897414836 0 -0.011135368258818864 0.00049881075222504487 0 -0.011518892954682456 0.00054828496167944225 0 -0.013656425398138284 0.00050499349796512315 0 -0.014148559983457612 0.00048593320273846477 0 -0.011640223883651806 0.00091296572897414836 0 -0.011714187620805797 0.00065180020117022763 0 -0.011518892954682456 0.00054828496167944225 0 -0.011135368258818864 0.00049881075222504487 0 -0.011518892954682456 0.00054828496167944225 0 -0.011365546678125484 0.00025812096087541832 0 -0.011714187620805797 0.00065180020117022763 0 -0.011518892954682456 0.00054828496167944225 0 -0.011750218329622463 0.00040030031461490322 0 -0.011750218329622463 0.00040030031461490322 0 -0.011365546678125484 0.00025812096087541832 0 -0.011618222142376537 5.8544648001410696e-05 0 -0.011518892954682456 0.00054828496167944225 0 -0.011750218329622463 0.00040030031461490322 0 -0.011365546678125484 0.00025812096087541832 0 -0.011365546678125484 0.00025812096087541832 0 -0.011618222142376537 5.8544648001410696e-05 0 -0.011257097708778502 -7.8743744635233941e-05 0 -0.01680404821648647 0.00036154164442682245 0 -0.016630174485361835 0.00041523975560502736 0 -0.01635399792443434 -1.9171042140895543e-05 0 -0.011135368258818864 0.00049881075222504487 0 -0.011091188369874445 0.00014986808258045104 0 -0.010847374186087503 0.00012599970082483486 0 -0.011135368258818864 0.00049881075222504487 0 -0.011365546678125484 0.00025812096087541832 0 -0.011091188369874445 0.00014986808258045104 0 -0.011365546678125484 0.00025812096087541832 0 -0.011091188369874445 0.00014986808258045104 0 -0.011257097708778502 -7.8743744635233941e-05 0 -0.011091188369874445 0.00014986808258045104 0 -0.010909021460300905 -4.222898125420751e-05 0 -0.011257097708778502 -7.8743744635233941e-05 0 -0.011091188369874445 0.00014986808258045104 0 -0.010909021460300905 -4.222898125420751e-05 0 -0.010847374186087503 0.00012599970082483486 0 -0.010909021460300905 -4.222898125420751e-05 0 -0.011257097708778502 -7.8743744635233941e-05 0 -0.010927154383510631 -0.00033863951073801764 0 -0.011257097708778502 -7.8743744635233941e-05 0 -0.010927154383510631 -0.00033863951073801764 0 -0.011336494594857541 -0.00038788443821264674 0 -0.011618222142376537 5.8544648001410696e-05 0 -0.011257097708778502 -7.8743744635233941e-05 0 -0.011666098608382011 -0.00027378625027527748 0 -0.011257097708778502 -7.8743744635233941e-05 0 -0.011336494594857541 -0.00038788443821264674 0 -0.011666098608382011 -0.00027378625027527748 0 -0.011336494594857541 -0.00038788443821264674 0 -0.011666098608382011 -0.00027378625027527748 0 -0.011497462450543915 -0.00050702106177310656 0 -0.012320421666755904 0.00014384080531223102 0 -0.0097440242645925636 0.00018187814671917293 0 -0.012104117042593645 0.00040724411628628189 0 -0.012243997849379995 0.00014641673946749843 0 -0.011926780167712963 -1.7370733816571572e-05 0 -0.011666098608382011 -0.00027378625027527748 0 -0.012050468606325479 -1.4791499630728174e-05 0 -0.011821276898359975 -0.0006913675222655274 0 -0.011618222142376537 5.8544648001410696e-05 0 -0.011666098608382011 -0.00027378625027527748 0 -0.012050468606325479 -1.4791499630728174e-05 0 -0.012104117042593645 0.00040724411628628189 0 -0.012292325778829551 0.00036376451637945377 0 -0.012243997849379995 0.00014641673946749843 0 -0.012473113104957087 0.00041810373825054378 0 -0.012292325778829551 0.00036376451637945377 0 -0.012243997849379995 0.00014641673946749843 0 -0.012104117042593645 0.00040724411628628189 0 -0.012292325778829551 0.00036376451637945377 0 -0.012371931852582171 0.00049047687949067516 0 -0.012292442593069941 0.00064952525724560055 0 -0.012331006894385245 0.00057040985542378521 0 -0.012104117042593645 0.00040724411628628189 0 -0.012331006894385245 0.00057040985542378521 0 -0.012104117042593645 0.00040724411628628189 0 -0.012371931852582171 0.00049047687949067516 0 -0.012423103507562547 0.00061291686728393816 0 -0.012331006894385245 0.00057040985542378521 0 -0.012371931852582171 0.00049047687949067516 0 -0.012035617925732016 0.000502108933103862 0 -0.011750218329622463 0.00040030031461490322 0 -0.012050468606325479 -1.4791499630728174e-05 0 -0.012292442593069941 0.00064952525724560055 0 -0.012035617925732016 0.000502108933103862 0 -0.012050468606325479 -1.4791499630728174e-05 0 -0.012215039280941826 0.00063123330257599164 0 -0.012320421666755904 0.00014384080531223102 0 -0.011750218329622463 0.00040030031461490322 0 -0.011618222142376537 5.8544648001410696e-05 0 -0.012050468606325479 -1.4791499630728174e-05 0 -0.019419423403426544 0.0015285721007958228 0 -0.019772650826839256 0.00076437016533237822 0 -0.020567898892207219 0.00090691686113047998 0 -0.019772650826839256 0.00076437016533237822 0 -0.019150681342551896 0.0005424886522579635 0 -0.020266440815990702 0.00017296995239113354 0 -0.019419423403426544 0.0015285721007958228 0 -0.019772650826839256 0.00076437016533237822 0 -0.019150681342551896 0.0005424886522579635 0 -0.019419423403426544 0.0015285721007958228 0 -0.01850775703344747 0.00098209984443370607 0 -0.019150681342551896 0.0005424886522579635 0 -0.018582369892689521 0.00017946710645272136 0 -0.01850775703344747 0.00098209984443370607 0 -0.017948692935224542 0.00057545764330879179 0 -0.018699865882307494 -0.0001863161280627542 0 -0.01850775703344747 0.00098209984443370607 0 -0.019150681342551896 0.0005424886522579635 0 -0.01940061273173288 0.00017078242017202163 0 -0.018473780697477907 0.00086926221930727599 0 -0.015985745892869479 0.0002471230144109275 0 -0.015401633723672561 0.00026751295814654547 0 -0.012331870225481987 -0.00095171902306239321 0 -0.013523416534689279 -0.0015771180100430876 0 -0.012593007287790885 -0.0018610338586769724 0 -0.019419423403426544 0.0015285721007958228 0 -0.01850775703344747 0.00098209984443370607 0 -0.018105487344397327 0.00212369557481017 0 -0.01850775703344747 0.00098209984443370607 0 -0.017724354473855661 0.0013054473545521103 0 -0.018105487344397327 0.00212369557481017 0 -0.017782312476916966 0.0013736555297272311 0 -0.015401633723672561 0.00026751295814654547 0 -0.017453745285709438 0.00075735292209214242 0 -0.017358372175984238 0.00087609377158744031 0 -0.017519437727731658 0.00093477519693276165 0 -0.01850775703344747 0.00098209984443370607 0 -0.017724354473855661 0.0013054473545521103 0 -0.017948692935224542 0.00057545764330879179 0 -0.017724354473855661 0.0013054473545521103 0 -0.017948692935224542 0.00057545764330879179 0 -0.017421827774136811 0.00054804454924686492 0 -0.017782312476916966 0.0013736555297272311 0 -0.017362261126612488 0.00049908656111389779 0 -0.017057142044470196 0.00029715210495649739 0 -0.017421827774136811 0.00054804454924686492 0 -0.017183635920135165 0.00063141876414044213 0 -0.017453745285709438 0.00075735292209214242 0 -0.017421827774136811 0.00054804454924686492 0 -0.017310948513038448 0.00075494720860255467 0 -0.017421827774136811 0.00054804454924686492 0 -0.017183635920135165 0.00063141876414044213 0 -0.017310948513038448 0.00075494720860255467 0 -0.017180053536865074 0.00086409105501910233 0 -0.017183635920135165 0.00063141876414044213 0 -0.017310948513038448 0.00075494720860255467 0 -0.017453745285709438 0.00075735292209214242 0 -0.017310948513038448 0.00075494720860255467 0 -0.017358372175984238 0.00087609377158744031 0 -0.017180053536865074 0.00086409105501910233 0 -0.017310948513038448 0.00075494720860255467 0 -0.017358372175984238 0.00087609377158744031 0 -0.014148559983457612 0.00048593320273846477 0 -0.01287636780354842 0.00031656217523518714 0 -0.016630174485361835 0.00041523975560502736 0 -0.016255286748269218 3.2257971326748647e-05 0 -0.01635399792443434 -1.9171042140895543e-05 0 -0.011135368258818864 0.00049881075222504487 0 -0.010606910486208054 8.760578748644751e-05 0 -0.010847374186087503 0.00012599970082483486 0 -0.017180053536865074 0.00086409105501910233 0 -0.017358372175984238 0.00087609377158744031 0 -0.017337976787945967 0.0010331090473203945 0 -0.017219183466107145 0.00084667829632471077 0 -0.01427173004255433 0.00025413988777343312 0 -0.010549390959707793 0.00024476141627638491 0 -0.01069955745629394 0.00016761739958955394 0 -0.010322184728846908 -0.00011245504324423117 0 -0.01427173004255433 0.00025413988777343312 0 -0.01287636780354842 0.00031656217523518714 0 -0.010600742202684877 8.8885225482824334e-05 0 -0.010672457303068558 5.0635108417674604e-05 0 -0.010563106300137867 -6.0830150264332083e-05 0 -0.01287636780354842 0.00031656217523518714 0 -0.012421497451943993 0.00045524918416807675 0 -0.010606910486208054 8.760578748644751e-05 0 -0.010672457303068558 5.0635108417674604e-05 0 -0.010847374186087503 0.00012599970082483486 0 -0.010909021460300905 -4.222898125420751e-05 0 -0.010847374186087503 0.00012599970082483486 0 -0.010786614642002314 1.1333736472050362e-05 0 -0.010672457303068558 5.0635108417674604e-05 0 -0.010847374186087503 0.00012599970082483486 0 -0.010786614642002314 1.1333736472050362e-05 0 -0.010909021460300905 -4.222898125420751e-05 0 -0.010786614642002314 1.1333736472050362e-05 0 -0.010711774684556016 -0.00012981343580143471 0 -0.010909021460300905 -4.222898125420751e-05 0 -0.010927154383510631 -0.00033863951073801764 0 -0.010711774684556016 -0.00012981343580143471 0 -0.010672457303068558 5.0635108417674604e-05 0 -0.010711774684556016 -0.00012981343580143471 0 -0.010563106300137867 -6.0830150264332083e-05 0 -0.010672457303068558 5.0635108417674604e-05 0 -0.010786614642002314 1.1333736472050362e-05 0 -0.010711774684556016 -0.00012981343580143471 0 -0.010927154383510631 -0.00033863951073801764 0 -0.01059691172993236 -0.00034424162867166086 0 -0.010489076770145375 -0.00067761092001612495 0 -0.010927154383510631 -0.00033863951073801764 0 -0.010711774684556016 -0.00012981343580143471 0 -0.01059691172993236 -0.00034424162867166086 0 -0.01059691172993236 -0.00034424162867166086 0 -0.01051072616899912 -0.00020174895461663926 0 -0.010330489762212028 -0.00037754528400876428 0 -0.010711774684556016 -0.00012981343580143471 0 -0.01059691172993236 -0.00034424162867166086 0 -0.01051072616899912 -0.00020174895461663926 0 -0.010600742202684877 8.8885225482824334e-05 0 -0.010563106300137867 -6.0830150264332083e-05 0 -0.010322184728846908 -0.00011245504324423117 0 -0.01051072616899912 -0.00020174895461663926 0 -0.010563106300137867 -6.0830150264332083e-05 0 -0.010322184728846908 -0.00011245504324423117 0 -0.01287636780354842 0.00031656217523518714 0 -0.010344462190878912 -0.00055179680258401434 0 -0.010711774684556016 -0.00012981343580143471 0 -0.01051072616899912 -0.00020174895461663926 0 -0.010563106300137867 -6.0830150264332083e-05 0 -0.010330489762212028 -0.00037754528400876428 0 -0.010103883136977087 -0.0002410366721152766 0 -0.0097301711742835018 -0.0006740530798023264 0 -0.010549390959707793 0.00024476141627638491 0 -0.010322184728846908 -0.00011245504324423117 0 -0.010103883136977087 -0.0002410366721152766 0 -0.01427173004255433 0.00025413988777343312 0 -0.011199791945534943 -0.00081427898179354456 0 -0.01051072616899912 -0.00020174895461663926 0 -0.010322184728846908 -0.00011245504324423117 0 -0.010330489762212028 -0.00037754528400876428 0 -0.010322184728846908 -0.00011245504324423117 0 -0.010330489762212028 -0.00037754528400876428 0 -0.010103883136977087 -0.0002410366721152766 0 -0.011199791945534943 -0.00081427898179354456 0 -0.0082028519612276467 -0.00089968664057293846 0 -0.017358372175984238 0.00087609377158744031 0 -0.017337976787945967 0.0010331090473203945 0 -0.017519437727731658 0.00093477519693276165 0 -0.012412714595262967 -0.0012393962395732738 0 -0.011953140390531868 0.0011020524288748465 0 -0.010899768399499011 -0.00076219250211312568 0 -0.013632139191467137 0.00020205751628308877 0 -0.012412714595262967 -0.0012393962395732738 0 -0.011953140390531868 0.0011020524288748465 0 -0.01427173004255433 0.00025413988777343312 0 -0.015401633723672561 0.00026751295814654547 0 -0.015401633723672561 0.00026751295814654547 0 -0.011874769041017006 -0.0018882586233313933 0 -0.013523416534689279 -0.0015771180100430876 0 -0.012593007287790885 -0.0018610338586769724 0 -0.01300303505274146 -0.0024874579671924036 0 -0.012593007287790885 -0.0018610338586769724 0 -0.01300303505274146 -0.0024874579671924036 0 -0.012120092968733256 -0.0025742057188348744 0 -0.011874769041017006 -0.0018882586233313933 0 -0.0079295915660034921 -0.0015456409844496215 0 -0.012412714595262967 -0.0012393962395732738 0 -0.010899768399499011 -0.00076219250211312568 0 -0.011184793732147742 -0.0026818001189938909 0 -0.012120092968733256 -0.0025742057188348744 0 -0.012477382729783075 -0.0033860941263562754 0 -0.011611112221330476 -0.0031436826757799325 0 -0.01300303505274146 -0.0024874579671924036 0 -0.012120092968733256 -0.0025742057188348744 0 -0.012477382729783075 -0.0033860941263562754 0 -0.012593007287790885 -0.0018610338586769724 0 -0.012120092968733256 -0.0025742057188348744 0 -0.01174850694078391 -0.0019619821797990525 0 -0.012331870225481987 -0.00095171902306239321 0 -0.012593007287790885 -0.0018610338586769724 0 -0.01174850694078391 -0.0019619821797990525 0 -0.0045000994540034082 -0.00058734152471674793 0 -0.0045389894004143538 -0.00057637995476544305 0 -0.0045046739068294456 -0.000611889390770301 0 -0.0045000994540034082 -0.00058734152471674793 0 -0.0045046739068294456 -0.000611889390770301 0 -0.0044740695877126197 -0.00063672566749312998 0 -0.0044088888796811046 -0.00072155872411514878 0 -0.0045113288064919134 -0.00059120776798669275 0 -0.012477382729783075 -0.0033860941263562754 0 -0.011043543919632127 -0.0033301946527276179 0 -0.011611112221330476 -0.0031436826757799325 0 -0.0079295915660034921 -0.0015456409844496215 0 -0.008583314074485383 -0.0025163017186409487 0 -0.0044088888796811046 -0.00072155872411514878 0 -0.0079295915660034921 -0.0015456409844496215 0 -0.0045000994540034082 -0.00058734152471674793 0 -0.0045434146725751787 -0.00055600467219456978 0 -0.0045389894004143538 -0.00057637995476544305 0 -0.0045343478325921907 -0.00065443198524131022 0 -0.0045895190006424638 -0.00062731639482701141 0 -0.0045076586506457008 -0.00064826585115727669 0 -0.010899768399499011 -0.00076219250211312568 0 -0.0098423091080211966 -0.0026269288219891605 0 -0.011184793732147742 -0.0026818001189938909 0 -0.0045434146725751787 -0.00055600467219456978 0 -0.0045515204306445598 -0.00056609324025711763 0 -0.0045389894004143538 -0.00057637995476544305 0 -0.0079295915660034921 -0.0015456409844496215 0 -0.0082028519612276467 -0.00089968664057293846 0 -0.0045434146725751787 -0.00055600467219456978 0 -0.0045515204306445598 -0.00056609324025711763 0 -0.0045673903158863615 -0.00055823633893682244 0 -0.0045515204306445598 -0.00056609324025711763 0 -0.0045673903158863615 -0.00055823633893682244 0 -0.0045565918381622848 -0.00057207271035513406 0 -0.0045515204306445598 -0.00056609324025711763 0 -0.0045565918381622848 -0.00057207271035513406 0 -0.0045389894004143538 -0.00057637995476544305 0 -0.0045389894004143538 -0.00057637995476544305 0 -0.004539214677005919 -0.0005954919979581551 0 -0.0045046739068294456 -0.000611889390770301 0 -0.0045565918381622848 -0.00057207271035513406 0 -0.0045389894004143538 -0.00057637995476544305 0 -0.004539214677005919 -0.0005954919979581551 0 -0.004539214677005919 -0.0005954919979581551 0 -0.004558463992799423 -0.00059402009812685984 0 -0.004569956713480228 -0.00057249696576709621 0 -0.004558463992799423 -0.00059402009812685984 0 -0.004569956713480228 -0.00057249696576709621 0 -0.0045826772725774088 -0.00058564967688017207 0 -0.0045565918381622848 -0.00057207271035513406 0 -0.004539214677005919 -0.0005954919979581551 0 -0.004569956713480228 -0.00057249696576709621 0 -0.0045673903158863615 -0.00055823633893682244 0 -0.004569956713480228 -0.00057249696576709621 0 -0.0045977351913295836 -0.00055356137316259354 0 -0.010330489762212028 -0.00037754528400876428 0 -0.0097301711742835018 -0.0006740530798023264 0 -0.010489076770145375 -0.00067761092001612495 0 -0.0082028519612276467 -0.00089968664057293846 0 -0.0073770766618750962 -0.00057964565517951616 0 -0.0045673903158863615 -0.00055823633893682244 0 -0.0045565918381622848 -0.00057207271035513406 0 -0.004569956713480228 -0.00057249696576709621 0 -0.0073770766618750962 -0.00057964565517951616 0 -0.0076543023921331393 -0.00067245648871293653 0 -0.01059691172993236 -0.00034424162867166086 0 -0.010330489762212028 -0.00037754528400876428 0 -0.010489076770145375 -0.00067761092001612495 0 -0.004569956713480228 -0.00057249696576709621 0 -0.0045977351913295836 -0.00055356137316259354 0 -0.0045826772725774088 -0.00058564967688017207 0 -0.0045977351913295836 -0.00055356137316259354 0 -0.0045826772725774088 -0.00058564967688017207 0 -0.0046130830070421373 -0.00058392577793341626 0 -0.0045826772725774088 -0.00058564967688017207 0 -0.0046130830070421373 -0.00058392577793341626 0 -0.0045864593511521397 -0.00060594979524358989 0 -0.004558463992799423 -0.00059402009812685984 0 -0.0045826772725774088 -0.00058564967688017207 0 -0.0045671287309356455 -0.00060241041414266423 0 -0.0045671287309356455 -0.00060241041414266423 0 -0.0045581214652474413 -0.000612864598086043 0 -0.0045864593511521397 -0.00060594979524358989 0 -0.0045826772725774088 -0.00058564967688017207 0 -0.0045671287309356455 -0.00060241041414266423 0 -0.0045864593511521397 -0.00060594979524358989 0 -0.0045581214652474413 -0.000612864598086043 0 -0.0045114567679439416 -0.00062299457590732745 0 -0.0045285766554166128 -0.00061870086131136991 0 -0.0045581214652474413 -0.000612864598086043 0 -0.0045389048558013853 -0.00060915881336514981 0 -0.0045114567679439416 -0.00062299457590732745 0 -0.0045671287309356455 -0.00060241041414266423 0 -0.0045581214652474413 -0.000612864598086043 0 -0.0045389048558013853 -0.00060915881336514981 0 -0.004558463992799423 -0.00059402009812685984 0 -0.0045671287309356455 -0.00060241041414266423 0 -0.0045389048558013853 -0.00060915881336514981 0 -0.004539214677005919 -0.0005954919979581551 0 -0.004558463992799423 -0.00059402009812685984 0 -0.0045389048558013853 -0.00060915881336514981 0 -0.004539214677005919 -0.0005954919979581551 0 -0.0045389048558013853 -0.00060915881336514981 0 -0.0045001129282129992 -0.00062267461436899582 0 -0.004539214677005919 -0.0005954919979581551 0 -0.0045001129282129992 -0.00062267461436899582 0 -0.0045046739068294456 -0.000611889390770301 0 -0.0045001129282129992 -0.00062267461436899582 0 -0.0045114567679439416 -0.00062299457590732745 0 -0.004457783033155225 -0.00064437218565257983 0 -0.0045389048558013853 -0.00060915881336514981 0 -0.0045001129282129992 -0.00062267461436899582 0 -0.0045114567679439416 -0.00062299457590732745 0 -0.004466143029629133 -0.00063743654243523129 0 -0.004457783033155225 -0.00064437218565257983 0 -0.0044317854844040981 -0.0006530511367826375 0 -0.0045001129282129992 -0.00062267461436899582 0 -0.004466143029629133 -0.00063743654243523129 0 -0.004457783033155225 -0.00064437218565257983 0 -0.004466143029629133 -0.00063743654243523129 0 -0.0045046739068294456 -0.000611889390770301 0 -0.0044740695877126197 -0.00063672566749312998 0 -0.0045001129282129992 -0.00062267461436899582 0 -0.004466143029629133 -0.00063743654243523129 0 -0.0045046739068294456 -0.000611889390770301 0 -0.0063277066000212876 -0.00099657250040054873 0 -0.0062560067426249075 -0.00047344728392867419 0 -0.0083936117183303193 -0.0010040995580313636 0 -0.0086474568047409696 -0.0010499533351565372 0 -0.0080078541549087404 -0.00028879170784885033 0 -0.0083936117183303193 -0.0010040995580313636 0 -0.008483676269051792 -0.0010278747346082896 0 -0.0086474568047409696 -0.0010499533351565372 0 -0.0070410795199717224 -0.0011317855466498824 0 -0.0070641070155010206 -0.0010446713312429136 0 -0.007108306564145371 -0.0010808800493340351 0 -0.008483676269051792 -0.0010278747346082896 0 -0.0084966073153627825 -0.0010415229194128438 0 -0.0086474568047409696 -0.0010499533351565372 0 -0.0081306732507000403 -0.0006260132387473225 0 -0.0063277066000212876 -0.00099657250040054873 0 -0.0081306732507000403 -0.0006260132387473225 0 -0.0060338380540667716 -0.0010069287987814742 0 -0.0083936117183303193 -0.0010040995580313636 0 -0.0081388114866843657 -0.00074724811945945963 0 -0.0080078541549087404 -0.00028879170784885033 0 -0.0074502857074204782 -0.00052290848893472635 0 -0.0081388114866843657 -0.00074724811945945963 0 -0.0080078541549087404 -0.00028879170784885033 0 -0.0074502857074204782 -0.00052290848893472635 0 -0.0081388114866843657 -0.00074724811945945963 0 -0.0084324450851712435 -0.0011711517183222821 0 -0.0083936117183303193 -0.0010040995580313636 0 -0.0081388114866843657 -0.00074724811945945963 0 -0.0084324450851712435 -0.0011711517183222821 0 -0.010021206139044751 -0.00073415455636887436 0 -0.0084324450851712435 -0.0011711517183222821 0 -0.008607205762947651 -0.00069126645381032835 0 -0.0083936117183303193 -0.0010040995580313636 0 -0.0084324450851712435 -0.0011711517183222821 0 -0.008607205762947651 -0.00069126645381032835 0 -0.0081306732507000403 -0.0006260132387473225 0 -0.010822101344040581 -0.00016304775863433852 0 -0.011831770881020075 -0.00015331456208813677 0 -0.012243997849379995 0.00014641673946749843 0 -0.011926780167712963 -1.7370733816571572e-05 0 -0.0083936117183303193 -0.0010040995580313636 0 -0.008483676269051792 -0.0010278747346082896 0 -0.008607205762947651 -0.00069126645381032835 0 -0.008483676269051792 -0.0010278747346082896 0 -0.0084966073153627825 -0.0010415229194128438 0 -0.008607205762947651 -0.00069126645381032835 0 -0.012104117042593645 0.00040724411628628189 0 -0.011926780167712963 -1.7370733816571572e-05 0 -0.011881709516680251 -1.5369631080548331e-05 0 -0.0047869159810130868 -0.00055551915359197982 0 -0.0048085902435001417 -0.00050132145665393233 0 -0.0047530274792164243 -0.0005752784660965583 0 -0.0081306732507000403 -0.0006260132387473225 0 -0.0097440242645925636 0.00018187814671917293 0 -0.010161732740676582 0.00015917207780365532 0 -0.0097440242645925636 0.00018187814671917293 0 -0.011831770881020075 -0.00015331456208813677 0 -0.011926780167712963 -1.7370733816571572e-05 0 -0.011875207350353056 -1.498827249172813e-05 0 -0.0048085902435001417 -0.00050132145665393233 0 -0.0046765115444647671 -0.00056182755531563754 0 -0.0046420227374167596 -0.00053449690900633675 0 -0.011821276898359975 -0.0006913675222655274 0 -0.011497462450543915 -0.00050702106177310656 0 -0.011164243955114582 -0.00067633893742991675 0 -0.011666098608382011 -0.00027378625027527748 0 -0.011821276898359975 -0.0006913675222655274 0 -0.011497462450543915 -0.00050702106177310656 0 -0.0097440242645925636 0.00018187814671917293 0 -0.0076543023921331393 -0.00067245648871293653 0 -0.011336494594857541 -0.00038788443821264674 0 -0.011497462450543915 -0.00050702106177310656 0 -0.011164243955114582 -0.00067633893742991675 0 -0.0048085902435001417 -0.00050132145665393233 0 -0.0046765115444647671 -0.00056182755531563754 0 -0.0047530274792164243 -0.0005752784660965583 0 -0.010927154383510631 -0.00033863951073801764 0 -0.010489076770145375 -0.00067761092001612495 0 -0.011164243955114582 -0.00067633893742991675 0 -0.0045977351913295836 -0.00055356137316259354 0 -0.0046420227374167596 -0.00053449690900633675 0 -0.0046130830070421373 -0.00058392577793341626 0 -0.010927154383510631 -0.00033863951073801764 0 -0.011336494594857541 -0.00038788443821264674 0 -0.011164243955114582 -0.00067633893742991675 0 -0.0046765115444647671 -0.00056182755531563754 0 -0.0046420227374167596 -0.00053449690900633675 0 -0.0046130830070421373 -0.00058392577793341626 0 -0.0046130830070421373 -0.00058392577793341626 0 -0.0046588895253948165 -0.00060165147185790835 0 -0.0046085732340584631 -0.00061181510965942242 0 -0.0063277066000212876 -0.00099657250040054873 0 -0.0042809778047335333 -0.00060454090668230105 0 -0.0046816456073863607 -0.00059881908746098236 0 -0.0046588895253948165 -0.00060165147185790835 0 -0.0045877721506581643 -0.0006231276510253118 0 -0.0046816456073863607 -0.00059881908746098236 0 -0.004678253353225548 -0.00059562496679650386 0 -0.0046588895253948165 -0.00060165147185790835 0 -0.0046765115444647671 -0.00056182755531563754 0 -0.0047530274792164243 -0.0005752784660965583 0 -0.0047085698265979326 -0.00057721993923474696 0 -0.0047530274792164243 -0.0005752784660965583 0 -0.0047085698265979326 -0.00057721993923474696 0 -0.0046588895253948165 -0.00060165147185790835 0 -0.0060338380540667716 -0.0010069287987814742 0 -0.0049304443964759397 -0.0010211946556998948 0 -0.0063277066000212876 -0.00099657250040054873 0 -0.0060338380540667716 -0.0010069287987814742 0 -0.0046765115444647671 -0.00056182755531563754 0 -0.0046130830070421373 -0.00058392577793341626 0 -0.0046588895253948165 -0.00060165147185790835 0 -0.0046765115444647671 -0.00056182755531563754 0 -0.0047085698265979326 -0.00057721993923474696 0 -0.0046588895253948165 -0.00060165147185790835 0 -0.0046588895253948165 -0.00060165147185790835 0 -0.0045877721506581643 -0.0006231276510253118 0 -0.0046085732340584631 -0.00061181510965942242 0 -0.0045581214652474413 -0.000612864598086043 0 -0.0045864593511521397 -0.00060594979524358989 0 -0.0045865586586402978 -0.00061295327179247737 0 -0.0045877721506581643 -0.0006231276510253118 0 -0.0046085732340584631 -0.00061181510965942242 0 -0.0045865586586402978 -0.00061295327179247737 0 -0.0046130830070421373 -0.00058392577793341626 0 -0.0045864593511521397 -0.00060594979524358989 0 -0.0046085732340584631 -0.00061181510965942242 0 -0.0045864593511521397 -0.00060594979524358989 0 -0.0046085732340584631 -0.00061181510965942242 0 -0.0045865586586402978 -0.00061295327179247737 0 -0.0045865586586402978 -0.00061295327179247737 0 -0.0045700520965721615 -0.00060625956579713619 0 -0.004551634881102145 -0.0005949011299646327 0 -0.0045581214652474413 -0.000612864598086043 0 -0.0045865586586402978 -0.00061295327179247737 0 -0.0045700520965721615 -0.00060625956579713619 0 -0.0045877721506581643 -0.0006231276510253118 0 -0.0045865586586402978 -0.00061295327179247737 0 -0.004551634881102145 -0.0005949011299646327 0 -0.0045877721506581643 -0.0006231276510253118 0 -0.004551634881102145 -0.0005949011299646327 0 -0.0044906493697565875 -0.00059557991423283239 0 -0.004551634881102145 -0.0005949011299646327 0 -0.0044906493697565875 -0.00059557991423283239 0 -0.0044568373815015491 -0.00055107174396670886 0 -0.0044906493697565875 -0.00059557991423283239 0 -0.0043968162257279056 -0.00054123084491944308 0 -0.0044568373815015491 -0.00055107174396670886 0 -0.0045877721506581643 -0.0006231276510253118 0 -0.0044906493697565875 -0.00059557991423283239 0 -0.0045170171142121665 -0.00064753412434770006 0 -0.0044906493697565875 -0.00059557991423283239 0 -0.0045170171142121665 -0.00064753412434770006 0 -0.0044342233715288686 -0.00063317585890516328 0 -0.0045638730508951366 -0.00075506851184524448 0 -0.0045170171142121665 -0.00064753412434770006 0 -0.0044342233715288686 -0.00063317585890516328 0 -0.0045638730508951366 -0.00075506851184524448 0 -0.0045877721506581643 -0.0006231276510253118 0 -0.0045170171142121665 -0.00064753412434770006 0 -0.0044906493697565875 -0.00059557991423283239 0 -0.0044342233715288686 -0.00063317585890516328 0 -0.0043968162257279056 -0.00054123084491944308 0 -0.0043968162257279056 -0.00054123084491944308 0 -0.0043939341757514459 -0.00054271708365979628 0 -0.0044568373815015491 -0.00055107174396670886 0 -0.0043939341757514459 -0.00054271708365979628 0 -0.0043641728900836148 -0.00036786630139544284 0 -0.004351648484867957 -0.00063633198023508122 0 -0.0043968162257279056 -0.00054123084491944308 0 -0.0043939341757514459 -0.00054271708365979628 0 -0.004351648484867957 -0.00063633198023508122 0 -0.0043939341757514459 -0.00054271708365979628 0 -0.0044718333473303187 -0.00048116700328629274 0 -0.0043641728900836148 -0.00036786630139544284 0 -0.0043939341757514459 -0.00054271708365979628 0 -0.0044718333473303187 -0.00048116700328629274 0 -0.0044568373815015491 -0.00055107174396670886 0 -0.004551634881102145 -0.0005949011299646327 0 -0.0044568373815015491 -0.00055107174396670886 0 -0.0045345510666794341 -0.0005488815460763678 0 -0.0044718333473303187 -0.00048116700328629274 0 -0.0044568373815015491 -0.00055107174396670886 0 -0.0045345510666794341 -0.0005488815460763678 0 -0.0045700520965721615 -0.00060625956579713619 0 -0.0045345510666794341 -0.0005488815460763678 0 -0.0046065321964985769 -0.00047952164039306849 0 -0.0045700520965721615 -0.00060625956579713619 0 -0.004551634881102145 -0.0005949011299646327 0 -0.0045345510666794341 -0.0005488815460763678 0 -0.0045642401405175696 -0.00059753721615806268 0 -0.004536820024910738 -0.00052359490680201938 0 -0.0045700520965721615 -0.00060625956579713619 0 -0.0044656641401918827 -0.00058841389315712896 0 -0.0045435635037350533 -0.00061317675870519123 0 -0.0045581214652474413 -0.000612864598086043 0 -0.0045700520965721615 -0.00060625956579713619 0 -0.0045435635037350533 -0.00061317675870519123 0 -0.0044656641401918827 -0.00058841389315712896 0 -0.0045435635037350533 -0.00061317675870519123 0 -0.0045584133495457967 -0.00058621427656649783 0 -0.0044718333473303187 -0.00048116700328629274 0 -0.0045345510666794341 -0.0005488815460763678 0 -0.0046065321964985769 -0.00047952164039306849 0 -0.0044718333473303187 -0.00048116700328629274 0 -0.0046065321964985769 -0.00047952164039306849 0 -0.004498183650967106 -0.00034645186760684206 0 -0.0046065321964985769 -0.00047952164039306849 0 -0.004597985951270124 -0.00022800418525857611 0 -0.004498183650967106 -0.00034645186760684206 0 -0.004536820024910738 -0.00052359490680201938 0 -0.0044927752243630005 -0.00027402630498094335 0 -0.0044656641401918827 -0.00058841389315712896 0 -0.0045153949245680201 -0.00043677651561871433 0 -0.0043896881999142164 -0.00031527754566403835 0 -0.0044656641401918827 -0.00058841389315712896 0 -0.0045153949245680201 -0.00043677651561871433 0 -0.0045584133495457967 -0.00058621427656649783 0 -0.0045153949245680201 -0.00043677651561871433 0 -0.0043896881999142164 -0.00031527754566403835 0 -0.0045558836078117386 -0.00027667663219041623 0 -0.0043896881999142164 -0.00031527754566403835 0 -0.0045558836078117386 -0.00027667663219041623 0 -0.0045280442267509836 -9.0953281835905899e-05 0 -0.004597985951270124 -0.00022800418525857611 0 -0.0044439373025741569 -0.00013358018763368518 0 -0.0044719520331333177 -7.7735789433756104e-05 0 -0.004597985951270124 -0.00022800418525857611 0 -0.0044439373025741569 -0.00013358018763368518 0 -0.004498183650967106 -0.00034645186760684206 0 -0.0044439373025741569 -0.00013358018763368518 0 -0.0043641728900836148 -0.00036786630139544284 0 -0.004498183650967106 -0.00034645186760684206 0 -0.0043641728900836148 -0.00036786630139544284 0 -0.0043252058760555401 -6.6584352798694174e-05 0 -0.0040871053155685406 -0.00032951327830258294 0 -0.0044439373025741569 -0.00013358018763368518 0 -0.0043641728900836148 -0.00036786630139544284 0 -0.0043252058760555401 -6.6584352798694174e-05 0 -0.0044718333473303187 -0.00048116700328629274 0 -0.0043641728900836148 -0.00036786630139544284 0 -0.004498183650967106 -0.00034645186760684206 0 -0.0044212979107739712 -0.0006681801647422771 0 -0.004457783033155225 -0.00064437218565257983 0 -0.0043958011826984774 -0.00067344355075279843 0 -0.0045114567679439416 -0.00062299457590732745 0 -0.004457783033155225 -0.00064437218565257983 0 -0.004498013622526378 -0.00062685021681236058 0 -0.004457783033155225 -0.00064437218565257983 0 -0.0044684458151391685 -0.00064371605266812096 0 -0.004498013622526378 -0.00062685021681236058 0 -0.0044212979107739712 -0.0006681801647422771 0 -0.004457783033155225 -0.00064437218565257983 0 -0.0044684458151391685 -0.00064371605266812096 0 -0.0044684458151391685 -0.00064371605266812096 0 -0.0045201781202822621 -0.00060985306164411271 0 -0.004498013622526378 -0.00062685021681236058 0 -0.0045114567679439416 -0.00062299457590732745 0 -0.004498013622526378 -0.00062685021681236058 0 -0.0045285766554166128 -0.00061870086131136991 0 -0.0045201781202822621 -0.00060985306164411271 0 -0.004498013622526378 -0.00062685021681236058 0 -0.0045285766554166128 -0.00061870086131136991 0 -0.0045581214652474413 -0.000612864598086043 0 -0.0045285766554166128 -0.00061870086131136991 0 -0.0045435635037350533 -0.00061317675870519123 0 -0.0045201781202822621 -0.00060985306164411271 0 -0.0045285766554166128 -0.00061870086131136991 0 -0.0045435635037350533 -0.00061317675870519123 0 -0.0045201781202822621 -0.00060985306164411271 0 -0.0045435635037350533 -0.00061317675870519123 0 -0.0045584133495457967 -0.00058621427656649783 0 -0.0045153949245680201 -0.00043677651561871433 0 -0.0045584133495457967 -0.00058621427656649783 0 -0.0046541044579379064 -0.00037437770416187585 0 -0.0045201781202822621 -0.00060985306164411271 0 -0.0045584133495457967 -0.00058621427656649783 0 -0.0044984916017832511 -0.00066730014271764219 0 -0.0045158370917040332 -0.00066426061591675571 0 -0.0047857652456325846 -0.00031302545949596469 0 -0.0046541044579379064 -0.00037437770416187585 0 -0.0045558836078117386 -0.00027667663219041623 0 -0.0046909777696964557 -0.00019998938681906267 0 -0.0045153949245680201 -0.00043677651561871433 0 -0.0046541044579379064 -0.00037437770416187585 0 -0.0045558836078117386 -0.00027667663219041623 0 -0.0047857652456325846 -0.00031302545949596469 0 -0.00020887862509172655 -0.00017388472224255419 0 -0.0044984916017832511 -0.00066730014271764219 0 -0.00444769327766631 -0.00067548018243060513 0 -0.0044426151831307133 -0.00070879171724211093 0 -0.0044684458151391685 -0.00064371605266812096 0 -0.0045201781202822621 -0.00060985306164411271 0 -0.0044984916017832511 -0.00066730014271764219 0 -0.0044684458151391685 -0.00064371605266812096 0 -0.0044984916017832511 -0.00066730014271764219 0 -0.00444769327766631 -0.00067548018243060513 0 -0.0044212979107739712 -0.0006681801647422771 0 -0.00444769327766631 -0.00067548018243060513 0 -0.0044009946641834548 -0.0006900087066786237 0 -0.0044212979107739712 -0.0006681801647422771 0 -0.0044684458151391685 -0.00064371605266812096 0 -0.00444769327766631 -0.00067548018243060513 0 0.0043809793761026257 -0.0018564703059294242 0 0.0044965815959674095 -0.0013215095989895179 0 0.0050713672495794572 -0.0014562788660579271 0 -0.00444769327766631 -0.00067548018243060513 0 -0.0044009946641834548 -0.0006900087066786237 0 -0.0044426151831307133 -0.00070879171724211093 0 8.9928116539375328e-05 -0.001418854094144413 0 -0.00020887862509172655 -0.00017388472224255419 0 0.0043809793761026257 -0.0018564703059294242 0 0.0044965815959674095 -0.0013215095989895179 0 0.0038392726322445765 -0.0014245765313975719 0 -0.0044212979107739712 -0.0006681801647422771 0 -0.0044009946641834548 -0.0006900087066786237 0 -0.0043708773702124167 -0.00069372302510261111 0 8.9928116539375328e-05 -0.001418854094144413 0 -0.00051499326893615638 -0.0013737012443130168 0 0.0042482524208099373 -0.00093302973319565267 0 0.0042667840073205747 -0.00040765330045808122 0 0.0037141397745530315 -0.00065545254237953543 0 0.0042482524208099373 -0.00093302973319565267 0 0.0044965815959674095 -0.0013215095989895179 0 0.0038392726322445765 -0.0014245765313975719 0 0.0042482524208099373 -0.00093302973319565267 0 0.0048937788919665264 -0.00094571195522438636 0 0.0046922409475965684 -0.00041336751397974525 0 0.0042482524208099373 -0.00093302973319565267 0 0.0044965815959674095 -0.0013215095989895179 0 0.0048937788919665264 -0.00094571195522438636 0 0.0047430420318030552 0.00011422950950571443 0 0.0044129316452604633 0.00019222759761155717 0 0.0039372699115996007 0.0014448458864587837 0 0.0033627002155935813 0.001482551738752525 0 0.003724084087794708 0.00093335208157288314 0 0.0047430420318030552 0.00011422950950571443 0 -0.00020887862509172655 -0.00017388472224255419 0 0.0039372699115996007 0.0014448458864587837 0 0.003596710252145514 0.0021593067406586379 0 0.0033627002155935813 0.001482551738752525 0 0.0044965815959674095 -0.0013215095989895179 0 0.0048937788919665264 -0.00094571195522438636 0 0.0050713672495794572 -0.0014562788660579271 0 -0.0045558836078117386 -0.00027667663219041623 0 -0.0046909777696964557 -0.00019998938681906267 0 -0.0045280442267509836 -9.0953281835905899e-05 0 0.003596710252145514 0.0021593067406586379 0 0.0033627002155935813 0.001482551738752525 0 0.0028215425695291125 0.0018162800485168925 0 -0.00020887862509172655 -0.00017388472224255419 0 -0.00098166977146820519 0.00093463274793209453 0 0.0033627002155935813 0.001482551738752525 0 0.0032149104296423829 0.00081807727032235614 0 0.003724084087794708 0.00093335208157288314 0 0.0033627002155935813 0.001482551738752525 0 0.0032149104296423829 0.00081807727032235614 0 0.0028392114765949847 0.0012682439276116267 0 0.0033627002155935813 0.001482551738752525 0 0.0028215425695291125 0.0018162800485168925 0 0.0028392114765949847 0.0012682439276116267 0 0.0032149104296423829 0.00081807727032235614 0 0.0028392114765949847 0.0012682439276116267 0 0.0027409573846398508 0.0008573221132862661 0 0.0032149104296423829 0.00081807727032235614 0 0.00312019515567941 0.00025224542683537055 0 0.0036669613607760963 0.00043676467428257836 0 0.0032149104296423829 0.00081807727032235614 0 0.00312019515567941 0.00025224542683537055 0 0.0027869011113942949 0.00050663492144552064 0 0.0032149104296423829 0.00081807727032235614 0 0.0027409573846398508 0.0008573221132862661 0 0.0027869011113942949 0.00050663492144552064 0 0.00312019515567941 0.00025224542683537055 0 0.0027408015647831384 -0.00024484788173440611 0 0.0036978734636628555 -4.4692273287946416e-05 0 0.00312019515567941 0.00025224542683537055 0 0.0036669613607760963 0.00043676467428257836 0 0.0036978734636628555 -4.4692273287946416e-05 0 0.0036669613607760963 0.00043676467428257836 0 0.004049677253155276 0.00023514668958073387 0 0.0042290573033521486 0.00071867238686849899 0 0.0036669613607760963 0.00043676467428257836 0 0.004049677253155276 0.00023514668958073387 0 0.0036978734636628555 -4.4692273287946416e-05 0 0.004049677253155276 0.00023514668958073387 0 0.0036978734636628555 -4.4692273287946416e-05 0 0.0041006245400569703 -1.796421172145393e-05 0 0.0039372699115996007 0.0014448458864587837 0 0.003724084087794708 0.00093335208157288314 0 0.0042290573033521486 0.00071867238686849899 0 0.0036669613607760963 0.00043676467428257836 0 0.003724084087794708 0.00093335208157288314 0 0.0042290573033521486 0.00071867238686849899 0 0.0032149104296423829 0.00081807727032235614 0 0.0036669613607760963 0.00043676467428257836 0 0.003724084087794708 0.00093335208157288314 0 0.0046922409475965684 -0.00041336751397974525 0 0.004393418904543504 6.7103594653792785e-05 0 0.0042667840073205747 -0.00040765330045808122 0 0.004049677253155276 0.00023514668958073387 0 0.0042290573033521486 0.00071867238686849899 0 0.004393418904543504 6.7103594653792785e-05 0 0.0044129316452604633 0.00019222759761155717 0 0.0044250679897017715 6.3392521033768247e-05 0 0.004049677253155276 0.00023514668958073387 0 0.004393418904543504 6.7103594653792785e-05 0 0.0041006245400569703 -1.796421172145393e-05 0 0.004393418904543504 6.7103594653792785e-05 0 0.0042667840073205747 -0.00040765330045808122 0 0.0041645523404606078 -6.7776386951885759e-05 0 0.004393418904543504 6.7103594653792785e-05 0 0.0041645523404606078 -6.7776386951885759e-05 0 0.0043229051281848709 9.5407613315103378e-05 0 0.0042482524208099373 -0.00093302973319565267 0 0.0046922409475965684 -0.00041336751397974525 0 0.0042667840073205747 -0.00040765330045808122 0 -0.0005835989347155613 0.00081384779707995968 0 0.0003549167861469237 0.00075007399957272274 0 0.0019938837527828275 0.0015415836672941175 0 0.00076873443059469161 0.0011405968810227587 0 0.0012773016919791769 0.0010577816807449977 0 -0.0043596716057243134 0.00010156759393373917 0 -0.0044170446794472009 1.2601774049321794e-05 0 -0.004443131222615442 -5.5677550981876083e-06 0 -0.0028891471591121405 0.00023059998715156804 0 -0.0005835989347155613 0.00081384779707995968 0 -0.00065642304087085255 0.00043728723074539584 0 -0.00034605796477328154 0.00038571242223332569 0 -0.00061147872080453535 0.0002476138991862999 0 -0.00085587826329376073 0.00028486117259768432 0 -0.00065642304087085255 0.00043728723074539584 0 -0.001143606945047927 0.00054902615567588113 0 -0.0028891471591121405 0.00023059998715156804 0 -0.0024456697714213276 0.00040209968081222165 0 -0.00085587826329376073 0.00028486117259768432 0 -0.00065642304087085255 0.00043728723074539584 0 -0.00061147872080453535 0.0002476138991862999 0 -0.0043596716057243134 0.00010156759393373917 0 -0.0043252058760555401 -6.6584352798694174e-05 0 -0.0043905197955580203 -1.9317692574735766e-05 0 -0.0043596716057243134 0.00010156759393373917 0 -0.0043252058760555401 -6.6584352798694174e-05 0 -0.0039673157342594188 0.00031333512121610598 0 -0.0044439373025741569 -0.00013358018763368518 0 -0.0044170446794472009 1.2601774049321794e-05 0 -0.0044719520331333177 -7.7735789433756104e-05 0 -0.0044439373025741569 -0.00013358018763368518 0 -0.0043252058760555401 -6.6584352798694174e-05 0 -0.0043905197955580203 -1.9317692574735766e-05 0 -0.0044439373025741569 -0.00013358018763368518 0 -0.0043905197955580203 -1.9317692574735766e-05 0 -0.0044170446794472009 1.2601774049321794e-05 0 -0.0043596716057243134 0.00010156759393373917 0 -0.0043905197955580203 -1.9317692574735766e-05 0 -0.0044170446794472009 1.2601774049321794e-05 0 -0.0044927752243630005 -0.00027402630498094335 0 -0.0044525118502860405 -5.324092252198896e-05 0 -0.004597985951270124 -0.00022800418525857611 0 -0.0044719520331333177 -7.7735789433756104e-05 0 -0.0044460199049041254 -2.8543731976028852e-05 0 -0.0044719520331333177 -7.7735789433756104e-05 0 -0.0044444794093731026 -2.1779463346377843e-05 0 -0.0044460199049041254 -2.8543731976028852e-05 0 -0.0044170446794472009 1.2601774049321794e-05 0 -0.0044719520331333177 -7.7735789433756104e-05 0 -0.0044444794093731026 -2.1779463346377843e-05 0 -0.0043896881999142164 -0.00031527754566403835 0 -0.0045280442267509836 -9.0953281835905899e-05 0 -0.0044460199049041254 -2.8543731976028852e-05 0 -0.0045280442267509836 -9.0953281835905899e-05 0 -0.0044460199049041254 -2.8543731976028852e-05 0 -0.004443131222615442 -5.5677550981876083e-06 0 -0.00098166977146820519 0.00093463274793209453 0 -0.0005835989347155613 0.00081384779707995968 0 0.0028215425695291125 0.0018162800485168925 0 0.0023989345303361727 0.0014146095058326306 0 0.0020057018451172153 0.0014777519700057541 0 0.0028215425695291125 0.0018162800485168925 0 0.0023989345303361727 0.0014146095058326306 0 0.0028392114765949847 0.0012682439276116267 0 0.0023989345303361727 0.0014146095058326306 0 0.0024936591365776447 0.0010863187738727759 0 0.0021507129248609013 0.0011284711369300032 0 0.0023989345303361727 0.0014146095058326306 0 0.0024936591365776447 0.0010863187738727759 0 0.0028392114765949847 0.0012682439276116267 0 -0.0044170446794472009 1.2601774049321794e-05 0 -0.0044444794093731026 -2.1779463346377843e-05 0 -0.004443131222615442 -5.5677550981876083e-06 0 0.0024359459905601969 0.00099900650771311329 0 -0.0005835989347155613 0.00081384779707995968 0 -0.0044444794093731026 -2.1779463346377843e-05 0 -0.0044460199049041254 -2.8543731976028852e-05 0 -0.004443131222615442 -5.5677550981876083e-06 0 0.0023989345303361727 0.0014146095058326306 0 0.0019938837527828275 0.0015415836672941175 0 0.0021507129248609013 0.0011284711369300032 0 0.0019938837527828275 0.0015415836672941175 0 0.0021507129248609013 0.0011284711369300032 0 0.0019108372874107919 0.0011492867955345118 0 0.0019938837527828275 0.0015415836672941175 0 0.0019108372874107919 0.0011492867955345118 0 0.0016469402529039341 0.0011282054551469631 0 0.0019938837527828275 0.0015415836672941175 0 0.0016469402529039341 0.0011282054551469631 0 0.0012773016919791769 0.0010577816807449977 0 0.0016469402529039341 0.0011282054551469631 0 0.0018565957288920387 0.00079599190063124581 0 0.0014658973199641401 0.00075180297186628773 0 0.0019108372874107919 0.0011492867955345118 0 0.0016469402529039341 0.0011282054551469631 0 0.0018565957288920387 0.00079599190063124581 0 0.0021507129248609013 0.0011284711369300032 0 0.0019108372874107919 0.0011492867955345118 0 0.0018565957288920387 0.00079599190063124581 0 0.0021507129248609013 0.0011284711369300032 0 0.0018565957288920387 0.00079599190063124581 0 0.0023643317345616558 0.00068872053265119093 0 0.0018565957288920387 0.00079599190063124581 0 0.0023643317345616558 0.00068872053265119093 0 0.0019819500845806976 0.00027704929435578906 0 0.0018565957288920387 0.00079599190063124581 0 0.0019819500845806976 0.00027704929435578906 0 0.0015080166112016349 0.00034457753604320358 0 0.0018565957288920387 0.00079599190063124581 0 0.0015080166112016349 0.00034457753604320358 0 0.0014658973199641401 0.00075180297186628773 0 0.0024936591365776447 0.0010863187738727759 0 0.0028392114765949847 0.0012682439276116267 0 0.0027409573846398508 0.0008573221132862661 0 0.0024936591365776447 0.0010863187738727759 0 0.0021507129248609013 0.0011284711369300032 0 0.0023643317345616558 0.00068872053265119093 0 0.0024936591365776447 0.0010863187738727759 0 0.0027409573846398508 0.0008573221132862661 0 0.0023643317345616558 0.00068872053265119093 0 0.0023643317345616558 0.00068872053265119093 0 0.0027869011113942949 0.00050663492144552064 0 0.0025149599542722478 0.00020360358678562151 0 0.0027409573846398508 0.0008573221132862661 0 0.0023643317345616558 0.00068872053265119093 0 0.0027869011113942949 0.00050663492144552064 0 0.00312019515567941 0.00025224542683537055 0 0.0027869011113942949 0.00050663492144552064 0 0.0025149599542722478 0.00020360358678562151 0 0.0023643317345616558 0.00068872053265119093 0 0.0025149599542722478 0.00020360358678562151 0 0.0019819500845806976 0.00027704929435578906 0 0.0025149599542722478 0.00020360358678562151 0 0.0021304983672823749 -0.00021882502625958567 0 0.0027408015647831384 -0.00024484788173440611 0 0.00312019515567941 0.00025224542683537055 0 0.0025149599542722478 0.00020360358678562151 0 0.0027408015647831384 -0.00024484788173440611 0 0.0019819500845806976 0.00027704929435578906 0 0.0016179872571399163 -1.6521658463003056e-05 0 0.0015080166112016349 0.00034457753604320358 0 0.0025149599542722478 0.00020360358678562151 0 0.0019819500845806976 0.00027704929435578906 0 0.0021304983672823749 -0.00021882502625958567 0 0.0019819500845806976 0.00027704929435578906 0 0.0016179872571399163 -1.6521658463003056e-05 0 0.0021304983672823749 -0.00021882502625958567 0 0.0011548970849879485 -8.9315523641166269e-07 0 0.0010850967670453019 0.00044965671846031538 0 0.00076946820561433766 -0.00011800077756427001 0 0.0011548970849879485 -8.9315523641166269e-07 0 0.00076946820561433766 -0.00011800077756427001 0 0.0013792491920846417 -0.00049363989445954206 0 0.0016179872571399163 -1.6521658463003056e-05 0 0.0011548970849879485 -8.9315523641166269e-07 0 0.0013792491920846417 -0.00049363989445954206 0 0.0011548970849879485 -8.9315523641166269e-07 0 0.0015080166112016349 0.00034457753604320358 0 0.0010850967670453019 0.00044965671846031538 0 0.0016179872571399163 -1.6521658463003056e-05 0 0.0011548970849879485 -8.9315523641166269e-07 0 0.0015080166112016349 0.00034457753604320358 0 0.0015080166112016349 0.00034457753604320358 0 0.0010850967670453019 0.00044965671846031538 0 0.0014658973199641401 0.00075180297186628773 0 0.0010850967670453019 0.00044965671846031538 0 0.00076873443059469161 0.0011405968810227587 0 3.7339675266306348e-05 0.00014039944817186749 0 0.0010850967670453019 0.00044965671846031538 0 0.00076873443059469161 0.0011405968810227587 0 0.0012773016919791769 0.0010577816807449977 0 0.0010850967670453019 0.00044965671846031538 0 0.0012773016919791769 0.0010577816807449977 0 0.0014658973199641401 0.00075180297186628773 0 0.0016469402529039341 0.0011282054551469631 0 0.0012773016919791769 0.0010577816807449977 0 0.0014658973199641401 0.00075180297186628773 0 0.00076873443059469161 0.0011405968810227587 0 3.7339675266306348e-05 0.00014039944817186749 0 -0.0008324774943725186 0.00013250893970470466 0 0.0003549167861469237 0.00075007399957272274 0 -0.00087857720342271299 0.00015009830187543067 0 -0.00085587826329376073 0.00028486117259768432 0 -0.00061147872080453535 0.0002476138991862999 0 -0.0008324774943725186 0.00013250893970470466 0 0.0010850967670453019 0.00044965671846031538 0 3.7339675266306348e-05 0.00014039944817186749 0 -0.00031843172080074639 -0.00050462112652396092 0 3.7339675266306348e-05 0.00014039944817186749 0 -0.00031843172080074639 -0.00050462112652396092 0 -0.0008324774943725186 0.00013250893970470466 0 0.0012383228023938799 0.00063616128972420404 0 -0.00027233616989944399 -0.00077389007636911671 0 -0.00086071332771026174 -0.0003714499880756514 0 -0.0011574604180475728 -0.00020745020648820653 0 -0.0008324774943725186 0.00013250893970470466 0 -0.00031843172080074639 -0.00050462112652396092 0 -0.00086071332771026174 -0.0003714499880756514 0 -0.0008324774943725186 0.00013250893970470466 0 -0.0011574604180475728 -0.00020745020648820653 0 -0.001014774102113851 -0.00023312354084088424 0 -0.0010172010017207283 -0.00032773799220239862 0 -0.00086071332771026174 -0.0003714499880756514 0 -0.0011574604180475728 -0.00020745020648820653 0 -0.0010172010017207283 -0.00032773799220239862 0 -0.0011574604180475728 -0.00020745020648820653 0 -0.0013320977463425877 7.0372798306362282e-05 0 -0.0013632365913166106 -0.00014619358236888153 0 -0.00085587826329376073 0.00028486117259768432 0 -0.0013320977463425877 7.0372798306362282e-05 0 -0.0008324774943725186 0.00013250893970470466 0 -0.0011574604180475728 -0.00020745020648820653 0 -0.0013320977463425877 7.0372798306362282e-05 0 -0.0008324774943725186 0.00013250893970470466 0 -0.00085587826329376073 0.00028486117259768432 0 -0.0013320977463425877 7.0372798306362282e-05 0 -0.001143606945047927 0.00054902615567588113 0 -0.0013320977463425877 7.0372798306362282e-05 0 -0.001143606945047927 0.00054902615567588113 0 -0.0025084502476956619 0.00033216368325937671 0 -0.0039673157342594188 0.00031333512121610598 0 -0.0025084502476956619 0.00033216368325937671 0 -0.0035252887789458459 -0.00015997018387579445 0 -0.0024456697714213276 0.00040209968081222165 0 -0.0025132979814894243 0.00035224477513796367 0 -0.0043252058760555401 -6.6584352798694174e-05 0 -0.0039673157342594188 0.00031333512121610598 0 -0.0040871053155685406 -0.00032951327830258294 0 -0.0025084502476956619 0.00033216368325937671 0 -0.0018734843363450845 3.3933600063228973e-05 0 -0.0021826900843027364 -1.6834096229272389e-05 0 -0.0025084502476956619 0.00033216368325937671 0 -0.0021826900843027364 -1.6834096229272389e-05 0 -0.0026420631555804804 6.8962987732787577e-05 0 -0.0013320977463425877 7.0372798306362282e-05 0 -0.0025084502476956619 0.00033216368325937671 0 -0.0018734843363450845 3.3933600063228973e-05 0 -0.0018734843363450845 3.3933600063228973e-05 0 -0.0013754657985201679 -0.00014844224821630351 0 -0.0015801838179671825 -0.00014129502017294979 0 -0.0013320977463425877 7.0372798306362282e-05 0 -0.0018734843363450845 3.3933600063228973e-05 0 -0.0013632365913166106 -0.00014619358236888153 0 -0.0018734843363450845 3.3933600063228973e-05 0 -0.0013754657985201679 -0.00014844224821630351 0 -0.0013632365913166106 -0.00014619358236888153 0 -0.0011574604180475728 -0.00020745020648820653 0 -0.0013632365913166106 -0.00014619358236888153 0 -0.001014774102113851 -0.00023312354084088424 0 -0.0013754657985201679 -0.00014844224821630351 0 -0.0013632365913166106 -0.00014619358236888153 0 -0.001014774102113851 -0.00023312354084088424 0 -0.0013754657985201679 -0.00014844224821630351 0 -0.001014774102113851 -0.00023312354084088424 0 -0.00081844009668246339 -0.00016393040528188098 0 -0.0013754657985201679 -0.00014844224821630351 0 -0.00081844009668246339 -0.00016393040528188098 0 -0.0015801838179671825 -0.00014129502017294979 0 -0.00081844009668246339 -0.00016393040528188098 0 -0.0008478851788785495 -0.00022011253892053784 0 -0.0015801838179671825 -0.00014129502017294979 0 -0.0008478851788785495 -0.00022011253892053784 0 -0.0015801838179671825 -0.00014129502017294979 0 -0.0019491282165282609 -0.00015234006158548473 0 -0.00023545770459469778 -0.00026338292210571361 0 -0.00088675089692967762 -4.0472041112316457e-07 0 0.00092760848192814974 -2.0681173687201106e-07 0 -0.00023545770459469778 -0.00026338292210571361 0 -0.00088675089692967762 -4.0472041112316457e-07 0 -0.0016512840932230138 -0.00014167717707046153 0 -0.00053343796488412398 -0.00022814123987974937 0 -0.0018149201452284599 -0.00016899304583205835 0 -0.00088675089692967762 -4.0472041112316457e-07 0 -0.0016512840932230138 -0.00014167717707046153 0 -0.0027019197743647014 -1.6351635438107926e-07 0 -0.0018149201452284599 -0.00016899304583205835 0 -0.0027613243062300161 -0.00013019474374647937 0 -0.0016512840932230138 -0.00014167717707046153 0 -0.0027019197743647014 -1.6351635438107926e-07 0 -0.0029409031762406669 -0.00013426392040044959 0 -0.0027019197743647014 -1.6351635438107926e-07 0 -0.0029409031762406669 -0.00013426392040044959 0 -0.0045169598588307254 -9.1388832828042546e-07 0 -0.0018734843363450845 3.3933600063228973e-05 0 -0.0015801838179671825 -0.00014129502017294979 0 -0.0021826900843027364 -1.6834096229272389e-05 0 -0.0015801838179671825 -0.00014129502017294979 0 -0.0019491282165282609 -0.00015234006158548473 0 -0.0021826900843027364 -1.6834096229272389e-05 0 -0.0019491282165282609 -0.00015234006158548473 0 -0.0029409031762406669 -0.00013426392040044959 0 -0.0021826900843027364 -1.6834096229272389e-05 0 -0.0029409031762406669 -0.00013426392040044959 0 -0.0021826900843027364 -1.6834096229272389e-05 0 -0.0026182236370272524 6.8984165151491453e-06 0 -0.0021826900843027364 -1.6834096229272389e-05 0 -0.0026182236370272524 6.8984165151491453e-06 0 -0.0026420631555804804 6.8962987732787577e-05 0 -0.0027641593644923495 3.334915185081882e-05 0 -0.0026420631555804804 6.8962987732787577e-05 0 -0.0030013372653935112 -6.6739473008592241e-05 0 -0.0027641593644923495 3.334915185081882e-05 0 -0.0026182236370272524 6.8984165151491453e-06 0 -0.0026420631555804804 6.8962987732787577e-05 0 -0.0029409031762406669 -0.00013426392040044959 0 -0.0026182236370272524 6.8984165151491453e-06 0 -0.0029063405013694268 -1.4752976887612757e-06 0 -0.0027641593644923495 3.334915185081882e-05 0 -0.0026182236370272524 6.8984165151491453e-06 0 -0.0029063405013694268 -1.4752976887612757e-06 0 -0.0027641593644923495 3.334915185081882e-05 0 -0.0029844085103135848 0.00013167045941537515 0 -0.0028452310673752054 2.2471554815750846e-05 0 -0.0027641593644923495 3.334915185081882e-05 0 -0.0029063405013694268 -1.4752976887612757e-06 0 -0.0029844085103135848 0.00013167045941537515 0 -0.0029063405013694268 -1.4752976887612757e-06 0 -0.0029844085103135848 0.00013167045941537515 0 -0.0034246044703851427 6.0985228778114406e-05 0 -0.0029844085103135848 0.00013167045941537515 0 -0.0033294449737269098 0.00026094417672141212 0 -0.0029921428770780609 0.00050459128103781724 0 -0.0029844085103135848 0.00013167045941537515 0 -0.0028452310673752054 2.2471554815750846e-05 0 -0.0029921428770780609 0.00050459128103781724 0 -0.0028452310673752054 2.2471554815750846e-05 0 -0.0029119275130108711 -0.00049304736217627783 0 -0.0030013372653935112 -6.6739473008592241e-05 0 -0.0027641593644923495 3.334915185081882e-05 0 -0.0028452310673752054 2.2471554815750846e-05 0 -0.0030013372653935112 -6.6739473008592241e-05 0 -0.0029409031762406669 -0.00013426392040044959 0 -0.0045169598588307254 -9.1388832828042546e-07 0 -0.0044154221256460157 1.6702363903134264e-05 0 -0.0029409031762406669 -0.00013426392040044959 0 -0.0029063405013694268 -1.4752976887612757e-06 0 -0.0034246044703851427 6.0985228778114406e-05 0 -0.0029409031762406669 -0.00013426392040044959 0 -0.0034246044703851427 6.0985228778114406e-05 0 -0.0044154221256460157 1.6702363903134264e-05 0 -0.0029844085103135848 0.00013167045941537515 0 -0.0034246044703851427 6.0985228778114406e-05 0 -0.0033294449737269098 0.00026094417672141212 0 -0.0034246044703851427 6.0985228778114406e-05 0 -0.0033294449737269098 0.00026094417672141212 0 -0.0039836077265702095 0.00040683543902155959 0 -0.0033294449737269098 0.00026094417672141212 0 -0.0039836077265702095 0.00040683543902155959 0 -0.0029921428770780609 0.00050459128103781724 0 -0.0034246044703851427 6.0985228778114406e-05 0 -0.0039836077265702095 0.00040683543902155959 0 -0.0044154221256460157 1.6702363903134264e-05 0 -0.0045169598588307254 -9.1388832828042546e-07 0 -0.0044154221256460157 1.6702363903134264e-05 0 -0.0063298024668838309 2.2072794465452701e-06 0 -0.0039836077265702095 0.00040683543902155959 0 -0.0044154221256460157 1.6702363903134264e-05 0 -0.0047321453466831207 0.00037444787808453334 0 -0.0039836077265702095 0.00040683543902155959 0 -0.0047321453466831207 0.00037444787808453334 0 -0.0049063455031203712 0.0009976539690710667 0 -0.0063328524419422293 2.8810995341296937e-07 0 -0.0069928493077821381 -0.00028152768935873432 0 -0.0063350082325536253 1.3753772960577514e-06 0 -0.0070855745341579278 4.0307739178961725e-05 0 -0.0075409750433761812 0.00017471372963930043 0 -0.0047321453466831207 0.00037444787808453334 0 -0.0063298024668838309 2.2072794465452701e-06 0 -0.0049063455031203712 0.0009976539690710667 0 -0.0044154221256460157 1.6702363903134264e-05 0 -0.0047321453466831207 0.00037444787808453334 0 -0.0063298024668838309 2.2072794465452701e-06 0 -0.0070855745341579278 4.0307739178961725e-05 0 -0.0080952505824393606 -0.00011386609819846138 0 -0.0083021528470773511 -1.1380646982375144e-06 0 -0.0063350082325536253 1.3753772960577514e-06 0 -0.0070855745341579278 4.0307739178961725e-05 0 -0.0083021528470773511 -1.1380646982375144e-06 0 -0.0075513391527406932 0.00016913245890898574 0 -0.0080952505824393606 -0.00011386609819846138 0 -0.0087609590734814332 -0.00018884979208191421 0 -0.0070726555069141328 -0.00024430016821581229 0 -0.0069928493077821381 -0.00028152768935873432 0 -0.0070855745341579278 4.0307739178961725e-05 0 -0.0075513391527406932 0.00016913245890898574 0 -0.0080952505824393606 -0.00011386609819846138 0 -0.0084795789245103396 -0.0015007095732632687 0 -0.00824621007511658 -0.0013831730007828665 0 -0.0081033399535976863 -0.0015216528232860085 0 -0.0069928493077821381 -0.00028152768935873432 0 -0.0055444179741402687 -0.0005296503239164992 0 -0.0069928493077821381 -0.00028152768935873432 0 -0.0086482008251029946 -0.00091980765090201222 0 -0.0039836077265702095 0.00040683543902155959 0 -0.0049063455031203712 0.0009976539690710667 0 -0.0029921428770780609 0.00050459128103781724 0 -0.0091952795935670174 -0.0004660614911102127 0 -0.0087683092012071518 -0.00034571383986264659 0 -0.0086777364663473203 -0.00076335134038261652 0 -0.0087609590734814332 -0.00018884979208191421 0 -0.0087683092012071518 -0.00034571383986264659 0 -0.0086777364663473203 -0.00076335134038261652 0 -0.0080952505824393606 -0.00011386609819846138 0 -0.0087609590734814332 -0.00018884979208191421 0 -0.0087683092012071518 -0.00034571383986264659 0 -0.0091952795935670174 -0.0004660614911102127 0 -0.0087683092012071518 -0.00034571383986264659 0 -0.0083021528470773511 -1.1380646982375144e-06 0 -0.0080952505824393606 -0.00011386609819846138 0 -0.0087683092012071518 -0.00034571383986264659 0 -0.0083021528470773511 -1.1380646982375144e-06 0 -0.0028452310673752054 2.2471554815750846e-05 0 -0.0029119275130108711 -0.00049304736217627783 0 -0.0029921428770780609 0.00050459128103781724 0 -0.0051846819800413493 -0.0009728076746151745 0 -0.0055444179741402687 -0.0005296503239164992 0 -0.0073567191491328175 -0.0015552650344268419 0 -0.0081033399535976863 -0.0015216528232860085 0 -0.0079094628533296334 -0.0010674301528164939 0 -0.00824621007511658 -0.0013831730007828665 0 -0.0081033399535976863 -0.0015216528232860085 0 -0.0079094628533296334 -0.0010674301528164939 0 -0.0086482008251029946 -0.00091980765090201222 0 -0.0081821957058794709 -0.00083933283963618657 0 -0.0074452623371125039 -0.00059198400852809017 0 -0.0073567191491328175 -0.0015552650344268419 0 -0.0079094628533296334 -0.0010674301528164939 0 -0.007526091895030348 -0.00059023824156222734 0 -0.0081821957058794709 -0.00083933283963618657 0 -0.0073567191491328175 -0.0015552650344268419 0 -0.0065775564091164118 -0.00073864598486029771 0 -0.0059348220087835826 -0.00083363837491330205 0 -0.0074452623371125039 -0.00059198400852809017 0 -0.0073567191491328175 -0.0015552650344268419 0 -0.0065775564091164118 -0.00073864598486029771 0 -0.00667951086441644 -0.00043337413890770065 0 -0.0065775564091164118 -0.00073864598486029771 0 -0.0059499897279411892 -0.00045186749724806786 0 -0.0065775564091164118 -0.00073864598486029771 0 -0.0059348220087835826 -0.00083363837491330205 0 -0.0059499897279411892 -0.00045186749724806786 0 -0.0029119275130108711 -0.00049304736217627783 0 -0.003752560418721186 -0.00038377342098107911 0 -0.0049756045344064165 -0.00096931447415375422 0 -0.0051846819800413493 -0.0009728076746151745 0 -0.0049871894147228667 -0.00099020443286659712 0 -0.0029119275130108711 -0.00049304736217627783 0 -0.003752560418721186 -0.00038377342098107911 0 -0.0030013372653935112 -6.6739473008592241e-05 0 -0.0073567191491328175 -0.0015552650344268419 0 -0.0059348220087835826 -0.00083363837491330205 0 -0.0049756045344064165 -0.00096931447415375422 0 -0.003752560418721186 -0.00038377342098107911 0 -0.004358413881552948 -0.00066359382909885693 0 -0.0041288053831012713 -0.00054100617116629719 0 -0.004358413881552948 -0.00066359382909885693 0 -0.0046342651215624704 -0.00080037619768450841 0 -0.0041288053831012713 -0.00054100617116629719 0 -0.003752560418721186 -0.00038377342098107911 0 -0.004358413881552948 -0.00066359382909885693 0 -0.0049756045344064165 -0.00096931447415375422 0 -0.0046342651215624704 -0.00080037619768450841 0 -0.005192443629533354 -0.00073798400688239267 0 -0.0044713480216553832 -0.00075197748649281655 0 -0.004358413881552948 -0.00066359382909885693 0 -0.0049756045344064165 -0.00096931447415375422 0 -0.0046342651215624704 -0.00080037619768450841 0 -0.0049756045344064165 -0.00096931447415375422 0 -0.0046342651215624704 -0.00080037619768450841 0 -0.005192443629533354 -0.00073798400688239267 0 -0.0059348220087835826 -0.00083363837491330205 0 -0.0049756045344064165 -0.00096931447415375422 0 -0.005192443629533354 -0.00073798400688239267 0 -0.0059348220087835826 -0.00083363837491330205 0 -0.005192443629533354 -0.00073798400688239267 0 -0.0059499897279411892 -0.00045186749724806786 0 -0.0043813699269214402 -0.00047392232392273206 0 -0.004351648484867957 -0.00063633198023508122 0 -0.0044713480216553832 -0.00075197748649281655 0 -0.0043813699269214402 -0.00047392232392273206 0 -0.005192443629533354 -0.00073798400688239267 0 -0.0044713480216553832 -0.00075197748649281655 0 -0.0066990534932510502 -4.5890854328038248e-05 0 -0.005192443629533354 -0.00073798400688239267 0 -0.0059499897279411892 -0.00045186749724806786 0 -0.005567192399426925 -0.00033182637733662447 0 -0.0053157782917766785 -0.00071229149123578619 0 -0.0043813699269214402 -0.00047392232392273206 0 -0.0043968162257279056 -0.00054123084491944308 0 -0.004351648484867957 -0.00063633198023508122 0 -0.004351648484867957 -0.00063633198023508122 0 -0.0044713480216553832 -0.00075197748649281655 0 -0.0041288053831012713 -0.00054100617116629719 0 -0.0046342651215624704 -0.00080037619768450841 0 -0.0044713480216553832 -0.00075197748649281655 0 -0.0041288053831012713 -0.00054100617116629719 0 -0.004351648484867957 -0.00063633198023508122 0 -0.0040871053155685406 -0.00032951327830258294 0 -0.0041288053831012713 -0.00054100617116629719 0 -0.0040871053155685406 -0.00032951327830258294 0 -0.0035252887789458459 -0.00015997018387579445 0 -0.0041288053831012713 -0.00054100617116629719 0 -0.0043641728900836148 -0.00036786630139544284 0 -0.004351648484867957 -0.00063633198023508122 0 -0.0040871053155685406 -0.00032951327830258294 0 -0.0039673157342594188 0.00031333512121610598 0 -0.0040871053155685406 -0.00032951327830258294 0 -0.0035252887789458459 -0.00015997018387579445 0 -0.0025084502476956619 0.00033216368325937671 0 -0.0035252887789458459 -0.00015997018387579445 0 -0.0032746234730883839 -0.00014931317509950473 0 -0.0026420631555804804 6.8962987732787577e-05 0 -0.0032746234730883839 -0.00014931317509950473 0 -0.0030013372653935112 -6.6739473008592241e-05 0 -0.0025084502476956619 0.00033216368325937671 0 -0.0026420631555804804 6.8962987732787577e-05 0 -0.0032746234730883839 -0.00014931317509950473 0 -0.003752560418721186 -0.00038377342098107911 0 -0.0032746234730883839 -0.00014931317509950473 0 -0.0030013372653935112 -6.6739473008592241e-05 0 -0.0035252887789458459 -0.00015997018387579445 0 -0.0032746234730883839 -0.00014931317509950473 0 -0.0041288053831012713 -0.00054100617116629719 0 -0.003752560418721186 -0.00038377342098107911 0 -0.0032746234730883839 -0.00014931317509950473 0 -0.0041288053831012713 -0.00054100617116629719 0 -0.0013843994630961388 -0.0020365062347259652 0 -0.0018305408105645726 -0.0018425933703692659 0 -0.0018633948631391777 -0.0025501320290619916 0 -0.0013843994630961388 -0.0020365062347259652 0 -0.0018305408105645726 -0.0018425933703692659 0 -0.0015862499360071195 -0.0013989177181963695 0 -0.0018305408105645726 -0.0018425933703692659 0 -0.0015862499360071195 -0.0013989177181963695 0 -0.0020251940874617597 -0.0011948416220962847 0 -0.0013843994630961388 -0.0020365062347259652 0 -0.0015862499360071195 -0.0013989177181963695 0 -0.00087149081608397486 -0.0013453804467606445 0 -0.0013843994630961388 -0.0020365062347259652 0 -0.00073820447922102019 -0.0020190922278776869 0 -0.00087149081608397486 -0.0013453804467606445 0 -0.00073820447922102019 -0.0020190922278776869 0 -0.00087149081608397486 -0.0013453804467606445 0 -2.9066567645285302e-05 -0.0018797734542916036 0 -0.00073820447922102019 -0.0020190922278776869 0 -0.00090552212734416469 -0.002537943306477938 0 -0.0002932912753822766 -0.0024591472013287541 0 -0.00073820447922102019 -0.0020190922278776869 0 -0.0002932912753822766 -0.0024591472013287541 0 -2.9066567645285302e-05 -0.0018797734542916036 0 -0.0013843994630961388 -0.0020365062347259652 0 -0.00073820447922102019 -0.0020190922278776869 0 -0.00090552212734416469 -0.002537943306477938 0 -0.00090552212734416469 -0.002537943306477938 0 -0.0002932912753822766 -0.0024591472013287541 0 -0.00077522796012089682 -0.0031809426040030576 0 -0.0002932912753822766 -0.0024591472013287541 0 -0.00077522796012089682 -0.0031809426040030576 0 0.00013985274309792373 -0.0031322645631854966 0 -0.00090552212734416469 -0.002537943306477938 0 -0.00077522796012089682 -0.0031809426040030576 0 -0.0013313282061821823 -0.0029516723706844877 0 -0.00077522796012089682 -0.0031809426040030576 0 -0.0013313282061821823 -0.0029516723706844877 0 -0.0014714739945850919 -0.0035172610323441524 0 -0.0013313282061821823 -0.0029516723706844877 0 -0.001759519681059763 -0.0032329983527108739 0 -0.0014714739945850919 -0.0035172610323441524 0 -0.0013843994630961388 -0.0020365062347259652 0 -0.00090552212734416469 -0.002537943306477938 0 -0.0013313282061821823 -0.0029516723706844877 0 -0.0013843994630961388 -0.0020365062347259652 0 -0.0013313282061821823 -0.0029516723706844877 0 -0.0018633948631391777 -0.0025501320290619916 0 -0.0013313282061821823 -0.0029516723706844877 0 -0.0018633948631391777 -0.0025501320290619916 0 -0.001759519681059763 -0.0032329983527108739 0 -0.0018633948631391777 -0.0025501320290619916 0 -0.0020805370024890761 -0.0029422144681351321 0 -0.001759519681059763 -0.0032329983527108739 0 -0.0020805370024890761 -0.0029422144681351321 0 -0.001759519681059763 -0.0032329983527108739 0 -0.0019948785523650862 -0.0032965879005767743 0 -0.0020805370024890761 -0.0029422144681351321 0 -0.0024947169806034024 -0.0027016261051358327 0 -0.0022288973225923674 -0.0033119115637160797 0 -0.0020805370024890761 -0.0029422144681351321 0 -0.0019948785523650862 -0.0032965879005767743 0 -0.0022288973225923674 -0.0033119115637160797 0 -0.0024947169806034024 -0.0027016261051358327 0 -0.0025992361548889589 -0.0032950785571709365 0 -0.0022288973225923674 -0.0033119115637160797 0 -0.0023114107173419231 -0.002320386023316219 0 -0.0023859569127981668 -0.0030441225764361482 0 -0.0021283148403324821 -0.0019948654066550687 0 -0.0024549224959258668 -0.0022145565146989552 0 -0.002229028807840486 -0.0025141725852061373 0 -0.0021283148403324821 -0.0019948654066550687 0 -0.0024549224959258668 -0.0022145565146989552 0 -0.0023849024908226399 -0.0016970852205246893 0 -0.0023114107173419231 -0.002320386023316219 0 -0.0021933558125292615 -0.0017607007493763997 0 -0.0021283148403324821 -0.0019948654066550687 0 -0.002054664620428635 -0.0014898881932422752 0 -0.0023849024908226399 -0.0016970852205246893 0 -0.0018633948631391777 -0.0025501320290619916 0 -0.0024947169806034024 -0.0027016261051358327 0 -0.0023499614905519392 -0.0020193253089029373 0 -0.0018633948631391777 -0.0025501320290619916 0 -0.0020805370024890761 -0.0029422144681351321 0 -0.0024947169806034024 -0.0027016261051358327 0 -0.0033874826271256936 -0.0028700326516965368 0 -0.0027521055274024944 -0.0034412704062540462 0 -0.0042427620491826369 -0.0033996278345147877 0 -0.0033874826271256936 -0.0028700326516965368 0 -0.0027675141287350222 -0.0022979400715584714 0 -0.0027521055274024944 -0.0034412704062540462 0 -0.0026369915878253409 -0.0021483181596673056 0 -0.0036751278377186525 -0.0028094150113427514 0 -0.0024549224959258668 -0.0022145565146989552 0 -0.0026987122365716354 -0.0019404934890941106 0 -0.0027132158748238672 -0.0024921711973769139 0 -0.0024549224959258668 -0.0022145565146989552 0 -0.0027132158748238672 -0.0024921711973769139 0 -0.002229028807840486 -0.0025141725852061373 0 -0.0024549224959258668 -0.0022145565146989552 0 -0.0026987122365716354 -0.0019404934890941106 0 -0.0023849024908226399 -0.0016970852205246893 0 -0.0033874826271256936 -0.0028700326516965368 0 -0.0027675141287350222 -0.0022979400715584714 0 -0.0038248503809893883 -0.0023839855490227053 0 -0.0027675141287350222 -0.0022979400715584714 0 -0.0038248503809893883 -0.0023839855490227053 0 -0.0034992363315018453 -0.0014908388798848459 0 -0.0027675141287350222 -0.0022979400715584714 0 -0.0026850247381078819 -0.0014048875357250607 0 -0.0034992363315018453 -0.0014908388798848459 0 -0.0026369915878253409 -0.0021483181596673056 0 -0.0027129353175209757 -0.0014320717121128475 0 -0.0026987122365716354 -0.0019404934890941106 0 -0.0026850247381078819 -0.0014048875357250607 0 -0.0023849024908226399 -0.0016970852205246893 0 -0.0026850247381078819 -0.0014048875357250607 0 -0.0023849024908226399 -0.0016970852205246893 0 -0.0023201013009479798 -0.0012219943414509653 0 -0.0026850247381078819 -0.0014048875357250607 0 -0.0028203240139008275 -0.00099942557682952075 0 -0.0023201013009479798 -0.0012219943414509653 0 -0.0028203240139008275 -0.00099942557682952075 0 -0.0034992363315018453 -0.0014908388798848459 0 -0.003375984996520553 -0.00087781156521074826 0 -0.0026850247381078819 -0.0014048875357250607 0 -0.0028203240139008275 -0.00099942557682952075 0 -0.0034992363315018453 -0.0014908388798848459 0 -0.0018305408105645726 -0.0018425933703692659 0 -0.0018633948631391777 -0.0025501320290619916 0 -0.0023499614905519392 -0.0020193253089029373 0 -0.002054664620428635 -0.0014898881932422752 0 -0.0023849024908226399 -0.0016970852205246893 0 -0.0023201013009479798 -0.0012219943414509653 0 -0.002054664620428635 -0.0014898881932422752 0 -0.0023201013009479798 -0.0012219943414509653 0 -0.0020251940874617597 -0.0011948416220962847 0 -0.0018305408105645726 -0.0018425933703692659 0 -0.0023499614905519392 -0.0020193253089029373 0 -0.0020251940874617597 -0.0011948416220962847 0 -0.0021933558125292615 -0.0017607007493763997 0 -0.0020511035114847967 -0.0012428341370797145 0 -0.0018138174702220335 -0.00090640123883974934 0 -0.0020251940874617597 -0.0011948416220962847 0 -0.0020485572773433292 -0.00064948494142211515 0 -0.0015862499360071195 -0.0013989177181963695 0 -0.0018138174702220335 -0.00090640123883974934 0 -0.0020251940874617597 -0.0011948416220962847 0 -0.0023201013009479798 -0.0012219943414509653 0 -0.0020251940874617597 -0.0011948416220962847 0 -0.0023649384766164321 -0.00074123225396672697 0 -0.0020251940874617597 -0.0011948416220962847 0 -0.0020485572773433292 -0.00064948494142211515 0 -0.0023649384766164321 -0.00074123225396672697 0 -0.0020485572773433292 -0.00064948494142211515 0 -0.0023649384766164321 -0.00074123225396672697 0 -0.0022222478303155582 -0.00037443525095153738 0 -0.0018138174702220335 -0.00090640123883974934 0 -0.0020485572773433292 -0.00064948494142211515 0 -0.0017957850527578676 -0.00049615137026566623 0 -0.0028203240139008275 -0.00099942557682952075 0 -0.0028965559327176209 -0.00060286582177017758 0 -0.003375984996520553 -0.00087781156521074826 0 -0.0028203240139008275 -0.00099942557682952075 0 -0.0028965559327176209 -0.00060286582177017758 0 -0.0023649384766164321 -0.00074123225396672697 0 -0.0028203240139008275 -0.00099942557682952075 0 -0.0023201013009479798 -0.0012219943414509653 0 -0.0023649384766164321 -0.00074123225396672697 0 -0.0023649384766164321 -0.00074123225396672697 0 -0.0025057602097196059 -0.00031451468357485525 0 -0.0022222478303155582 -0.00037443525095153738 0 -0.0028965559327176209 -0.00060286582177017758 0 -0.0023649384766164321 -0.00074123225396672697 0 -0.0025057602097196059 -0.00031451468357485525 0 -0.0028965559327176209 -0.00060286582177017758 0 -0.0025057602097196059 -0.00031451468357485525 0 -0.0027507536856496095 -0.00016619360002524694 0 -0.0025057602097196059 -0.00031451468357485525 0 -0.0024379068146905777 -0.00010898685571672189 0 -0.0027507536856496095 -0.00016619360002524694 0 -0.0025057602097196059 -0.00031451468357485525 0 -0.0024379068146905777 -0.00010898685571672189 0 -0.0022758427000807058 -0.00016070380393616958 0 -0.0025057602097196059 -0.00031451468357485525 0 -0.0022222478303155582 -0.00037443525095153738 0 -0.0022758427000807058 -0.00016070380393616958 0 -0.0022222478303155582 -0.00037443525095153738 0 -0.0020996371387782273 -0.00019692042381000391 0 -0.0022758427000807058 -0.00016070380393616958 0 -0.0020996371387782273 -0.00019692042381000391 0 -0.0022758427000807058 -0.00016070380393616958 0 -0.0020890279181524198 -8.9334033555967042e-05 0 -0.0020996371387782273 -0.00019692042381000391 0 -0.0020890279181524198 -8.9334033555967042e-05 0 -0.0019669402877155635 -0.00011758000872702054 0 -0.0022758427000807058 -0.00016070380393616958 0 -0.0022243137341962727 -5.6599346869895205e-05 0 -0.0020890279181524198 -8.9334033555967042e-05 0 -0.0024379068146905777 -0.00010898685571672189 0 -0.0022758427000807058 -0.00016070380393616958 0 -0.0022243137341962727 -5.6599346869895205e-05 0 -0.0020485572773433292 -0.00064948494142211515 0 -0.0017957850527578676 -0.00049615137026566623 0 -0.0020298523221028205 -0.00037283591949322274 0 -0.0017957850527578676 -0.00049615137026566623 0 -0.0020298523221028205 -0.00037283591949322274 0 -0.0019069697226668889 -0.0002265957468784366 0 -0.0022222478303155582 -0.00037443525095153738 0 -0.0020996371387782273 -0.00019692042381000391 0 -0.0020298523221028205 -0.00037283591949322274 0 -0.0020485572773433292 -0.00064948494142211515 0 -0.0022222478303155582 -0.00037443525095153738 0 -0.0020298523221028205 -0.00037283591949322274 0 -0.0020996371387782273 -0.00019692042381000391 0 -0.0019069697226668889 -0.0002265957468784366 0 -0.0019669402877155635 -0.00011758000872702054 0 -0.0020996371387782273 -0.00019692042381000391 0 -0.0020298523221028205 -0.00037283591949322274 0 -0.0019069697226668889 -0.0002265957468784366 0 -0.0017957850527578676 -0.00049615137026566623 0 -0.0019069697226668889 -0.0002265957468784366 0 -0.0016447656884896031 -0.00022005542436028368 0 -0.0019069697226668889 -0.0002265957468784366 0 -0.0016447656884896031 -0.00022005542436028368 0 -0.0018154302356288561 -0.00013475293801360771 0 -0.0016447656884896031 -0.00022005542436028368 0 -0.0012195835868366038 -0.00026118531848165331 0 -0.0014697787826072376 -0.00046663613134975625 0 -0.0016447656884896031 -0.00022005542436028368 0 -0.0012195835868366038 -0.00026118531848165331 0 -0.0013284416351868635 -5.7619781579706234e-05 0 -0.0012195835868366038 -0.00026118531848165331 0 -0.0014697787826072376 -0.00046663613134975625 0 -0.0010632628827053829 -0.0006519031292972436 0 -0.0017957850527578676 -0.00049615137026566623 0 -0.0016447656884896031 -0.00022005542436028368 0 -0.0014697787826072376 -0.00046663613134975625 0 -0.0017957850527578676 -0.00049615137026566623 0 -0.0014697787826072376 -0.00046663613134975625 0 -0.0014770478137261893 -0.00087949974243533863 0 -0.0018138174702220335 -0.00090640123883974934 0 -0.0017957850527578676 -0.00049615137026566623 0 -0.0014770478137261893 -0.00087949974243533863 0 -0.0014697787826072376 -0.00046663613134975625 0 -0.0014770478137261893 -0.00087949974243533863 0 -0.0010632628827053829 -0.0006519031292972436 0 -0.0014770478137261893 -0.00087949974243533863 0 -0.00087149081608397486 -0.0013453804467606445 0 -0.0010632628827053829 -0.0006519031292972436 0 -0.0015862499360071195 -0.0013989177181963695 0 -0.0014770478137261893 -0.00087949974243533863 0 -0.00087149081608397486 -0.0013453804467606445 0 -0.0015862499360071195 -0.0013989177181963695 0 -0.0018138174702220335 -0.00090640123883974934 0 -0.0014770478137261893 -0.00087949974243533863 0 -0.00087149081608397486 -0.0013453804467606445 0 9.1865217164719179e-05 -0.0012127227985038495 0 -2.9066567645285302e-05 -0.0018797734542916036 0 -0.00087149081608397486 -0.0013453804467606445 0 -0.00052222257787703369 -0.0008125714421335611 0 9.1865217164719179e-05 -0.0012127227985038495 0 -0.00087149081608397486 -0.0013453804467606445 0 -0.00052222257787703369 -0.0008125714421335611 0 -0.0010632628827053829 -0.0006519031292972436 0 -0.00052222257787703369 -0.0008125714421335611 0 -0.00073016630540895158 -0.00032262471746662922 0 0.00028912951916322587 -0.000348979480793761 0 -0.0012195835868366038 -0.00026118531848165331 0 -0.0010632628827053829 -0.0006519031292972436 0 -0.00073016630540895158 -0.00032262471746662922 0 -0.00052222257787703369 -0.0008125714421335611 0 -0.0010632628827053829 -0.0006519031292972436 0 -0.00073016630540895158 -0.00032262471746662922 0 -0.0012195835868366038 -0.00026118531848165331 0 -0.00073016630540895158 -0.00032262471746662922 0 -0.00098193887078671239 -5.8368470768573275e-05 0 -0.00073016630540895158 -0.00032262471746662922 0 0.00028912951916322587 -0.000348979480793761 0 -0.00061993351170372922 5.1056479778204694e-05 0 -0.00073016630540895158 -0.00032262471746662922 0 -0.00061993351170372922 5.1056479778204694e-05 0 -0.00098193887078671239 -5.8368470768573275e-05 0 0.00028912951916322587 -0.000348979480793761 0 0.00084562740924799948 -0.00019545584793107993 0 0.00085043145155463658 0.000134560289042202 0 0.00028912951916322587 -0.000348979480793761 0 0.00085043145155463658 0.000134560289042202 0 0.00084833952217406986 0.0001686634466520847 0 0.00031412438724638442 -0.00038022059273652882 0 0.00012775353607664286 5.5428937896073053e-05 0 0.00028912951916322587 -0.000348979480793761 0 0.00084562740924799948 -0.00019545584793107993 0 0.00064510581403597446 -0.00075832419745604695 0 0.00084562740924799948 -0.00019545584793107993 0 0.0013262693990908426 -0.00030538556407958011 0 0.00064510581403597446 -0.00075832419745604695 0 0.00084562740924799948 -0.00019545584793107993 0 0.0011456645964910293 0.00011903809399325848 0 0.00085043145155463658 0.000134560289042202 0 0.0011456645964910293 0.00011903809399325848 0 0.0013262693990908426 -0.00030538556407958011 0 0.001604080203042947 0.0002616074836332641 0 0.00084562740924799948 -0.00019545584793107993 0 0.0011456645964910293 0.00011903809399325848 0 0.0013262693990908426 -0.00030538556407958011 0 0.0017730051250242267 -0.00010841347734600644 0 0.0021076108096738299 0.00014521111289825042 0 0.001604080203042947 0.0002616074836332641 0 0.0017730051250242267 -0.00010841347734600644 0 0.0013262693990908426 -0.00030538556407958011 0 0.001604080203042947 0.0002616074836332641 0 0.0017730051250242267 -0.00010841347734600644 0 0.0013262693990908426 -0.00030538556407958011 0 0.0022414411229342195 -0.00066287894146965863 0 0.0013262693990908426 -0.00030538556407958011 0 0.0011539519289873177 -0.0010552687851049514 0 0.00064510581403597446 -0.00075832419745604695 0 0.0013262693990908426 -0.00030538556407958011 0 0.0011539519289873177 -0.0010552687851049514 0 0.0022414411229342195 -0.00066287894146965863 0 0.0011539519289873177 -0.0010552687851049514 0 0.0017231645301800185 -0.0014927791941159591 0 0.0022414411229342195 -0.00066287894146965863 0 0.0011539519289873177 -0.0010552687851049514 0 0.0017231645301800185 -0.0014927791941159591 0 0.00092595292282908177 -0.0018549944563661664 0 0.0011539519289873177 -0.0010552687851049514 0 9.1865217164719179e-05 -0.0012127227985038495 0 0.00092595292282908177 -0.0018549944563661664 0 0.00028912951916322587 -0.000348979480793761 0 9.1865217164719179e-05 -0.0012127227985038495 0 0.00064510581403597446 -0.00075832419745604695 0 -0.00052222257787703369 -0.0008125714421335611 0 0.00028912951916322587 -0.000348979480793761 0 9.1865217164719179e-05 -0.0012127227985038495 0 0.0011539519289873177 -0.0010552687851049514 0 9.1865217164719179e-05 -0.0012127227985038495 0 0.00064510581403597446 -0.00075832419745604695 0 0.0042667840073205747 -0.00040765330045808122 0 0.0037141397745530315 -0.00065545254237953543 0 0.0041645523404606078 -6.7776386951885759e-05 0 0.0041645523404606078 -6.7776386951885759e-05 0 0.0033476115226156863 -0.00010018137331283873 0 0.0043233417817014055 0.00038394588878779245 0 0.0037141397745530315 -0.00065545254237953543 0 0.0041645523404606078 -6.7776386951885759e-05 0 0.0033476115226156863 -0.00010018137331283873 0 0.0037141397745530315 -0.00065545254237953543 0 0.0031005540329152718 -0.00064410112001768362 0 0.0033476115226156863 -0.00010018137331283873 0 0.0031005540329152718 -0.00064410112001768362 0 0.0033476115226156863 -0.00010018137331283873 0 0.0022414411229342195 -0.00066287894146965863 0 0.0033476115226156863 -0.00010018137331283873 0 0.0024445637606998871 0.00015096161823569814 0 0.0022414411229342195 -0.00066287894146965863 0 0.0017730051250242267 -0.00010841347734600644 0 0.0021076108096738299 0.00014521111289825042 0 0.0022414411229342195 -0.00066287894146965863 0 0.0020514308491171728 0.00029961593956260316 0 0.0023079527320460924 -0.00071554224503861234 0 0.0022414411229342195 -0.00066287894146965863 0 0.0030609040196763093 -0.0011738760676947469 0 0.0024528823607389339 -0.0015897161287899875 0 0.0017231645301800185 -0.0014927791941159591 0 0.0022414411229342195 -0.00066287894146965863 0 0.0024528823607389339 -0.0015897161287899875 0 0.0030609040196763093 -0.0011738760676947469 0 0.0031355727781375384 -0.0017269459531467088 0 0.0024528823607389339 -0.0015897161287899875 0 0.0031005540329152718 -0.00064410112001768362 0 0.0022414411229342195 -0.00066287894146965863 0 0.0030609040196763093 -0.0011738760676947469 0 0.0037141397745530315 -0.00065545254237953543 0 0.0031005540329152718 -0.00064410112001768362 0 0.0030609040196763093 -0.0011738760676947469 0 0.0037141397745530315 -0.00065545254237953543 0 0.0030609040196763093 -0.0011738760676947469 0 0.0038392726322445765 -0.0014245765313975719 0 0.0030609040196763093 -0.0011738760676947469 0 0.0038392726322445765 -0.0014245765313975719 0 0.0031355727781375384 -0.0017269459531467088 0 0.0042482524208099373 -0.00093302973319565267 0 0.0037141397745530315 -0.00065545254237953543 0 0.0038392726322445765 -0.0014245765313975719 0 0.0038392726322445765 -0.0014245765313975719 0 0.0036065430981527722 -0.0023038156308219804 0 0.0031355727781375384 -0.0017269459531467088 0 0.0043809793761026257 -0.0018564703059294242 0 0.0038392726322445765 -0.0014245765313975719 0 0.0036065430981527722 -0.0023038156308219804 0 -0.00051499326893615638 -0.0013737012443130168 0 -0.00012552538896165827 -0.0025161517172600867 0 0.0036065430981527722 -0.0023038156308219804 0 0.0031355727781375384 -0.0017269459531467088 0 0.0026412378515216026 -0.0021447708218716166 0 0.0036065430981527722 -0.0023038156308219804 0 0.0026412378515216026 -0.0021447708218716166 0 0.0027315860640179986 -0.0027419352398687035 0 0.0028920427512799016 -0.0024341832168387465 0 -0.00012552538896165827 -0.0025161517172600867 0 0.0026412378515216026 -0.0021447708218716166 0 0.0022557533557004609 -0.0025190141622654068 0 0.0027089630716892743 -0.0027543131902706612 0 0.0031355727781375384 -0.0017269459531467088 0 0.0026412378515216026 -0.0021447708218716166 0 0.0024528823607389339 -0.0015897161287899875 0 0.0026412378515216026 -0.0021447708218716166 0 0.0024528823607389339 -0.0015897161287899875 0 0.0017976653562455222 -0.0022854855875940375 0 0.0017231645301800185 -0.0014927791941159591 0 0.0024528823607389339 -0.0015897161287899875 0 0.0017976653562455222 -0.0022854855875940375 0 0.0026412378515216026 -0.0021447708218716166 0 0.0022557533557004609 -0.0025190141622654068 0 0.0017976653562455222 -0.0022854855875940375 0 0.0022557533557004609 -0.0025190141622654068 0 0.0027089630716892743 -0.0027543131902706612 0 0.0018314946285024295 -0.0031319399385962132 0 0.0022557533557004609 -0.0025190141622654068 0 0.0017976653562455222 -0.0022854855875940375 0 0.0018314946285024295 -0.0031319399385962132 0 -0.00012552538896165827 -0.0025161517172600867 0 1.5794323919883342e-05 -0.0037520602881904786 0 -0.00012552538896165827 -0.0025161517172600867 0 -0.0035957697260240134 -0.0022931416338052772 0 -0.0020179661423075789 -0.0041338605521433515 0 -0.0019398153850202784 -0.0041262049431292419 0 -0.0020624986544830544 -0.0040687844725726743 0 -0.0043708773702124167 -0.00069372302510261111 0 -0.0043289046406374864 -0.00070359758932760704 0 -0.0043958011826984774 -0.00067344355075279843 0 -0.0043958011826984774 -0.00067344355075279843 0 -0.0044317854844040981 -0.0006530511367826375 0 -0.0043824732265930139 -0.00066963158300330748 0 -0.0043289046406374864 -0.00070359758932760704 0 -0.0043958011826984774 -0.00067344355075279843 0 -0.0043824732265930139 -0.00066963158300330748 0 -0.004457783033155225 -0.00064437218565257983 0 -0.0043958011826984774 -0.00067344355075279843 0 -0.0044317854844040981 -0.0006530511367826375 0 -0.0044212979107739712 -0.0006681801647422771 0 -0.0043708773702124167 -0.00069372302510261111 0 -0.0043958011826984774 -0.00067344355075279843 0 -2.9066567645285302e-05 -0.0018797734542916036 0 0.00092595292282908177 -0.0018549944563661664 0 0.00051683264128178988 -0.002574863879953359 0 -0.0002932912753822766 -0.0024591472013287541 0 -2.9066567645285302e-05 -0.0018797734542916036 0 0.00051683264128178988 -0.002574863879953359 0 9.1865217164719179e-05 -0.0012127227985038495 0 -2.9066567645285302e-05 -0.0018797734542916036 0 0.00092595292282908177 -0.0018549944563661664 0 0.0017231645301800185 -0.0014927791941159591 0 0.00092595292282908177 -0.0018549944563661664 0 0.0017976653562455222 -0.0022854855875940375 0 0.00092595292282908177 -0.0018549944563661664 0 0.00122637557053788 -0.002698724682340223 0 0.00051683264128178988 -0.002574863879953359 0 0.00092595292282908177 -0.0018549944563661664 0 0.0017976653562455222 -0.0022854855875940375 0 0.00122637557053788 -0.002698724682340223 0 0.00122637557053788 -0.002698724682340223 0 0.00051683264128178988 -0.002574863879953359 0 0.00090292365837082262 -0.003467953165512521 0 0.0017976653562455222 -0.0022854855875940375 0 0.00122637557053788 -0.002698724682340223 0 0.0018314946285024295 -0.0031319399385962132 0 1.5794323919883342e-05 -0.0037520602881904786 0 -0.00046785673239791608 -0.0037763743137809547 0 0.00122637557053788 -0.002698724682340223 0 0.0018314946285024295 -0.0031319399385962132 0 0.00090292365837082262 -0.003467953165512521 0 0.00051683264128178988 -0.002574863879953359 0 0.00013985274309792373 -0.0031322645631854966 0 0.00090292365837082262 -0.003467953165512521 0 -0.0002932912753822766 -0.0024591472013287541 0 0.00051683264128178988 -0.002574863879953359 0 0.00013985274309792373 -0.0031322645631854966 0 -0.00077522796012089682 -0.0031809426040030576 0 0.00013985274309792373 -0.0031322645631854966 0 -8.3272988088301417e-05 -0.0037603460122471871 0 -0.0016635630155642568 -0.0041001847181938895 0 -0.0018350079883624117 -0.0041270948462419502 0 -0.0017928321289654475 -0.0039962056197648107 0 -0.0016635630155642568 -0.0041001847181938895 0 -0.0017928321289654475 -0.0039962056197648107 0 -0.001598541514951973 -0.0039033875059224983 0 -0.00086939502798453051 -0.0039160238691069204 0 -0.00046785673239791608 -0.0037763743137809547 0 0.00013985274309792373 -0.0031322645631854966 0 -8.3272988088301417e-05 -0.0037603460122471871 0 0.00090292365837082262 -0.003467953165512521 0 -0.0018350079883624117 -0.0041270948462419502 0 -0.0019124449380829333 -0.0040540249557355071 0 -0.0017928321289654475 -0.0039962056197648107 0 -0.0019398153850202784 -0.0041262049431292419 0 -0.0019124449380829333 -0.0040540249557355071 0 -0.001993519028018764 -0.0040325699634626523 0 -0.0019398153850202784 -0.0041262049431292419 0 -0.0018350079883624117 -0.0041270948462419502 0 -0.0019124449380829333 -0.0040540249557355071 0 -0.0019124449380829333 -0.0040540249557355071 0 -0.0019387255332494733 -0.0039912213011268982 0 -0.001993519028018764 -0.0040325699634626523 0 -0.0019124449380829333 -0.0040540249557355071 0 -0.0019387255332494733 -0.0039912213011268982 0 -0.0017928321289654475 -0.0039962056197648107 0 -0.0019387255332494733 -0.0039912213011268982 0 -0.0019281701008675798 -0.0038901466290489355 0 -0.0017928321289654475 -0.0039962056197648107 0 -0.0019387255332494733 -0.0039912213011268982 0 -0.00205157810358621 -0.0039436258829591573 0 -0.0022243286386427362 -0.0040260256008709016 0 -0.0021117971563280277 -0.0039392180802397042 0 -0.0017615749812984012 -0.0040969453784709285 0 -0.0019387255332494733 -0.0039912213011268982 0 -0.00205157810358621 -0.0039436258829591573 0 -0.0019281701008675798 -0.0038901466290489355 0 -0.00205157810358621 -0.0039436258829591573 0 -0.0019281701008675798 -0.0038901466290489355 0 -0.0021368195989124902 -0.0037494839052628487 0 -0.0019281701008675798 -0.0038901466290489355 0 -0.0017928321289654475 -0.0039962056197648107 0 -0.0017958516044218878 -0.0038927143685007172 0 -0.0017928321289654475 -0.0039962056197648107 0 -0.0017958516044218878 -0.0038927143685007172 0 -0.001598541514951973 -0.0039033875059224983 0 -0.0017958516044218878 -0.0038927143685007172 0 -0.0016828708213682336 -0.0039279334458801121 0 -0.001598541514951973 -0.0039033875059224983 0 -0.004466143029629133 -0.00063743654243523129 0 -0.0044740695877126197 -0.00063672566749312998 0 -0.0044487604288156526 -0.00064837808046131016 0 -0.0044487604288156526 -0.00064837808046131016 0 -0.00447171544891791 -0.00065230111126344148 0 -0.0044830445805572883 -0.00064831161337113757 0 -0.0044740695877126197 -0.00063672566749312998 0 -0.0044487604288156526 -0.00064837808046131016 0 -0.0044830445805572883 -0.00064831161337113757 0 -0.004466143029629133 -0.00063743654243523129 0 -0.0044487604288156526 -0.00064837808046131016 0 -0.0044317854844040981 -0.0006530511367826375 0 -0.0030881521702568956 -0.0023102164548662934 0 -0.0035957697260240134 -0.0022931416338052772 0 -0.0044487604288156526 -0.00064837808046131016 0 -0.0044400371042965289 -0.00065706733287574509 0 -0.0043824732265930139 -0.00066963158300330748 0 -0.0044487604288156526 -0.00064837808046131016 0 -0.0044317854844040981 -0.0006530511367826375 0 -0.0043824732265930139 -0.00066963158300330748 0 -0.0044487604288156526 -0.00064837808046131016 0 -0.0044400371042965289 -0.00065706733287574509 0 -0.00447171544891791 -0.00065230111126344148 0 -0.0021154438456211992 -0.0039822777150391271 0 -0.001993519028018764 -0.0040325699634626523 0 -0.0020279881738347297 -0.0039743880544598617 0 -0.0021154438456211992 -0.0039822777150391271 0 -0.0020624986544830544 -0.0040687844725726743 0 -0.001993519028018764 -0.0040325699634626523 0 -0.0019398153850202784 -0.0041262049431292419 0 -0.0020624986544830544 -0.0040687844725726743 0 -0.001993519028018764 -0.0040325699634626523 0 -0.0019387255332494733 -0.0039912213011268982 0 -0.001993519028018764 -0.0040325699634626523 0 -0.0020279881738347297 -0.0039743880544598617 0 -0.0019387255332494733 -0.0039912213011268982 0 -0.0020279881738347297 -0.0039743880544598617 0 -0.0020166525092117213 -0.0039133214089618609 0 -0.00205157810358621 -0.0039436258829591573 0 -0.0022009141822469745 -0.003880672287806264 0 -0.0021368195989124902 -0.0037494839052628487 0 -0.00205157810358621 -0.0039436258829591573 0 -0.0022243286386427362 -0.0040260256008709016 0 -0.0022009141822469745 -0.003880672287806264 0 -0.0022243286386427362 -0.0040260256008709016 0 -0.0022009141822469745 -0.003880672287806264 0 -0.0024098174591136528 -0.003847274440473252 0 -0.0022243286386427362 -0.0040260256008709016 0 -0.0024454578490894813 -0.0038481019279973708 0 -0.0025963006470867507 -0.0039337364434315599 0 -0.0017615749812984012 -0.0040969453784709285 0 -0.0039549369642073772 -0.0032548281625307488 0 -0.0022243286386427362 -0.0040260256008709016 0 -0.0024098174591136528 -0.003847274440473252 0 -0.0024454578490894813 -0.0038481019279973708 0 -0.0058111609900260248 -0.0036439172973340198 0 -0.0039549369642073772 -0.0032548281625307488 0 -0.0051977728870260314 -0.0036361929917650467 0 -0.0058111609900260248 -0.0036439172973340198 0 -0.0020166525092117213 -0.0039133214089618609 0 -0.0020954022448516837 -0.0039149140093305539 0 -0.0021517068822863813 -0.0038415046298892249 0 -0.0021154438456211992 -0.0039822777150391271 0 -0.0020279881738347297 -0.0039743880544598617 0 -0.0020954022448516837 -0.0039149140093305539 0 -0.0020279881738347297 -0.0039743880544598617 0 -0.0020166525092117213 -0.0039133214089618609 0 -0.0020954022448516837 -0.0039149140093305539 0 -0.0021154438456211992 -0.0039822777150391271 0 -0.0020954022448516837 -0.0039149140093305539 0 -0.0021731113295402997 -0.003853850113627595 0 -0.0030881521702568956 -0.0023102164548662934 0 -0.0046355939685841481 -0.0025262923656677438 0 -0.0044400371042965289 -0.00065706733287574509 0 -0.00447171544891791 -0.00065230111126344148 0 -0.0044874686778680652 -0.00065222209142163886 0 -0.00447171544891791 -0.00065230111126344148 0 -0.0044880469369837535 -0.00065097777591235364 0 -0.0044893951772864158 -0.0006498856741098258 0 -0.00447171544891791 -0.00065230111126344148 0 -0.0044874686778680652 -0.00065222209142163886 0 -0.0044880469369837535 -0.00065097777591235364 0 -0.0020954022448516837 -0.0039149140093305539 0 -0.0021731113295402997 -0.003853850113627595 0 -0.0021517068822863813 -0.0038415046298892249 0 -0.0039549369642073772 -0.0032548281625307488 0 -0.0060473467049522054 -0.0027529974537423272 0 -0.0049932699031212842 -0.0032530864139007432 0 -0.0050543511565507996 -0.0032925977201821882 0 -0.0049825455992629176 -0.0033167368420849394 0 -0.0046355939685841481 -0.0025262923656677438 0 -0.0039549369642073772 -0.0032548281625307488 0 -0.0057113378470838271 -0.00331232560720925 0 -0.0060898495494923618 -0.0035380689862393134 0 -0.006283145319630196 -0.0033272750514491099 0 -0.0058111609900260248 -0.0036439172973340198 0 -0.0085268647400742505 -0.0029418229414562534 0 -0.0060898495494923618 -0.0035380689862393134 0 -0.006283145319630196 -0.0033272750514491099 0 -0.0062503919245910896 -0.0034833499950746409 0 -0.0060473467049522054 -0.0027529974537423272 0 -0.008583314074485383 -0.0025163017186409487 0 -0.0085268647400742505 -0.0029418229414562534 0 -0.008583314074485383 -0.0025163017186409487 0 -0.0073341640846966505 -0.002259558745747195 0 -0.0072518750287412972 -0.0026783652178852717 0 -0.0083769073485174626 -0.0022992331949493782 0 -0.0085268647400742505 -0.0029418229414562534 0 -0.0060473467049522054 -0.0027529974537423272 0 -0.0044905949573838255 -0.00064670767311495944 0 -0.004496880598763184 -0.00064608151051428 0 -0.0045156789559433795 -0.00063132611815320725 0 -0.0044905949573838255 -0.00064670767311495944 0 -0.0044880469369837535 -0.00065097777591235364 0 -0.004496880598763184 -0.00064608151051428 0 -0.0044879448646333968 -0.00065107307477279641 0 -0.0044905949573838255 -0.00064670767311495944 0 -0.0044880469369837535 -0.00065097777591235364 0 -0.0046355939685841481 -0.0025262923656677438 0 -0.0060473467049522054 -0.0027529974537423272 0 -0.0046355939685841481 -0.0025262923656677438 0 -0.0044885346125629359 -0.0023347539889922711 0 -0.0044880469369837535 -0.00065097777591235364 0 -0.004496880598763184 -0.00064608151051428 0 -0.0044893951772864158 -0.0006498856741098258 0 -0.0045895190006424638 -0.00062731639482701141 0 -0.0045156789559433795 -0.00063132611815320725 0 -0.0045076586506457008 -0.00064826585115727669 0 -0.004496880598763184 -0.00064608151051428 0 -0.0045156789559433795 -0.00063132611815320725 0 -0.0045076586506457008 -0.00064826585115727669 0 -0.010589400506152799 -0.0032948526252995218 0 -0.011084001577330114 -0.0033156247713386103 0 -0.011223923107458978 -0.0027428107264646433 0 -0.008583314074485383 -0.0025163017186409487 0 -0.011630814448486461 -0.0026114718434525229 0 -0.0045343478325921907 -0.00065443198524131022 0 -0.0045076586506457008 -0.00064826585115727669 0 -0.0044830445805572883 -0.00064831161337113757 0 -0.0045343478325921907 -0.00065443198524131022 0 -0.0044740695877126197 -0.00063672566749312998 0 -0.0044830445805572883 -0.00064831161337113757 0 -0.004496880598763184 -0.00064608151051428 0 -0.0045076586506457008 -0.00064826585115727669 0 -0.0044893951772864158 -0.0006498856741098258 0 -0.0045076586506457008 -0.00064826585115727669 0 -0.0044893951772864158 -0.0006498856741098258 0 -0.0044830445805572883 -0.00064831161337113757 0 -0.00447171544891791 -0.00065230111126344148 0 -0.0044893951772864158 -0.0006498856741098258 0 -0.0044830445805572883 -0.00064831161337113757 0 -0.01174850694078391 -0.0019619821797990525 0 -0.010806001531174498 -0.0022961503649894599 0 -0.011197269903196312 -0.0013191222188294878 0 -0.012120092968733256 -0.0025742057188348744 0 -0.011611112221330476 -0.0031436826757799325 0 -0.011223923107458978 -0.0027428107264646433 0 -0.01174850694078391 -0.0019619821797990525 0 -0.011223923107458978 -0.0027428107264646433 0 -0.010806001531174498 -0.0022961503649894599 0 -0.012120092968733256 -0.0025742057188348744 0 -0.01174850694078391 -0.0019619821797990525 0 -0.011223923107458978 -0.0027428107264646433 0 -0.011084001577330114 -0.0033156247713386103 0 -0.011611112221330476 -0.0031436826757799325 0 -0.011223923107458978 -0.0027428107264646433 0 -0.010581301182163451 -0.0035777530908389331 0 -0.010806001531174498 -0.0022961503649894599 0 -0.0099971303646525164 -0.0028069832498889614 0 -0.010589400506152799 -0.0032948526252995218 0 -0.011223923107458978 -0.0027428107264646433 0 -0.010806001531174498 -0.0022961503649894599 0 -0.0085268647400742505 -0.0029418229414562534 0 -0.011014241385409445 -0.0024722421546669792 0 -0.0096896365616537129 -0.0035672851382655968 0 -0.010581301182163451 -0.0035777530908389331 0 -0.0099971303646525164 -0.0028069832498889614 0 -0.010806001531174498 -0.0022961503649894599 0 -0.0096458618655660012 -0.0018525870779185309 0 -0.0099971303646525164 -0.0028069832498889614 0 -0.010806001531174498 -0.0022961503649894599 0 -0.010444635636498617 -0.0015337157307875309 0 -0.0096458618655660012 -0.0018525870779185309 0 -0.010806001531174498 -0.0022961503649894599 0 -0.010444635636498617 -0.0015337157307875309 0 -0.011197269903196312 -0.0013191222188294878 0 -0.010444635636498617 -0.0015337157307875309 0 -0.0096458618655660012 -0.0018525870779185309 0 -0.0095930168551594201 -0.0012242764429315773 0 -0.0096458618655660012 -0.0018525870779185309 0 -0.0092368484081836212 -0.0024902872803586017 0 -0.0085881626929070701 -0.0013628533715117613 0 -0.0095805782363489553 -0.001814606716487389 0 -0.0086533085834004479 -0.0014130688919434941 0 -0.0096458618655660012 -0.0018525870779185309 0 -0.008990188569247699 -0.0015174524098496129 0 -0.0095930168551594201 -0.0012242764429315773 0 -0.0024098174591136528 -0.003847274440473252 0 -0.0024406646520084346 -0.003843383656903386 0 -0.0021368195989124902 -0.0037494839052628487 0 -0.0096896365616537129 -0.0035672851382655968 0 -0.0099971303646525164 -0.0028069832498889614 0 -0.0092368484081836212 -0.0024902872803586017 0 -0.0096896365616537129 -0.0035672851382655968 0 -0.0092368484081836212 -0.0024902872803586017 0 -0.008170795991868143 -0.0027431616965947654 0 -0.0096458618655660012 -0.0018525870779185309 0 -0.0099971303646525164 -0.0028069832498889614 0 -0.0092368484081836212 -0.0024902872803586017 0 -0.0058111609900260248 -0.0036439172973340198 0 -0.0054248125373263321 -0.0032230762288920954 0 -0.0022009141822469745 -0.003880672287806264 0 -0.0024098174591136528 -0.003847274440473252 0 -0.0021368195989124902 -0.0037494839052628487 0 -0.008170795991868143 -0.0027431616965947654 0 -0.0085881626929070701 -0.0013628533715117613 0 -0.0075335011177576419 -0.00089806279062541619 0 -0.0092368484081836212 -0.0024902872803586017 0 -0.008170795991868143 -0.0027431616965947654 0 -0.0085881626929070701 -0.0013628533715117613 0 -0.011817653946639188 -0.0019022866537824852 0 -0.0083257191580804885 -0.0024026204497695413 0 -0.008990188569247699 -0.0015174524098496129 0 -0.0090895481914238102 -0.00045744792259216731 0 -0.0082666082964066561 -0.0011957214113957049 0 -0.008990188569247699 -0.0015174524098496129 0 -0.0090895481914238102 -0.00045744792259216731 0 -0.0095930168551594201 -0.0012242764429315773 0 -0.0086533085834004479 -0.0014130688919434941 0 -0.0083257191580804885 -0.0024026204497695413 0 -0.014874625224723924 -0.0031084104796494463 0 -0.012669499552083872 -0.002703321665898319 0 -0.014000477122564395 -0.0013169572538630138 0 -0.014874625224723924 -0.0031084104796494463 0 -0.014000477122564395 -0.0013169572538630138 0 -0.015320423395594725 -0.0017457268835819541 0 -0.014874625224723924 -0.0031084104796494463 0 -0.016813809119393452 -0.0014018657840554369 0 -0.015320423395594725 -0.0017457268835819541 0 -0.011817653946639188 -0.0019022866537824852 0 -0.016637791255253685 -0.00067260555287242119 0 -0.0090895481914238102 -0.00045744792259216731 0 -0.010235784315154763 -0.00075666445537330318 0 -0.0099750043980028052 0.00030382358788535503 0 -0.0090895481914238102 -0.00045744792259216731 0 -0.0095930168551594201 -0.0012242764429315773 0 -0.010235784315154763 -0.00075666445537330318 0 -0.010444635636498617 -0.0015337157307875309 0 -0.0095930168551594201 -0.0012242764429315773 0 -0.010235784315154763 -0.00075666445537330318 0 -0.010444635636498617 -0.0015337157307875309 0 -0.010235784315154763 -0.00075666445537330318 0 -0.011197269903196312 -0.0013191222188294878 0 -0.010235784315154763 -0.00075666445537330318 0 -0.011150178599573653 -0.00032120684457098144 0 -0.011197269903196312 -0.0013191222188294878 0 -0.010235784315154763 -0.00075666445537330318 0 -0.011150178599573653 -0.00032120684457098144 0 -0.0099750043980028052 0.00030382358788535503 0 -0.015990855619142069 0.00033207834726439365 0 -0.016637791255253685 -0.00067260555287242119 0 -0.020567898892207219 0.00090691686113047998 0 -0.020266440815990702 0.00017296995239113354 0 -0.0203135042339277 -0.00014439492088912694 0 -0.020567898892207219 0.00090691686113047998 0 -0.021001336791706984 -1.0914765806719209e-05 0 -0.020402304819340137 -0.00040142665195111064 0 -0.020548152971225118 0.0007823450676356996 0 -0.02036197747699213 -0.00020074171623538545 0 -0.019419423403426544 0.0015285721007958228 0 -0.021024546670229231 0.00074844231533893919 0 -0.020567898892207219 0.00090691686113047998 0 -0.015985745892869479 0.0002471230144109275 0 -0.015990855619142069 0.00033207834726439365 0 -0.021024546670229231 0.00074844231533893919 0 -0.020567898892207219 0.00090691686113047998 0 -0.021001336791706984 -1.0914765806719209e-05 0 -0.019772650826839256 0.00076437016533237822 0 -0.020567898892207219 0.00090691686113047998 0 -0.020266440815990702 0.00017296995239113354 0 -0.012331870225481987 -0.00095171902306239321 0 -0.011150178599573653 -0.00032120684457098144 0 -0.011197269903196312 -0.0013191222188294878 0 -0.012331870225481987 -0.00095171902306239321 0 -0.01174850694078391 -0.0019619821797990525 0 -0.011197269903196312 -0.0013191222188294878 0 -0.0018655911512444822 -0.0038730305352659249 0 -0.0020166702755280252 -0.0038214247548286817 0 -0.0021279625120263716 -0.003866226477664071 0 -0.0018655911512444822 -0.0038730305352659249 0 -0.0017958516044218878 -0.0038927143685007172 0 -0.0021660217974448256 -0.0038968648299215667 0 -0.0018655911512444822 -0.0038730305352659249 0 -0.0020166702755280252 -0.0038214247548286817 0 -0.0019333447797530714 -0.0038203226261364241 0 -0.0020166702755280252 -0.0038214247548286817 0 -0.0019333447797530714 -0.0038203226261364241 0 -0.001978841304940737 -0.0037883072574835127 0 -0.0018655911512444822 -0.0038730305352659249 0 -0.0018824559212571358 -0.0038238932249827782 0 -0.0018156220327319509 -0.0038402522183484228 0 -0.0018655911512444822 -0.0038730305352659249 0 -0.0019333447797530714 -0.0038203226261364241 0 -0.0018824559212571358 -0.0038238932249827782 0 -0.0019333447797530714 -0.0038203226261364241 0 -0.0018824559212571358 -0.0038238932249827782 0 -0.0019326041168755243 -0.0037761879280536659 0 -0.0018655911512444822 -0.0038730305352659249 0 -0.0018156220327319509 -0.0038402522183484228 0 -0.0017700534397750718 -0.0038826394525134514 0 -0.0018655911512444822 -0.0038730305352659249 0 -0.0017700534397750718 -0.0038826394525134514 0 -0.0017348704206595889 -0.0039190605537109714 0 -0.0017700534397750718 -0.0038826394525134514 0 -0.0017348704206595889 -0.0039190605537109714 0 -0.0017404256551526328 -0.003904689833521074 0 -0.0017700534397750718 -0.0038826394525134514 0 -0.0017698972158225225 -0.0038428126448772481 0 -0.0017404256551526328 -0.003904689833521074 0 -0.0018156220327319509 -0.0038402522183484228 0 -0.0017700534397750718 -0.0038826394525134514 0 -0.0017698972158225225 -0.0038428126448772481 0 -0.0017348704206595889 -0.0039190605537109714 0 -0.0017958516044218878 -0.0038927143685007172 0 -0.0016828708213682336 -0.0039279334458801121 0 -0.0018655911512444822 -0.0038730305352659249 0 -0.0017348704206595889 -0.0039190605537109714 0 -0.0017958516044218878 -0.0038927143685007172 0 -0.001480703240859696 -0.0040928333360139004 0 -0.0029028959186199726 -0.0033838362905922142 0 -0.0019281701008675798 -0.0038901466290489355 0 -0.0017958516044218878 -0.0038927143685007172 0 -0.0019425922404720537 -0.003684902622970537 0 -0.0019281701008675798 -0.0038901466290489355 0 -0.0021368195989124902 -0.0037494839052628487 0 -0.0019425922404720537 -0.003684902622970537 0 -0.008170795991868143 -0.0027431616965947654 0 -0.0065092522607909592 -0.0017878454093460518 0 -0.0075335011177576419 -0.00089806279062541619 0 -0.0054248125373263321 -0.0032230762288920954 0 -0.0029028959186199726 -0.0033838362905922142 0 -0.0029028959186199726 -0.0033838362905922142 0 -0.0083257191580804885 -0.0024026204497695413 0 -0.0018655911512444822 -0.0038730305352659249 0 -0.0021660217974448256 -0.0038968648299215667 0 -0.0021279625120263716 -0.003866226477664071 0 -0.0022493022135748691 -0.0039282116816583895 0 -0.0023177909606242959 -0.0036980796178190866 0 -0.0021832093050873024 -0.0037890541033429865 0 -0.0029028959186199726 -0.0033838362905922142 0 -0.0026173916709756298 -0.0034127140067910849 0 -0.0022493022135748691 -0.0039282116816583895 0 -0.0021279625120263716 -0.003866226477664071 0 -0.0021832093050873024 -0.0037890541033429865 0 -0.0021279625120263716 -0.003866226477664071 0 -0.0021031329093305841 -0.0037816960689517429 0 -0.0021832093050873024 -0.0037890541033429865 0 -0.0020166702755280252 -0.0038214247548286817 0 -0.0021279625120263716 -0.003866226477664071 0 -0.0021031329093305841 -0.0037816960689517429 0 -0.0023177909606242959 -0.0036980796178190866 0 -0.0025610663662068121 -0.0036755009241905834 0 -0.0020539713124132497 -0.00353674959275297 0 -0.0083257191580804885 -0.0024026204497695413 0 -0.0067792752149489124 -0.0034362750735422365 0 -0.012927112015290993 -0.0048080585386499463 0 -0.010421397563239853 -0.0032974447928420286 0 -0.011526392956913491 -0.0031439063770922421 0 -0.0020166702755280252 -0.0038214247548286817 0 -0.0021031329093305841 -0.0037816960689517429 0 -0.0020377164130518611 -0.0037695311490580029 0 -0.012927112015290993 -0.0048080585386499463 0 -0.010421397563239853 -0.0032974447928420286 0 -0.0098957597591929729 -0.0034655889016554464 0 -0.0020686836122913344 -0.0037210487805463834 0 -0.0021031329093305841 -0.0037816960689517429 0 -0.0020377164130518611 -0.0037695311490580029 0 -0.0020686836122913344 -0.0037210487805463834 0 -0.0021514746033285286 -0.003703454216455996 0 -0.0020688684893436487 -0.003651043163108048 0 -0.0020686836122913344 -0.0037210487805463834 0 -0.0021514746033285286 -0.003703454216455996 0 -0.0021031329093305841 -0.0037816960689517429 0 -0.0021514746033285286 -0.003703454216455996 0 -0.0021031329093305841 -0.0037816960689517429 0 -0.0021832093050873024 -0.0037890541033429865 0 -0.0021514746033285286 -0.003703454216455996 0 -0.0023177909606242959 -0.0036980796178190866 0 -0.0021832093050873024 -0.0037890541033429865 0 -0.0021514746033285286 -0.003703454216455996 0 -0.0023177909606242959 -0.0036980796178190866 0 -0.0020539713124132497 -0.00353674959275297 0 -0.0021514746033285286 -0.003703454216455996 0 -0.0020688684893436487 -0.003651043163108048 0 -0.0020539713124132497 -0.00353674959275297 0 -0.0022493022135748691 -0.0039282116816583895 0 -0.0023177909606242959 -0.0036980796178190866 0 -0.0025610663662068121 -0.0036755009241905834 0 -0.014874625224723924 -0.0031084104796494463 0 -0.012927112015290993 -0.0048080585386499463 0 -0.012669499552083872 -0.002703321665898319 0 -0.012927112015290993 -0.0048080585386499463 0 -0.012669499552083872 -0.002703321665898319 0 -0.011526392956913491 -0.0031439063770922421 0 -0.012669499552083872 -0.002703321665898319 0 -0.014000477122564395 -0.0013169572538630138 0 -0.011784062103623519 -0.0014859753453056062 0 -0.012669499552083872 -0.002703321665898319 0 -0.011086457146191523 -0.0022673365518849449 0 -0.011784062103623519 -0.0014859753453056062 0 -0.010421397563239853 -0.0032974447928420286 0 -0.011526392956913491 -0.0031439063770922421 0 -0.01052640501411467 -0.0026415584439969182 0 -0.010128754393676992 -0.0029751546746382127 0 -0.010421397563239853 -0.0032974447928420286 0 -0.01052640501411467 -0.0026415584439969182 0 -0.0085883293953260623 -0.0030512454841465815 0 -0.0067792752149489124 -0.0034362750735422365 0 -0.010128754393676992 -0.0029751546746382127 0 -0.010421397563239853 -0.0032974447928420286 0 -0.00989920992569167 -0.003474664043572529 0 -0.011086457146191523 -0.0022673365518849449 0 -0.010484117421325826 -0.0017887658243321612 0 -0.011784062103623519 -0.0014859753453056062 0 -0.011526392956913491 -0.0031439063770922421 0 -0.011086457146191523 -0.0022673365518849449 0 -0.01052640501411467 -0.0026415584439969182 0 -0.012669499552083872 -0.002703321665898319 0 -0.011526392956913491 -0.0031439063770922421 0 -0.011086457146191523 -0.0022673365518849449 0 -0.011086457146191523 -0.0022673365518849449 0 -0.01052640501411467 -0.0026415584439969182 0 -0.010484117421325826 -0.0017887658243321612 0 -0.010128754393676992 -0.0029751546746382127 0 -0.01052640501411467 -0.0026415584439969182 0 -0.0096647527180861326 -0.0024846831567566009 0 -0.01052640501411467 -0.0026415584439969182 0 -0.0096647527180861326 -0.0024846831567566009 0 -0.010484117421325826 -0.0017887658243321612 0 -0.0084328208469155504 -0.0027945624026035408 0 -0.0071675338943438874 -0.0030343387018350958 0 -0.0070438877786781137 -0.0022350533841428723 0 -0.0096647527180861326 -0.0024846831567566009 0 -0.00989920992569167 -0.003474664043572529 0 -0.0078800345553858512 -0.0025851459388952398 0 -0.0067792752149489124 -0.0034362750735422365 0 -0.0078102110894783675 -0.0025099871232899577 0 -0.0096647527180861326 -0.0024846831567566009 0 -0.010484117421325826 -0.0017887658243321612 0 -0.0092516612443813897 -0.0014001639648899954 0 -0.0096647527180861326 -0.0024846831567566009 0 -0.0078800345553858512 -0.0025851459388952398 0 -0.0092516612443813897 -0.0014001639648899954 0 -0.010128754393676992 -0.0029751546746382127 0 -0.0096647527180861326 -0.0024846831567566009 0 -0.00989920992569167 -0.003474664043572529 0 -0.0084328208469155504 -0.0027945624026035408 0 -0.0071675338943438874 -0.0030343387018350958 0 -0.0064899266616948569 -0.0035567565551266078 0 -0.0020539713124132497 -0.00353674959275297 0 -0.0020050802341760833 -0.0036251380617842973 0 -0.0018773931923081106 -0.0037164161683805839 0 -0.0020539713124132497 -0.00353674959275297 0 -0.0018773931923081106 -0.0037164161683805839 0 -0.0017730393923819272 -0.0037593452221717856 0 -0.0067792752149489124 -0.0034362750735422365 0 -0.0037944770892305545 -0.0036742296461259724 0 -0.0020688684893436487 -0.003651043163108048 0 -0.0020539713124132497 -0.00353674959275297 0 -0.0020050802341760833 -0.0036251380617842973 0 -0.0020688684893436487 -0.003651043163108048 0 -0.0020111850799622811 -0.0036893226275345734 0 -0.0020050802341760833 -0.0036251380617842973 0 -0.0020686836122913344 -0.0037210487805463834 0 -0.0020688684893436487 -0.003651043163108048 0 -0.0020111850799622811 -0.0036893226275345734 0 -0.0020111850799622811 -0.0036893226275345734 0 -0.0019675911440574009 -0.0036792367858240051 0 -0.0020050802341760833 -0.0036251380617842973 0 -0.0020111850799622811 -0.0036893226275345734 0 -0.0019675911440574009 -0.0036792367858240051 0 -0.0019662293319718869 -0.0037224550768929091 0 -0.0019675911440574009 -0.0036792367858240051 0 -0.0020050802341760833 -0.0036251380617842973 0 -0.0018773931923081106 -0.0037164161683805839 0 -0.0019675911440574009 -0.0036792367858240051 0 -0.0018773931923081106 -0.0037164161683805839 0 -0.0019224986843972927 -0.003734167586582301 0 -0.0019224986843972927 -0.003734167586582301 0 -0.0018725019883258449 -0.0037797679308397224 0 -0.0019326041168755243 -0.0037761879280536659 0 -0.0019675911440574009 -0.0036792367858240051 0 -0.0019224986843972927 -0.003734167586582301 0 -0.0019662293319718869 -0.0037224550768929091 0 -0.0019224986843972927 -0.003734167586582301 0 -0.0019326041168755243 -0.0037761879280536659 0 -0.0019662293319718869 -0.0037224550768929091 0 -0.0018773931923081106 -0.0037164161683805839 0 -0.0019224986843972927 -0.003734167586582301 0 -0.0018725019883258449 -0.0037797679308397224 0 -0.0018824559212571358 -0.0038238932249827782 0 -0.0018156220327319509 -0.0038402522183484228 0 -0.0018725019883258449 -0.0037797679308397224 0 -0.0018824559212571358 -0.0038238932249827782 0 -0.0018725019883258449 -0.0037797679308397224 0 -0.0019326041168755243 -0.0037761879280536659 0 -0.0019333447797530714 -0.0038203226261364241 0 -0.0019326041168755243 -0.0037761879280536659 0 -0.001978841304940737 -0.0037883072574835127 0 -0.0019326041168755243 -0.0037761879280536659 0 -0.001978841304940737 -0.0037883072574835127 0 -0.0020001592493703573 -0.0037430593592087114 0 -0.0020686836122913344 -0.0037210487805463834 0 -0.0020377164130518611 -0.0037695311490580029 0 -0.0020001592493703573 -0.0037430593592087114 0 -0.001978841304940737 -0.0037883072574835127 0 -0.0020377164130518611 -0.0037695311490580029 0 -0.0020001592493703573 -0.0037430593592087114 0 -0.0020166702755280252 -0.0038214247548286817 0 -0.001978841304940737 -0.0037883072574835127 0 -0.0020377164130518611 -0.0037695311490580029 0 -0.0020686836122913344 -0.0037210487805463834 0 -0.0020111850799622811 -0.0036893226275345734 0 -0.0020001592493703573 -0.0037430593592087114 0 -0.0020111850799622811 -0.0036893226275345734 0 -0.0020001592493703573 -0.0037430593592087114 0 -0.0019662293319718869 -0.0037224550768929091 0 -0.0019326041168755243 -0.0037761879280536659 0 -0.0020001592493703573 -0.0037430593592087114 0 -0.0019662293319718869 -0.0037224550768929091 0 -0.0017698972158225225 -0.0038428126448772481 0 -0.0017730393923819272 -0.0037593452221717856 0 -0.0017404256551526328 -0.003904689833521074 0 -0.0017698972158225225 -0.0038428126448772481 0 -0.0017970446789356419 -0.0038083807398907907 0 -0.0017730393923819272 -0.0037593452221717856 0 -0.0018156220327319509 -0.0038402522183484228 0 -0.0017698972158225225 -0.0038428126448772481 0 -0.0017970446789356419 -0.0038083807398907907 0 -0.0018156220327319509 -0.0038402522183484228 0 -0.0017970446789356419 -0.0038083807398907907 0 -0.0018246600371988986 -0.003782548775874793 0 -0.0018156220327319509 -0.0038402522183484228 0 -0.0018725019883258449 -0.0037797679308397224 0 -0.0018246600371988986 -0.003782548775874793 0 -0.0018773931923081106 -0.0037164161683805839 0 -0.0018725019883258449 -0.0037797679308397224 0 -0.0018246600371988986 -0.003782548775874793 0 -0.0017970446789356419 -0.0038083807398907907 0 -0.0018246600371988986 -0.003782548775874793 0 -0.0017730393923819272 -0.0037593452221717856 0 -0.0071675338943438874 -0.0030343387018350958 0 -0.0066400969603951521 -0.0030319505185030476 0 -0.0064899266616948569 -0.0035567565551266078 0 -0.0018773931923081106 -0.0037164161683805839 0 -0.0018246600371988986 -0.003782548775874793 0 -0.0017730393923819272 -0.0037593452221717856 0 -0.0066400969603951521 -0.0030319505185030476 0 -0.0063176813926341851 -0.0030632342017584695 0 -0.0064899266616948569 -0.0035567565551266078 0 -0.0064899266616948569 -0.0035567565551266078 0 -0.0057612843211503071 -0.0033549081580762628 0 -0.0050241794401884067 -0.0036467254588898137 0 -0.0063176813926341851 -0.0030632342017584695 0 -0.0057612843211503071 -0.0033549081580762628 0 -0.0050850775785190707 -0.0031240097498021202 0 -0.0063176813926341851 -0.0030632342017584695 0 -0.0064899266616948569 -0.0035567565551266078 0 -0.0057612843211503071 -0.0033549081580762628 0 -0.006084542824671477 -0.0023809929055344944 0 -0.0065737499656809356 -0.0026584390503594704 0 -0.0070438877786781137 -0.0022350533841428723 0 -0.006084542824671477 -0.0023809929055344944 0 -0.0070438877786781137 -0.0022350533841428723 0 -0.0058602467631606314 -0.0015806637984989772 0 -0.0063176813926341851 -0.0030632342017584695 0 -0.006044548244488991 -0.0027027714100895804 0 -0.0057527822859057649 -0.0027704152176178773 0 -0.0063176813926341851 -0.0030632342017584695 0 -0.006242640129932463 -0.0027021520803144012 0 -0.006044548244488991 -0.0027027714100895804 0 -0.0078102110894783675 -0.0025099871232899577 0 -0.0058891572253239217 -0.0016298378990585358 0 -0.0066400969603951521 -0.0030319505185030476 0 -0.0063176813926341851 -0.0030632342017584695 0 -0.0065737499656809356 -0.0026584390503594704 0 -0.0063176813926341851 -0.0030632342017584695 0 -0.006242640129932463 -0.0027021520803144012 0 -0.0065737499656809356 -0.0026584390503594704 0 -0.006242640129932463 -0.0027021520803144012 0 -0.006084542824671477 -0.0023809929055344944 0 -0.0065737499656809356 -0.0026584390503594704 0 -0.006242640129932463 -0.0027021520803144012 0 -0.006044548244488991 -0.0027027714100895804 0 -0.006084542824671477 -0.0023809929055344944 0 -0.0071675338943438874 -0.0030343387018350958 0 -0.0065737499656809356 -0.0026584390503594704 0 -0.0070438877786781137 -0.0022350533841428723 0 -0.0071675338943438874 -0.0030343387018350958 0 -0.0066400969603951521 -0.0030319505185030476 0 -0.0065737499656809356 -0.0026584390503594704 0 -0.00565047991563791 -0.0023705828840226294 0 -0.0050712052817690409 -0.0027027864612007065 0 -0.0058602467631606314 -0.0015806637984989772 0 -0.0059400180905352642 -0.0029001993349986512 0 -0.013060597416478401 -0.0031401403986741233 0 -0.0050712052817690409 -0.0027027864612007065 0 -0.0059936254212521727 -0.0008679386731341584 0 -0.0058602467631606314 -0.0015806637984989772 0 -0.006084542824671477 -0.0023809929055344944 0 -0.00565047991563791 -0.0023705828840226294 0 -0.0058602467631606314 -0.0015806637984989772 0 -0.011295313471285501 -0.0037666119250937169 0 -0.01134152798311284 -0.003734901990959215 0 -0.011309957586302511 -0.0037578335019609272 0 -0.0063176813926341851 -0.0030632342017584695 0 -0.0057527822859057649 -0.0027704152176178773 0 -0.0053066913863409641 -0.0027534064854807931 0 -0.006084542824671477 -0.0023809929055344944 0 -0.005816813002296156 -0.0025622720751849477 0 -0.00565047991563791 -0.0023705828840226294 0 -0.0059027926822055798 -0.0029005566344870635 0 -0.0053044789614090119 -0.0026671420262724451 0 -0.006044548244488991 -0.0027027714100895804 0 -0.006084542824671477 -0.0023809929055344944 0 -0.005816813002296156 -0.0025622720751849477 0 -0.005816813002296156 -0.0025622720751849477 0 -0.0056067316084058693 -0.0026052699847779453 0 -0.0057527822859057649 -0.0027704152176178773 0 -0.00565047991563791 -0.0023705828840226294 0 -0.0056067316084058693 -0.0026052699847779453 0 -0.0053066913863409641 -0.0027534064854807931 0 -0.005816813002296156 -0.0025622720751849477 0 -0.00565047991563791 -0.0023705828840226294 0 -0.0056067316084058693 -0.0026052699847779453 0 -0.0056067316084058693 -0.0026052699847779453 0 -0.0057527822859057649 -0.0027704152176178773 0 -0.0053066913863409641 -0.0027534064854807931 0 -0.006044548244488991 -0.0027027714100895804 0 -0.005816813002296156 -0.0025622720751849477 0 -0.0057527822859057649 -0.0027704152176178773 0 -0.0040864847084423808 -0.0021236670859089337 0 -0.0036973560523145686 -0.0019790689154831551 0 -0.0050850775785190707 -0.0031240097498021202 0 -0.0053044789614090119 -0.0026671420262724451 0 -0.0059400180905352642 -0.0029001993349986512 0 -0.00565047991563791 -0.0023705828840226294 0 -0.0053066913863409641 -0.0027534064854807931 0 -0.0050712052817690409 -0.0027027864612007065 0 -0.011295313471285501 -0.0037666119250937169 0 -0.011297083621407888 -0.0037643317055720419 0 -0.011309957586302511 -0.0037578335019609272 0 -0.017273974895367583 -0.0066336054514676158 0 -0.017242873615752576 -0.0054757925363344727 0 -0.018784795815857843 -0.0058497456853267181 0 -0.0071198676042932771 -0.0042252738205443476 0 -0.010335041068090779 -0.0051584976134664198 0 -0.01134680696884835 -0.004679730807597429 0 -0.01326339972248408 -0.0050265982928041674 0 -0.015473430408938086 -0.0046231648013966408 0 -0.0065606815848014925 -0.0038228500400304417 0 -0.0091156026850966795 -0.0053884669418065127 0 -0.0025155969656109355 -0.0040467013171132989 0 -0.0026979833495484654 -0.0039099090912654661 0 -0.0022914198817407349 -0.0040154229178242448 0 -0.011297083621407888 -0.0037643317055720419 0 -0.011323999735364975 -0.0037795691808212495 0 -0.011309957586302511 -0.0037578335019609272 0 -0.0065606815848014925 -0.0038228500400304417 0 -0.01326339972248408 -0.0050265982928041674 0 -0.0059400180905352642 -0.0029001993349986512 0 -0.0065606815848014925 -0.0038228500400304417 0 -0.0028975914480712521 -0.0039199944754337223 0 -0.0026979833495484654 -0.0039099090912654661 0 -0.0027100158215534421 -0.0040585023852016313 0 -0.0025155969656109355 -0.0040467013171132989 0 -0.0026979833495484654 -0.0039099090912654661 0 -0.0027100158215534421 -0.0040585023852016313 0 -0.0028975914480712521 -0.0039199944754337223 0 -0.0027100158215534421 -0.0040585023852016313 0 -0.0027620994293873361 -0.0042569848587161938 0 -0.0027100158215534421 -0.0040585023852016313 0 -0.0025297149130304787 -0.0041419486525009173 0 -0.0027620994293873361 -0.0042569848587161938 0 -0.0024022012256087358 -0.0042206595708206753 0 -0.0028574847259969197 -0.0045145044318490035 0 -0.0020457429169000439 -0.0042123373886039381 0 -0.0025155969656109355 -0.0040467013171132989 0 -0.0025297149130304787 -0.0041419486525009173 0 -0.0023887142317339121 -0.0041327021777404311 0 -0.0025155969656109355 -0.0040467013171132989 0 -0.0027100158215534421 -0.0040585023852016313 0 -0.0025297149130304787 -0.0041419486525009173 0 -0.0025297149130304787 -0.0041419486525009173 0 -0.0024022012256087358 -0.0042206595708206753 0 -0.0023887142317339121 -0.0041327021777404311 0 -0.0025297149130304787 -0.0041419486525009173 0 -0.0024022012256087358 -0.0042206595708206753 0 -0.0027620994293873361 -0.0042569848587161938 0 -0.0024022012256087358 -0.0042206595708206753 0 -0.0027620994293873361 -0.0042569848587161938 0 -0.0028574847259969197 -0.0045145044318490035 0 -0.0027620994293873361 -0.0042569848587161938 0 -0.0028574847259969197 -0.0045145044318490035 0 -0.0033962736141475965 -0.0040595110576497409 0 -0.0028574847259969197 -0.0045145044318490035 0 -0.0041766302405431832 -0.0037732635027523673 0 -0.0050241794401884067 -0.0036467254588898137 0 -0.0028574847259969197 -0.0045145044318490035 0 -0.0033962736141475965 -0.0040595110576497409 0 -0.0041766302405431832 -0.0037732635027523673 0 -0.0064899266616948569 -0.0035567565551266078 0 -0.0028574847259969197 -0.0045145044318490035 0 -0.0050241794401884067 -0.0036467254588898137 0 -0.0017730393923819272 -0.0037593452221717856 0 -0.0017089009552757456 -0.0040170798703223634 0 -0.0017273488325982498 -0.0039381382313036601 0 -0.0037944770892305545 -0.0036742296461259724 0 -0.0024333147582698764 -0.0042108695172760943 0 -0.0027620994293873361 -0.0042569848587161938 0 -0.0033962736141475965 -0.0040595110576497409 0 -0.0035160574157471914 -0.0033799635337555954 0 -0.0033962736141475965 -0.0040595110576497409 0 -0.0041766302405431832 -0.0037732635027523673 0 -0.0037742190222677841 -0.0036224729562973675 0 -0.0017730393923819272 -0.0037593452221717856 0 -0.0017404256551526328 -0.003904689833521074 0 -0.0017273488325982498 -0.0039381382313036601 0 -0.0041766302405431832 -0.0037732635027523673 0 -0.0045956409649618836 -0.0033372463576603513 0 -0.0050241794401884067 -0.0036467254588898137 0 -0.0036973560523145686 -0.0019790689154831551 0 -0.0050850775785190707 -0.0031240097498021202 0 -0.0042657258222415393 -0.0029439859046586567 0 -0.0063176813926341851 -0.0030632342017584695 0 -0.0040864847084423808 -0.0021236670859089337 0 -0.0050850775785190707 -0.0031240097498021202 0 -0.0057612843211503071 -0.0033549081580762628 0 -0.0050241794401884067 -0.0036467254588898137 0 -0.0050850775785190707 -0.0031240097498021202 0 -0.0045956409649618836 -0.0033372463576603513 0 -0.0050241794401884067 -0.0036467254588898137 0 -0.0050850775785190707 -0.0031240097498021202 0 -0.0045956409649618836 -0.0033372463576603513 0 -0.0050850775785190707 -0.0031240097498021202 0 -0.0042657258222415393 -0.0029439859046586567 0 -0.0059400180905352642 -0.0029001993349986512 0 -0.0027304802168657051 -0.004454278938245705 0 -0.0036973560523145686 -0.0019790689154831551 0 -0.0042657258222415393 -0.0029439859046586567 0 -0.0038474075297039601 -0.0029582364757191255 0 -0.0036973560523145686 -0.0019790689154831551 0 -0.0027620994293873361 -0.0042569848587161938 0 -0.0035160574157471914 -0.0033799635337555954 0 -0.0036973560523145686 -0.0019790689154831551 0 -0.0038474075297039601 -0.0029582364757191255 0 -0.0035160574157471914 -0.0033799635337555954 0 -0.0045956409649618836 -0.0033372463576603513 0 -0.0042657258222415393 -0.0029439859046586567 0 -0.0039952938159046811 -0.0033125096255529891 0 -0.0042657258222415393 -0.0029439859046586567 0 -0.0038474075297039601 -0.0029582364757191255 0 -0.0039952938159046811 -0.0033125096255529891 0 -0.0033962736141475965 -0.0040595110576497409 0 -0.0035160574157471914 -0.0033799635337555954 0 -0.0037742190222677841 -0.0036224729562973675 0 -0.0041766302405431832 -0.0037732635027523673 0 -0.0037742190222677841 -0.0036224729562973675 0 -0.0039952938159046811 -0.0033125096255529891 0 -0.0041766302405431832 -0.0037732635027523673 0 -0.0045956409649618836 -0.0033372463576603513 0 -0.0039952938159046811 -0.0033125096255529891 0 -0.0038474075297039601 -0.0029582364757191255 0 -0.0035160574157471914 -0.0033799635337555954 0 -0.0039952938159046811 -0.0033125096255529891 0 -0.0035160574157471914 -0.0033799635337555954 0 -0.0037742190222677841 -0.0036224729562973675 0 -0.0039952938159046811 -0.0033125096255529891 0 -0.0091156026850966795 -0.0053884669418065127 0 -0.013100980797093384 -0.0057229350303664335 0 -0.011449350892913141 -0.0057323082175559465 0 -0.01191413977077585 -0.0055654736575999212 0 -0.011965175015684861 -0.0057602208200030237 0 -0.0091156026850966795 -0.0053884669418065127 0 -0.0066954542662055229 -0.004997230374508937 0 -0.013099333526741008 -0.0055601303165092788 0 -0.012863766427313928 -0.005584241706644363 0 -0.012924778433526771 -0.0054760703081264163 0 -0.01313804830505599 -0.0055407122086050618 0 -0.013099333526741008 -0.0055601303165092788 0 -0.012924778433526771 -0.0054760703081264163 0 -0.017273974895367583 -0.0066336054514676158 0 -0.014865361894419234 -0.0060274591748553851 0 -0.016255465002030227 -0.0054763524162156274 0 -0.01326339972248408 -0.0050265982928041674 0 -0.014332805019113702 -0.0059187243874518052 0 -0.01326339972248408 -0.0050265982928041674 0 -0.0091156026850966795 -0.0053884669418065127 0 -0.0025155969656109355 -0.0040467013171132989 0 -0.0022914198817407349 -0.0040154229178242448 0 -0.0023887142317339121 -0.0041327021777404311 0 -0.0024022012256087358 -0.0042206595708206753 0 -0.0023887142317339121 -0.0041327021777404311 0 -0.0021920677573790096 -0.0042245443127995851 0 -0.0022914198817407349 -0.0040154229178242448 0 -0.0023887142317339121 -0.0041327021777404311 0 -0.0021920677573790096 -0.0042245443127995851 0 -0.0024022012256087358 -0.0042206595708206753 0 -0.0021920677573790096 -0.0042245443127995851 0 -0.0020457429169000439 -0.0042123373886039381 0 -0.0022914198817407349 -0.0040154229178242448 0 -0.0021920677573790096 -0.0042245443127995851 0 -0.0022455590666541 -0.0043385483087670911 0 -0.0021920677573790096 -0.0042245443127995851 0 -0.0022455590666541 -0.0043385483087670911 0 -0.0022343365877790333 -0.0042260711282966256 0 -0.0022343365877790333 -0.0042260711282966256 0 -0.0020457429169000439 -0.0042123373886039381 0 -0.0021107649054642255 -0.0039931560788639677 0 -0.0021920677573790096 -0.0042245443127995851 0 -0.0022343365877790333 -0.0042260711282966256 0 -0.0020457429169000439 -0.0042123373886039381 0 -0.0020457429169000439 -0.0042123373886039381 0 -0.0018405835649378268 -0.0040011332316482557 0 -0.0021107649054642255 -0.0039931560788639677 0 -0.0020457429169000439 -0.0042123373886039381 0 -0.0018405835649378268 -0.0040011332316482557 0 -0.0017617886088652833 -0.0040211814297652637 0 -0.0018405835649378268 -0.0040011332316482557 0 -0.0021107649054642255 -0.0039931560788639677 0 -0.0018143480617461159 -0.0039379254775711459 0 -0.0017123603322928356 -0.0039634396295488211 0 -0.0017156834510301481 -0.0039660071602472978 0 -0.001708339535034854 -0.0039454674194650706 0 -0.0017348704206595889 -0.0039190605537109714 0 -0.0017123603322928356 -0.0039634396295488211 0 -0.001708339535034854 -0.0039454674194650706 0 -0.0017348704206595889 -0.0039190605537109714 0 -0.0017404256551526328 -0.003904689833521074 0 -0.0017123603322928356 -0.0039634396295488211 0 -0.0017404256551526328 -0.003904689833521074 0 -0.0017273488325982498 -0.0039381382313036601 0 -0.0017123603322928356 -0.0039634396295488211 0 -0.0017089009552757456 -0.0040170798703223634 0 -0.0017273488325982498 -0.0039381382313036601 0 -0.0017189952729703445 -0.0039914520828912056 0 -0.0017273488325982498 -0.0039381382313036601 0 -0.0017123603322928356 -0.0039634396295488211 0 -0.0017189952729703445 -0.0039914520828912056 0 -0.0017123603322928356 -0.0039634396295488211 0 -0.0017189952729703445 -0.0039914520828912056 0 -0.0017617886088652833 -0.0040211814297652637 0 -0.0018405835649378268 -0.0040011332316482557 0 -0.0017617886088652833 -0.0040211814297652637 0 -0.0017156834510301481 -0.0039660071602472978 0 -0.0017089009552757456 -0.0040170798703223634 0 -0.0017189952729703445 -0.0039914520828912056 0 -0.0017617886088652833 -0.0040211814297652637 0 -0.0017089009552757456 -0.0040170798703223634 0 -0.0020457429169000439 -0.0042123373886039381 0 -0.0017617886088652833 -0.0040211814297652637 0 -0.0024333147582698764 -0.0042108695172760943 0 -0.0020565879300562325 -0.0042351169685142624 0 -0.0017123603322928356 -0.0039634396295488211 0 -0.0017617886088652833 -0.0040211814297652637 0 -0.0017156834510301481 -0.0039660071602472978 0 -0.0018405835649378268 -0.0040011332316482557 0 -0.0017156834510301481 -0.0039660071602472978 0 -0.0016719582816881852 -0.0039287313487868123 0 -0.0018405835649378268 -0.0040011332316482557 0 -0.0016719582816881852 -0.0039287313487868123 0 -0.0018143480617461159 -0.0039379254775711459 0 -0.0017156834510301481 -0.0039660071602472978 0 -0.0016828708213682336 -0.0039279334458801121 0 -0.0016719582816881852 -0.0039287313487868123 0 -0.0017156834510301481 -0.0039660071602472978 0 -0.001708339535034854 -0.0039454674194650706 0 -0.0016828708213682336 -0.0039279334458801121 0 -0.0017348704206595889 -0.0039190605537109714 0 -0.001708339535034854 -0.0039454674194650706 0 -0.0016828708213682336 -0.0039279334458801121 0 -0.0016828708213682336 -0.0039279334458801121 0 -0.001598541514951973 -0.0039033875059224983 0 -0.0016719582816881852 -0.0039287313487868123 0 -0.001598541514951973 -0.0039033875059224983 0 -0.0015689595324512103 -0.0039108436039577569 0 -0.0016719582816881852 -0.0039287313487868123 0 -0.001598541514951973 -0.0039033875059224983 0 -0.0015689595324512103 -0.0039108436039577569 0 -0.0013035973458517408 -0.0039358021308428257 0 -0.0015689595324512103 -0.0039108436039577569 0 -0.0016593954895235865 -0.0038340795530127209 0 -0.0013035973458517408 -0.0039358021308428257 0 -0.0015689595324512103 -0.0039108436039577569 0 -0.0016719582816881852 -0.0039287313487868123 0 -0.0018143480617461159 -0.0039379254775711459 0 -0.0021107649054642255 -0.0039931560788639677 0 -0.0018143480617461159 -0.0039379254775711459 0 -0.0020147421913610268 -0.0039455232385352465 0 -0.0020147421913610268 -0.0039455232385352465 0 -0.0018961992923392321 -0.0038570345670034365 0 -0.0020698357833818714 -0.0038847832685249733 0 -0.0018143480617461159 -0.0039379254775711459 0 -0.0020147421913610268 -0.0039455232385352465 0 -0.0018961992923392321 -0.0038570345670034365 0 -0.0018961992923392321 -0.0038570345670034365 0 -0.0020417946875818625 -0.0037490289097595526 0 -0.0020698357833818714 -0.0038847832685249733 0 -0.0015689595324512103 -0.0039108436039577569 0 -0.0018143480617461159 -0.0039379254775711459 0 -0.0016593954895235865 -0.0038340795530127209 0 -0.0018143480617461159 -0.0039379254775711459 0 -0.0018961992923392321 -0.0038570345670034365 0 -0.0016593954895235865 -0.0038340795530127209 0 -0.0016593954895235865 -0.0038340795530127209 0 -0.0018033068096053721 -0.0036371461227585255 0 -0.0014714739945850919 -0.0035172610323441524 0 -0.0018961992923392321 -0.0038570345670034365 0 -0.0018033068096053721 -0.0036371461227585255 0 -0.0020417946875818625 -0.0037490289097595526 0 -0.0018961992923392321 -0.0038570345670034365 0 -0.0016593954895235865 -0.0038340795530127209 0 -0.0018033068096053721 -0.0036371461227585255 0 -0.0018033068096053721 -0.0036371461227585255 0 -0.0020436256114190711 -0.0036179097230949271 0 -0.0020417946875818625 -0.0037490289097595526 0 -0.0018033068096053721 -0.0036371461227585255 0 -0.0019372367709580634 -0.0034737593437949832 0 -0.0020436256114190711 -0.0036179097230949271 0 -0.0018033068096053721 -0.0036371461227585255 0 -0.0019372367709580634 -0.0034737593437949832 0 -0.001759519681059763 -0.0032329983527108739 0 -0.0019372367709580634 -0.0034737593437949832 0 -0.001759519681059763 -0.0032329983527108739 0 -0.0019948785523650862 -0.0032965879005767743 0 -0.0018033068096053721 -0.0036371461227585255 0 -0.001759519681059763 -0.0032329983527108739 0 -0.0014714739945850919 -0.0035172610323441524 0 -0.00077522796012089682 -0.0031809426040030576 0 -0.0014714739945850919 -0.0035172610323441524 0 -0.0013035973458517408 -0.0039358021308428257 0 -0.00077522796012089682 -0.0031809426040030576 0 -8.3272988088301417e-05 -0.0037603460122471871 0 -0.0013035973458517408 -0.0039358021308428257 0 -0.0016635630155642568 -0.0041001847181938895 0 -0.001598541514951973 -0.0039033875059224983 0 -0.0013035973458517408 -0.0039358021308428257 0 -0.00086939502798453051 -0.0039160238691069204 0 -0.0012572801968543006 -0.0039478524864747042 0 -0.0016593954895235865 -0.0038340795530127209 0 -0.0014714739945850919 -0.0035172610323441524 0 -0.0013035973458517408 -0.0039358021308428257 0 -0.003324200685285461 -0.0036711079386563378 0 -0.0030747568248593411 -0.0038853576800575809 0 -0.0033090205344732805 -0.0042714901532472293 0 -0.0044642913382210939 -0.0033969486648098928 0 -0.0047339673589897428 -0.0038311774436723075 0 -0.003324200685285461 -0.0036711079386563378 0 -0.003027518545853198 -0.0035521771156337423 0 -0.0030747568248593411 -0.0038853576800575809 0 -0.003027518545853198 -0.0035521771156337423 0 -0.0030747568248593411 -0.0038853576800575809 0 -0.0028083056821487464 -0.004077982302441243 0 -0.0055937674671166591 -0.0030853425146231887 0 -0.0058643621385364251 -0.0029109165123590848 0 -0.0060614067167805256 -0.003098273846059259 0 -0.0047339673589897428 -0.0038311774436723075 0 -0.0059776800381464278 -0.0030810855001362348 0 -0.0055937674671166591 -0.0030853425146231887 0 -0.0055861042594843443 -0.0034644337591843446 0 -0.0060614067167805256 -0.003098273846059259 0 -0.0058643621385364251 -0.0029109165123590848 0 -0.0055947856500448579 -0.0027244598893202297 0 -0.0061890546019871808 -0.002743956335040341 0 -0.0055937674671166591 -0.0030853425146231887 0 -0.0058643621385364251 -0.0029109165123590848 0 -0.0055947856500448579 -0.0027244598893202297 0 -0.0036751278377186525 -0.0028094150113427514 0 -0.0053357484412740307 -0.0030889927343948809 0 -0.0036751278377186525 -0.0028094150113427514 0 -0.0023859569127981668 -0.0030441225764361482 0 -0.0044642913382210939 -0.0033969486648098928 0 -0.0036751278377186525 -0.0028094150113427514 0 -0.003027518545853198 -0.0035521771156337423 0 -0.0033279345105137639 -0.0030448416364589359 0 -0.0026033403647967423 -0.0030771690267734531 0 -0.003324200685285461 -0.0036711079386563378 0 -0.003027518545853198 -0.0035521771156337423 0 -0.0033279345105137639 -0.0030448416364589359 0 -0.0023859569127981668 -0.0030441225764361482 0 -0.0023416037398514724 -0.0032604240866352129 0 -0.0025984694966439273 -0.0032732128565791121 0 -0.0023370347901367711 -0.0034459562169211655 0 -0.0024758127643595604 -0.0036478729666294674 0 -0.0019948785523650862 -0.0032965879005767743 0 -0.0022288973225923674 -0.0033119115637160797 0 -0.0021134520485931981 -0.0034820267982923663 0 -0.0025984694966439273 -0.0032732128565791121 0 -0.0022288973225923674 -0.0033119115637160797 0 -0.0023370347901367711 -0.0034459562169211655 0 -0.0023370347901367711 -0.0034459562169211655 0 -0.0021134520485931981 -0.0034820267982923663 0 -0.0024758127643595604 -0.0036478729666294674 0 -0.0022288973225923674 -0.0033119115637160797 0 -0.0023370347901367711 -0.0034459562169211655 0 -0.0021134520485931981 -0.0034820267982923663 0 -0.0019372367709580634 -0.0034737593437949832 0 -0.0019948785523650862 -0.0032965879005767743 0 -0.0021134520485931981 -0.0034820267982923663 0 -0.0019372367709580634 -0.0034737593437949832 0 -0.0021134520485931981 -0.0034820267982923663 0 -0.0020436256114190711 -0.0036179097230949271 0 -0.0021134520485931981 -0.0034820267982923663 0 -0.0020436256114190711 -0.0036179097230949271 0 -0.0022207695308409142 -0.0037222708259107649 0 -0.0021422853689600603 -0.0035136902084092142 0 -0.0023208037770048855 -0.0038269517232292411 0 -0.0020436256114190711 -0.0036179097230949271 0 -0.0020417946875818625 -0.0037490289097595526 0 -0.0022207695308409142 -0.0037222708259107649 0 -0.0021134520485931981 -0.0034820267982923663 0 -0.0024758127643595604 -0.0036478729666294674 0 -0.0025544253139401524 -0.0039480507169353651 0 -0.003027518545853198 -0.0035521771156337423 0 -0.0026033403647967423 -0.0030771690267734531 0 -0.0028083056821487464 -0.004077982302441243 0 -0.0025984694966439273 -0.0032732128565791121 0 -0.0024758127643595604 -0.0036478729666294674 0 -0.0028083056821487464 -0.004077982302441243 0 -0.0023859569127981668 -0.0030441225764361482 0 -0.0028627365256318226 -0.0041068300049656977 0 -0.0024758127643595604 -0.0036478729666294674 0 -0.0025544253139401524 -0.0039480507169353651 0 -0.0028083056821487464 -0.004077982302441243 0 -0.0022207695308409142 -0.0037222708259107649 0 -0.0021799719845196019 -0.0038607974264228098 0 -0.0023333885429339331 -0.0038737732838616422 0 -0.0025544253139401524 -0.0039480507169353651 0 -0.0028083056821487464 -0.004077982302441243 0 -0.0030304948124503079 -0.0044529522905796129 0 -0.0023208037770048855 -0.0038269517232292411 0 -0.0032587084290547057 -0.0038979930165877644 0 -0.0022207695308409142 -0.0037222708259107649 0 -0.0021799719845196019 -0.0038607974264228098 0 -0.0021287290791605503 -0.0038023010333407001 0 -0.0020417946875818625 -0.0037490289097595526 0 -0.0022207695308409142 -0.0037222708259107649 0 -0.0021287290791605503 -0.0038023010333407001 0 -0.0020417946875818625 -0.0037490289097595526 0 -0.0021287290791605503 -0.0038023010333407001 0 -0.0020698357833818714 -0.0038847832685249733 0 -0.0021799719845196019 -0.0038607974264228098 0 -0.0021287290791605503 -0.0038023010333407001 0 -0.0020698357833818714 -0.0038847832685249733 0 -0.0020147421913610268 -0.0039455232385352465 0 -0.0020698357833818714 -0.0038847832685249733 0 -0.0021337398239060093 -0.0039756280944679614 0 -0.0021799719845196019 -0.0038607974264228098 0 -0.0020698357833818714 -0.0038847832685249733 0 -0.0021337398239060093 -0.0039756280944679614 0 -0.0023517217193579809 -0.0036713710392036122 0 -0.0032587084290547057 -0.0038979930165877644 0 -0.0021799719845196019 -0.0038607974264228098 0 -0.0021337398239060093 -0.0039756280944679614 0 -0.0023333885429339331 -0.0038737732838616422 0 -0.0026668594915547207 -0.0034540964065504914 0 -0.0033129201444843746 -0.0029677642992442009 0 -0.0031714008019745714 -0.0035502914784580433 0 -0.0033129201444843746 -0.0029677642992442009 0 -0.0037429272558201893 -0.0034284650315013643 0 -0.0031714008019745714 -0.0035502914784580433 0 -0.0044280313510801986 -0.0039958689505510412 0 -0.0050629968903348659 -0.0041996390850047704 0 -0.0050465584565438024 -0.0047021576460814733 0 -0.0032587084290547057 -0.0038979930165877644 0 -0.0040938432216128546 -0.0037956496215296714 0 -0.0030304948124503079 -0.0044529522905796129 0 -0.0033090205344732805 -0.0042714901532472293 0 -0.003054547567991056 -0.0041746964193126804 0 -0.0044280313510801986 -0.0039958689505510412 0 -0.0048304788341223641 -0.0038214116544899612 0 -0.004830604246178081 -0.0037168290969670729 0 -0.0032587084290547057 -0.0038979930165877644 0 -0.0047339673589897428 -0.0038311774436723075 0 -0.0044280313510801986 -0.0039958689505510412 0 -0.0049181512222487098 -0.0039676165467012869 0 -0.0048304788341223641 -0.0038214116544899612 0 -0.0044280313510801986 -0.0039958689505510412 0 -0.0049181512222487098 -0.0039676165467012869 0 -0.0050629968903348659 -0.0041996390850047704 0 -0.0049181512222487098 -0.0039676165467012869 0 -0.0048304788341223641 -0.0038214116544899612 0 -0.0050490191078986389 -0.0037692530794019405 0 -0.0048304788341223641 -0.0038214116544899612 0 -0.0048473610165615964 -0.0037291890799733517 0 -0.0050490191078986389 -0.0037692530794019405 0 -0.0047386704051524432 -0.0038254610278204058 0 -0.0047339673589897428 -0.0038311774436723075 0 -0.0030747568248593411 -0.0038853576800575809 0 -0.0033090205344732805 -0.0042714901532472293 0 -0.003054547567991056 -0.0041746964193126804 0 -0.0028083056821487464 -0.004077982302441243 0 -0.0030304948124503079 -0.0044529522905796129 0 -0.003054547567991056 -0.0041746964193126804 0 -0.0030747568248593411 -0.0038853576800575809 0 -0.0028083056821487464 -0.004077982302441243 0 -0.003054547567991056 -0.0041746964193126804 0 -0.0050490191078986389 -0.0037692530794019405 0 -0.0056885119170198379 -0.0031899276791023767 0 -0.0055588284061987535 -0.0036811512722610879 0 -0.0051545704349103428 -0.003833112536784279 0 -0.0057034476336461255 -0.0042102328071188955 0 -0.0050490191078986389 -0.0037692530794019405 0 -0.0055588284061987535 -0.0036811512722610879 0 -0.0056665916634077588 -0.0042204732211163724 0 -0.0048473610165615964 -0.0037291890799733517 0 -0.0050490191078986389 -0.0037692530794019405 0 -0.0056885119170198379 -0.0031899276791023767 0 -0.0049181512222487098 -0.0039676165467012869 0 -0.0050490191078986389 -0.0037692530794019405 0 -0.0050629968903348659 -0.0041996390850047704 0 -0.0050490191078986389 -0.0037692530794019405 0 -0.0050629968903348659 -0.0041996390850047704 0 -0.0059745981738134257 -0.0042961919360847102 0 -0.0050629968903348659 -0.0041996390850047704 0 -0.0050465584565438024 -0.0047021576460814733 0 -0.0059745981738134257 -0.0042961919360847102 0 -0.0050465584565438024 -0.0047021576460814733 0 -0.0057050721810874491 -0.0054341626606384062 0 -0.0059745981738134257 -0.0042961919360847102 0 -0.0037429272558201893 -0.0034284650315013643 0 -0.0042033003876585052 -0.0039078868763491167 0 -0.0034668046123482225 -0.0042081608721734227 0 -0.0040938432216128546 -0.0037956496215296714 0 -0.0078447487571246654 -0.0051598087947490202 0 -0.0037429272558201893 -0.0034284650315013643 0 -0.0034668046123482225 -0.0042081608721734227 0 -0.0031714008019745714 -0.0035502914784580433 0 -0.0078447487571246654 -0.0051598087947490202 0 -0.0076929230891563203 -0.0050012004613491558 0 -0.011659643488668927 -0.0059653606306622206 0 -0.011891611708873706 -0.0058594974984677566 0 -0.011652760141788095 -0.0058142037760446517 0 -0.011891611708873706 -0.0058594974984677566 0 -0.01176900631964206 -0.0057423464093982121 0 -0.011652760141788095 -0.0058142037760446517 0 -0.0021413465583494111 -0.0039750280833418328 0 -0.0023517217193579809 -0.0036713710392036122 0 -0.0021107649054642255 -0.0039931560788639677 0 -0.0020147421913610268 -0.0039455232385352465 0 -0.0021337398239060093 -0.0039756280944679614 0 -0.0021107649054642255 -0.0039931560788639677 0 -0.0026668594915547207 -0.0034540964065504914 0 -0.0026935816422828797 -0.0039894432814903185 0 -0.0034668046123482225 -0.0042081608721734227 0 -0.0031714008019745714 -0.0035502914784580433 0 -0.0026935816422828797 -0.0039894432814903185 0 -0.0026668594915547207 -0.0034540964065504914 0 -0.0031714008019745714 -0.0035502914784580433 0 -0.0026935816422828797 -0.0039894432814903185 0 -0.0076929230891563203 -0.0050012004613491558 0 -0.0074946769247843026 -0.0050108956222143708 0 -0.0034668046123482225 -0.0042081608721734227 0 -0.0026935816422828797 -0.0039894432814903185 0 -0.0027620358905996053 -0.004396205393518364 0 -0.0022343365877790333 -0.0042260711282966256 0 -0.0026935816422828797 -0.0039894432814903185 0 -0.0027620358905996053 -0.004396205393518364 0 -0.0022343365877790333 -0.0042260711282966256 0 -0.0021107649054642255 -0.0039931560788639677 0 -0.0026935816422828797 -0.0039894432814903185 0 -0.0066954542662055229 -0.004997230374508937 0 -0.0074946769247843026 -0.0050108956222143708 0 -0.0022455590666541 -0.0043385483087670911 0 -0.0022343365877790333 -0.0042260711282966256 0 -0.0027620358905996053 -0.004396205393518364 0 -0.01191413977077585 -0.0055654736575999212 0 -0.012030520987216077 -0.0056251479809178821 0 -0.012094930435774868 -0.0056892637573337564 0 -0.012030520987216077 -0.0056251479809178821 0 -0.012094930435774868 -0.0056892637573337564 0 -0.012102094118069959 -0.0056324098471931087 0 -0.011891611708873706 -0.0058594974984677566 0 -0.012094930435774868 -0.0056892637573337564 0 -0.012066423523087007 -0.0056622247853244812 0 -0.012094930435774868 -0.0056892637573337564 0 -0.012066423523087007 -0.0056622247853244812 0 -0.012102094118069959 -0.0056324098471931087 0 -0.012066423523087007 -0.0056622247853244812 0 -0.012213224675941516 -0.0055701927093638358 0 -0.012102094118069959 -0.0056324098471931087 0 -0.011923295095124551 -0.0055616217732864454 0 -0.013100980797093384 -0.0057229350303664335 0 -0.012213224675941516 -0.0055701927093638358 0 -0.012102094118069959 -0.0056324098471931087 0 -0.011965175015684861 -0.0057602208200030237 0 -0.012213224675941516 -0.0055701927093638358 0 -0.012863766427313928 -0.005584241706644363 0 -0.012411130913251607 -0.0052401219949586124 0 -0.01191413977077585 -0.0055654736575999212 0 -0.012030520987216077 -0.0056251479809178821 0 -0.011965175015684861 -0.0057602208200030237 0 -0.012030520987216077 -0.0056251479809178821 0 -0.012102094118069959 -0.0056324098471931087 0 -0.011965175015684861 -0.0057602208200030237 0 -0.011766062512042957 -0.005655842703384587 0 -0.01176900631964206 -0.0057423464093982121 0 -0.011874891702059368 -0.0056869209830303366 0 -0.011766062512042957 -0.005655842703384587 0 -0.011731572179001552 -0.005697825645978297 0 -0.011684950040846307 -0.0056536381265049219 0 -0.011766062512042957 -0.005655842703384587 0 -0.011731572179001552 -0.005697825645978297 0 -0.01176900631964206 -0.0057423464093982121 0 -0.011731572179001552 -0.005697825645978297 0 -0.011684950040846307 -0.0056536381265049219 0 -0.011673507714938225 -0.0057234584601524949 0 -0.01176900631964206 -0.0057423464093982121 0 -0.011652760141788095 -0.0058142037760446517 0 -0.011673507714938225 -0.0057234584601524949 0 -0.011731572179001552 -0.005697825645978297 0 -0.01176900631964206 -0.0057423464093982121 0 -0.011673507714938225 -0.0057234584601524949 0 -0.011891611708873706 -0.0058594974984677566 0 -0.012066423523087007 -0.0056622247853244812 0 -0.011874891702059368 -0.0056869209830303366 0 -0.011891611708873706 -0.0058594974984677566 0 -0.01176900631964206 -0.0057423464093982121 0 -0.011874891702059368 -0.0056869209830303366 0 -0.012066423523087007 -0.0056622247853244812 0 -0.011874891702059368 -0.0056869209830303366 0 -0.011851791083184527 -0.0054947150103881173 0 -0.012066423523087007 -0.0056622247853244812 0 -0.012213224675941516 -0.0055701927093638358 0 -0.011851791083184527 -0.0054947150103881173 0 -0.011766062512042957 -0.005655842703384587 0 -0.011851791083184527 -0.0054947150103881173 0 -0.011684950040846307 -0.0056536381265049219 0 -0.011766062512042957 -0.005655842703384587 0 -0.011874891702059368 -0.0056869209830303366 0 -0.011851791083184527 -0.0054947150103881173 0 -0.016292653339846065 -0.006988205502901094 0 -0.015647375640209304 -0.0078286325229461728 0 -0.020741471239499591 -0.0085651655740420461 0 -0.019661944388612955 -0.008379018190070274 0 -0.019404795928867482 -0.0095653448391812123 0 -0.019661944388612955 -0.008379018190070274 0 -0.020314312142622682 -0.0073189973325530214 0 -0.019444475015122326 -0.0073453765626775806 0 -0.020741471239499591 -0.0085651655740420461 0 -0.019661944388612955 -0.008379018190070274 0 -0.020314312142622682 -0.0073189973325530214 0 -0.020741471239499591 -0.0085651655740420461 0 -0.020314312142622682 -0.0073189973325530214 0 -0.022023318766070738 -0.0075852406959865124 0 -0.016292653339846065 -0.006988205502901094 0 -0.017135866941494802 -0.0062492251991254997 0 -0.021230742982414161 -0.0064901079367581434 0 -0.020314312142622682 -0.0073189973325530214 0 -0.020352253722271962 -0.0061784312590483555 0 -0.021230742982414161 -0.0064901079367581434 0 -0.020314312142622682 -0.0073189973325530214 0 -0.022023318766070738 -0.0075852406959865124 0 -0.024919139614910275 -0.0083831631201478386 0 -0.021858942037794527 -0.0087723758448475797 0 -0.020314312142622682 -0.0073189973325530214 0 -0.020352253722271962 -0.0061784312590483555 0 -0.019567149490724311 -0.0073641260078657379 0 -0.029185960923069226 -0.010349904291084655 0 -0.02759064523174885 -0.012953649586537899 0 -0.02676075995836379 -0.010873571558206436 0 -0.019683254909219988 -0.00769285173851558 0 -0.021858942037794527 -0.0087723758448475797 0 -0.029185960923069226 -0.010349904291084655 0 -0.027516849325103707 -0.0090386278982939224 0 -0.02676075995836379 -0.010873571558206436 0 -0.029185960923069226 -0.010349904291084655 0 -0.02888717116730715 -0.0084820531444782608 0 -0.027516849325103707 -0.0090386278982939224 0 -0.021230742982414161 -0.0064901079367581434 0 -0.020352253722271962 -0.0061784312590483555 0 -0.021186892454077795 -0.0049823353475645865 0 -0.021230742982414161 -0.0064901079367581434 0 -0.021186892454077795 -0.0049823353475645865 0 -0.022287177413497089 -0.0063960883851740761 0 -0.024919139614910275 -0.0083831631201478386 0 -0.025668410212209409 -0.0065545824441588995 0 -0.030588705113540952 -0.0079190849629806985 0 -0.029205610103483257 -0.0072494619982931639 0 -0.030070868330735596 -0.0063032004490308343 0 -0.030588705113540952 -0.0079190849629806985 0 -0.029205610103483257 -0.0072494619982931639 0 -0.02888717116730715 -0.0084820531444782608 0 -0.029185960923069226 -0.010349904291084655 0 -0.030588705113540952 -0.0079190849629806985 0 -0.02888717116730715 -0.0084820531444782608 0 -0.029205610103483257 -0.0072494619982931639 0 -0.027908519236976344 -0.0074767062579021602 0 -0.02888717116730715 -0.0084820531444782608 0 -0.027908519236976344 -0.0074767062579021602 0 -0.02888717116730715 -0.0084820531444782608 0 -0.027516849325103707 -0.0090386278982939224 0 -0.022591744754211975 -0.0052362064049721524 0 -0.023619055281089429 -0.0052198067392339696 0 -0.023245789629911227 -0.0041355879562463786 0 -0.021186892454077795 -0.0049823353475645865 0 -0.022591744754211975 -0.0052362064049721524 0 -0.022008562900046338 -0.0038127875989284279 0 -0.021186892454077795 -0.0049823353475645865 0 -0.022591744754211975 -0.0052362064049721524 0 -0.022287177413497089 -0.0063960883851740761 0 -0.022591744754211975 -0.0052362064049721524 0 -0.022287177413497089 -0.0063960883851740761 0 -0.023271322339608495 -0.0066247329403124403 0 -0.022591744754211975 -0.0052362064049721524 0 -0.023271322339608495 -0.0066247329403124403 0 -0.023619055281089429 -0.0052198067392339696 0 -0.014077762985420498 -0.003289626727050752 0 -0.013723685169428809 -0.0048279480945014348 0 -0.015255798898000142 -0.0047393009585786367 0 -0.014077762985420498 -0.003289626727050752 0 -0.012222212277633555 -0.0049255201618935707 0 -0.013723685169428809 -0.0048279480945014348 0 -0.018771142128526441 -0.0049186087201613894 0 -0.017135866941494802 -0.0062492251991254997 0 -0.021230742982414161 -0.0064901079367581434 0 -0.022287177413497089 -0.0063960883851740761 0 -0.022023318766070738 -0.0075852406959865124 0 -0.022287177413497089 -0.0063960883851740761 0 -0.023271322339608495 -0.0066247329403124403 0 -0.022023318766070738 -0.0075852406959865124 0 -0.012213224675941516 -0.0055701927093638358 0 -0.012411130913251607 -0.0052401219949586124 0 -0.012222212277633555 -0.0049255201618935707 0 -0.012213224675941516 -0.0055701927093638358 0 -0.011851791083184527 -0.0054947150103881173 0 -0.012222212277633555 -0.0049255201618935707 0 -0.012411130913251607 -0.0052401219949586124 0 -0.012222212277633555 -0.0049255201618935707 0 -0.013723685169428809 -0.0048279480945014348 0 -0.012411130913251607 -0.0052401219949586124 0 -0.013723685169428809 -0.0048279480945014348 0 -0.014865361894419234 -0.0060274591748553851 0 -0.012303068370471721 -0.005217709445757281 0 -0.014332805019113702 -0.0059187243874518052 0 -0.012863766427313928 -0.005584241706644363 0 -0.012411130913251607 -0.0052401219949586124 0 -0.012924778433526771 -0.0054760703081264163 0 -0.013723685169428809 -0.0048279480945014348 0 -0.014865361894419234 -0.0060274591748553851 0 -0.015255798898000142 -0.0047393009585786367 0 -0.014865361894419234 -0.0060274591748553851 0 -0.015255798898000142 -0.0047393009585786367 0 -0.016255465002030227 -0.0054763524162156274 0 -0.017273974895367583 -0.0066336054514676158 0 -0.016255465002030227 -0.0054763524162156274 0 -0.017242873615752576 -0.0054757925363344727 0 -0.017242873615752576 -0.0054757925363344727 0 -0.016699869580079477 -0.0044444074886210673 0 -0.01796091310815327 -0.0045841220380627868 0 -0.015255798898000142 -0.0047393009585786367 0 -0.016255465002030227 -0.0054763524162156274 0 -0.016699869580079477 -0.0044444074886210673 0 -0.016255465002030227 -0.0054763524162156274 0 -0.017242873615752576 -0.0054757925363344727 0 -0.016699869580079477 -0.0044444074886210673 0 -0.016699869580079477 -0.0044444074886210673 0 -0.015792932999437088 -0.0033121975257956147 0 -0.01811382890524631 -0.0029407338521947866 0 -0.016699869580079477 -0.0044444074886210673 0 -0.01796091310815327 -0.0045841220380627868 0 -0.01811382890524631 -0.0029407338521947866 0 -0.014077762985420498 -0.003289626727050752 0 -0.015255798898000142 -0.0047393009585786367 0 -0.015792932999437088 -0.0033121975257956147 0 -0.015255798898000142 -0.0047393009585786367 0 -0.016699869580079477 -0.0044444074886210673 0 -0.015792932999437088 -0.0033121975257956147 0 -0.013060597416478401 -0.0031401403986741233 0 -0.015473430408938086 -0.0046231648013966408 0 -0.020212817966048739 -0.0050919226682350468 0 -0.018784795815857843 -0.0058497456853267181 0 -0.018946558358686409 -0.0042297414379315742 0 -0.017242873615752576 -0.0054757925363344727 0 -0.018784795815857843 -0.0058497456853267181 0 -0.01796091310815327 -0.0045841220380627868 0 -0.018784795815857843 -0.0058497456853267181 0 -0.01796091310815327 -0.0045841220380627868 0 -0.018946558358686409 -0.0042297414379315742 0 -0.01796091310815327 -0.0045841220380627868 0 -0.018946558358686409 -0.0042297414379315742 0 -0.01811382890524631 -0.0029407338521947866 0 -0.018946558358686409 -0.0042297414379315742 0 -0.019640986413792364 -0.0026649224428568073 0 -0.01811382890524631 -0.0029407338521947866 0 -0.020212817966048739 -0.0050919226682350468 0 -0.019993458551055658 -0.0040135889497320484 0 -0.020932586277339172 -0.003510255298186769 0 -0.019993458551055658 -0.0040135889497320484 0 -0.019640986413792364 -0.0026649224428568073 0 -0.020589311991038868 -0.0025932452074223394 0 -0.018946558358686409 -0.0042297414379315742 0 -0.019993458551055658 -0.0040135889497320484 0 -0.019640986413792364 -0.0026649224428568073 0 -0.020212817966048739 -0.0050919226682350468 0 -0.018946558358686409 -0.0042297414379315742 0 -0.019993458551055658 -0.0040135889497320484 0 -0.019640986413792364 -0.0026649224428568073 0 -0.01811382890524631 -0.0029407338521947866 0 -0.019741706850427688 -0.00094964676779737847 0 -0.020342479943160723 -0.0017900766275391106 0 -0.019640986413792364 -0.0026649224428568073 0 -0.019741706850427688 -0.00094964676779737847 0 -0.020342479943160723 -0.0017900766275391106 0 -0.019640986413792364 -0.0026649224428568073 0 -0.020589311991038868 -0.0025932452074223394 0 -0.018305640399257375 -0.0028783966055094807 0 -0.019787623425000171 -0.00056005112936451465 0 -0.01811382890524631 -0.0029407338521947866 0 -0.018167727804599899 -0.0013230929898843623 0 -0.020419290643832445 -0.00043509658335648226 0 -0.018167727804599899 -0.0013230929898843623 0 -0.018729553915640729 -0.00023833812365489201 0 -0.020419290643832445 -0.00043509658335648226 0 -0.018167727804599899 -0.0013230929898843623 0 -0.018219415689435137 -0.00012529159255014088 0 -0.018729553915640729 -0.00023833812365489201 0 -0.024758112043539515 -0.0025122037360013499 0 -0.021423347739426047 -0.0015309226033318188 0 -0.018226481900183219 -0.00011246603405813792 0 -0.018729553915640729 -0.00023833812365489201 0 -0.01993947099495438 0.0011775303175288931 0 -0.018729553915640729 -0.00023833812365489201 0 -0.020419290643832445 -0.00043509658335648226 0 -0.01993947099495438 0.0011775303175288931 0 -0.020342479943160723 -0.0017900766275391106 0 -0.019741706850427688 -0.00094964676779737847 0 -0.020605723519936579 -0.0011612981081559504 0 -0.018771142128526441 -0.0049186087201613894 0 -0.019798410644644601 -0.003862541201840956 0 -0.023271322339608495 -0.0066247329403124403 0 -0.024498072110058056 -0.0056767377373183759 0 -0.023619055281089429 -0.0052198067392339696 0 -0.014077762985420498 -0.003289626727050752 0 -0.015792932999437088 -0.0033121975257956147 0 -0.016073754513745351 -0.0017756151452802539 0 -0.015792932999437088 -0.0033121975257956147 0 -0.01811382890524631 -0.0029407338521947866 0 -0.016073754513745351 -0.0017756151452802539 0 -0.01811382890524631 -0.0029407338521947866 0 -0.018167727804599899 -0.0013230929898843623 0 -0.016073754513745351 -0.0017756151452802539 0 -0.024758112043539515 -0.0025122037360013499 0 -0.029324187125666017 -0.0041396216956529246 0 -0.024758112043539515 -0.0025122037360013499 0 -0.019798410644644601 -0.003862541201840956 0 -0.025699790101058752 -0.0047408321740782999 0 -0.024498072110058056 -0.0056767377373183759 0 -0.024479403244089915 -0.0044472263906744809 0 -0.018167727804599899 -0.0013230929898843623 0 -0.018219415689435137 -0.00012529159255014088 0 -0.016073754513745351 -0.0017756151452802539 0 -0.023619055281089429 -0.0052198067392339696 0 -0.024479403244089915 -0.0044472263906744809 0 -0.023245789629911227 -0.0041355879562463786 0 -0.024498072110058056 -0.0056767377373183759 0 -0.023619055281089429 -0.0052198067392339696 0 -0.024479403244089915 -0.0044472263906744809 0 -0.032289933508070003 -0.0032968100299419858 0 -0.032196479721164781 -0.0031200311909668969 0 -0.031791294964981197 -0.0033843949659139554 0 -0.029324187125666017 -0.0041396216956529246 0 -0.026902333174944129 -0.0035480107964463532 0 -0.032436570652790361 -0.0031805886841011688 0 -0.032289933508070003 -0.0032968100299419858 0 -0.03248784287809002 -0.0030685802440981575 0 -0.032289933508070003 -0.0032968100299419858 0 -0.03248784287809002 -0.0030685802440981575 0 -0.032196479721164781 -0.0031200311909668969 0 -0.03248784287809002 -0.0030685802440981575 0 -0.032549871232010898 -0.0029090309173366844 0 -0.032196479721164781 -0.0031200311909668969 0 -0.03248784287809002 -0.0030685802440981575 0 -0.032549871232010898 -0.0029090309173366844 0 -0.032481128251674471 -0.0030677978065249 0 -0.032549871232010898 -0.0029090309173366844 0 -0.032196479721164781 -0.0031200311909668969 0 -0.031608241405338848 -0.0025526370069419921 0 -0.020419290643832445 -0.00043509658335648226 0 -0.01993947099495438 0.0011775303175288931 0 -0.021718361356303357 0.0024795945823663417 0 -0.032434205306519512 -0.0030589713306906846 0 -0.03236646291724684 -0.0030317639494096462 0 -0.032349612959388756 -0.0030229269276730582 0 -0.026271736173432279 -0.00084901967895120289 0 -0.02807302225150736 -0.001310222312865505 0 -0.032434205306519512 -0.0030589713306906846 0 -0.032444980136328606 -0.003057374393884032 0 -0.03236646291724684 -0.0030317639494096462 0 -0.032436570652790361 -0.0031805886841011688 0 -0.03248784287809002 -0.0030685802440981575 0 -0.032455139220548525 -0.00309322435506393 0 -0.03248784287809002 -0.0030685802440981575 0 -0.032455139220548525 -0.00309322435506393 0 -0.032444980136328606 -0.003057374393884032 0 -0.032434205306519512 -0.0030589713306906846 0 -0.032455139220548525 -0.00309322435506393 0 -0.032444980136328606 -0.003057374393884032 0 -0.024758112043539515 -0.0025122037360013499 0 -0.026271736173432279 -0.00084901967895120289 0 -0.032436570652790361 -0.0031805886841011688 0 -0.032434205306519512 -0.0030589713306906846 0 -0.032455139220548525 -0.00309322435506393 0 -0.03248784287809002 -0.0030685802440981575 0 -0.032444980136328606 -0.003057374393884032 0 -0.032481128251674471 -0.0030677978065249 0 -0.032444980136328606 -0.003057374393884032 0 -0.032363778816328362 -0.0030717962773280818 0 -0.032481128251674471 -0.0030677978065249 0 -0.032444980136328606 -0.003057374393884032 0 -0.032363778816328362 -0.0030717962773280818 0 -0.03236646291724684 -0.0030317639494096462 0 -0.033823542786637441 -0.0027300971481047302 0 -0.034122240529495029 -0.0016831916332137337 0 -0.034846444226434591 -0.002451517564353251 0 -0.032363778816328362 -0.0030717962773280818 0 -0.032481128251674471 -0.0030677978065249 0 -0.032356053390656593 -0.0031283036955924103 0 -0.033097413421234782 -0.0028832221696801479 0 -0.033767091613419759 -0.0028751013756212712 0 -0.033823542786637441 -0.0027300971481047302 0 -0.034122240529495029 -0.0016831916332137337 0 -0.033116843540893774 -0.0019583710303600105 0 -0.034122240529495029 -0.0016831916332137337 0 -0.033116843540893774 -0.0019583710303600105 0 -0.033277219905153421 -0.0012377804659939075 0 -0.034122240529495029 -0.0016831916332137337 0 -0.034846444226434591 -0.002451517564353251 0 -0.034899805153834583 -0.0016996998179593748 0 -0.034122240529495029 -0.0016831916332137337 0 -0.034899805153834583 -0.0016996998179593748 0 -0.034596153345263857 -0.0011289090899105074 0 -0.032549871232010898 -0.0029090309173366844 0 -0.033116843540893774 -0.0019583710303600105 0 -0.032176357634632995 -0.0015586789279965407 0 -0.032549871232010898 -0.0029090309173366844 0 -0.032176357634632995 -0.0015586789279965407 0 -0.031608241405338848 -0.0025526370069419921 0 -0.032609241495480501 -0.0029263861794243521 0 -0.033097413421234782 -0.0028832221696801479 0 -0.032549871232010898 -0.0029090309173366844 0 -0.033823542786637441 -0.0027300971481047302 0 -0.033116843540893774 -0.0019583710303600105 0 -0.033116843540893774 -0.0019583710303600105 0 -0.032176357634632995 -0.0015586789279965407 0 -0.033277219905153421 -0.0012377804659939075 0 -0.031520296324403729 -0.0020084103182663252 0 -0.030682697592657786 -0.0021171834162323822 0 -0.031513740258658059 -0.00096422776554037383 0 -0.031520296324403729 -0.0020084103182663252 0 -0.03143500206722602 -0.0032454521406158096 0 -0.030682697592657786 -0.0021171834162323822 0 -0.03244972392664338 -0.0017081701669616645 0 -0.031520296324403729 -0.0020084103182663252 0 -0.03143500206722602 -0.0032454521406158096 0 -0.032154991270749236 -0.0017059576418033682 0 -0.031918605470958455 -0.002658249133025876 0 -0.030715385571461213 -0.0021321230605198032 0 -0.029886457826037178 -0.0031897366802370211 0 -0.03143500206722602 -0.0032454521406158096 0 -0.030682697592657786 -0.0021171834162323822 0 -0.029850284683065952 -0.003277020086575406 0 -0.030707492559235397 -0.0021686309733498724 0 -0.029796954553404947 -0.0022376416410839614 0 -0.030171494360953142 -0.0010327478935198023 0 -0.030707492559235397 -0.0021686309733498724 0 -0.029796954553404947 -0.0022376416410839614 0 -0.029995185034486539 -0.0031914992735267273 0 -0.029796954553404947 -0.0022376416410839614 0 -0.029034651787358177 -0.0018148547471079129 0 -0.029071902535783997 -0.0029906494028343637 0 -0.028867582892862613 -0.0017404187654478291 0 -0.028846668818517666 -0.0029988928105161533 0 -0.028662002684227049 -0.0017058107141859344 0 -0.02789118126029462 -0.0010682709161809727 0 -0.027854847617538342 -0.002216744770184582 0 -0.028662002684227049 -0.0017058107141859344 0 -0.028624183241425728 -0.0030717957299863136 0 -0.027854847617538342 -0.002216744770184582 0 -0.028624183241425728 -0.0030717957299863136 0 -0.027365277928429056 -0.003144446472445322 0 -0.027854847617538342 -0.002216744770184582 0 -0.028624183241425728 -0.0030717957299863136 0 -0.027929747984222566 -0.0038500365881188425 0 -0.027365277928429056 -0.003144446472445322 0 -0.029796954553404947 -0.0022376416410839614 0 -0.029071902535783997 -0.0029906494028343637 0 -0.029995185034486539 -0.0031914992735267273 0 -0.029886457826037178 -0.0031897366802370211 0 -0.02964721328796735 -0.0048082843221946437 0 -0.029850284683065952 -0.003277020086575406 0 -0.029026193280063905 -0.0044376156825170973 0 -0.030412160261868028 -0.0047912373626107022 0 -0.029071902535783997 -0.0029906494028343637 0 -0.029995185034486539 -0.0031914992735267273 0 -0.029272173404834352 -0.004219423675241518 0 -0.028624183241425728 -0.0030717957299863136 0 -0.027929747984222566 -0.0038500365881188425 0 -0.028709854158093785 -0.0048368519290878801 0 -0.027929747984222566 -0.0038500365881188425 0 -0.028709854158093785 -0.0048368519290878801 0 -0.027179962109462785 -0.004471499085977459 0 -0.029085155343609819 -0.0049404889388378918 0 -0.028188034912333633 -0.0054353408209275858 0 -0.027179962109462785 -0.004471499085977459 0 -0.02900873863988182 -0.0047212303359195958 0 -0.027336192841622899 -0.0045094372625319986 0 -0.028846668818517666 -0.0029988928105161533 0 -0.02900873863988182 -0.0047212303359195958 0 -0.029071902535783997 -0.0029906494028343637 0 -0.029272173404834352 -0.004219423675241518 0 -0.029110063828973371 -0.0041783732308668924 0 -0.029148023887672458 -0.00511166475072692 0 -0.029311238901640928 -0.0051532979897464439 0 -0.02929839772590043 -0.0049001943913515138 0 -0.02964721328796735 -0.0048082843221946437 0 -0.02900873863988182 -0.0047212303359195958 0 -0.02900873863988182 -0.0047212303359195958 0 -0.029196878160633523 -0.005355592601151953 0 -0.028188034912333633 -0.0054353408209275858 0 -0.028310637706881501 -0.0063249500003402532 0 -0.02709499809293496 -0.0060109562706560024 0 -0.028188034912333633 -0.0054353408209275858 0 -0.029125357586047871 -0.0054452266351506431 0 -0.028310637706881501 -0.0063249500003402532 0 -0.029469539408686535 -0.0051119140049199546 0 -0.029168101314112665 -0.0055341817849153211 0 -0.030070868330735596 -0.0063032004490308343 0 -0.029085155343609819 -0.0049404889388378918 0 -0.028188034912333633 -0.0054353408209275858 0 -0.029125357586047871 -0.0054452266351506431 0 -0.02964721328796735 -0.0048082843221946437 0 -0.029196878160633523 -0.005355592601151953 0 -0.029200515102156037 -0.007048026743139214 0 -0.029196878160633523 -0.005355592601151953 0 -0.029205610103483257 -0.0072494619982931639 0 -0.029125357586047871 -0.0054452266351506431 0 -0.028310637706881501 -0.0063249500003402532 0 -0.029205610103483257 -0.0072494619982931639 0 -0.029168101314112665 -0.0055341817849153211 0 -0.030070868330735596 -0.0063032004490308343 0 -0.029205610103483257 -0.0072494619982931639 0 -0.027908519236976344 -0.0074767062579021602 0 -0.028310637706881501 -0.0063249500003402532 0 -0.030588705113540952 -0.0079190849629806985 0 -0.030070868330735596 -0.0063032004490308343 0 -0.031930374079598978 -0.00573629661651507 0 -0.02964721328796735 -0.0048082843221946437 0 -0.028673239609533063 -0.0047293402815378393 0 -0.025668410212209409 -0.0065545824441588995 0 -0.028673239609533063 -0.0047293402815378393 0 -0.029469539408686535 -0.0051119140049199546 0 -0.030070868330735596 -0.0063032004490308343 0 -0.031930374079598978 -0.00573629661651507 0 -0.022591744754211975 -0.0052362064049721524 0 -0.022008562900046338 -0.0038127875989284279 0 -0.023245789629911227 -0.0041355879562463786 0 -0.028673239609533063 -0.0047293402815378393 0 -0.026902333174944129 -0.0035480107964463532 0 -0.032196479721164781 -0.0031200311909668969 0 -0.031608241405338848 -0.0025526370069419921 0 -0.031791294964981197 -0.0033843949659139554 0 -0.031608241405338848 -0.0025526370069419921 0 -0.031144978966781221 -0.0032554609643366721 0 -0.031791294964981197 -0.0033843949659139554 0 -0.031918605470958455 -0.002658249133025876 0 -0.028673239609533063 -0.0047293402815378393 0 -0.03143500206722602 -0.0032454521406158096 0 -0.029850284683065952 -0.003277020086575406 0 -0.030412160261868028 -0.0047912373626107022 0 -0.023597084366775545 -0.00042398200691730201 0 -0.023468485019088589 -0.0003944389113824143 0 -0.023536950330705707 -0.0003658197628251465 0 -0.023468485019088589 -0.0003944389113824143 0 -0.023536950330705707 -0.0003658197628251465 0 -0.023493130988007975 -0.0002952124994727443 0 -0.023468485019088589 -0.0003944389113824143 0 -0.023428903858279379 -0.00031911211876431449 0 -0.023360759181825848 -0.00045929898102274662 0 -0.023468485019088589 -0.0003944389113824143 0 -0.023428903858279379 -0.00031911211876431449 0 -0.023493130988007975 -0.0002952124994727443 0 -0.023468485019088589 -0.0003944389113824143 0 -0.023360759181825848 -0.00045929898102274662 0 -0.02345448028062648 -0.00057079790548845272 0 -0.023360759181825848 -0.00045929898102274662 0 -0.02345448028062648 -0.00057079790548845272 0 -0.023252148029278118 -0.00055976486057445667 0 -0.022134238844872887 -0.0011677821337408617 0 -0.022346241568998004 -0.0013630329059388406 0 -0.023597084366775545 -0.00042398200691730201 0 -0.023468485019088589 -0.0003944389113824143 0 -0.02345448028062648 -0.00057079790548845272 0 -0.020109040258104196 -0.0029618875040583856 0 -0.020690819846185263 -0.0020057131830423761 0 -0.021380577664297157 -0.0019680535717100265 0 -0.020470561773620673 -0.0015285055111200591 0 -0.02036197747699213 -0.00020074171623538545 0 -0.020343553233980717 -0.0016834384717341728 0 -0.020690819846185263 -0.0020057131830423761 0 -0.020742464424229896 -0.0014107567227393614 0 -0.020203599916311203 -0.0017189418713308311 0 -0.020742464424229896 -0.0014107567227393614 0 -0.020402304819340137 -0.00040142665195111064 0 -0.020470561773620673 -0.0015285055111200591 0 -0.020582949185094276 -0.0014876390723885982 0 -0.020690819846185263 -0.0020057131830423761 0 -0.020742464424229896 -0.0014107567227393614 0 -0.021380577664297157 -0.0019680535717100265 0 -0.020742464424229896 -0.0014107567227393614 0 -0.021630479014052253 -0.00098808960860948631 0 -0.021380577664297157 -0.0019680535717100265 0 -0.020742464424229896 -0.0014107567227393614 0 -0.020921644323101934 -0.00080973093244892844 0 -0.021630479014052253 -0.00098808960860948631 0 -0.020742464424229896 -0.0014107567227393614 0 -0.020921644323101934 -0.00080973093244892844 0 -0.020402304819340137 -0.00040142665195111064 0 -0.020921644323101934 -0.00080973093244892844 0 -0.020886368661545023 -0.00043739995042341108 0 -0.020402304819340137 -0.00040142665195111064 0 -0.020921644323101934 -0.00080973093244892844 0 -0.021327206564319173 -0.00060175381751539708 0 -0.021630479014052253 -0.00098808960860948631 0 -0.020921644323101934 -0.00080973093244892844 0 -0.021327206564319173 -0.00060175381751539708 0 -0.020886368661545023 -0.00043739995042341108 0 -0.021327206564319173 -0.00060175381751539708 0 -0.020886368661545023 -0.00043739995042341108 0 -0.021001336791706984 -1.0914765806719209e-05 0 -0.020886368661545023 -0.00043739995042341108 0 -0.021001336791706984 -1.0914765806719209e-05 0 -0.020402304819340137 -0.00040142665195111064 0 -0.021327206564319173 -0.00060175381751539708 0 -0.021001336791706984 -1.0914765806719209e-05 0 -0.022496911451458781 -0.00041634063660141629 0 -0.021630479014052253 -0.00098808960860948631 0 -0.023026215419065285 -0.00072047489346228541 0 -0.022496911451458781 -0.00041634063660141629 0 -0.021327206564319173 -0.00060175381751539708 0 -0.021630479014052253 -0.00098808960860948631 0 -0.022496911451458781 -0.00041634063660141629 0 -0.021024546670229231 0.00074844231533893919 0 -0.021001336791706984 -1.0914765806719209e-05 0 -0.022496911451458781 -0.00041634063660141629 0 -0.021024546670229231 0.00074844231533893919 0 -0.022783797090567437 -0.00014989424321754918 0 -0.022496911451458781 -0.00041634063660141629 0 -0.02345448028062648 -0.00057079790548845272 0 -0.023252148029278118 -0.00055976486057445667 0 -0.023149176914842418 -0.00064373592685820096 0 -0.022346241568998004 -0.0013630329059388406 0 -0.023048799690566918 -0.00069659729856400671 0 -0.021630479014052253 -0.00098808960860948631 0 -0.021380577664297157 -0.0019680535717100265 0 -0.023026215419065285 -0.00072047489346228541 0 -0.02345448028062648 -0.00057079790548845272 0 -0.023149176914842418 -0.00064373592685820096 0 -0.023026215419065285 -0.00072047489346228541 0 -0.023252148029278118 -0.00055976486057445667 0 -0.023151994929141113 -0.00060899328451003614 0 -0.023149176914842418 -0.00064373592685820096 0 -0.023151994929141113 -0.00060899328451003614 0 -0.023065723521715424 -0.00061565408666283759 0 -0.023206823043797571 -0.0005161998572148983 0 -0.023151994929141113 -0.00060899328451003614 0 -0.023086531119667686 -0.00067786229195583581 0 -0.023065723521715424 -0.00061565408666283759 0 -0.023086531119667686 -0.00067786229195583581 0 -0.023149176914842418 -0.00064373592685820096 0 -0.023072676678616951 -0.0006952049075583716 0 -0.023151994929141113 -0.00060899328451003614 0 -0.023086531119667686 -0.00067786229195583581 0 -0.023149176914842418 -0.00064373592685820096 0 -0.023149176914842418 -0.00064373592685820096 0 -0.023026215419065285 -0.00072047489346228541 0 -0.023072676678616951 -0.0006952049075583716 0 -0.023086531119667686 -0.00067786229195583581 0 -0.023072676678616951 -0.0006952049075583716 0 -0.023119670820139944 -0.00065066525685303074 0 -0.023026215419065285 -0.00072047489346228541 0 -0.023072676678616951 -0.0006952049075583716 0 -0.023119670820139944 -0.00065066525685303074 0 -0.019460588235488779 -0.0010788536656286746 0 -0.016637791255253685 -0.00067260555287242119 0 -0.015863851759419262 -0.00089848628359031355 0 -0.016813809119393452 -0.0014018657840554369 0 -0.015320423395594725 -0.0017457268835819541 0 -0.023026215419065285 -0.00072047489346228541 0 -0.023119670820139944 -0.00065066525685303074 0 -0.022785588323891815 -0.00026953134555695902 0 -0.023026215419065285 -0.00072047489346228541 0 -0.022785588323891815 -0.00026953134555695902 0 -0.022496911451458781 -0.00041634063660141629 0 -0.016637791255253685 -0.00067260555287242119 0 -0.019504727148424928 0.00067173213609712313 0 -0.015863851759419262 -0.00089848628359031355 0 -0.014000477122564395 -0.0013169572538630138 0 -0.015320423395594725 -0.0017457268835819541 0 -0.019460588235488779 -0.0010788536656286746 0 -0.017882404408325628 9.1258449624462593e-05 0 -0.015863851759419262 -0.00089848628359031355 0 -0.014000477122564395 -0.0013169572538630138 0 -0.013554780736305387 0.00040604436710889584 0 -0.023086531119667686 -0.00067786229195583581 0 -0.023119670820139944 -0.00065066525685303074 0 -0.022882192620407183 -0.00071922807247735022 0 -0.023065723521715424 -0.00061565408666283759 0 -0.022908539249621836 -0.00042557235354515977 0 -0.022882192620407183 -0.00071922807247735022 0 -0.023086531119667686 -0.00067786229195583581 0 -0.023065723521715424 -0.00061565408666283759 0 -0.022882192620407183 -0.00071922807247735022 0 -0.023206823043797571 -0.0005161998572148983 0 -0.023337171772822657 -0.00041172608762941659 0 -0.022908539249621836 -0.00042557235354515977 0 -0.023065723521715424 -0.00061565408666283759 0 -0.023206823043797571 -0.0005161998572148983 0 -0.022908539249621836 -0.00042557235354515977 0 -0.022985280014357314 -0.00054507662413099593 0 -0.023816001511755711 -0.00040233908921208801 0 -0.023252148029278118 -0.00055976486057445667 0 -0.023151994929141113 -0.00060899328451003614 0 -0.023206823043797571 -0.0005161998572148983 0 -0.023360759181825848 -0.00045929898102274662 0 -0.023252148029278118 -0.00055976486057445667 0 -0.023206823043797571 -0.0005161998572148983 0 -0.023360759181825848 -0.00045929898102274662 0 -0.023206823043797571 -0.0005161998572148983 0 -0.023337171772822657 -0.00041172608762941659 0 -0.023428903858279379 -0.00031911211876431449 0 -0.023337171772822657 -0.00041172608762941659 0 -0.023500383793605993 -0.00022471673136444174 0 -0.023428903858279379 -0.00031911211876431449 0 -0.023360759181825848 -0.00045929898102274662 0 -0.023337171772822657 -0.00041172608762941659 0 -0.023337171772822657 -0.00041172608762941659 0 -0.023153115878671061 -0.00038252608428074504 0 -0.023500383793605993 -0.00022471673136444174 0 -0.023337171772822657 -0.00041172608762941659 0 -0.023153115878671061 -0.00038252608428074504 0 -0.023113529685011749 -0.000731003230094859 0 -0.023153115878671061 -0.00038252608428074504 0 -0.022793242593462396 -0.00051421556310489978 0 -0.023113529685011749 -0.000731003230094859 0 -0.023153115878671061 -0.00038252608428074504 0 -0.022793242593462396 -0.00051421556310489978 0 -0.022899971775418384 -0.00027676243266924012 0 -0.022793242593462396 -0.00051421556310489978 0 -0.022643917124259273 -0.00016936441828948072 0 -0.022899971775418384 -0.00027676243266924012 0 -0.022793242593462396 -0.00051421556310489978 0 -0.022378459069440696 -0.00044895594578520342 0 -0.022643917124259273 -0.00016936441828948072 0 -0.022793242593462396 -0.00051421556310489978 0 -0.022378459069440696 -0.00044895594578520342 0 -0.022430220691215839 -0.00068489963526733189 0 -0.022793242593462396 -0.00051421556310489978 0 -0.022430220691215839 -0.00068489963526733189 0 -0.022583103998404894 -0.0010627551108570515 0 -0.022793242593462396 -0.00051421556310489978 0 -0.023113529685011749 -0.000731003230094859 0 -0.022583103998404894 -0.0010627551108570515 0 -0.023816001511755711 -0.00040233908921208801 0 -0.018295271260066512 -0.00054089884094793992 0 -0.022908539249621836 -0.00042557235354515977 0 -0.022882192620407183 -0.00071922807247735022 0 -0.022487860779213421 -0.00056777624033438638 0 -0.017882404408325628 9.1258449624462593e-05 0 -0.018295271260066512 -0.00054089884094793992 0 -0.013554780736305387 0.00040604436710889584 0 -0.012231119688357005 -0.00024278605132715381 0 -0.011223082056649975 0.0016381799201144844 0 -0.014000477122564395 -0.0013169572538630138 0 -0.012231119688357005 -0.00024278605132715381 0 -0.011784062103623519 -0.0014859753453056062 0 -0.014000477122564395 -0.0013169572538630138 0 -0.013554780736305387 0.00040604436710889584 0 -0.012231119688357005 -0.00024278605132715381 0 -0.010484117421325826 -0.0017887658243321612 0 -0.010581711935575026 -0.00044981642456751658 0 -0.0092516612443813897 -0.0014001639648899954 0 -0.010484117421325826 -0.0017887658243321612 0 -0.011784062103623519 -0.0014859753453056062 0 -0.010581711935575026 -0.00044981642456751658 0 -0.012231119688357005 -0.00024278605132715381 0 -0.011784062103623519 -0.0014859753453056062 0 -0.010581711935575026 -0.00044981642456751658 0 -0.012231119688357005 -0.00024278605132715381 0 -0.010581711935575026 -0.00044981642456751658 0 -0.011223082056649975 0.0016381799201144844 0 -0.010581711935575026 -0.00044981642456751658 0 -0.011223082056649975 0.0016381799201144844 0 -0.0086060084628717896 0.00043447257020827891 0 -0.018295271260066512 -0.00054089884094793992 0 -0.011287629217420643 -0.0010971541401360036 0 -0.017760700858970087 -0.0016974370728298032 0 -0.016242920745922065 -0.0016746565428434755 0 -0.016232266646613681 -0.0024416256943443535 0 -0.010581711935575026 -0.00044981642456751658 0 -0.0086060084628717896 0.00043447257020827891 0 -0.0092516612443813897 -0.0014001639648899954 0 -0.0086060084628717896 0.00043447257020827891 0 -0.0092516612443813897 -0.0014001639648899954 0 -0.0075016519606332334 -0.0012105316387950114 0 -0.0078800345553858512 -0.0025851459388952398 0 -0.0092516612443813897 -0.0014001639648899954 0 -0.0075016519606332334 -0.0012105316387950114 0 -0.0059936254212521727 -0.0008679386731341584 0 -0.0086060084628717896 0.00043447257020827891 0 -0.0075016519606332334 -0.0012105316387950114 0 -0.013060597416478401 -0.0031401403986741233 0 -0.011287629217420643 -0.0010971541401360036 0 -0.0078800345553858512 -0.0025851459388952398 0 -0.0058602467631606314 -0.0015806637984989772 0 -0.0075016519606332334 -0.0012105316387950114 0 -0.0059936254212521727 -0.0008679386731341584 0 -0.0058602467631606314 -0.0015806637984989772 0 -0.0075016519606332334 -0.0012105316387950114 0 -0.014682199618578124 -0.0031938379357036384 0 -0.016232266646613681 -0.0024416256943443535 0 -0.015298409270623411 -0.0019570165676493856 0 -0.013060597416478401 -0.0031401403986741233 0 -0.018260906587642525 -0.0026794769532032616 0 -0.019993458551055658 -0.0040135889497320484 0 -0.020932586277339172 -0.003510255298186769 0 -0.020589311991038868 -0.0025932452074223394 0 -0.016242920745922065 -0.0016746565428434755 0 -0.016232266646613681 -0.0024416256943443535 0 -0.015298409270623411 -0.0019570165676493856 0 -0.018260906587642525 -0.0026794769532032616 0 -0.019980432472921882 -0.001576893220313587 0 -0.016242920745922065 -0.0016746565428434755 0 -0.015298409270623411 -0.0019570165676493856 0 -0.015910274598566677 -0.00074652051386574214 0 -0.020932586277339172 -0.003510255298186769 0 -0.020589311991038868 -0.0025932452074223394 0 -0.021615061062076283 -0.001974729917713529 0 -0.020342479943160723 -0.0017900766275391106 0 -0.020589311991038868 -0.0025932452074223394 0 -0.020991983753481738 -0.0016549297581478048 0 -0.020589311991038868 -0.0025932452074223394 0 -0.021615061062076283 -0.001974729917713529 0 -0.020991983753481738 -0.0016549297581478048 0 -0.019980432472921882 -0.001576893220313587 0 -0.021014429526921299 -0.0019125727887545562 0 -0.022430220691215839 -0.00068489963526733189 0 -0.022583103998404894 -0.0010627551108570515 0 -0.021905640963199472 -0.00076874218264750345 0 -0.018295271260066512 -0.00054089884094793992 0 -0.019980432472921882 -0.001576893220313587 0 -0.017760700858970087 -0.0016974370728298032 0 -0.016242920745922065 -0.0016746565428434755 0 -0.015910274598566677 -0.00074652051386574214 0 -0.021493260412184734 -0.0018947193802347946 0 -0.021277535693156942 -0.00088643783141491425 0 -0.022126291531865259 -0.00023685942267103298 0 -0.022378459069440696 -0.00044895594578520342 0 -0.022430220691215839 -0.00068489963526733189 0 -0.021905640963199472 -0.00076874218264750345 0 -0.019980432472921882 -0.001576893220313587 0 -0.022538187045830729 -8.0917481093546224e-05 0 -0.022378459069440696 -0.00044895594578520342 0 -0.021905640963199472 -0.00076874218264750345 0 -0.022126291531865259 -0.00023685942267103298 0 -0.021277535693156942 -0.00088643783141491425 0 -0.020605723519936579 -0.0011612981081559504 0 -0.020878445799028471 -0.00044442598301420809 0 -0.019741706850427688 -0.00094964676779737847 0 -0.020605723519936579 -0.0011612981081559504 0 -0.020878445799028471 -0.00044442598301420809 0 -0.020342479943160723 -0.0017900766275391106 0 -0.020605723519936579 -0.0011612981081559504 0 -0.020991983753481738 -0.0016549297581478048 0 -0.021277535693156942 -0.00088643783141491425 0 -0.020605723519936579 -0.0011612981081559504 0 -0.020991983753481738 -0.0016549297581478048 0 -0.021493260412184734 -0.0018947193802347946 0 -0.021277535693156942 -0.00088643783141491425 0 -0.020991983753481738 -0.0016549297581478048 0 -0.019787623425000171 -0.00056005112936451465 0 -0.023738301007569379 0.0003514856054181548 0 -0.020878445799028471 -0.00044442598301420809 0 -0.021560158224573474 -1.3609845094885338e-05 0 -0.021222931174001577 0.00062085098429473062 0 -0.020419290643832445 -0.00043509658335648226 0 -0.022735501471515554 0.002351695194292651 0 -0.021718361356303357 0.0024795945823663417 0 -0.019741706850427688 -0.00094964676779737847 0 -0.020878445799028471 -0.00044442598301420809 0 -0.021222931174001577 0.00062085098429473062 0 -0.021277535693156942 -0.00088643783141491425 0 -0.020878445799028471 -0.00044442598301420809 0 -0.021560158224573474 -1.3609845094885338e-05 0 -0.021560158224573474 -1.3609845094885338e-05 0 -0.022126291531865259 -0.00023685942267103298 0 -0.022603106041881489 0.00028247335743354201 0 -0.021277535693156942 -0.00088643783141491425 0 -0.021560158224573474 -1.3609845094885338e-05 0 -0.022126291531865259 -0.00023685942267103298 0 -0.023738301007569379 0.0003514856054181548 0 -0.023240619885748281 0.00024445230269750127 0 -0.021560158224573474 -1.3609845094885338e-05 0 -0.021222931174001577 0.00062085098429473062 0 -0.022603106041881489 0.00028247335743354201 0 -0.025203717113386901 -0.00039439437157684905 0 -0.02524287979136252 -0.00036214607728698008 0 -0.025020662646263635 6.9751736000805644e-06 0 -0.023738301007569379 0.0003514856054181548 0 -0.028817679063024394 -0.0012011957454612144 0 -0.028705252050962818 -0.0009846923184911472 0 -0.023240619885748281 0.00024445230269750127 0 -0.025463655704444803 -4.7351999994397721e-05 0 -0.02524287979136252 -0.00036214607728698008 0 -0.025020662646263635 6.9751736000805644e-06 0 -0.032363778816328362 -0.0030717962773280818 0 -0.03234486968520537 -0.0030212604732188786 0 -0.032184181569911506 -0.0030886880633531075 0 -0.027026291543780757 -0.0013949084940587861 0 -0.026605147500401376 -0.0013453544013048147 0 -0.027752334197968652 -0.00047926506256316877 0 -0.02807302225150736 -0.001310222312865505 0 -0.028817679063024394 -0.0012011957454612144 0 -0.023738301007569379 0.0003514856054181548 0 -0.02807302225150736 -0.001310222312865505 0 -0.032363778816328362 -0.0030717962773280818 0 -0.03236646291724684 -0.0030317639494096462 0 -0.03234486968520537 -0.0030212604732188786 0 -0.029240793307577433 -0.0015425054860836139 0 -0.02807302225150736 -0.001310222312865505 0 -0.033767091613419759 -0.0028751013756212712 0 -0.033000100916699311 -0.0014817212522322096 0 -0.034846444226434591 -0.002451517564353251 0 -0.034899805153834583 -0.0016996998179593748 0 -0.035754282664325975 -0.0022212406184988691 0 -0.032363778816328362 -0.0030717962773280818 0 -0.032356053390656593 -0.0031283036955924103 0 -0.032184181569911506 -0.0030886880633531075 0 -0.034899805153834583 -0.0016996998179593748 0 -0.035754282664325975 -0.0022212406184988691 0 -0.035302071011520747 -0.0011056603942729546 0 -0.033000100916699311 -0.0014817212522322096 0 -0.035146106395715256 -0.0002497391800740329 0 -0.034196822082982435 0.00057695984835757445 0 -0.034255177127950183 0.00073663892278817906 0 -0.034430880784589363 0.00042853749387805856 0 -0.034196822082982435 0.00057695984835757445 0 -0.034255177127950183 0.00073663892278817906 0 -0.03416994258820686 0.00071988042431206172 0 -0.032356053390656593 -0.0031283036955924103 0 -0.0321877259418109 -0.0031410931508168648 0 -0.032184181569911506 -0.0030886880633531075 0 -0.031403601988007596 -0.0019342712323136063 0 -0.031887020161271401 -0.0015007270186393848 0 -0.031685380237534005 -0.0015357431021486507 0 -0.033000100916699311 -0.0014817212522322096 0 -0.032184090073507705 -0.00054597391786769477 0 -0.030569110541545166 -0.00066427161366939722 0 -0.030789667810359859 -0.0012303630361967172 0 -0.031256232278498351 -0.00052160539643954923 0 -0.033000100916699311 -0.0014817212522322096 0 -0.028705252050962818 -0.0009846923184911472 0 -0.028705252050962818 -0.0009846923184911472 0 -0.032184090073507705 -0.00054597391786769477 0 -0.0321877259418109 -0.0031410931508168648 0 -0.032166101960422008 -0.0030986401569549787 0 -0.032184181569911506 -0.0030886880633531075 0 -0.028705252050962818 -0.0009846923184911472 0 -0.028817679063024394 -0.0012011957454612144 0 -0.02351312261822772 -0.00023740724512987329 0 -0.023740997585756374 -9.8402311097186746e-05 0 -0.023758098826275758 -2.483053409717937e-05 0 -0.023986539955748676 1.9090951812183223e-05 0 -0.023656431764263332 -0.00023173902492880534 0 -0.023589802689046049 -8.6169925814729169e-05 0 -0.023758098826275758 -2.483053409717937e-05 0 -0.023656431764263332 -0.00023173902492880534 0 -0.023556781797280189 -9.4058566645050909e-05 0 -0.023640530248860311 -0.00020529749914022404 0 -0.023656431764263332 -0.00023173902492880534 0 -0.023758098826275758 -2.483053409717937e-05 0 -0.023986539955748676 1.9090951812183223e-05 0 -0.023852117010591548 0.00020134140934664394 0 -0.028705252050962818 -0.0009846923184911472 0 -0.027903872146085959 -0.00068373999449776761 0 -0.023589802689046049 -8.6169925814729169e-05 0 -0.023758098826275758 -2.483053409717937e-05 0 -0.023852117010591548 0.00020134140934664394 0 -0.031403601988007596 -0.0019342712323136063 0 -0.031887020161271401 -0.0015007270186393848 0 -0.03218522965855828 -0.0013853865191221105 0 -0.031990814368213626 -0.00069694413096176098 0 -0.032184090073507705 -0.00054597391786769477 0 -0.032184090073507705 -0.00054597391786769477 0 -0.033306375402573848 -2.3822665974923239e-05 0 -0.031887020161271401 -0.0015007270186393848 0 -0.03218522965855828 -0.0013853865191221105 0 -0.032422771025411898 -0.00071122878424641016 0 -0.023986539955748676 1.9090951812183223e-05 0 -0.023852117010591548 0.00020134140934664394 0 -0.024384298624446663 0.00056432443668319682 0 -0.031887020161271401 -0.0015007270186393848 0 -0.031692988039725589 -0.0015340538462597462 0 -0.032422771025411898 -0.00071122878424641016 0 -0.034196822082982435 0.00057695984835757445 0 -0.03416994258820686 0.00071988042431206172 0 -0.034012245210718196 0.00053818053093777885 0 -0.03218522965855828 -0.0013853865191221105 0 -0.032422771025411898 -0.00071122878424641016 0 -0.032894948509079931 -0.00084443099110986081 0 -0.034196822082982435 0.00057695984835757445 0 -0.034012245210718196 0.00053818053093777885 0 -0.034131301797768965 0.0004502037048531087 0 -0.023556781797280189 -9.4058566645050909e-05 0 -0.023609361182079708 0.00033792119969347804 0 -0.023686210414785878 2.9167464352327532e-05 0 -0.02351312261822772 -0.00023740724512987329 0 -0.028500731084577038 -4.245312817269641e-05 0 -0.027903872146085959 -0.00068373999449776761 0 -0.028500731084577038 -4.245312817269641e-05 0 -0.023609361182079708 0.00033792119969347804 0 -0.023686210414785878 2.9167464352327532e-05 0 -0.023816187275771422 0.0001842925189979855 0 -0.023686210414785878 2.9167464352327532e-05 0 -0.02379995382458441 -6.433089530852998e-05 0 -0.023816187275771422 0.0001842925189979855 0 -0.023686210414785878 2.9167464352327532e-05 0 -0.023667983310364262 -0.00015176235415096466 0 -0.02379995382458441 -6.433089530852998e-05 0 -0.023556781797280189 -9.4058566645050909e-05 0 -0.023686210414785878 2.9167464352327532e-05 0 -0.023667983310364262 -0.00015176235415096466 0 -0.023556781797280189 -9.4058566645050909e-05 0 -0.023667983310364262 -0.00015176235415096466 0 -0.023640530248860311 -0.00020529749914022404 0 -0.023667983310364262 -0.00015176235415096466 0 -0.023737527874597014 -0.0002734795492736883 0 -0.02379995382458441 -6.433089530852998e-05 0 -0.023667983310364262 -0.00015176235415096466 0 -0.023737527874597014 -0.0002734795492736883 0 -0.023688294382330867 -0.00024994514918451322 0 -0.023737527874597014 -0.0002734795492736883 0 -0.023688294382330867 -0.00024994514918451322 0 -0.023729576195780356 -0.00028838714944580689 0 -0.023688294382330867 -0.00024994514918451322 0 -0.023673990575110885 -0.00026174721186940478 0 -0.023729576195780356 -0.00028838714944580689 0 -0.023688294382330867 -0.00024994514918451322 0 -0.023640530248860311 -0.00020529749914022404 0 -0.023673990575110885 -0.00026174721186940478 0 -0.023667983310364262 -0.00015176235415096466 0 -0.023688294382330867 -0.00024994514918451322 0 -0.023640530248860311 -0.00020529749914022404 0 -0.023589802689046049 -8.6169925814729169e-05 0 -0.023656431764263332 -0.00023173902492880534 0 -0.023640039541551413 -0.00032205443878384471 0 -0.023640530248860311 -0.00020529749914022404 0 -0.023656431764263332 -0.00023173902492880534 0 -0.023673990575110885 -0.00026174721186940478 0 -0.023656431764263332 -0.00023173902492880534 0 -0.023673990575110885 -0.00026174721186940478 0 -0.023640039541551413 -0.00032205443878384471 0 -0.022567122870276797 3.134943043178005e-05 0 -0.022643917124259273 -0.00016936441828948072 0 -0.023012271762138482 -5.5391079378963667e-05 0 -0.023240619885748281 0.00024445230269750127 0 -0.023337919781071637 -0.000200358729992952 0 -0.023673990575110885 -0.00026174721186940478 0 -0.023640039541551413 -0.00032205443878384471 0 -0.023729576195780356 -0.00028838714944580689 0 -0.023240619885748281 0.00024445230269750127 0 -0.022846636646746153 3.886463814830165e-05 0 -0.022378459069440696 -0.00044895594578520342 0 -0.022126291531865259 -0.00023685942267103298 0 -0.022643917124259273 -0.00016936441828948072 0 -0.022126291531865259 -0.00023685942267103298 0 -0.022603106041881489 0.00028247335743354201 0 -0.022643917124259273 -0.00016936441828948072 0 -0.022643917124259273 -0.00016936441828948072 0 -0.022899971775418384 -0.00027676243266924012 0 -0.023012271762138482 -5.5391079378963667e-05 0 -0.023153115878671061 -0.00038252608428074504 0 -0.022899971775418384 -0.00027676243266924012 0 -0.023012271762138482 -5.5391079378963667e-05 0 -0.023153115878671061 -0.00038252608428074504 0 -0.023012271762138482 -5.5391079378963667e-05 0 -0.023500383793605993 -0.00022471673136444174 0 -0.023337919781071637 -0.000200358729992952 0 -0.023491327813768257 -0.00021021501117745992 0 -0.023428903858279379 -0.00031911211876431449 0 -0.023500383793605993 -0.00022471673136444174 0 -0.023444740648916614 -0.00029555770783234499 0 -0.023500383793605993 -0.00022471673136444174 0 -0.023444740648916614 -0.00029555770783234499 0 -0.023811408178952213 -0.00037514332575308741 0 -0.024027188076578009 -0.00052211225131895602 0 -0.023827265371940791 -0.00039883918419297783 0 -0.024637466469674948 -0.00078780802207478707 0 -0.023811408178952213 -0.00037514332575308741 0 -0.024234122871422271 -9.9889921562126678e-05 0 -0.023737527874597014 -0.0002734795492736883 0 -0.023729576195780356 -0.00028838714944580689 0 -0.023811408178952213 -0.00037514332575308741 0 -0.023729576195780356 -0.00028838714944580689 0 -0.023500383793605993 -0.00022471673136444174 0 -0.023811408178952213 -0.00037514332575308741 0 -0.02379995382458441 -6.433089530852998e-05 0 -0.024092122393054142 0.0002307385595817893 0 -0.024234122871422271 -9.9889921562126678e-05 0 -0.023737527874597014 -0.0002734795492736883 0 -0.023811408178952213 -0.00037514332575308741 0 -0.02379995382458441 -6.433089530852998e-05 0 -0.023811408178952213 -0.00037514332575308741 0 -0.02379995382458441 -6.433089530852998e-05 0 -0.024234122871422271 -9.9889921562126678e-05 0 -0.02379995382458441 -6.433089530852998e-05 0 -0.023816187275771422 0.0001842925189979855 0 -0.024092122393054142 0.0002307385595817893 0 -0.023609361182079708 0.00033792119969347804 0 -0.023816187275771422 0.0001842925189979855 0 -0.024004384486312966 0.00045347884234317042 0 -0.023816187275771422 0.0001842925189979855 0 -0.024092122393054142 0.0002307385595817893 0 -0.024004384486312966 0.00045347884234317042 0 -0.024092122393054142 0.0002307385595817893 0 -0.024004384486312966 0.00045347884234317042 0 -0.024372790195176929 0.00056371540875910198 0 -0.024092122393054142 0.0002307385595817893 0 -0.024565714832831358 0.00023395878914631046 0 -0.024372790195176929 0.00056371540875910198 0 -0.024092122393054142 0.0002307385595817893 0 -0.024565714832831358 0.00023395878914631046 0 -0.024234122871422271 -9.9889921562126678e-05 0 -0.024565714832831358 0.00023395878914631046 0 -0.024868497407492873 0.00060650265119759094 0 -0.024372790195176929 0.00056371540875910198 0 -0.024565714832831358 0.00023395878914631046 0 -0.024234122871422271 -9.9889921562126678e-05 0 -0.024793890292854531 -0.00015779650253055382 0 -0.024637466469674948 -0.00078780802207478707 0 -0.024234122871422271 -9.9889921562126678e-05 0 -0.024793890292854531 -0.00015779650253055382 0 -0.024565714832831358 0.00023395878914631046 0 -0.024793890292854531 -0.00015779650253055382 0 -0.025118850607039726 0.00020030706999671282 0 -0.024793890292854531 -0.00015779650253055382 0 -0.025118850607039726 0.00020030706999671282 0 -0.02538665361174863 -0.00040944728452765194 0 -0.024565714832831358 0.00023395878914631046 0 -0.025118850607039726 0.00020030706999671282 0 -0.024868497407492873 0.00060650265119759094 0 -0.025118850607039726 0.00020030706999671282 0 -0.025504897260046188 0.00072643905718246455 0 -0.024868497407492873 0.00060650265119759094 0 -0.025118850607039726 0.00020030706999671282 0 -0.025601371894463407 0.00021965570939388424 0 -0.025504897260046188 0.00072643905718246455 0 -0.025772148828264622 -0.00039644682631033169 0 -0.025601371894463407 0.00021965570939388424 0 -0.02538665361174863 -0.00040944728452765194 0 -0.025118850607039726 0.00020030706999671282 0 -0.025601371894463407 0.00021965570939388424 0 -0.02538665361174863 -0.00040944728452765194 0 -0.025742560321977036 -0.00081204945371476814 0 -0.025772148828264622 -0.00039644682631033169 0 -0.02538665361174863 -0.00040944728452765194 0 -0.025742560321977036 -0.00081204945371476814 0 -0.02538665361174863 -0.00040944728452765194 0 -0.025306662964126703 -0.0010657176363690845 0 -0.024637466469674948 -0.00078780802207478707 0 -0.02538665361174863 -0.00040944728452765194 0 -0.025306662964126703 -0.0010657176363690845 0 -0.024637466469674948 -0.00078780802207478707 0 -0.024793890292854531 -0.00015779650253055382 0 -0.02538665361174863 -0.00040944728452765194 0 -0.024027188076578009 -0.00052211225131895602 0 -0.024472958164664334 -0.00073754195659928566 0 -0.023428903858279379 -0.00031911211876431449 0 -0.023444740648916614 -0.00029555770783234499 0 -0.023493130988007975 -0.0002952124994727443 0 -0.02448025110945817 -0.00040626067039987724 0 -0.024472958164664334 -0.00073754195659928566 0 -0.025923953198289867 -0.0013298173580207999 0 -0.025742560321977036 -0.00081204945371476814 0 -0.025306662964126703 -0.0010657176363690845 0 -0.02361129680449487 -0.00033816405088221338 0 -0.023536950330705707 -0.0003658197628251465 0 -0.023493130988007975 -0.0002952124994727443 0 -0.03479458087589931 -0.00033389979420026059 0 -0.034798812152705812 -0.00034629432059144096 0 -0.034807855832438152 -0.00032841987170838049 0 -0.03479458087589931 -0.00033389979420026059 0 -0.034834947960613316 -0.00029304249687344487 0 -0.034807855832438152 -0.00032841987170838049 0 -0.03479458087589931 -0.00033389979420026059 0 -0.034834947960613316 -0.00029304249687344487 0 -0.034813474758408729 -0.00027574580403694524 0 -0.03479458087589931 -0.00033389979420026059 0 -0.034734077796852648 -0.00030875928674250092 0 -0.034813474758408729 -0.00027574580403694524 0 -0.03479458087589931 -0.00033389979420026059 0 -0.034716162982821444 -0.0004022225513439825 0 -0.034734077796852648 -0.00030875928674250092 0 -0.03479458087589931 -0.00033389979420026059 0 -0.034716162982821444 -0.0004022225513439825 0 -0.034798812152705812 -0.00034629432059144096 0 -0.03318914351025249 -0.00018660604125062474 0 -0.032855305939871758 -6.7980748712747734e-05 0 -0.033212910415585335 0.00015939799307080742 0 -0.034424285552044326 -0.00043356232723902881 0 -0.031305765033357455 6.313874573008801e-05 0 -0.031305765033357455 6.313874573008801e-05 0 -0.028695636156064096 0.00082763184528890398 0 -0.02557295793648362 0.0019686826246677644 0 -0.025631503050323967 0.0015428652397697824 0 -0.024843241573577098 0.0014562827109596565 0 -0.034814293973630443 -0.00032119544949020849 0 -0.03479478801876696 -0.000331585914993457 0 -0.034807855832438152 -0.00032841987170838049 0 -0.030481594790911754 0.00072641187306875428 0 -0.031305765033357455 6.313874573008801e-05 0 -0.02611614096379021 0.0017438198796036277 0 -0.02557295793648362 0.0019686826246677644 0 -0.025631503050323967 0.0015428652397697824 0 -0.031305765033357455 6.313874573008801e-05 0 -0.032915063113217534 0.00058697098668160873 0 -0.025631503050323967 0.0015428652397697824 0 -0.025450438395375936 0.0011825588485290012 0 -0.024843241573577098 0.0014562827109596565 0 -0.025973423861954496 0.0012334708763644814 0 -0.025631503050323967 0.0015428652397697824 0 -0.025450438395375936 0.0011825588485290012 0 -0.025973423861954496 0.0012334708763644814 0 -0.025450438395375936 0.0011825588485290012 0 -0.025504897260046188 0.00072643905718246455 0 -0.025450438395375936 0.0011825588485290012 0 -0.025504897260046188 0.00072643905718246455 0 -0.025065506873738097 0.0009720609941218395 0 -0.025504897260046188 0.00072643905718246455 0 -0.024868497407492873 0.00060650265119759094 0 -0.025065506873738097 0.0009720609941218395 0 -0.024868497407492873 0.00060650265119759094 0 -0.025065506873738097 0.0009720609941218395 0 -0.024664206392327435 0.00090211221485861446 0 -0.025065506873738097 0.0009720609941218395 0 -0.024843241573577098 0.0014562827109596565 0 -0.024664206392327435 0.00090211221485861446 0 -0.025450438395375936 0.0011825588485290012 0 -0.025065506873738097 0.0009720609941218395 0 -0.024843241573577098 0.0014562827109596565 0 -0.033212910415585335 0.00015939799307080742 0 -0.03333851664627626 0.00012845868525481006 0 -0.033344169606717905 5.5317196669412437e-05 0 -0.033212910415585335 0.00015939799307080742 0 -0.03333851664627626 0.00012845868525481006 0 -0.03336647135749074 9.8371476298390862e-05 0 -0.024843241573577098 0.0014562827109596565 0 -0.024664206392327435 0.00090211221485861446 0 -0.024148429365663089 0.00090328980293749291 0 -0.028695636156064096 0.00082763184528890398 0 -0.028773004068381333 0.00051393686348746392 0 -0.033396032915764498 0.00011669804530248784 0 -0.03333851664627626 0.00012845868525481006 0 -0.033344169606717905 5.5317196669412437e-05 0 -0.033396032915764498 0.00011669804530248784 0 -0.03333851664627626 0.00012845868525481006 0 -0.033365163441753672 0.00012700455872486694 0 -0.024664206392327435 0.00090211221485861446 0 -0.024372790195176929 0.00056371540875910198 0 -0.024148429365663089 0.00090328980293749291 0 -0.024868497407492873 0.00060650265119759094 0 -0.024664206392327435 0.00090211221485861446 0 -0.024372790195176929 0.00056371540875910198 0 -0.028500731084577038 -4.245312817269641e-05 0 -0.028773004068381333 0.00051393686348746392 0 -0.032937615925152278 -0.00023378971511991839 0 -0.03336647135749074 9.8371476298390862e-05 0 -0.033213710039689509 0.0001367284723523643 0 -0.023609361182079708 0.00033792119969347804 0 -0.024004384486312966 0.00045347884234317042 0 -0.024148429365663089 0.00090328980293749291 0 -0.024004384486312966 0.00045347884234317042 0 -0.024372790195176929 0.00056371540875910198 0 -0.024148429365663089 0.00090328980293749291 0 -0.033487154206405891 9.1455713247694736e-05 0 -0.033715721871872245 0.000162847177299138 0 -0.033818134230726105 0.00036108959873193755 0 -0.033213710039689509 0.0001367284723523643 0 -0.033365163441753672 0.00012700455872486694 0 -0.033482765011823047 9.9897040828977646e-05 0 -0.033329966023795274 -9.1668370405515454e-05 0 -0.033487154206405891 9.1455713247694736e-05 0 -0.033482765011823047 9.9897040828977646e-05 0 -0.033472595154661798 9.7867051134071224e-05 0 -0.033420546153858408 0.00010171537160883355 0 -0.033329966023795274 -9.1668370405515454e-05 0 -0.033487154206405891 9.1455713247694736e-05 0 -0.033085965361290673 -7.2958323415988816e-05 0 -0.033704176447078273 0.00016595049826955127 0 -0.033336408091696863 -1.9366844635333251e-06 0 -0.03333851664627626 0.00012845868525481006 0 -0.03336647135749074 9.8371476298390862e-05 0 -0.033365163441753672 0.00012700455872486694 0 -0.03336647135749074 9.8371476298390862e-05 0 -0.033213710039689509 0.0001367284723523643 0 -0.033365163441753672 0.00012700455872486694 0 -0.033396032915764498 0.00011669804530248784 0 -0.033365163441753672 0.00012700455872486694 0 -0.033482765011823047 9.9897040828977646e-05 0 -0.033487154206405891 9.1455713247694736e-05 0 -0.033607275862657153 -3.2992777203294755e-05 0 -0.033719278278996678 1.9746738649740603e-05 0 -0.033487154206405891 9.1455713247694736e-05 0 -0.033719278278996678 1.9746738649740603e-05 0 -0.033715721871872245 0.000162847177299138 0 -0.033607275862657153 -3.2992777203294755e-05 0 -0.033799649759043156 -0.00014812409116912097 0 -0.033719278278996678 1.9746738649740603e-05 0 -0.033607275862657153 -3.2992777203294755e-05 0 -0.033482765011823047 9.9897040828977646e-05 0 -0.033400339112307331 -0.00011441381986973157 0 -0.033487154206405891 9.1455713247694736e-05 0 -0.033607275862657153 -3.2992777203294755e-05 0 -0.033482765011823047 9.9897040828977646e-05 0 -0.033396032915764498 0.00011669804530248784 0 -0.033482765011823047 9.9897040828977646e-05 0 -0.033344169606717905 5.5317196669412437e-05 0 -0.033482765011823047 9.9897040828977646e-05 0 -0.033344169606717905 5.5317196669412437e-05 0 -0.033400339112307331 -0.00011441381986973157 0 -0.03318914351025249 -0.00018660604125062474 0 -0.033344169606717905 5.5317196669412437e-05 0 -0.033400339112307331 -0.00011441381986973157 0 -0.03318914351025249 -0.00018660604125062474 0 -0.033212910415585335 0.00015939799307080742 0 -0.033344169606717905 5.5317196669412437e-05 0 -0.034716162982821444 -0.0004022225513439825 0 -0.034483323963919968 -0.00045368981840068399 0 -0.034734077796852648 -0.00030875928674250092 0 -0.03318914351025249 -0.00018660604125062474 0 -0.033400339112307331 -0.00011441381986973157 0 -0.033526837134089098 -0.00031517965973141681 0 -0.034424285552044326 -0.00043356232723902881 0 -0.033898280523717968 -0.00033432564332604777 0 -0.033607275862657153 -3.2992777203294755e-05 0 -0.033400339112307331 -0.00011441381986973157 0 -0.033526837134089098 -0.00031517965973141681 0 -0.033607275862657153 -3.2992777203294755e-05 0 -0.033526837134089098 -0.00031517965973141681 0 -0.033799649759043156 -0.00014812409116912097 0 -0.033526837134089098 -0.00031517965973141681 0 -0.033799649759043156 -0.00014812409116912097 0 -0.034031470328197887 -0.00037394778291044228 0 -0.033977062501926433 -0.00018319230147025175 0 -0.034081060756150326 -0.00025393615518657991 0 -0.034031470328197887 -0.00037394778291044228 0 -0.033977062501926433 -0.00018319230147025175 0 -0.033799649759043156 -0.00014812409116912097 0 -0.034031470328197887 -0.00037394778291044228 0 -0.034081060756150326 -0.00025393615518657991 0 -0.034048029142193813 -5.7407198670561665e-05 0 -0.034183862267668709 -0.00011839962510890621 0 -0.033977062501926433 -0.00018319230147025175 0 -0.034081060756150326 -0.00025393615518657991 0 -0.034048029142193813 -5.7407198670561665e-05 0 -0.034048029142193813 -5.7407198670561665e-05 0 -0.034183862267668709 -0.00011839962510890621 0 -0.034178189706135453 8.3154712367718278e-05 0 -0.034048029142193813 -5.7407198670561665e-05 0 -0.033896921689930963 -2.7937573672279152e-05 0 -0.034012315909834126 0.00010866858627759502 0 -0.034048029142193813 -5.7407198670561665e-05 0 -0.034178189706135453 8.3154712367718278e-05 0 -0.034012315909834126 0.00010866858627759502 0 -0.033896921689930963 -2.7937573672279152e-05 0 -0.033839018798167336 0.00011913888004613567 0 -0.034012315909834126 0.00010866858627759502 0 -0.033977062501926433 -0.00018319230147025175 0 -0.034048029142193813 -5.7407198670561665e-05 0 -0.033896921689930963 -2.7937573672279152e-05 0 -0.033977062501926433 -0.00018319230147025175 0 -0.033799649759043156 -0.00014812409116912097 0 -0.033896921689930963 -2.7937573672279152e-05 0 -0.033799649759043156 -0.00014812409116912097 0 -0.033896921689930963 -2.7937573672279152e-05 0 -0.033719278278996678 1.9746738649740603e-05 0 -0.033896921689930963 -2.7937573672279152e-05 0 -0.033719278278996678 1.9746738649740603e-05 0 -0.033839018798167336 0.00011913888004613567 0 -0.033719278278996678 1.9746738649740603e-05 0 -0.033839018798167336 0.00011913888004613567 0 -0.033715721871872245 0.000162847177299138 0 -0.033839018798167336 0.00011913888004613567 0 -0.033715721871872245 0.000162847177299138 0 -0.033830440796456931 0.00022444429246980718 0 -0.033839018798167336 0.00011913888004613567 0 -0.033940456641049013 0.00025171156556141921 0 -0.033830440796456931 0.00022444429246980718 0 -0.033839018798167336 0.00011913888004613567 0 -0.033940456641049013 0.00025171156556141921 0 -0.034012315909834126 0.00010866858627759502 0 -0.033940456641049013 0.00025171156556141921 0 -0.033830440796456931 0.00022444429246980718 0 -0.033818134230726105 0.00036108959873193755 0 -0.033940456641049013 0.00025171156556141921 0 -0.033818134230726105 0.00036108959873193755 0 -0.034010113021077412 0.00038032077252501034 0 -0.033715721871872245 0.000162847177299138 0 -0.033830440796456931 0.00022444429246980718 0 -0.033818134230726105 0.00036108959873193755 0 -0.032894948509079931 -0.00084443099110986081 0 -0.033329966023795274 -9.1668370405515454e-05 0 -0.033085965361290673 -7.2958323415988816e-05 0 -0.033306375402573848 -2.3822665974923239e-05 0 -0.033420546153858408 0.00010171537160883355 0 -0.028500731084577038 -4.245312817269641e-05 0 -0.033704176447078273 0.00016595049826955127 0 -0.032422771025411898 -0.00071122878424641016 0 -0.032894948509079931 -0.00084443099110986081 0 -0.033085965361290673 -7.2958323415988816e-05 0 -0.034012245210718196 0.00053818053093777885 0 -0.033818134230726105 0.00036108959873193755 0 -0.034010113021077412 0.00038032077252501034 0 -0.034012245210718196 0.00053818053093777885 0 -0.034131301797768965 0.0004502037048531087 0 -0.034010113021077412 0.00038032077252501034 0 -0.034131301797768965 0.0004502037048531087 0 -0.034010113021077412 0.00038032077252501034 0 -0.034151183945500686 0.00028112693642989243 0 -0.033940456641049013 0.00025171156556141921 0 -0.034010113021077412 0.00038032077252501034 0 -0.034151183945500686 0.00028112693642989243 0 -0.033940456641049013 0.00025171156556141921 0 -0.034151183945500686 0.00028112693642989243 0 -0.034012315909834126 0.00010866858627759502 0 -0.034178189706135453 8.3154712367718278e-05 0 -0.034151183945500686 0.00028112693642989243 0 -0.034012315909834126 0.00010866858627759502 0 -0.034151183945500686 0.00028112693642989243 0 -0.034366930547603911 0.00016260901321339444 0 -0.034430880784589363 0.00042853749387805856 0 -0.034178189706135453 8.3154712367718278e-05 0 -0.034151183945500686 0.00028112693642989243 0 -0.034366930547603911 0.00016260901321339444 0 -0.034196822082982435 0.00057695984835757445 0 -0.034131301797768965 0.0004502037048531087 0 -0.034430880784589363 0.00042853749387805856 0 -0.034131301797768965 0.0004502037048531087 0 -0.034151183945500686 0.00028112693642989243 0 -0.034430880784589363 0.00042853749387805856 0 -0.034899805153834583 -0.0016996998179593748 0 -0.035302071011520747 -0.0011056603942729546 0 -0.034596153345263857 -0.0011289090899105074 0 -0.035146106395715256 -0.0002497391800740329 0 -0.034709011275952113 -0.00011317477279513319 0 -0.034366930547603911 0.00016260901321339444 0 -0.034430880784589363 0.00042853749387805856 0 -0.034637965648424217 3.8084811469723966e-05 0 -0.035302071011520747 -0.0011056603942729546 0 -0.03484676860425772 -0.0002306662658281842 0 -0.034568797031303881 -0.00056223552281550661 0 -0.034649229634053105 3.1018206856649221e-05 0 -0.034637965648424217 3.8084811469723966e-05 0 -0.034467025086749148 9.8776758416583253e-06 0 -0.034649229634053105 3.1018206856649221e-05 0 -0.034467025086749148 9.8776758416583253e-06 0 -0.034308050322396144 -0.00026378710304005416 0 -0.034366930547603911 0.00016260901321339444 0 -0.034637965648424217 3.8084811469723966e-05 0 -0.034467025086749148 9.8776758416583253e-06 0 -0.034366930547603911 0.00016260901321339444 0 -0.034467025086749148 9.8776758416583253e-06 0 -0.03431284182596063 -6.9280938200258326e-06 0 -0.034467025086749148 9.8776758416583253e-06 0 -0.03431284182596063 -6.9280938200258326e-06 0 -0.034308050322396144 -0.00026378710304005416 0 -0.034178189706135453 8.3154712367718278e-05 0 -0.034366930547603911 0.00016260901321339444 0 -0.03431284182596063 -6.9280938200258326e-06 0 -0.034183862267668709 -0.00011839962510890621 0 -0.034178189706135453 8.3154712367718278e-05 0 -0.03431284182596063 -6.9280938200258326e-06 0 -0.034183862267668709 -0.00011839962510890621 0 -0.03431284182596063 -6.9280938200258326e-06 0 -0.034308050322396144 -0.00026378710304005416 0 -0.034081060756150326 -0.00025393615518657991 0 -0.034183862267668709 -0.00011839962510890621 0 -0.034308050322396144 -0.00026378710304005416 0 -0.034649229634053105 3.1018206856649221e-05 0 -0.03472910948345672 4.4865828465077795e-05 0 -0.034710692244813074 3.9411508715082414e-05 0 -0.034642790215735395 2.063727733788168e-05 0 -0.03452653867795364 -9.3894357528356156e-05 0 -0.03472910948345672 4.4865828465077795e-05 0 -0.034710692244813074 3.9411508715082414e-05 0 -0.034747730498137258 3.2219684642140992e-05 0 -0.034710692244813074 3.9411508715082414e-05 0 -0.034747730498137258 3.2219684642140992e-05 0 -0.03471043123148089 4.2397315061481692e-05 0 -0.034747730498137258 3.2219684642140992e-05 0 -0.034837586861296149 -1.550104264107604e-05 0 -0.03471043123148089 4.2397315061481692e-05 0 -0.034747730498137258 3.2219684642140992e-05 0 -0.034734191283561242 1.3281876550893864e-05 0 -0.034837586861296149 -1.550104264107604e-05 0 -0.03472910948345672 4.4865828465077795e-05 0 -0.034734191283561242 1.3281876550893864e-05 0 -0.034667790626683646 7.7402954072748294e-06 0 -0.03452653867795364 -9.3894357528356156e-05 0 -0.034310503446808027 -0.00017215461877991846 0 -0.03472910948345672 4.4865828465077795e-05 0 -0.034747730498137258 3.2219684642140992e-05 0 -0.034734191283561242 1.3281876550893864e-05 0 -0.034866564876356497 -3.1536704529146263e-05 0 -0.034826599029391926 -2.0323155026470544e-05 0 -0.034734191283561242 1.3281876550893864e-05 0 -0.034696022433568514 -4.3869559799942962e-05 0 -0.034667790626683646 7.7402954072748294e-06 0 -0.034734191283561242 1.3281876550893864e-05 0 -0.034696022433568514 -4.3869559799942962e-05 0 -0.034837586861296149 -1.550104264107604e-05 0 -0.034837586861296149 -1.550104264107604e-05 0 -0.034950254765075697 4.7900888395790249e-06 0 -0.034910453462469355 -3.2576504698835735e-06 0 -0.034950254765075697 4.7900888395790249e-06 0 -0.034999868999027815 1.2611870014248685e-08 0 -0.034999966986063308 1.407726807126321e-08 0 -0.034950254765075697 4.7900888395790249e-06 0 -0.034999966986063308 1.407726807126321e-08 0 -0.034995542282636738 -3.783820673871389e-06 0 -0.034978152733527196 -2.8090343283641558e-05 0 -0.034837586861296149 -1.550104264107604e-05 0 -0.034950254765075697 4.7900888395790249e-06 0 -0.034978152733527196 -2.8090343283641558e-05 0 -0.034950254765075697 4.7900888395790249e-06 0 -0.034995542282636738 -3.783820673871389e-06 0 -0.034978152733527196 -2.8090343283641558e-05 0 -0.034995542282636738 -3.783820673871389e-06 0 -0.03500193587881073 -1.3044650169295776e-05 0 -0.034999966986063308 1.407726807126321e-08 0 -0.034995542282636738 -3.783820673871389e-06 0 -0.035000008239539401 -7.0237989063342606e-09 0 -0.034995542282636738 -3.783820673871389e-06 0 -0.035000008239539401 -7.0237989063342606e-09 0 -0.035000213117472485 -4.4380198868612157e-06 0 -0.034995542282636738 -3.783820673871389e-06 0 -0.035000213117472485 -4.4380198868612157e-06 0 -0.03500193587881073 -1.3044650169295776e-05 0 -0.03416798889691073 -1.4150856690749924e-05 0 -0.034122899422738939 -0.00023304157946706834 0 -0.034028561221376638 -0.00033989885875220405 0 -0.034674203466805172 -3.5310065437817748e-05 0 -0.034310503446808027 -0.00017215461877991846 0 -0.03416798889691073 -1.4150856690749924e-05 0 -0.034122899422738939 -0.00023304157946706834 0 -0.034369694129228377 -0.00019468208464618674 0 -0.034866564876356497 -3.1536704529146263e-05 0 -0.034674203466805172 -3.5310065437817748e-05 0 -0.034696022433568514 -4.3869559799942962e-05 0 -0.034602902717632299 -5.5631288930037037e-05 0 -0.034667790626683646 7.7402954072748294e-06 0 -0.034081060756150326 -0.00025393615518657991 0 -0.034028561221376638 -0.00033989885875220405 0 -0.034031470328197887 -0.00037394778291044228 0 -0.034081060756150326 -0.00025393615518657991 0 -0.034308050322396144 -0.00026378710304005416 0 -0.034028561221376638 -0.00033989885875220405 0 -0.034122899422738939 -0.00023304157946706834 0 -0.034028561221376638 -0.00033989885875220405 0 -0.034031470328197887 -0.00037394778291044228 0 -0.034122899422738939 -0.00023304157946706834 0 -0.034031470328197887 -0.00037394778291044228 0 -0.034369694129228377 -0.00019468208464618674 0 -0.033898280523717968 -0.00033432564332604777 0 -0.034054318873544195 -0.0003891096113793238 0 -0.034483323963919968 -0.00045368981840068399 0 -0.034031470328197887 -0.00037394778291044228 0 -0.034369694129228377 -0.00019468208464618674 0 -0.034483323963919968 -0.00045368981840068399 0 -0.034630752514757314 -0.00023226423250481145 0 -0.034369694129228377 -0.00019468208464618674 0 -0.034483323963919968 -0.00045368981840068399 0 -0.034630752514757314 -0.00023226423250481145 0 -0.034734077796852648 -0.00030875928674250092 0 -0.03465133486169867 -0.00011023963469636895 0 -0.034809787943786939 -1.2435659055385922e-05 0 -0.034817281341400254 -0.00016846154549645336 0 -0.034630752514757314 -0.00023226423250481145 0 -0.03465133486169867 -0.00011023963469636895 0 -0.034817281341400254 -0.00016846154549645336 0 -0.034630752514757314 -0.00023226423250481145 0 -0.03465133486169867 -0.00011023963469636895 0 -0.034369694129228377 -0.00019468208464618674 0 -0.03465133486169867 -0.00011023963469636895 0 -0.034369694129228377 -0.00019468208464618674 0 -0.034471822563799409 3.7269554523794042e-05 0 -0.03416798889691073 -1.4150856690749924e-05 0 -0.034369694129228377 -0.00019468208464618674 0 -0.034471822563799409 3.7269554523794042e-05 0 -0.034674203466805172 -3.5310065437817748e-05 0 -0.034645375453356657 6.2556989637929675e-06 0 -0.03488543361664366 7.6000739408510252e-06 0 -0.034861878369385806 4.3846540708073556e-06 0 -0.034867371634299801 -1.977416202838542e-05 0 -0.035000213117472485 -4.4380198868612157e-06 0 -0.03500193587881073 -1.3044650169295776e-05 0 -0.035001858302662572 -2.8748980083068662e-06 0 -0.034674203466805172 -3.5310065437817748e-05 0 -0.034975513686658612 5.4266181414891051e-06 0 -0.035000008239539401 -7.0237989063342606e-09 0 -0.035001858302662572 -2.8748980083068662e-06 0 -0.035000000498130679 1.5359258023820332e-09 0 -0.035000008239539401 -7.0237989063342606e-09 0 -0.035000213117472485 -4.4380198868612157e-06 0 -0.035001858302662572 -2.8748980083068662e-06 0 -0.034975513686658612 5.4266181414891051e-06 0 -0.034999924495584131 -4.3174216857371735e-08 0 -0.034867371634299801 -1.977416202838542e-05 0 -0.034999598431612197 3.2478832303371777e-09 0 -0.034899454713029347 -1.2530675572943799e-05 0 -0.034999598431612197 3.2478832303371777e-09 0 -0.034899454713029347 -1.2530675572943799e-05 0 -0.034922280828668495 -1.1781092497126345e-05 0 -0.03465133486169867 -0.00011023963469636895 0 -0.034471822563799409 3.7269554523794042e-05 0 -0.034809787943786939 -1.2435659055385922e-05 0 -0.034645375453356657 6.2556989637929675e-06 0 -0.034788203676837375 3.6196962438491055e-06 0 -0.034899454713029347 -1.2530675572943799e-05 0 -0.034809787943786939 -1.2435659055385922e-05 0 -0.034922280828668495 -1.1781092497126345e-05 0 -0.034867371634299801 -1.977416202838542e-05 0 -0.034899454713029347 -1.2530675572943799e-05 0 -0.034809787943786939 -1.2435659055385922e-05 0 -0.034861878369385806 4.3846540708073556e-06 0 -0.034867371634299801 -1.977416202838542e-05 0 -0.034809787943786939 -1.2435659055385922e-05 0 -0.034809787943786939 -1.2435659055385922e-05 0 -0.034922280828668495 -1.1781092497126345e-05 0 -0.034897723745366677 -6.2832321605788642e-05 0 -0.034999598431612197 3.2478832303371777e-09 0 -0.034922280828668495 -1.1781092497126345e-05 0 -0.034999961563734867 -1.7557661947097872e-10 0 -0.034922280828668495 -1.1781092497126345e-05 0 -0.034999961563734867 -1.7557661947097872e-10 0 -0.034897723745366677 -6.2832321605788642e-05 0 -0.034942902131616826 -5.932613417489535e-05 0 -0.034999961563734867 -1.7557661947097872e-10 0 -0.034897723745366677 -6.2832321605788642e-05 0 -0.034942902131616826 -5.932613417489535e-05 0 -0.034897723745366677 -6.2832321605788642e-05 0 -0.034905495435547856 -0.00013290200675843662 0 -0.034897723745366677 -6.2832321605788642e-05 0 -0.034905495435547856 -0.00013290200675843662 0 -0.034817281341400254 -0.00016846154549645336 0 -0.034905495435547856 -0.00013290200675843662 0 -0.034817281341400254 -0.00016846154549645336 0 -0.03486454426305316 -0.000223024140634198 0 -0.034809787943786939 -1.2435659055385922e-05 0 -0.034897723745366677 -6.2832321605788642e-05 0 -0.034817281341400254 -0.00016846154549645336 0 -0.034630752514757314 -0.00023226423250481145 0 -0.034817281341400254 -0.00016846154549645336 0 -0.034734077796852648 -0.00030875928674250092 0 -0.034817281341400254 -0.00016846154549645336 0 -0.034734077796852648 -0.00030875928674250092 0 -0.034813474758408729 -0.00027574580403694524 0 -0.034817281341400254 -0.00016846154549645336 0 -0.034813474758408729 -0.00027574580403694524 0 -0.03486454426305316 -0.000223024140634198 0 -0.034834947960613316 -0.00029304249687344487 0 -0.034813474758408729 -0.00027574580403694524 0 -0.03486454426305316 -0.000223024140634198 0 -0.030958661660381196 0.00012626175583221031 0 -0.029993521446507555 0.0003419886766274974 0 -0.030391319251219479 -0.00021441500865654675 0 -0.034095186694676462 -0.00093713575647837253 0 -0.033470237406975897 0.00013993467147815355 0 -0.032111939324006779 -0.00070452717806007259 0 -0.032915421619194626 -0.00017596754170864505 0 -0.030972322435896326 -0.00010885520198461329 0 -0.030958661660381196 0.00012626175583221031 0 -0.030916366652259792 -6.8086123217427877e-05 0 -0.030391319251219479 -0.00021441500865654675 0 -0.032915421619194626 -0.00017596754170864505 0 -0.032604388644720171 -0.00023864301348553837 0 -0.032915421619194626 -0.00017596754170864505 0 -0.033336541494264446 -2.4875255637408118e-05 0 -0.034842123776787026 0.00010743702259676809 0 -0.034815509886953255 0.00010874494848383204 0 -0.034789602489486988 0.00013351260287426323 0 -0.034815509886953255 0.00010874494848383204 0 -0.034801523407648 9.7292997750326901e-05 0 -0.034798099536072151 0.00011637322904919231 0 -0.034815509886953255 0.00010874494848383204 0 -0.034830782540978808 7.888468444132054e-05 0 -0.034818935936903099 7.2008456059593321e-05 0 -0.034815509886953255 0.00010874494848383204 0 -0.034818935936903099 7.2008456059593321e-05 0 -0.034801523407648 9.7292997750326901e-05 0 -0.034842123776787026 0.00010743702259676809 0 -0.034815509886953255 0.00010874494848383204 0 -0.034830782540978808 7.888468444132054e-05 0 -0.032915421619194626 -0.00017596754170864505 0 -0.034730726096493338 0.0004709981927656771 0 -0.034830782540978808 7.888468444132054e-05 0 -0.034818935936903099 7.2008456059593321e-05 0 -0.034844872984016888 3.01765965793792e-05 0 -0.034842123776787026 0.00010743702259676809 0 -0.034830782540978808 7.888468444132054e-05 0 -0.034844872984016888 3.01765965793792e-05 0 -0.034818935936903099 7.2008456059593321e-05 0 -0.034813099341207951 4.1450057945800289e-05 0 -0.034844872984016888 3.01765965793792e-05 0 -0.033470237406975897 0.00013993467147815355 0 -0.033606828322720855 0.0010821997782862348 0 -0.031273895278063381 0.00099483761170955404 0 -0.033470237406975897 0.00013993467147815355 0 -0.033606828322720855 0.0010821997782862348 0 -0.034141216766523173 0.0010403636177003604 0 -0.034095186694676462 -0.00093713575647837253 0 -0.033470237406975897 0.00013993467147815355 0 -0.034141216766523173 0.0010403636177003604 0 -0.033470237406975897 0.00013993467147815355 0 -0.031273895278063381 0.00099483761170955404 0 -0.032111939324006779 -0.00070452717806007259 0 -0.031273895278063381 0.00099483761170955404 0 -0.029541458034955403 0.00045745177389513439 0 -0.032111939324006779 -0.00070452717806007259 0 -0.031273895278063381 0.00099483761170955404 0 -0.029541458034955403 0.00045745177389513439 0 -0.028763082607961007 0.0019146661428876639 0 -0.029541458034955403 0.00045745177389513439 0 -0.029579185418189682 -7.619989465657954e-05 0 -0.028669483700807571 -9.4627198156629533e-05 0 -0.029541458034955403 0.00045745177389513439 0 -0.028669483700807571 -9.4627198156629533e-05 0 -0.028266969119488661 0.00065797763055600793 0 -0.02973207405505595 0.00034984867862894589 0 -0.030972322435896326 -0.00010885520198461329 0 -0.029541458034955403 0.00045745177389513439 0 -0.029993521446507555 0.0003419886766274974 0 -0.029579185418189682 -7.619989465657954e-05 0 -0.029993521446507555 0.0003419886766274974 0 -0.029579185418189682 -7.619989465657954e-05 0 -0.030391319251219479 -0.00021441500865654675 0 -0.029579185418189682 -7.619989465657954e-05 0 -0.030171494360953142 -0.0010327478935198023 0 -0.030391319251219479 -0.00021441500865654675 0 -0.029579185418189682 -7.619989465657954e-05 0 -0.028989211337356772 -0.00061824366978702118 0 -0.030171494360953142 -0.0010327478935198023 0 -0.029579185418189682 -7.619989465657954e-05 0 -0.028669483700807571 -9.4627198156629533e-05 0 -0.028989211337356772 -0.00061824366978702118 0 -0.028669483700807571 -9.4627198156629533e-05 0 -0.028989211337356772 -0.00061824366978702118 0 -0.02789118126029462 -0.0010682709161809727 0 -0.028867582892862613 -0.0017404187654478291 0 -0.028944737943114619 -0.00068360136758430646 0 -0.028662002684227049 -0.0017058107141859344 0 -0.028989211337356772 -0.00061824366978702118 0 -0.02789118126029462 -0.0010682709161809727 0 -0.029034651787358177 -0.0018148547471079129 0 -0.028989211337356772 -0.00061824366978702118 0 -0.030171494360953142 -0.0010327478935198023 0 -0.029796954553404947 -0.0022376416410839614 0 -0.029034651787358177 -0.0018148547471079129 0 -0.030171494360953142 -0.0010327478935198023 0 -0.030707492559235397 -0.0021686309733498724 0 -0.030171494360953142 -0.0010327478935198023 0 -0.031392335636844564 -0.0011814540997619443 0 -0.030715385571461213 -0.0021321230605198032 0 -0.031317771699923537 -0.0011376599841956879 0 -0.030171494360953142 -0.0010327478935198023 0 -0.030796627939944414 -0.00063375317097438713 0 -0.031392335636844564 -0.0011814540997619443 0 -0.030171494360953142 -0.0010327478935198023 0 -0.030796627939944414 -0.00063375317097438713 0 -0.030391319251219479 -0.00021441500865654675 0 -0.030916366652259792 -6.8086123217427877e-05 0 -0.030796627939944414 -0.00063375317097438713 0 -0.030391319251219479 -0.00021441500865654675 0 -0.030916366652259792 -6.8086123217427877e-05 0 -0.030796627939944414 -0.00063375317097438713 0 -0.031238383530006054 -0.00040899238867474951 0 -0.030973532651646329 0.00014315290459202164 0 -0.030916366652259792 -6.8086123217427877e-05 0 -0.031238383530006054 -0.00040899238867474951 0 -0.031238383530006054 -0.00040899238867474951 0 -0.031392335636844564 -0.0011814540997619443 0 -0.032096961547428735 -0.00020956013274172849 0 -0.031317771699923537 -0.0011376599841956879 0 -0.033336541494264446 -2.4875255637408118e-05 0 -0.030973532651646329 0.00014315290459202164 0 -0.031238383530006054 -0.00040899238867474951 0 -0.032096961547428735 -0.00020956013274172849 0 -0.030796627939944414 -0.00063375317097438713 0 -0.031238383530006054 -0.00040899238867474951 0 -0.031392335636844564 -0.0011814540997619443 0 -0.03244972392664338 -0.0017081701669616645 0 -0.031520296324403729 -0.0020084103182663252 0 -0.031513740258658059 -0.00096422776554037383 0 -0.03244972392664338 -0.0017081701669616645 0 -0.032442490668461596 -0.00066477803141343271 0 -0.03346126992215593 -0.00017479798305665488 0 -0.032154991270749236 -0.0017059576418033682 0 -0.033783865163808768 -0.00026742755199018006 0 -0.03244972392664338 -0.0017081701669616645 0 -0.031513740258658059 -0.00096422776554037383 0 -0.032442490668461596 -0.00066477803141343271 0 -0.032176357634632995 -0.0015586789279965407 0 -0.033277219905153421 -0.0012377804659939075 0 -0.032984785016353359 -0.00030571765448470488 0 -0.033277219905153421 -0.0012377804659939075 0 -0.032984785016353359 -0.00030571765448470488 0 -0.03407586128454404 -0.00067941946921002317 0 -0.0338782173600084 -0.00052703706917003261 0 -0.034186676101968051 -0.00043126101165829553 0 -0.03409448123367137 -0.00025462649198582755 0 -0.033783865163808768 -0.00026742755199018006 0 -0.034430951750264047 -2.4377690314247151e-05 0 -0.034722984910662266 0.00017283457476294865 0 -0.034763929975636779 0.00013184453958058743 0 -0.034741778617836463 0.00011512551773785254 0 -0.031513740258658059 -0.00096422776554037383 0 -0.032442490668461596 -0.00066477803141343271 0 -0.032343724675428925 0.00018752441810830712 0 -0.034722984910662266 0.00017283457476294865 0 -0.034791618790005419 0.00014237191713989273 0 -0.034763929975636779 0.00013184453958058743 0 -0.032442490668461596 -0.00066477803141343271 0 -0.03346126992215593 -0.00017479798305665488 0 -0.032343724675428925 0.00018752441810830712 0 -0.033783865163808768 -0.00026742755199018006 0 -0.033336541494264446 -2.4875255637408118e-05 0 -0.034791618790005419 0.00014237191713989273 0 -0.034784133174863605 0.00012726773251262562 0 -0.034763929975636779 0.00013184453958058743 0 -0.033336541494264446 -2.4875255637408118e-05 0 -0.033791092528872947 0.00027718486651452429 0 -0.034596153345263857 -0.0011289090899105074 0 -0.03407586128454404 -0.00067941946921002317 0 -0.034568797031303881 -0.00056223552281550661 0 -0.034122240529495029 -0.0016831916332137337 0 -0.034596153345263857 -0.0011289090899105074 0 -0.03407586128454404 -0.00067941946921002317 0 -0.035302071011520747 -0.0011056603942729546 0 -0.034596153345263857 -0.0011289090899105074 0 -0.034568797031303881 -0.00056223552281550661 0 -0.034122240529495029 -0.0016831916332137337 0 -0.033277219905153421 -0.0012377804659939075 0 -0.03407586128454404 -0.00067941946921002317 0 -0.033783865163808768 -0.00026742755199018006 0 -0.033919631897942081 -0.00063838115614211512 0 -0.0338782173600084 -0.00052703706917003261 0 -0.034186676101968051 -0.00043126101165829553 0 -0.03407586128454404 -0.00067941946921002317 0 -0.034186676101968051 -0.00043126101165829553 0 -0.03407586128454404 -0.00067941946921002317 0 -0.034568797031303881 -0.00056223552281550661 0 -0.034186676101968051 -0.00043126101165829553 0 -0.034568797031303881 -0.00056223552281550661 0 -0.034503304672215317 -0.00023827268185807395 0 -0.034568797031303881 -0.00056223552281550661 0 -0.034651864159099294 -0.00032099647265217455 0 -0.034503304672215317 -0.00023827268185807395 0 -0.03484676860425772 -0.0002306662658281842 0 -0.034568797031303881 -0.00056223552281550661 0 -0.034651864159099294 -0.00032099647265217455 0 -0.034649229634053105 3.1018206856649221e-05 0 -0.034637965648424217 3.8084811469723966e-05 0 -0.03471043123148089 4.2397315061481692e-05 0 -0.03484676860425772 -0.0002306662658281842 0 -0.034671193203786387 -0.00021552006521260048 0 -0.034672925223826277 -6.7363724833879223e-05 0 -0.03484676860425772 -0.0002306662658281842 0 -0.034651864159099294 -0.00032099647265217455 0 -0.034671193203786387 -0.00021552006521260048 0 -0.034651864159099294 -0.00032099647265217455 0 -0.034671193203786387 -0.00021552006521260048 0 -0.034503304672215317 -0.00023827268185807395 0 -0.034671193203786387 -0.00021552006521260048 0 -0.034503304672215317 -0.00023827268185807395 0 -0.034672925223826277 -6.7363724833879223e-05 0 -0.034503304672215317 -0.00023827268185807395 0 -0.03457394704993557 2.1310231228932886e-05 0 -0.034672925223826277 -6.7363724833879223e-05 0 -0.034503304672215317 -0.00023827268185807395 0 -0.03457394704993557 2.1310231228932886e-05 0 -0.03409448123367137 -0.00025462649198582755 0 -0.034186676101968051 -0.00043126101165829553 0 -0.034503304672215317 -0.00023827268185807395 0 -0.03409448123367137 -0.00025462649198582755 0 -0.03457394704993557 2.1310231228932886e-05 0 -0.034680727070072498 0.00012927169825938209 0 -0.034714813681441664 7.7589713553502423e-05 0 -0.034507232571918144 -1.2949682194058431e-05 0 -0.034430951750264047 -2.4377690314247151e-05 0 -0.03457394704993557 2.1310231228932886e-05 0 -0.03471043123148089 4.2397315061481692e-05 0 -0.034730814212583325 9.6021692297978748e-06 0 -0.03457394704993557 2.1310231228932886e-05 0 -0.034726982750351597 3.332562698097776e-05 0 -0.034730814212583325 9.6021692297978748e-06 0 -0.034709011275952113 -0.00011317477279513319 0 -0.034720648719199845 3.5271049160907877e-05 0 -0.034649229634053105 3.1018206856649221e-05 0 -0.034710692244813074 3.9411508715082414e-05 0 -0.03471043123148089 4.2397315061481692e-05 0 -0.03484676860425772 -0.0002306662658281842 0 -0.034672925223826277 -6.7363724833879223e-05 0 -0.03471043123148089 4.2397315061481692e-05 0 -0.03457394704993557 2.1310231228932886e-05 0 -0.034672925223826277 -6.7363724833879223e-05 0 -0.03471043123148089 4.2397315061481692e-05 0 -0.03478066862536467 0.0001024075312875133 0 -0.034772356034143359 6.7890093684473281e-05 0 -0.034798053893792112 7.5347515710358148e-05 0 -0.03478066862536467 0.0001024075312875133 0 -0.034741778617836463 0.00011512551773785254 0 -0.034772356034143359 6.7890093684473281e-05 0 -0.034818935936903099 7.2008456059593321e-05 0 -0.034801523407648 9.7292997750326901e-05 0 -0.034798053893792112 7.5347515710358148e-05 0 -0.03478066862536467 0.0001024075312875133 0 -0.034801523407648 9.7292997750326901e-05 0 -0.034798053893792112 7.5347515710358148e-05 0 -0.03478066862536467 0.0001024075312875133 0 -0.034791259214780483 0.00011082115668578173 0 -0.034784133174863605 0.00012726773251262562 0 -0.034815509886953255 0.00010874494848383204 0 -0.034789602489486988 0.00013351260287426323 0 -0.034798099536072151 0.00011637322904919231 0 -0.03478066862536467 0.0001024075312875133 0 -0.034801523407648 9.7292997750326901e-05 0 -0.034791259214780483 0.00011082115668578173 0 -0.034801523407648 9.7292997750326901e-05 0 -0.034791259214780483 0.00011082115668578173 0 -0.034798099536072151 0.00011637322904919231 0 -0.034791259214780483 0.00011082115668578173 0 -0.034798099536072151 0.00011637322904919231 0 -0.034784133174863605 0.00012726773251262562 0 -0.034789602489486988 0.00013351260287426323 0 -0.034798099536072151 0.00011637322904919231 0 -0.034784133174863605 0.00012726773251262562 0 -0.03478066862536467 0.0001024075312875133 0 -0.034763929975636779 0.00013184453958058743 0 -0.034741778617836463 0.00011512551773785254 0 -0.03478066862536467 0.0001024075312875133 0 -0.034784133174863605 0.00012726773251262562 0 -0.034763929975636779 0.00013184453958058743 0 -0.034722984910662266 0.00017283457476294865 0 -0.034741778617836463 0.00011512551773785254 0 -0.034680727070072498 0.00012927169825938209 0 -0.034741778617836463 0.00011512551773785254 0 -0.034680727070072498 0.00012927169825938209 0 -0.034714813681441664 7.7589713553502423e-05 0 -0.034741778617836463 0.00011512551773785254 0 -0.034714813681441664 7.7589713553502423e-05 0 -0.034772356034143359 6.7890093684473281e-05 0 -0.034714813681441664 7.7589713553502423e-05 0 -0.034726982750351597 3.332562698097776e-05 0 -0.034772356034143359 6.7890093684473281e-05 0 -0.034726982750351597 3.332562698097776e-05 0 -0.034772356034143359 6.7890093684473281e-05 0 -0.034788332747466573 1.755450006946034e-05 0 -0.034726982750351597 3.332562698097776e-05 0 -0.034788332747466573 1.755450006946034e-05 0 -0.034730814212583325 9.6021692297978748e-06 0 -0.03457394704993557 2.1310231228932886e-05 0 -0.034714813681441664 7.7589713553502423e-05 0 -0.034726982750351597 3.332562698097776e-05 0 -0.034772356034143359 6.7890093684473281e-05 0 -0.034813099341207951 4.1450057945800289e-05 0 -0.034788332747466573 1.755450006946034e-05 0 -0.034772356034143359 6.7890093684473281e-05 0 -0.034798053893792112 7.5347515710358148e-05 0 -0.034813099341207951 4.1450057945800289e-05 0 -0.034818935936903099 7.2008456059593321e-05 0 -0.034798053893792112 7.5347515710358148e-05 0 -0.034813099341207951 4.1450057945800289e-05 0 -0.034828838437674217 1.0556341198363696e-05 0 -0.034788332747466573 1.755450006946034e-05 0 -0.034831057457356714 -6.3096919540568733e-06 0 -0.034813099341207951 4.1450057945800289e-05 0 -0.034828838437674217 1.0556341198363696e-05 0 -0.034788332747466573 1.755450006946034e-05 0 -0.034788332747466573 1.755450006946034e-05 0 -0.034831057457356714 -6.3096919540568733e-06 0 -0.034730814212583325 9.6021692297978748e-06 0 -0.034831057457356714 -6.3096919540568733e-06 0 -0.034730814212583325 9.6021692297978748e-06 0 -0.034819885684266534 -3.7730679828197522e-06 0 -0.034831057457356714 -6.3096919540568733e-06 0 -0.034819885684266534 -3.7730679828197522e-06 0 -0.034898582763741241 -7.3298706744384819e-06 0 -0.034831057457356714 -6.3096919540568733e-06 0 -0.034898582763741241 -7.3298706744384819e-06 0 -0.034865063736019677 -1.0339746204142983e-05 0 -0.034828838437674217 1.0556341198363696e-05 0 -0.034831057457356714 -6.3096919540568733e-06 0 -0.034865063736019677 -1.0339746204142983e-05 0 -0.034837586861296149 -1.550104264107604e-05 0 -0.03471043123148089 4.2397315061481692e-05 0 -0.034819885684266534 -3.7730679828197522e-06 0 -0.03471043123148089 4.2397315061481692e-05 0 -0.034730814212583325 9.6021692297978748e-06 0 -0.034819885684266534 -3.7730679828197522e-06 0 -0.034837586861296149 -1.550104264107604e-05 0 -0.034819885684266534 -3.7730679828197522e-06 0 -0.034910453462469355 -3.2576504698835735e-06 0 -0.034819885684266534 -3.7730679828197522e-06 0 -0.034910453462469355 -3.2576504698835735e-06 0 -0.034898582763741241 -7.3298706744384819e-06 0 -0.034910453462469355 -3.2576504698835735e-06 0 -0.034999937196145262 -9.3365264194527509e-09 0 -0.034898582763741241 -7.3298706744384819e-06 0 -0.034950254765075697 4.7900888395790249e-06 0 -0.034999868999027815 1.2611870014248685e-08 0 -0.034910453462469355 -3.2576504698835735e-06 0 -0.034999868999027815 1.2611870014248685e-08 0 -0.034910453462469355 -3.2576504698835735e-06 0 -0.034999937196145262 -9.3365264194527509e-09 0 -0.034898582763741241 -7.3298706744384819e-06 0 -0.034944862598794639 1.2767095531260758e-05 0 -0.034865063736019677 -1.0339746204142983e-05 0 -0.034999937196145262 -9.3365264194527509e-09 0 -0.034898582763741241 -7.3298706744384819e-06 0 -0.034944862598794639 1.2767095531260758e-05 0 -0.034999937196145262 -9.3365264194527509e-09 0 -0.034944862598794639 1.2767095531260758e-05 0 -0.034999592704465378 5.4688730750691057e-08 0 -0.034999592704465378 5.4688730750691057e-08 0 -0.034999542174798816 1.0578079643243533e-07 0 -0.034741433801957988 0.00012670351844340191 0 -0.034944862598794639 1.2767095531260758e-05 0 -0.034999592704465378 5.4688730750691057e-08 0 -0.034741433801957988 0.00012670351844340191 0 -0.034999542174798816 1.0578079643243533e-07 0 -0.034741433801957988 0.00012670351844340191 0 -0.03484927843848698 0.00011669464362854563 0 -0.034741433801957988 0.00012670351844340191 0 -0.03437979848800464 0.00053134323706752434 0 -0.03484927843848698 0.00011669464362854563 0 -0.034944862598794639 1.2767095531260758e-05 0 -0.034741433801957988 0.00012670351844340191 0 -0.034387720389596539 0.00036765339759917462 0 -0.034903482024788983 4.8591485545312564e-05 0 -0.034617246297662066 0.00021122397149590271 0 -0.034741433801957988 0.00012670351844340191 0 -0.034387720389596539 0.00036765339759917462 0 -0.03437979848800464 0.00053134323706752434 0 -0.034387720389596539 0.00036765339759917462 0 -0.03437979848800464 0.00053134323706752434 0 -0.034141216766523173 0.0010403636177003604 0 -0.033606828322720855 0.0010821997782862348 0 -0.03437979848800464 0.00053134323706752434 0 -0.034141216766523173 0.0010403636177003604 0 -0.034617246297662066 0.00021122397149590271 0 -0.034730726096493338 0.0004709981927656771 0 -0.034828838437674217 1.0556341198363696e-05 0 -0.034865063736019677 -1.0339746204142983e-05 0 -0.034844872984016888 3.01765965793792e-05 0 -0.034813099341207951 4.1450057945800289e-05 0 -0.034828838437674217 1.0556341198363696e-05 0 -0.034844872984016888 3.01765965793792e-05 0 -0.031273895278063381 0.00099483761170955404 0 -0.030631581197203318 0.002670853605594754 0 -0.028763082607961007 0.0019146661428876639 0 -0.030631581197203318 0.002670853605594754 0 -0.028558689360559168 0.0030715433929173535 0 -0.028763082607961007 0.0019146661428876639 0 -0.033606828322720855 0.0010821997782862348 0 -0.03437979848800464 0.00053134323706752434 0 -0.034705748172714455 0.00069980014783458777 0 -0.033571790472464551 0.0011120085003158142 0 -0.032682588574711242 0.0016149527223899725 0 -0.033606828322720855 0.0010821997782862348 0 -0.031273895278063381 0.00099483761170955404 0 -0.030631581197203318 0.002670853605594754 0 -0.03437979848800464 0.00053134323706752434 0 -0.034827089094838518 0.00032521370952032642 0 -0.03484927843848698 0.00011669464362854563 0 -0.03437979848800464 0.00053134323706752434 0 -0.034705748172714455 0.00069980014783458777 0 -0.034827089094838518 0.00032521370952032642 0 -0.032682588574711242 0.0016149527223899725 0 -0.031846153736957039 0.0016228154549129954 0 -0.034827089094838518 0.00032521370952032642 0 -0.034987805451736076 8.9310066385627353e-05 0 -0.035001559092929228 0.00028790689636774082 0 -0.034705748172714455 0.00069980014783458777 0 -0.034827089094838518 0.00032521370952032642 0 -0.035001559092929228 0.00028790689636774082 0 -0.034827089094838518 0.00032521370952032642 0 -0.03484927843848698 0.00011669464362854563 0 -0.034987805451736076 8.9310066385627353e-05 0 -0.034999542174798816 1.0578079643243533e-07 0 -0.03484927843848698 0.00011669464362854563 0 -0.035000153125808335 -6.1540766110502257e-08 0 -0.03484927843848698 0.00011669464362854563 0 -0.035000153125808335 -6.1540766110502257e-08 0 -0.034987805451736076 8.9310066385627353e-05 0 -0.035000153125808335 -6.1540766110502257e-08 0 -0.034999495426117973 2.4237564268430585e-07 0 -0.035011086868815704 8.5500411799958396e-06 0 -0.035000153125808335 -6.1540766110502257e-08 0 -0.035011086868815704 8.5500411799958396e-06 0 -0.034987805451736076 8.9310066385627353e-05 0 -0.034999495426117973 2.4237564268430585e-07 0 -0.035011086868815704 8.5500411799958396e-06 0 -0.03443064304504919 -9.1733107767049147e-05 0 -0.035011086868815704 8.5500411799958396e-06 0 -0.034954128728642307 -5.1934958329609687e-05 0 -0.03443064304504919 -9.1733107767049147e-05 0 -0.034954128728642307 -5.1934958329609687e-05 0 -0.034987805451736076 8.9310066385627353e-05 0 -0.035001559092929228 0.00028790689636774082 0 -0.035011086868815704 8.5500411799958396e-06 0 -0.034954128728642307 -5.1934958329609687e-05 0 -0.034987805451736076 8.9310066385627353e-05 0 -0.034879678315818216 0.00022104436969579234 0 -0.03499923679467578 -2.4529796346478336e-07 0 -0.035074637928015996 9.8548120683433942e-05 0 -0.034879678315818216 0.00022104436969579234 0 -0.03499923679467578 -2.4529796346478336e-07 0 -0.03443064304504919 -9.1733107767049147e-05 0 -0.034999495426117973 2.4237564268430585e-07 0 -0.03499923679467578 -2.4529796346478336e-07 0 -0.03443064304504919 -9.1733107767049147e-05 0 -0.034879678315818216 0.00022104436969579234 0 -0.03443064304504919 -9.1733107767049147e-05 0 -0.034129679779643374 0.0018291118773703934 0 -0.029909947226322536 0.0012610180108752612 0 -0.03443064304504919 -9.1733107767049147e-05 0 -0.034129679779643374 0.0018291118773703934 0 -0.03251767892255631 0.00069983159670749108 0 -0.034134492205227358 -5.755428255745819e-05 0 -0.026826816972801606 0.0026444064972778909 0 -0.02661829348400167 0.0021997648418171189 0 -0.026552077845577171 0.0016266157694509354 0 -0.030428038142753466 0.0021555445134046934 0 -0.030942164171545709 0.0010484215323612002 0 -0.034879678315818216 0.00022104436969579234 0 -0.034129679779643374 0.0018291118773703934 0 -0.035241112386624918 0.00036699137483782408 0 -0.026826816972801606 0.0026444064972778909 0 -0.02661829348400167 0.0021997648418171189 0 -0.026759683282882082 0.002213701215657264 0 -0.02661829348400167 0.0021997648418171189 0 -0.026759683282882082 0.002213701215657264 0 -0.026529766176574179 0.001899038708224148 0 -0.026826816972801606 0.0026444064972778909 0 -0.026759683282882082 0.002213701215657264 0 -0.027227342460122757 0.0020282180073522139 0 -0.026826816972801606 0.0026444064972778909 0 -0.027227342460122757 0.0020282180073522139 0 -0.028048267477315043 0.0023191173202141706 0 -0.027227342460122757 0.0020282180073522139 0 -0.026529766176574179 0.001899038708224148 0 -0.026803802349264598 0.001583169269468879 0 -0.026759683282882082 0.002213701215657264 0 -0.027227342460122757 0.0020282180073522139 0 -0.026529766176574179 0.001899038708224148 0 -0.03251767892255631 0.00069983159670749108 0 -0.031846153736957039 0.0016228154549129954 0 -0.029909947226322536 0.0012610180108752612 0 -0.028558689360559168 0.0030715433929173535 0 -0.028961107945567787 0.0027640140222178469 0 -0.028569671035651379 0.0026040530358420956 0 -0.028558689360559168 0.0030715433929173535 0 -0.028961107945567787 0.0027640140222178469 0 -0.029909947226322536 0.0012610180108752612 0 -0.034129679779643374 0.0018291118773703934 0 -0.028961107945567787 0.0027640140222178469 0 -0.030428038142753466 0.0021555445134046934 0 -0.029122809525745863 0.0027242114470848841 0 -0.026826816972801606 0.0026444064972778909 0 -0.028961107945567787 0.0027640140222178469 0 -0.028048267477315043 0.0023191173202141706 0 -0.028569671035651379 0.0026040530358420956 0 -0.028961107945567787 0.0027640140222178469 0 -0.028048267477315043 0.0023191173202141706 0 -0.027227342460122757 0.0020282180073522139 0 -0.028048267477315043 0.0023191173202141706 0 -0.028079125979038947 0.0020901852165582462 0 -0.028569671035651379 0.0026040530358420956 0 -0.028048267477315043 0.0023191173202141706 0 -0.028079125979038947 0.0020901852165582462 0 -0.027227342460122757 0.0020282180073522139 0 -0.028079125979038947 0.0020901852165582462 0 -0.027671698941213616 0.0014471996009894537 0 -0.028569671035651379 0.0026040530358420956 0 -0.028079125979038947 0.0020901852165582462 0 -0.028763082607961007 0.0019146661428876639 0 -0.028079125979038947 0.0020901852165582462 0 -0.028763082607961007 0.0019146661428876639 0 -0.027671698941213616 0.0014471996009894537 0 -0.028569671035651379 0.0026040530358420956 0 -0.028558689360559168 0.0030715433929173535 0 -0.028763082607961007 0.0019146661428876639 0 -0.029541458034955403 0.00045745177389513439 0 -0.028763082607961007 0.0019146661428876639 0 -0.028266969119488661 0.00065797763055600793 0 -0.028763082607961007 0.0019146661428876639 0 -0.028266969119488661 0.00065797763055600793 0 -0.027671698941213616 0.0014471996009894537 0 -0.028669483700807571 -9.4627198156629533e-05 0 -0.028266969119488661 0.00065797763055600793 0 -0.027479687115954558 -7.2759302687759174e-05 0 -0.028266969119488661 0.00065797763055600793 0 -0.026869442604937996 0.00076992002096598524 0 -0.027479687115954558 -7.2759302687759174e-05 0 -0.028266969119488661 0.00065797763055600793 0 -0.027671698941213616 0.0014471996009894537 0 -0.026869442604937996 0.00076992002096598524 0 -0.027671698941213616 0.0014471996009894537 0 -0.026803802349264598 0.001583169269468879 0 -0.026869442604937996 0.00076992002096598524 0 -0.026803802349264598 0.001583169269468879 0 -0.025972237033141349 0.0013703671705539995 0 -0.026869442604937996 0.00076992002096598524 0 -0.027227342460122757 0.0020282180073522139 0 -0.027671698941213616 0.0014471996009894537 0 -0.026803802349264598 0.001583169269468879 0 -0.026529766176574179 0.001899038708224148 0 -0.026803802349264598 0.001583169269468879 0 -0.025972237033141349 0.0013703671705539995 0 -0.026529766176574179 0.001899038708224148 0 -0.025972237033141349 0.0013703671705539995 0 -0.026433093495989945 0.0016902097373794132 0 -0.025972237033141349 0.0013703671705539995 0 -0.024724341412457152 0.00021098772385520878 0 -0.022682201247109519 0.00082413867647082714 0 -0.025972237033141349 0.0013703671705539995 0 -0.02579631459786912 -0.00040902198767896869 0 -0.024724341412457152 0.00021098772385520878 0 -0.025972237033141349 0.0013703671705539995 0 -0.026869442604937996 0.00076992002096598524 0 -0.02579631459786912 -0.00040902198767896869 0 -0.02579631459786912 -0.00040902198767896869 0 -0.024724341412457152 0.00021098772385520878 0 -0.023785432991479297 -0.00069282976916833249 0 -0.02579631459786912 -0.00040902198767896869 0 -0.023941264211179352 -0.001803740650863591 0 -0.023785432991479297 -0.00069282976916833249 0 -0.025642415987571696 -0.00052691819922815223 0 -0.024855329907699928 -0.0018531862959630129 0 -0.02579631459786912 -0.00040902198767896869 0 -0.024868610385301099 -0.0022274979081740431 0 -0.023941264211179352 -0.001803740650863591 0 -0.024868610385301099 -0.0022274979081740431 0 -0.023941264211179352 -0.001803740650863591 0 -0.023965897266255254 -0.0024403236683523226 0 -0.02579631459786912 -0.00040902198767896869 0 -0.024773149469375019 -0.0015109031292515436 0 -0.025664757914605329 -0.0011423572866621132 0 -0.02579631459786912 -0.00040902198767896869 0 -0.025664757914605329 -0.0011423572866621132 0 -0.026543605367939573 -0.0010508479610290211 0 -0.024773149469375019 -0.0015109031292515436 0 -0.025664757914605329 -0.0011423572866621132 0 -0.025115823427307827 -0.0018236084531790635 0 -0.025664757914605329 -0.0011423572866621132 0 -0.026543605367939573 -0.0010508479610290211 0 -0.025915566293884449 -0.0016712897652474592 0 -0.025664757914605329 -0.0011423572866621132 0 -0.025915566293884449 -0.0016712897652474592 0 -0.025115823427307827 -0.0018236084531790635 0 -0.026543605367939573 -0.0010508479610290211 0 -0.02789118126029462 -0.0010682709161809727 0 -0.02675840005752923 -0.0020809753434018548 0 -0.028669483700807571 -9.4627198156629533e-05 0 -0.02789118126029462 -0.0010682709161809727 0 -0.027479687115954558 -7.2759302687759174e-05 0 -0.02579631459786912 -0.00040902198767896869 0 -0.026543605367939573 -0.0010508479610290211 0 -0.027479687115954558 -7.2759302687759174e-05 0 -0.026543605367939573 -0.0010508479610290211 0 -0.02789118126029462 -0.0010682709161809727 0 -0.027479687115954558 -7.2759302687759174e-05 0 -0.026869442604937996 0.00076992002096598524 0 -0.02579631459786912 -0.00040902198767896869 0 -0.027479687115954558 -7.2759302687759174e-05 0 -0.020317890821609771 -0.00015877762995626183 0 -0.020636183419002335 -0.0020110345324703418 0 -0.021965267817544359 -0.0010473107336938514 0 -0.020317890821609771 -0.00015877762995626183 0 -0.019292253517716965 -0.002093206621513956 0 -0.018493272404084042 -0.0011021771640516147 0 -0.02648241736439717 0.0016926077041755625 0 -0.026435295288352843 0.001740953480369451 0 -0.026333337846750165 0.0015588845455654099 0 -0.023391501792426245 0.00076354334487795886 0 -0.022515046606125844 0.00028215078112321142 0 -0.020317890821609771 -0.00015877762995626183 0 -0.019292253517716965 -0.002093206621513956 0 -0.020636183419002335 -0.0020110345324703418 0 -0.021769215151708078 -0.0021983722598223543 0 -0.022829507852617118 -0.0019168535322169442 0 -0.022269160907059261 -0.0029772647040932181 0 -0.021769215151708078 -0.0021983722598223543 0 -0.022829507852617118 -0.0019168535322169442 0 -0.021965267817544359 -0.0010473107336938514 0 -0.020636183419002335 -0.0020110345324703418 0 -0.021769215151708078 -0.0021983722598223543 0 -0.021965267817544359 -0.0010473107336938514 0 -0.022829507852617118 -0.0019168535322169442 0 -0.023785432991479297 -0.00069282976916833249 0 -0.021965267817544359 -0.0010473107336938514 0 -0.023941264211179352 -0.001803740650863591 0 -0.023965897266255254 -0.0024403236683523226 0 -0.023280074915682656 -0.0026489356952229147 0 -0.023941264211179352 -0.001803740650863591 0 -0.022829507852617118 -0.0019168535322169442 0 -0.023280074915682656 -0.0026489356952229147 0 -0.023941264211179352 -0.001803740650863591 0 -0.022829507852617118 -0.0019168535322169442 0 -0.023785432991479297 -0.00069282976916833249 0 -0.023785432991479297 -0.00069282976916833249 0 -0.021965267817544359 -0.0010473107336938514 0 -0.022682201247109519 0.00082413867647082714 0 -0.024724341412457152 0.00021098772385520878 0 -0.023785432991479297 -0.00069282976916833249 0 -0.022682201247109519 0.00082413867647082714 0 -0.020317890821609771 -0.00015877762995626183 0 -0.021965267817544359 -0.0010473107336938514 0 -0.022682201247109519 0.00082413867647082714 0 -0.023391501792426245 0.00076354334487795886 0 -0.024615467925616186 0.001264582427716665 0 -0.02648241736439717 0.0016926077041755625 0 -0.026477469900228603 0.0017895143013428032 0 -0.026527271782930583 0.0017840697325187602 0 -0.025972237033141349 0.0013703671705539995 0 -0.026477469900228603 0.0017895143013428032 0 -0.026433093495989945 0.0016902097373794132 0 -0.025874681064408302 0.0014116402677704972 0 -0.024615467925616186 0.001264582427716665 0 -0.026477469900228603 0.0017895143013428032 0 -0.026433093495989945 0.0016902097373794132 0 -0.026527271782930583 0.0017840697325187602 0 -0.026433093495989945 0.0016902097373794132 0 -0.026527271782930583 0.0017840697325187602 0 -0.02655552029568873 0.0018562681046013925 0 -0.026527271782930583 0.0017840697325187602 0 -0.026549971668879357 0.0019150222246530283 0 -0.02655552029568873 0.0018562681046013925 0 -0.026527271782930583 0.0017840697325187602 0 -0.026435295288352843 0.001740953480369451 0 -0.026478462508271107 0.0018612338129231855 0 -0.026527271782930583 0.0017840697325187602 0 -0.026478462508271107 0.0018612338129231855 0 -0.026549971668879357 0.0019150222246530283 0 -0.02648241736439717 0.0016926077041755625 0 -0.026527271782930583 0.0017840697325187602 0 -0.026435295288352843 0.001740953480369451 0 -0.026435295288352843 0.001740953480369451 0 -0.026478462508271107 0.0018612338129231855 0 -0.026395294336303533 0.0018262542949490832 0 -0.026478462508271107 0.0018612338129231855 0 -0.026451522235560507 0.001915061229822427 0 -0.026395294336303533 0.0018262542949490832 0 -0.026451522235560507 0.001915061229822427 0 -0.026506999239539347 0.0019726684866531959 0 -0.026503674201756078 0.001990333157934098 0 -0.026478462508271107 0.0018612338129231855 0 -0.026451522235560507 0.001915061229822427 0 -0.026506999239539347 0.0019726684866531959 0 -0.026506999239539347 0.0019726684866531959 0 -0.026549971668879357 0.0019150222246530283 0 -0.026635708825461384 0.0020605723600199311 0 -0.026478462508271107 0.0018612338129231855 0 -0.026506999239539347 0.0019726684866531959 0 -0.026549971668879357 0.0019150222246530283 0 -0.026506999239539347 0.0019726684866531959 0 -0.026531925696101629 0.0020818298526491725 0 -0.026635708825461384 0.0020605723600199311 0 -0.026531925696101629 0.0020818298526491725 0 -0.026635708825461384 0.0020605723600199311 0 -0.026395898054605012 0.0021355334900570893 0 -0.026531925696101629 0.0020818298526491725 0 -0.026503674201756078 0.001990333157934098 0 -0.026713774425535297 0.002033729391115065 0 -0.026506999239539347 0.0019726684866531959 0 -0.026531925696101629 0.0020818298526491725 0 -0.026503674201756078 0.001990333157934098 0 -0.026433093495989945 0.0016902097373794132 0 -0.026728328570101663 0.0020512738297786084 0 -0.02655552029568873 0.0018562681046013925 0 -0.026529766176574179 0.001899038708224148 0 -0.026433093495989945 0.0016902097373794132 0 -0.026728328570101663 0.0020512738297786084 0 -0.02661829348400167 0.0021997648418171189 0 -0.026529766176574179 0.001899038708224148 0 -0.026728328570101663 0.0020512738297786084 0 -0.026549971668879357 0.0019150222246530283 0 -0.02655552029568873 0.0018562681046013925 0 -0.026635708825461384 0.0020605723600199311 0 -0.026728328570101663 0.0020512738297786084 0 -0.02655552029568873 0.0018562681046013925 0 -0.026635708825461384 0.0020605723600199311 0 -0.026635708825461384 0.0020605723600199311 0 -0.027117887312348678 0.0023676902502758261 0 -0.026395898054605012 0.0021355334900570893 0 -0.026728328570101663 0.0020512738297786084 0 -0.026635708825461384 0.0020605723600199311 0 -0.027117887312348678 0.0023676902502758261 0 -0.02661829348400167 0.0021997648418171189 0 -0.026728328570101663 0.0020512738297786084 0 -0.027117887312348678 0.0023676902502758261 0 -0.02661829348400167 0.0021997648418171189 0 -0.027117887312348678 0.0023676902502758261 0 -0.026552077845577171 0.0016266157694509354 0 -0.034879678315818216 0.00022104436969579234 0 -0.035241112386624918 0.00036699137483782408 0 -0.035074637928015996 9.8548120683433942e-05 0 -0.027117887312348678 0.0023676902502758261 0 -0.026552077845577171 0.0016266157694509354 0 -0.030100378005667987 0.00023727115325979816 0 -0.030942164171545709 0.0010484215323612002 0 -0.03259383639366923 0.00017300191904573713 0 -0.027117887312348678 0.0023676902502758261 0 -0.030100378005667987 0.00023727115325979816 0 -0.031450994758964429 0.0020157426168060993 0 -0.027291984238111747 0.0023647702781384458 0 -0.028931080593656146 0.0020312247163653319 0 -0.035241112386624918 0.00036699137483782408 0 -0.035106300485363492 0.00010434328555432767 0 -0.035051701256099674 -7.0242635981469959e-06 0 -0.035000792888381385 2.8850619254147183e-07 0 -0.035106300485363492 0.00010434328555432767 0 -0.035051701256099674 -7.0242635981469959e-06 0 -0.035000792888381385 2.8850619254147183e-07 0 -0.035106300485363492 0.00010434328555432767 0 -0.035074637928015996 9.8548120683433942e-05 0 -0.03499923679467578 -2.4529796346478336e-07 0 -0.035000792888381385 2.8850619254147183e-07 0 -0.035074637928015996 9.8548120683433942e-05 0 -0.035241112386624918 0.00036699137483782408 0 -0.035106300485363492 0.00010434328555432767 0 -0.035074637928015996 9.8548120683433942e-05 0 -0.028931080593656146 0.0020312247163653319 0 -0.031128216759271531 0.0012229289829436549 0 -0.031450994758964429 0.0020157426168060993 0 -0.034714896784824138 -0.00016333564476186095 0 -0.035011137988076875 0.00077498088240993601 0 -0.026713774425535297 0.002033729391115065 0 -0.026395898054605012 0.0021355334900570893 0 -0.027286149788162531 0.0017022345700222117 0 -0.026531925696101629 0.0020818298526491725 0 -0.026713774425535297 0.002033729391115065 0 -0.026395898054605012 0.0021355334900570893 0 -0.030100378005667987 0.00023727115325979816 0 -0.031450994758964429 0.0020157426168060993 0 -0.034714896784824138 -0.00016333564476186095 0 -0.03259383639366923 0.00017300191904573713 0 -0.03452688403512396 -0.00018009659065345738 0 -0.035000792888381385 2.8850619254147183e-07 0 -0.035051701256099674 -7.0242635981469959e-06 0 -0.034998908061712047 -2.8014549774753876e-07 0 -0.034998908061712047 -2.8014549774753876e-07 0 -0.034714896784824138 -0.00016333564476186095 0 -0.034949997994163186 5.1846405357170557e-05 0 -0.035051701256099674 -7.0242635981469959e-06 0 -0.034998908061712047 -2.8014549774753876e-07 0 -0.034714896784824138 -0.00016333564476186095 0 -0.034998908061712047 -2.8014549774753876e-07 0 -0.034949997994163186 5.1846405357170557e-05 0 -0.035000337438284755 1.3921608409913164e-07 0 -0.034949997994163186 5.1846405357170557e-05 0 -0.035011137988076875 0.00077498088240993601 0 -0.035077475201354555 5.9892219713160096e-05 0 -0.034714896784824138 -0.00016333564476186095 0 -0.034949997994163186 5.1846405357170557e-05 0 -0.035011137988076875 0.00077498088240993601 0 -0.027286149788162531 0.0017022345700222117 0 -0.028214507235446988 0.0018209644588505841 0 -0.027923082649722191 0.002358805159759413 0 -0.026713774425535297 0.002033729391115065 0 -0.027286149788162531 0.0017022345700222117 0 -0.027923082649722191 0.002358805159759413 0 -0.031128216759271531 0.0012229289829436549 0 -0.031740279571622905 0.00072908792113552149 0 -0.026690226373176272 0.0020467920655414602 0 -0.027224763608069594 0.0021728860958778792 0 -0.027286149788162531 0.0017022345700222117 0 -0.028214507235446988 0.0018209644588505841 0 -0.028800333574970451 0.0011314612400461317 0 -0.028904356959346959 0.0021100368121932042 0 -0.028214507235446988 0.0018209644588505841 0 -0.027923082649722191 0.002358805159759413 0 -0.028904356959346959 0.0021100368121932042 0 -0.028214507235446988 0.0018209644588505841 0 -0.028800333574970451 0.0011314612400461317 0 -0.034949997994163186 5.1846405357170557e-05 0 -0.035077475201354555 5.9892219713160096e-05 0 -0.035000337438284755 1.3921608409913164e-07 0 -0.035077475201354555 5.9892219713160096e-05 0 -0.034999925453514512 -8.2769158060502967e-09 0 -0.034991727677814222 -6.8709383753705182e-06 0 -0.035077475201354555 5.9892219713160096e-05 0 -0.035000337438284755 1.3921608409913164e-07 0 -0.034999925453514512 -8.2769158060502967e-09 0 -0.031740279571622905 0.00072908792113552149 0 -0.033578433525839099 -0.00028667282612967576 0 -0.028800333574970451 0.0011314612400461317 0 -0.030451609248978738 0.0006726938015291558 0 -0.02975920302145833 0.0017202782174009013 0 -0.033578433525839099 -0.00028667282612967576 0 -0.034998470908410906 -0.00021550699976341685 0 -0.034999990704153314 -8.2852093676260626e-10 0 -0.034996313424400502 -1.6274577405401462e-06 0 -0.034999993938226871 -4.2188192914698264e-09 0 -0.034998933307289259 3.3938603648145209e-07 0 -0.033578433525839099 -0.00028667282612967576 0 -0.034490105473011734 -0.00071638596869596431 0 -0.034558181197746327 -0.00052975067583443936 0 -0.034694363449951304 -0.00061369058451914442 0 -0.030857251889380124 0.0019574401000379544 0 -0.02975920302145833 0.0017202782174009013 0 -0.030045978685479941 0.0022845243749206887 0 -0.030451609248978738 0.0006726938015291558 0 -0.030857251889380124 0.0019574401000379544 0 -0.02975920302145833 0.0017202782174009013 0 -0.033578433525839099 -0.00028667282612967576 0 -0.032756969708999835 0.00082933420872061613 0 -0.028904356959346959 0.0021100368121932042 0 -0.028800333574970451 0.0011314612400461317 0 -0.02975920302145833 0.0017202782174009013 0 -0.02975920302145833 0.0017202782174009013 0 -0.030045978685479941 0.0022845243749206887 0 -0.029578672272511989 0.0022294158292010184 0 -0.028904356959346959 0.0021100368121932042 0 -0.02975920302145833 0.0017202782174009013 0 -0.029578672272511989 0.0022294158292010184 0 -0.028904356959346959 0.0021100368121932042 0 -0.029578672272511989 0.0022294158292010184 0 -0.029603923132163333 0.002802901466092151 0 -0.026330527050585743 0.0018196969527311403 0 -0.026299397441828985 0.0019560655061067905 0 -0.026301969589129628 0.0019410395020004699 0 -0.030045978685479941 0.0022845243749206887 0 -0.029603923132163333 0.002802901466092151 0 -0.030447879679910115 0.002564670023893077 0 -0.030045978685479941 0.0022845243749206887 0 -0.029578672272511989 0.0022294158292010184 0 -0.029603923132163333 0.002802901466092151 0 -0.026330527050585743 0.0018196969527311403 0 -0.02647760683310605 0.0019199321306087008 0 -0.026299397441828985 0.0019560655061067905 0 -0.030857251889380124 0.0019574401000379544 0 -0.030447879679910115 0.002564670023893077 0 -0.031275990857073152 0.0032048015997238541 0 -0.029603923132163333 0.002802901466092151 0 -0.030447879679910115 0.002564670023893077 0 -0.031275990857073152 0.0032048015997238541 0 -0.026330527050585743 0.0018196969527311403 0 -0.02647760683310605 0.0019199321306087008 0 -0.027717793734026632 0.0019709919469909957 0 -0.027601065048885598 0.0024585860807463515 0 -0.031486611434340846 0.0011019205397893622 0 -0.030857251889380124 0.0019574401000379544 0 -0.030045978685479941 0.0022845243749206887 0 -0.030447879679910115 0.002564670023893077 0 -0.02655689533443208 0.0020056663721723413 0 -0.026696976056504167 0.0019637801943187816 0 -0.02664130748171176 0.0020752973212260421 0 -0.025144661087070072 0.0020638803124276026 0 -0.030907899971739681 0.00050991615830510938 0 -0.02647760683310605 0.0019199321306087008 0 -0.027717793734026632 0.0019709919469909957 0 -0.02779383338785562 0.0021645309740503447 0 -0.02647760683310605 0.0019199321306087008 0 -0.02655689533443208 0.0020056663721723413 0 -0.026696976056504167 0.0019637801943187816 0 -0.02647760683310605 0.0019199321306087008 0 -0.02655689533443208 0.0020056663721723413 0 -0.026299397441828985 0.0019560655061067905 0 -0.02655689533443208 0.0020056663721723413 0 -0.026299397441828985 0.0019560655061067905 0 -0.026535760590931344 0.0021023316446093783 0 -0.026312019619593351 0.0019804113619673086 0 -0.026217558023512427 0.0018762337688343585 0 -0.026299397441828985 0.0019560655061067905 0 -0.026264390429195594 0.0018705048825207126 0 -0.026038987397187175 0.0018395148757178366 0 -0.026299397441828985 0.0019560655061067905 0 -0.026295839512311722 0.0019206796293717292 0 -0.026264390429195594 0.0018705048825207126 0 -0.026299397441828985 0.0019560655061067905 0 -0.026295839512311722 0.0019206796293717292 0 -0.026301969589129628 0.0019410395020004699 0 -0.026295839512311722 0.0019206796293717292 0 -0.026347070824590719 0.0019088708169826293 0 -0.026301969589129628 0.0019410395020004699 0 -0.026295839512311722 0.0019206796293717292 0 -0.026347070824590719 0.0019088708169826293 0 -0.026264390429195594 0.0018705048825207126 0 -0.026451522235560507 0.001915061229822427 0 -0.026503674201756078 0.001990333157934098 0 -0.026347070824590719 0.0019088708169826293 0 -0.026451522235560507 0.001915061229822427 0 -0.026347070824590719 0.0019088708169826293 0 -0.026395294336303533 0.0018262542949490832 0 -0.026503674201756078 0.001990333157934098 0 -0.026347070824590719 0.0019088708169826293 0 -0.026339597290146153 0.0020269076690569536 0 -0.026503674201756078 0.001990333157934098 0 -0.026713774425535297 0.002033729391115065 0 -0.026339597290146153 0.0020269076690569536 0 -0.028904356959346959 0.0021100368121932042 0 -0.029603923132163333 0.002802901466092151 0 -0.027923082649722191 0.002358805159759413 0 -0.026347070824590719 0.0019088708169826293 0 -0.026339597290146153 0.0020269076690569536 0 -0.026301969589129628 0.0019410395020004699 0 -0.026330527050585743 0.0018196969527311403 0 -0.026339597290146153 0.0020269076690569536 0 -0.026301969589129628 0.0019410395020004699 0 -0.027601065048885598 0.0024585860807463515 0 -0.027224763608069594 0.0021728860958778792 0 -0.035010940005612591 -7.1600924842862103e-05 0 -0.035030510780223852 -4.9341497123495764e-05 0 -0.035072939457696836 -0.00014437515093727776 0 -0.035010940005612591 -7.1600924842862103e-05 0 -0.035000043299470214 -4.7916983265443598e-08 0 -0.034999956454470779 -8.1831358844679501e-09 0 -0.035010940005612591 -7.1600924842862103e-05 0 -0.035000043299470214 -4.7916983265443598e-08 0 -0.035030510780223852 -4.9341497123495764e-05 0 -0.035000043299470214 -4.7916983265443598e-08 0 -0.035030510780223852 -4.9341497123495764e-05 0 -0.035000116842353719 -3.9506822945612488e-08 0 -0.035030510780223852 -4.9341497123495764e-05 0 -0.035032403083511833 -4.4767004932629033e-05 0 -0.035072939457696836 -0.00014437515093727776 0 -0.034909532652308575 -0.00037101909745462477 0 -0.035036210705849877 -0.00030356130574662338 0 -0.03485459613276605 -0.00062184655037597289 0 -0.034817696447489804 -0.00050192270895575762 0 -0.035008075739081823 -0.00046545118221003187 0 -0.03485459613276605 -0.00062184655037597289 0 -0.034694363449951304 -0.00061369058451914442 0 -0.034817696447489804 -0.00050192270895575762 0 -0.035030510780223852 -4.9341497123495764e-05 0 -0.035032403083511833 -4.4767004932629033e-05 0 -0.035000116842353719 -3.9506822945612488e-08 0 -0.034909532652308575 -0.00037101909745462477 0 -0.034998470908410906 -0.00021550699976341685 0 -0.035032403083511833 -4.4767004932629033e-05 0 -0.035000116842353719 -3.9506822945612488e-08 0 -0.03501740370589624 -5.8902205172869533e-06 0 -0.034996313424400502 -1.6274577405401462e-06 0 -0.034999364286145244 -5.5865972664002144e-07 0 -0.034999993938226871 -4.2188192914698264e-09 0 -0.034490105473011734 -0.00071638596869596431 0 -0.034686244857011675 -0.00076806411601168729 0 -0.034694363449951304 -0.00061369058451914442 0 -0.03485459613276605 -0.00062184655037597289 0 -0.034686244857011675 -0.00076806411601168729 0 -0.034694363449951304 -0.00061369058451914442 0 -0.035000000024732331 -1.4567728822246539e-10 0 -0.034999985515384018 -1.5508803627627424e-07 0 -0.034999999827018305 -3.4783958729144412e-10 0 -0.0349999640806486 -9.1131081611443716e-08 0 -0.034998470908410906 -0.00021550699976341685 0 -0.034998470908410906 -0.00021550699976341685 0 -0.035000134406499218 -3.3083210225259291e-07 0 -0.034694363449951304 -0.00061369058451914442 0 -0.034706006895617925 -0.00049575370919737122 0 -0.034817696447489804 -0.00050192270895575762 0 -0.034558181197746327 -0.00052975067583443936 0 -0.034694363449951304 -0.00061369058451914442 0 -0.034706006895617925 -0.00049575370919737122 0 -0.032756969708999835 0.00082933420872061613 0 -0.031486611434340846 0.0011019205397893622 0 -0.034558181197746327 -0.00052975067583443936 0 -0.034673877507066547 -0.00042541504046595009 0 -0.034618484238266307 -0.00035558325869224029 0 -0.034558181197746327 -0.00052975067583443936 0 -0.034706006895617925 -0.00049575370919737122 0 -0.034673877507066547 -0.00042541504046595009 0 -0.034706006895617925 -0.00049575370919737122 0 -0.034673877507066547 -0.00042541504046595009 0 -0.034789262554247254 -0.00040712991297471449 0 -0.034673877507066547 -0.00042541504046595009 0 -0.034701417101556768 -0.00034222579546387547 0 -0.034789262554247254 -0.00040712991297471449 0 -0.034673877507066547 -0.00042541504046595009 0 -0.034618484238266307 -0.00035558325869224029 0 -0.034701417101556768 -0.00034222579546387547 0 -0.031486611434340846 0.0011019205397893622 0 -0.034470189846468172 0.00068295195533388947 0 -0.034599997310650658 -0.00030579319246021389 0 -0.034701417101556768 -0.00034222579546387547 0 -0.03492088637329524 -0.00029701341809966199 0 -0.034575826209205601 -0.00035586497629424646 0 -0.034599997310650658 -0.00030579319246021389 0 -0.034701417101556768 -0.00034222579546387547 0 -0.031486611434340846 0.0011019205397893622 0 -0.030907899971739681 0.00050991615830510938 0 -0.034039389227279178 -0.0013036960253913778 0 -0.034462254795305833 -0.0011901150784412455 0 -0.034378123044208425 -0.0010318551573275088 0 -0.034701417101556768 -0.00034222579546387547 0 -0.03492088637329524 -0.00029701341809966199 0 -0.034789262554247254 -0.00040712991297471449 0 -0.030907899971739681 0.00050991615830510938 0 -0.03535884223800332 -0.00080176143404663241 0 -0.03492088637329524 -0.00029701341809966199 0 -0.034789262554247254 -0.00040712991297471449 0 -0.034912965551331242 -0.00040386791401491012 0 -0.034789262554247254 -0.00040712991297471449 0 -0.034817696447489804 -0.00050192270895575762 0 -0.034912965551331242 -0.00040386791401491012 0 -0.034706006895617925 -0.00049575370919737122 0 -0.034789262554247254 -0.00040712991297471449 0 -0.034817696447489804 -0.00050192270895575762 0 -0.035008075739081823 -0.00046545118221003187 0 -0.034912965551331242 -0.00040386791401491012 0 -0.035010822325170533 -0.00036588714285560898 0 -0.034817696447489804 -0.00050192270895575762 0 -0.035008075739081823 -0.00046545118221003187 0 -0.034912965551331242 -0.00040386791401491012 0 -0.03492088637329524 -0.00029701341809966199 0 -0.034912965551331242 -0.00040386791401491012 0 -0.035010822325170533 -0.00036588714285560898 0 -0.03492088637329524 -0.00029701341809966199 0 -0.035010822325170533 -0.00036588714285560898 0 -0.035064476529427069 -0.00044744646691479312 0 -0.035010822325170533 -0.00036588714285560898 0 -0.035041573983358977 -0.00031921401964684471 0 -0.035064476529427069 -0.00044744646691479312 0 -0.035008075739081823 -0.00046545118221003187 0 -0.035010822325170533 -0.00036588714285560898 0 -0.035041573983358977 -0.00031921401964684471 0 -0.035010940005612591 -7.1600924842862103e-05 0 -0.035072939457696836 -0.00014437515093727776 0 -0.035041573983358977 -0.00031921401964684471 0 -0.035036210705849877 -0.00030356130574662338 0 -0.035030432860776194 -0.00032677771783469646 0 -0.034805261253335017 -0.00085901644595790124 0 -0.034832952067796359 -0.00088124823758707334 0 -0.034659753831246309 -0.00092623738967171352 0 -0.034805261253335017 -0.00085901644595790124 0 -0.034832952067796359 -0.00088124823758707334 0 -0.03485641901376612 -0.00090396244505736207 0 -0.034805261253335017 -0.00085901644595790124 0 -0.034659753831246309 -0.00092623738967171352 0 -0.03468163605922437 -0.00084734998794400358 0 -0.034832952067796359 -0.00088124823758707334 0 -0.034791594558169436 -0.0010169320716141689 0 -0.034659753831246309 -0.00092623738967171352 0 -0.034462254795305833 -0.0011901150784412455 0 -0.034659753831246309 -0.00092623738967171352 0 -0.034378123044208425 -0.0010318551573275088 0 -0.03535884223800332 -0.00080176143404663241 0 -0.03475502256141684 -0.00074791708523613875 0 -0.034659753831246309 -0.00092623738967171352 0 -0.034477775859205868 -0.00086895355446861848 0 -0.034378123044208425 -0.0010318551573275088 0 -0.034462254795305833 -0.0011901150784412455 0 -0.034791594558169436 -0.0010169320716141689 0 -0.034659753831246309 -0.00092623738967171352 0 -0.03468163605922437 -0.00084734998794400358 0 -0.034477775859205868 -0.00086895355446861848 0 -0.034666213952779953 -0.00079244214144238772 0 -0.034659753831246309 -0.00092623738967171352 0 -0.03468163605922437 -0.00084734998794400358 0 -0.034477775859205868 -0.00086895355446861848 0 -0.034477775859205868 -0.00086895355446861848 0 -0.034212534572243811 -0.00089321461691546688 0 -0.034315083939749025 -0.00041445385176520634 0 -0.034477775859205868 -0.00086895355446861848 0 -0.034378123044208425 -0.0010318551573275088 0 -0.034212534572243811 -0.00089321461691546688 0 -0.026696976056504167 0.0019637801943187816 0 -0.026720909754622827 0.00211389913135415 0 -0.02664130748171176 0.0020752973212260421 0 -0.030907899971739681 0.00050991615830510938 0 -0.030660586720742317 0.00061714969163221894 0 -0.034039389227279178 -0.0013036960253913778 0 -0.034378123044208425 -0.0010318551573275088 0 -0.034212534572243811 -0.00089321461691546688 0 -0.026720909754622827 0.00211389913135415 0 -0.02664130748171176 0.0020752973212260421 0 -0.026647312224534658 0.0021484510901745224 0 -0.026720909754622827 0.00211389913135415 0 -0.026696942044974151 0.0021447524951221275 0 -0.026647312224534658 0.0021484510901745224 0 -0.026696942044974151 0.0021447524951221275 0 -0.026690257316023182 0.0021578068418415968 0 -0.026647312224534658 0.0021484510901745224 0 -0.024087311226608579 0.00048111814727826619 0 -0.026560341702730358 0.0022371372943241325 0 -0.025613403592624585 0.0013952042013996861 0 -0.025816834875188991 0.0016550098241319003 0 -0.02582133604143598 0.0015003884271141432 0 -0.026696942044974151 0.0021447524951221275 0 -0.026690257316023182 0.0021578068418415968 0 -0.026725558157386402 0.0021534050669006414 0 -0.020548549098678547 -0.002561972216978345 0 -0.020255321500709678 -0.0019315405963568821 0 -0.019643636190861149 -0.0020299214499881393 0 -0.020255321500709678 -0.0019315405963568821 0 -0.019643636190861149 -0.0020299214499881393 0 -0.020547717929315212 -0.0012907548469559243 0 -0.020873509211323967 -0.0019482660602131196 0 -0.021060482262356541 -0.0016459982961285408 0 -0.020547717929315212 -0.0012907548469559243 0 -0.020255321500709678 -0.0019315405963568821 0 -0.020873509211323967 -0.0019482660602131196 0 -0.020547717929315212 -0.0012907548469559243 0 -0.020548549098678547 -0.002561972216978345 0 -0.020255321500709678 -0.0019315405963568821 0 -0.020950199002340967 -0.001956104630643139 0 -0.020541974819466791 -0.0015448328823587012 0 -0.022184523852562338 -0.0012747334340891274 0 -0.024087311226608579 0.00048111814727826619 0 -0.022184523852562338 -0.0012747334340891274 0 -0.024701349675267874 0.00034295570425678509 0 -0.025837200352049602 0.00028175260897126152 0 -0.025593575914961305 -0.00045052659571812834 0 -0.024250514437788365 -0.00034778084724292047 0 -0.024701349675267874 0.00034295570425678509 0 -0.025593575914961305 -0.00045052659571812834 0 -0.022184523852562338 -0.0012747334340891274 0 -0.025174421160356699 -0.00089317612260142204 0 -0.022184523852562338 -0.0012747334340891274 0 -0.021736392253338444 -0.0016927044120155985 0 -0.020882367657470417 -0.0019237394007535393 0 -0.021060482262356541 -0.0016459982961285408 0 -0.021729764250255804 -0.0019710181534621329 0 -0.025174421160356699 -0.00089317612260142204 0 -0.019994401359126522 -0.002760381688487796 0 -0.025168986678356677 -0.0010069914529419295 0 -0.024162448769398482 -0.00095533641243736604 0 -0.024535244981293204 -0.002856917999331869 0 -0.021060482262356541 -0.0016459982961285408 0 -0.021729764250255804 -0.0019710181534621329 0 -0.022044929722237091 -0.0010249588998282576 0 -0.025174421160356699 -0.00089317612260142204 0 -0.028151421368971516 -0.0013517235994396732 0 -0.028574444718016304 -0.0004145197761173714 0 -0.028574923916915802 -0.0004248751972003284 0 -0.028599630491832551 -0.00042957449616486484 0 -0.028574444718016304 -0.0004145197761173714 0 -0.028599630491832551 -0.00042957449616486484 0 -0.028594527154895345 -0.0004176410270516424 0 -0.025174421160356699 -0.00089317612260142204 0 -0.028652373072057313 0.00080407433781426907 0 -0.03492729138055789 -0.00073476948032528456 0 -0.032481485604985448 -0.00073553675612826966 0 -0.034477775859205868 -0.00086895355446861848 0 -0.034315083939749025 -0.00041445385176520634 0 -0.03447383823283498 -0.00042862752663037294 0 -0.030660586720742317 0.00061714969163221894 0 -0.028652373072057313 0.00080407433781426907 0 -0.028652373072057313 0.00080407433781426907 0 -0.032481485604985448 -0.00073553675612826966 0 -0.026720909754622827 0.00211389913135415 0 -0.026696942044974151 0.0021447524951221275 0 -0.026725558157386402 0.0021534050669006414 0 -0.024087311226608579 0.00048111814727826619 0 -0.028652373072057313 0.00080407433781426907 0 -0.034666213952779953 -0.00079244214144238772 0 -0.034581077963079736 -0.00071701421086866701 0 -0.034821942652434067 -0.00083705039571752981 0 -0.034477775859205868 -0.00086895355446861848 0 -0.034666213952779953 -0.00079244214144238772 0 -0.034581077963079736 -0.00071701421086866701 0 -0.032481485604985448 -0.00073553675612826966 0 -0.034463398435576394 -0.0010698854701954716 0 -0.03468163605922437 -0.00084734998794400358 0 -0.034666213952779953 -0.00079244214144238772 0 -0.034744294045671954 -0.00082829886688204324 0 -0.032481485604985448 -0.00073553675612826966 0 -0.028151421368971516 -0.0013517235994396732 0 -0.025021701353878548 -0.0029411399004342373 0 -0.025696465191895591 -0.0026438762402562418 0 -0.0264710695432866 -0.003044228689474562 0 -0.032281185673473892 -0.0011580535369750953 0 -0.032349397077266917 -0.00069515787530698158 0 -0.033714567260739521 -0.0012326370743299478 0 -0.028151421368971516 -0.0013517235994396732 0 -0.023918345542363158 -0.0023041325971245629 0 -0.025021701353878548 -0.0029411399004342373 0 -0.025696465191895591 -0.0026438762402562418 0 -0.025136298475228858 -0.002121292983228845 0 -0.032349397077266917 -0.00069515787530698158 0 -0.033834709995582836 -0.00081339776461170044 0 -0.033714567260739521 -0.0012326370743299478 0 -0.028151421368971516 -0.0013517235994396732 0 -0.030266898095213716 -0.0019876758457588006 0 -0.025696465191895591 -0.0026438762402562418 0 -0.026211432936968902 -0.0025754625944756624 0 -0.025926145125260411 -0.0023406925040958958 0 -0.025696465191895591 -0.0026438762402562418 0 -0.026211432936968902 -0.0025754625944756624 0 -0.0264710695432866 -0.003044228689474562 0 -0.026211432936968902 -0.0025754625944756624 0 -0.0264710695432866 -0.003044228689474562 0 -0.026620477292080648 -0.0024937447406902305 0 -0.034666213952779953 -0.00079244214144238772 0 -0.034821942652434067 -0.00083705039571752981 0 -0.034744294045671954 -0.00082829886688204324 0 -0.034805261253335017 -0.00085901644595790124 0 -0.03468163605922437 -0.00084734998794400358 0 -0.034744294045671954 -0.00082829886688204324 0 -0.034805261253335017 -0.00085901644595790124 0 -0.034821942652434067 -0.00083705039571752981 0 -0.034744294045671954 -0.00082829886688204324 0 -0.034805261253335017 -0.00085901644595790124 0 -0.034821942652434067 -0.00083705039571752981 0 -0.03485641901376612 -0.00090396244505736207 0 -0.026166445524823188 0.0017450778187547917 0 -0.02608234093438417 0.0016057520863100863 0 -0.026210732381607801 0.0015967680043670193 0 -0.026300057584339433 0.0017859640986402994 0 -0.026166445524823188 0.0017450778187547917 0 -0.026210732381607801 0.0015967680043670193 0 -0.026435295288352843 0.001740953480369451 0 -0.026332397584404647 0.0016897729493421541 0 -0.026395294336303533 0.0018262542949490832 0 -0.026435295288352843 0.001740953480369451 0 -0.026332397584404647 0.0016897729493421541 0 -0.026333337846750165 0.0015588845455654099 0 -0.026332397584404647 0.0016897729493421541 0 -0.026300057584339433 0.0017859640986402994 0 -0.026210732381607801 0.0015967680043670193 0 -0.026347070824590719 0.0019088708169826293 0 -0.026395294336303533 0.0018262542949490832 0 -0.026300057584339433 0.0017859640986402994 0 -0.026332397584404647 0.0016897729493421541 0 -0.026395294336303533 0.0018262542949490832 0 -0.026300057584339433 0.0017859640986402994 0 -0.026300057584339433 0.0017859640986402994 0 -0.026264390429195594 0.0018705048825207126 0 -0.026166445524823188 0.0017450778187547917 0 -0.026347070824590719 0.0019088708169826293 0 -0.026300057584339433 0.0017859640986402994 0 -0.026264390429195594 0.0018705048825207126 0 -0.026264390429195594 0.0018705048825207126 0 -0.026038987397187175 0.0018395148757178366 0 -0.026166445524823188 0.0017450778187547917 0 -0.026535760590931344 0.0021023316446093783 0 -0.02664130748171176 0.0020752973212260421 0 -0.026647312224534658 0.0021484510901745224 0 -0.02655689533443208 0.0020056663721723413 0 -0.026535760590931344 0.0021023316446093783 0 -0.02664130748171176 0.0020752973212260421 0 -0.026217558023512427 0.0018762337688343585 0 -0.026560341702730358 0.0022371372943241325 0 -0.026038987397187175 0.0018395148757178366 0 -0.025816834875188991 0.0016550098241319003 0 -0.026014543814557388 0.0016834070219296613 0 -0.025816834875188991 0.0016550098241319003 0 -0.026014543814557388 0.0016834070219296613 0 -0.025944402591319093 0.0015571309545415496 0 -0.026038987397187175 0.0018395148757178366 0 -0.026166445524823188 0.0017450778187547917 0 -0.026014543814557388 0.0016834070219296613 0 -0.026014543814557388 0.0016834070219296613 0 -0.02608234093438417 0.0016057520863100863 0 -0.025944402591319093 0.0015571309545415496 0 -0.026166445524823188 0.0017450778187547917 0 -0.026014543814557388 0.0016834070219296613 0 -0.02608234093438417 0.0016057520863100863 0 -0.02608234093438417 0.0016057520863100863 0 -0.026104544840947479 0.0015301626768449343 0 -0.026025934079575094 0.0014979271671266669 0 -0.026025934079575094 0.0014979271671266669 0 -0.025906197441793989 0.0013937602294349831 0 -0.026094834461915038 0.001413845227231049 0 -0.02608234093438417 0.0016057520863100863 0 -0.026025934079575094 0.0014979271671266669 0 -0.025944402591319093 0.0015571309545415496 0 -0.026025934079575094 0.0014979271671266669 0 -0.025944402591319093 0.0015571309545415496 0 -0.025906197441793989 0.0013937602294349831 0 -0.026104544840947479 0.0015301626768449343 0 -0.026025934079575094 0.0014979271671266669 0 -0.026094834461915038 0.001413845227231049 0 -0.025613403592624585 0.0013952042013996861 0 -0.02582133604143598 0.0015003884271141432 0 -0.025906197441793989 0.0013937602294349831 0 -0.025816834875188991 0.0016550098241319003 0 -0.025944402591319093 0.0015571309545415496 0 -0.02582133604143598 0.0015003884271141432 0 -0.025944402591319093 0.0015571309545415496 0 -0.02582133604143598 0.0015003884271141432 0 -0.025906197441793989 0.0013937602294349831 0 -0.024087311226608579 0.00048111814727826619 0 -0.022206055533091417 -0.00058583186459319596 0 -0.020548549098678547 -0.002561972216978345 0 -0.019643636190861149 -0.0020299214499881393 0 -0.018758557762519772 -0.0024153895673288679 0 -0.01764385986779014 -0.0020967202557909811 0 -0.017834244618555473 -0.0021142739725163824 0 -0.019643636190861149 -0.0020299214499881393 0 -0.01887641803493471 -0.0016196098725736515 0 -0.020547717929315212 -0.0012907548469559243 0 -0.019643636190861149 -0.0020299214499881393 0 -0.018758557762519772 -0.0024153895673288679 0 -0.01887641803493471 -0.0016196098725736515 0 -0.018758557762519772 -0.0024153895673288679 0 -0.01887641803493471 -0.0016196098725736515 0 -0.017272728931393273 -0.002071754807807513 0 -0.022206055533091417 -0.00058583186459319596 0 -0.021255434050575298 -0.00060972441769585671 0 -0.018758557762519772 -0.0024153895673288679 0 -0.017408465930147693 -0.002285730159295079 0 -0.017272728931393273 -0.002071754807807513 0 -0.01764385986779014 -0.0020967202557909811 0 -0.017302721884957725 -0.0020867804675935861 0 -0.01625745564962278 -0.002587751148251158 0 -0.017272728931393273 -0.002071754807807513 0 -0.017063847689325062 -0.0026903398981777517 0 -0.017397282366080256 -0.0024104212399152624 0 -0.017272728931393273 -0.002071754807807513 0 -0.017063847689325062 -0.0026903398981777517 0 -0.017397282366080256 -0.0024104212399152624 0 -0.017696702017297075 -0.0021717993271982874 0 -0.017534761127922658 -0.0027755058400769348 0 -0.017113271955678907 -0.0020312702744472084 0 -0.017325264158441975 -0.0019899218084698778 0 -0.018493272404084042 -0.0011021771640516147 0 -0.017696702017297075 -0.0021717993271982874 0 -0.017325264158441975 -0.0019899218084698778 0 -0.018493272404084042 -0.0011021771640516147 0 -0.017397282366080256 -0.0024104212399152624 0 -0.017419843060121881 -0.0021450190841509134 0 -0.017696702017297075 -0.0021717993271982874 0 -0.017397282366080256 -0.0024104212399152624 0 -0.017419843060121881 -0.0021450190841509134 0 -0.017272728931393273 -0.002071754807807513 0 -0.017696702017297075 -0.0021717993271982874 0 -0.018164798615578039 -0.0025556879697026845 0 -0.017534761127922658 -0.0027755058400769348 0 -0.017419843060121881 -0.0021450190841509134 0 -0.017272728931393273 -0.002071754807807513 0 -0.017325264158441975 -0.0019899218084698778 0 -0.017408465930147693 -0.002285730159295079 0 -0.017272728931393273 -0.002071754807807513 0 -0.017325264158441975 -0.0019899218084698778 0 -0.017419843060121881 -0.0021450190841509134 0 -0.017696702017297075 -0.0021717993271982874 0 -0.017325264158441975 -0.0019899218084698778 0 -0.021255434050575298 -0.00060972441769585671 0 -0.019490998551590855 -0.00073957745195020713 0 -0.026094834461915038 0.001413845227231049 0 -0.026210732381607801 0.0015967680043670193 0 -0.026333337846750165 0.0015588845455654099 0 -0.026104544840947479 0.0015301626768449343 0 -0.026094834461915038 0.001413845227231049 0 -0.026210732381607801 0.0015967680043670193 0 -0.021255434050575298 -0.00060972441769585671 0 -0.022515046606125844 0.00028215078112321142 0 -0.02608234093438417 0.0016057520863100863 0 -0.026104544840947479 0.0015301626768449343 0 -0.026210732381607801 0.0015967680043670193 0 -0.026332397584404647 0.0016897729493421541 0 -0.026210732381607801 0.0015967680043670193 0 -0.026333337846750165 0.0015588845455654099 0 -0.019292253517716965 -0.002093206621513956 0 -0.018493272404084042 -0.0011021771640516147 0 -0.018164798615578039 -0.0025556879697026845 0 -0.017696702017297075 -0.0021717993271982874 0 -0.018493272404084042 -0.0011021771640516147 0 -0.018164798615578039 -0.0025556879697026845 0 -0.019292253517716965 -0.002093206621513956 0 -0.018600455690874308 -0.0032176566560902782 0 -0.018164798615578039 -0.0025556879697026845 0 -0.018600455690874308 -0.0032176566560902782 0 -0.018164798615578039 -0.0025556879697026845 0 -0.017756299353852978 -0.0036478957923549754 0 -0.018600455690874308 -0.0032176566560902782 0 -0.017756299353852978 -0.0036478957923549754 0 -0.018967439001898751 -0.0042142755811461321 0 -0.017756299353852978 -0.0036478957923549754 0 -0.018228722759818215 -0.0051161205461607963 0 -0.018967439001898751 -0.0042142755811461321 0 -0.017756299353852978 -0.0036478957923549754 0 -0.017194231535811427 -0.0032352970796723796 0 -0.016985273646843886 -0.003714844169226197 0 -0.017756299353852978 -0.0036478957923549754 0 -0.016985273646843886 -0.003714844169226197 0 -0.017294857334089669 -0.004393457460164985 0 -0.017756299353852978 -0.0036478957923549754 0 -0.017194231535811427 -0.0032352970796723796 0 -0.017534761127922658 -0.0027755058400769348 0 -0.018164798615578039 -0.0025556879697026845 0 -0.017756299353852978 -0.0036478957923549754 0 -0.017534761127922658 -0.0027755058400769348 0 -0.017397282366080256 -0.0024104212399152624 0 -0.017534761127922658 -0.0027755058400769348 0 -0.017063847689325062 -0.0026903398981777517 0 -0.017194231535811427 -0.0032352970796723796 0 -0.017534761127922658 -0.0027755058400769348 0 -0.017063847689325062 -0.0026903398981777517 0 -0.017194231535811427 -0.0032352970796723796 0 -0.017063847689325062 -0.0026903398981777517 0 -0.016773376941042733 -0.0030407062522446737 0 -0.01625745564962278 -0.002587751148251158 0 -0.017063847689325062 -0.0026903398981777517 0 -0.016773376941042733 -0.0030407062522446737 0 -0.016773376941042733 -0.0030407062522446737 0 -0.01628690954400409 -0.0030977476908436246 0 -0.016436040203913971 -0.0035969675675257169 0 -0.017194231535811427 -0.0032352970796723796 0 -0.016773376941042733 -0.0030407062522446737 0 -0.016985273646843886 -0.003714844169226197 0 -0.01625745564962278 -0.002587751148251158 0 -0.015946234525727805 -0.0030706525614922096 0 -0.015614026657839905 -0.0029775566444976225 0 -0.01625745564962278 -0.002587751148251158 0 -0.015946234525727805 -0.0030706525614922096 0 -0.01628690954400409 -0.0030977476908436246 0 -0.01625745564962278 -0.002587751148251158 0 -0.016773376941042733 -0.0030407062522446737 0 -0.01628690954400409 -0.0030977476908436246 0 -0.01628690954400409 -0.0030977476908436246 0 -0.016010966104827752 -0.0033348876556493997 0 -0.016436040203913971 -0.0035969675675257169 0 -0.015946234525727805 -0.0030706525614922096 0 -0.01628690954400409 -0.0030977476908436246 0 -0.016010966104827752 -0.0033348876556493997 0 -0.016010966104827752 -0.0033348876556493997 0 -0.016436040203913971 -0.0035969675675257169 0 -0.015635383427604659 -0.0038995225114758403 0 -0.016436040203913971 -0.0035969675675257169 0 -0.016531598750232999 -0.0043443354088532147 0 -0.015635383427604659 -0.0038995225114758403 0 -0.016436040203913971 -0.0035969675675257169 0 -0.016985273646843886 -0.003714844169226197 0 -0.016531598750232999 -0.0043443354088532147 0 -0.016773376941042733 -0.0030407062522446737 0 -0.016436040203913971 -0.0035969675675257169 0 -0.016985273646843886 -0.003714844169226197 0 -0.016531598750232999 -0.0043443354088532147 0 -0.017053665379357485 -0.0051151094418242617 0 -0.017294857334089669 -0.004393457460164985 0 -0.016985273646843886 -0.003714844169226197 0 -0.016531598750232999 -0.0043443354088532147 0 -0.017294857334089669 -0.004393457460164985 0 -0.016531598750232999 -0.0043443354088532147 0 -0.015926499655313689 -0.0052691084957236277 0 -0.015635383427604659 -0.0038995225114758403 0 -0.016531598750232999 -0.0043443354088532147 0 -0.015926499655313689 -0.0052691084957236277 0 -0.017053665379357485 -0.0051151094418242617 0 -0.014951255526336592 -0.0051052956255901649 0 -0.016315623824390526 -0.0058347901003268764 0 -0.013982187428086247 -0.0066942653970247174 0 -0.01560285961024371 -0.0063432931832569034 0 -0.015192282310827842 -0.0074242765098487609 0 -0.016315623824390526 -0.0058347901003268764 0 -0.017816701916107628 -0.0054922859683726134 0 -0.01560285961024371 -0.0063432931832569034 0 -0.017259357892951254 -0.007213204827163415 0 -0.016152624409273213 -0.0075678536008383819 0 -0.01560285961024371 -0.0063432931832569034 0 -0.017286337755813116 -0.0058945521214057734 0 -0.017259357892951254 -0.007213204827163415 0 -0.017286337755813116 -0.0058945521214057734 0 -0.017259357892951254 -0.007213204827163415 0 -0.018507938319497295 -0.0076201156583309533 0 -0.017053665379357485 -0.0051151094418242617 0 -0.018228722759818215 -0.0051161205461607963 0 -0.017294857334089669 -0.004393457460164985 0 -0.017756299353852978 -0.0036478957923549754 0 -0.018228722759818215 -0.0051161205461607963 0 -0.017294857334089669 -0.004393457460164985 0 -0.023141080653085278 -0.0013135462474150247 0 -0.019044179234087272 -0.0023845959703379287 0 -0.026129523000181228 -0.00082576645289787266 0 -0.025923294068173133 -0.0019423661587196406 0 -0.02550869389710456 -0.0013708971139316471 0 -0.026129523000181228 -0.00082576645289787266 0 -0.02550869389710456 -0.0013708971139316471 0 -0.025069623751798848 -0.00056054561290684059 0 -0.026129523000181228 -0.00082576645289787266 0 -0.026322377058871343 -0.002243285894676433 0 -0.025923294068173133 -0.0019423661587196406 0 -0.023141080653085278 -0.0013135462474150247 0 -0.026775818344181464 -0.0020576325702861662 0 -0.026166904343134647 -0.00095960242289017843 0 -0.026322377058871343 -0.002243285894676433 0 -0.026803411013994052 -0.001908749809174488 0 -0.026322377058871343 -0.002243285894676433 0 -0.026620477292080648 -0.0024937447406902305 0 -0.026803411013994052 -0.001908749809174488 0 -0.026211432936968902 -0.0025754625944756624 0 -0.026322377058871343 -0.002243285894676433 0 -0.025926145125260411 -0.0023406925040958958 0 -0.026211432936968902 -0.0025754625944756624 0 -0.026322377058871343 -0.002243285894676433 0 -0.026620477292080648 -0.0024937447406902305 0 -0.026322377058871343 -0.002243285894676433 0 -0.025926145125260411 -0.0023406925040958958 0 -0.025923294068173133 -0.0019423661587196406 0 -0.025923294068173133 -0.0019423661587196406 0 -0.024866497619737239 -0.0021683542750007981 0 -0.02550869389710456 -0.0013708971139316471 0 -0.020634154110500718 -0.0019331693127748325 0 -0.020489906754156326 -0.0027950520726207086 0 -0.020818269673908249 -0.0018969359872502665 0 -0.025926145125260411 -0.0023406925040958958 0 -0.025923294068173133 -0.0019423661587196406 0 -0.025136298475228858 -0.002121292983228845 0 -0.026117632290283122 -0.0019062698549834351 0 -0.023918345542363158 -0.0023041325971245629 0 -0.025696465191895591 -0.0026438762402562418 0 -0.025926145125260411 -0.0023406925040958958 0 -0.025136298475228858 -0.002121292983228845 0 -0.024162448769398482 -0.00095533641243736604 0 -0.023842567649187484 -0.0029959017207371276 0 -0.024535244981293204 -0.002856917999331869 0 -0.023918345542363158 -0.0023041325971245629 0 -0.019994401359126522 -0.002760381688487796 0 -0.024866497619737239 -0.0021683542750007981 0 -0.02550869389710456 -0.0013708971139316471 0 -0.025069623751798848 -0.00056054561290684059 0 -0.023918345542363158 -0.0023041325971245629 0 -0.019044179234087272 -0.0023845959703379287 0 -0.019549846394633145 -0.0021996256067304859 0 -0.01927305826967798 -0.0021443989785160586 0 -0.019281312560442087 -0.0021183667328765784 0 -0.019044179234087272 -0.0023845959703379287 0 -0.019994401359126522 -0.002760381688487796 0 -0.019044179234087272 -0.0023845959703379287 0 -0.017958998228097149 -0.0030891765684966186 0 -0.019044179234087272 -0.0023845959703379287 0 -0.015545252856803665 -0.002683770300523958 0 -0.015225684623630904 -0.0038270824576004626 0 -0.015250251392490187 -0.0038208775114546914 0 -0.015221910590510108 -0.0038347992908977181 0 -0.015083077995693521 -0.0037705731539587214 0 -0.015376406230167837 -0.0036021946712590895 0 -0.015180935946740613 -0.0031908749302440842 0 -0.015083077995693521 -0.0037705731539587214 0 -0.015376406230167837 -0.0036021946712590895 0 -0.015250251392490187 -0.0038208775114546914 0 -0.015376406230167837 -0.0036021946712590895 0 -0.015439974551776047 -0.0039004247046591114 0 -0.015250251392490187 -0.0038208775114546914 0 -0.019994401359126522 -0.002760381688487796 0 -0.017834244618555473 -0.0021142739725163824 0 -0.015376406230167837 -0.0036021946712590895 0 -0.015180935946740613 -0.0031908749302440842 0 -0.015450648685845902 -0.0032798441674997503 0 -0.021060482262356541 -0.0016459982961285408 0 -0.022044929722237091 -0.0010249588998282576 0 -0.020547717929315212 -0.0012907548469559243 0 -0.015180935946740613 -0.0031908749302440842 0 -0.015450648685845902 -0.0032798441674997503 0 -0.015614026657839905 -0.0029775566444976225 0 -0.015376406230167837 -0.0036021946712590895 0 -0.015450648685845902 -0.0032798441674997503 0 -0.015642507166587327 -0.0033329356031332183 0 -0.015450648685845902 -0.0032798441674997503 0 -0.015642507166587327 -0.0033329356031332183 0 -0.015614026657839905 -0.0029775566444976225 0 -0.015946234525727805 -0.0030706525614922096 0 -0.015642507166587327 -0.0033329356031332183 0 -0.015614026657839905 -0.0029775566444976225 0 -0.015946234525727805 -0.0030706525614922096 0 -0.016010966104827752 -0.0033348876556493997 0 -0.015642507166587327 -0.0033329356031332183 0 -0.016010966104827752 -0.0033348876556493997 0 -0.015642507166587327 -0.0033329356031332183 0 -0.015635383427604659 -0.0038995225114758403 0 -0.015376406230167837 -0.0036021946712590895 0 -0.015635383427604659 -0.0038995225114758403 0 -0.015439974551776047 -0.0039004247046591114 0 -0.015376406230167837 -0.0036021946712590895 0 -0.015642507166587327 -0.0033329356031332183 0 -0.015635383427604659 -0.0038995225114758403 0 -0.014951255526336592 -0.0051052956255901649 0 -0.015848948915406402 -0.0038100712580044268 0 -0.015643479873966443 -0.0041203618074312776 0 -0.015635383427604659 -0.0038995225114758403 0 -0.015505547161873525 -0.0040264478893571572 0 -0.015635383427604659 -0.0038995225114758403 0 -0.015505547161873525 -0.0040264478893571572 0 -0.015439974551776047 -0.0039004247046591114 0 -0.014951255526336592 -0.0051052956255901649 0 -0.015088161755024412 -0.0040840023450583176 0 -0.015643479873966443 -0.0041203618074312776 0 -0.015505547161873525 -0.0040264478893571572 0 -0.015393302696481297 -0.0041526167520948842 0 -0.015505547161873525 -0.0040264478893571572 0 -0.0153491182553861 -0.0039902286882148611 0 -0.015393302696481297 -0.0041526167520948842 0 -0.0153491182553861 -0.0039902286882148611 0 -0.015273933152438838 -0.0040242588195137634 0 -0.015393302696481297 -0.0041526167520948842 0 -0.015505547161873525 -0.0040264478893571572 0 -0.0153491182553861 -0.0039902286882148611 0 -0.015439974551776047 -0.0039004247046591114 0 -0.0153491182553861 -0.0039902286882148611 0 -0.015439974551776047 -0.0039004247046591114 0 -0.015250251392490187 -0.0038208775114546914 0 -0.017958998228097149 -0.0030891765684966186 0 -0.017190635692725109 -0.0031604536439251273 0 -0.015256049908096122 -0.0037907768840374887 0 -0.015225396987462947 -0.0039434697085267327 0 -0.015187977690843155 -0.0039988004775072111 0 -0.019281312560442087 -0.0021183667328765784 0 -0.019367559282493875 -0.001849152834568279 0 -0.019399605504819527 -0.002004922344424146 0 -0.015250251392490187 -0.0038208775114546914 0 -0.015249558137657701 -0.0038974256388823675 0 -0.015221910590510108 -0.0038347992908977181 0 -0.0153491182553861 -0.0039902286882148611 0 -0.015250251392490187 -0.0038208775114546914 0 -0.015249558137657701 -0.0038974256388823675 0 -0.017958998228097149 -0.0030891765684966186 0 -0.015796162651339148 -0.0042357008733744112 0 -0.015249558137657701 -0.0038974256388823675 0 -0.015221910590510108 -0.0038347992908977181 0 -0.015225396987462947 -0.0039434697085267327 0 -0.015225396987462947 -0.0039434697085267327 0 -0.015269499140589095 -0.0039667673616932174 0 -0.015273933152438838 -0.0040242588195137634 0 -0.0153491182553861 -0.0039902286882148611 0 -0.015249558137657701 -0.0038974256388823675 0 -0.015269499140589095 -0.0039667673616932174 0 -0.015249558137657701 -0.0038974256388823675 0 -0.015225396987462947 -0.0039434697085267327 0 -0.015269499140589095 -0.0039667673616932174 0 -0.015229487862721524 -0.0040881291074414197 0 -0.015187977690843155 -0.0039988004775072111 0 -0.015203165040952553 -0.0041445616059642091 0 -0.015273933152438838 -0.0040242588195137634 0 -0.015229487862721524 -0.0040881291074414197 0 -0.015393302696481297 -0.0041526167520948842 0 -0.0153491182553861 -0.0039902286882148611 0 -0.015269499140589095 -0.0039667673616932174 0 -0.015273933152438838 -0.0040242588195137634 0 -0.015225396987462947 -0.0039434697085267327 0 -0.015273933152438838 -0.0040242588195137634 0 -0.015187977690843155 -0.0039988004775072111 0 -0.015273933152438838 -0.0040242588195137634 0 -0.015229487862721524 -0.0040881291074414197 0 -0.015187977690843155 -0.0039988004775072111 0 -0.017190635692725109 -0.0031604536439251273 0 -0.018132000682566492 -0.0016552850314987301 0 -0.020004366149719843 0.00038931959838573653 0 -0.020128444449442045 0.0010098573721741943 0 -0.02053035427933517 0.00082683758294165857 0 -0.019367559282493875 -0.001849152834568279 0 -0.019488979975066763 -0.0018859483281692883 0 -0.019436823647572845 -0.0015977252726474204 0 -0.019660167413901027 -0.00054538064417070098 0 -0.018132000682566492 -0.0016552850314987301 0 -0.020004366149719843 0.00038931959838573653 0 -0.020527118001449796 0.00051472074731946269 0 -0.02053035427933517 0.00082683758294165857 0 -0.019549846394633145 -0.0021996256067304859 0 -0.019488979975066763 -0.0018859483281692883 0 -0.019399605504819527 -0.002004922344424146 0 -0.019940309708244518 -0.00084203378148263518 0 -0.020004366149719843 0.00038931959838573653 0 -0.020737590502617125 -8.7163692290283997e-05 0 -0.020004366149719843 0.00038931959838573653 0 -0.020737590502617125 -8.7163692290283997e-05 0 -0.020527118001449796 0.00051472074731946269 0 -0.023141080653085278 -0.0013135462474150247 0 -0.019660167413901027 -0.00054538064417070098 0 -0.019367559282493875 -0.001849152834568279 0 -0.019488979975066763 -0.0018859483281692883 0 -0.019399605504819527 -0.002004922344424146 0 -0.019549846394633145 -0.0021996256067304859 0 -0.019281312560442087 -0.0021183667328765784 0 -0.019399605504819527 -0.002004922344424146 0 -0.01768274709242788 -0.0015089061299628644 0 -0.017670750055951319 -0.0014875403082714894 0 -0.017685904184005768 -0.0014527870387597381 0 -0.019019394894929629 -0.00027807216015830635 0 -0.020109688893761798 -0.00051383292156195618 0 -0.016925914947379477 -0.0012158409040179618 0 -0.017300929860928717 -0.0015924331867510006 0 -0.017511878787921119 -0.00095120074018452655 0 -0.016440297413567485 -0.0023681728043098912 0 -0.019019394894929629 -0.00027807216015830635 0 -0.020128444449442045 0.0010098573721741943 0 -0.02053035427933517 0.00082683758294165857 0 -0.020580026521215287 0.0010886404693862567 0 -0.015187047920938905 -0.0037612982832325721 0 -0.015174932016047277 -0.0041135690735025088 0 -0.015203165040952553 -0.0041445616059642091 0 -0.019019394894929629 -0.00027807216015830635 0 -0.018132000682566492 -0.0016552850314987301 0 -0.020281648657502583 0.0013834546655201382 0 -0.020128444449442045 0.0010098573721741943 0 -0.020580026521215287 0.0010886404693862567 0 -0.016440297413567485 -0.0023681728043098912 0 -0.018132000682566492 -0.0016552850314987301 0 -0.015229487862721524 -0.0040881291074414197 0 -0.015174932016047277 -0.0041135690735025088 0 -0.015203165040952553 -0.0041445616059642091 0 -0.015174932016047277 -0.0041135690735025088 0 -0.014940143077453571 -0.0039473793000528732 0 -0.01473295312265227 -0.0042454431033218465 0 -0.015158999086914799 -0.0041537020627588593 0 -0.015088161755024412 -0.0040840023450583176 0 -0.015229487862721524 -0.0040881291074414197 0 -0.015174932016047277 -0.0041135690735025088 0 -0.015393302696481297 -0.0041526167520948842 0 -0.014940143077453571 -0.0039473793000528732 0 -0.01496111149729259 -0.0037607872610315447 0 -0.014868866389807721 -0.0038431411520006876 0 -0.015187047920938905 -0.0037612982832325721 0 -0.015174932016047277 -0.0041135690735025088 0 -0.014940143077453571 -0.0039473793000528732 0 -0.015187047920938905 -0.0037612982832325721 0 -0.014940143077453571 -0.0039473793000528732 0 -0.01496111149729259 -0.0037607872610315447 0 -0.01496111149729259 -0.0037607872610315447 0 -0.014868866389807721 -0.0038431411520006876 0 -0.01482931736212467 -0.0036994659814889529 0 -0.014718409392844198 -0.0039186982312603407 0 -0.014561315350038705 -0.0037248268428819028 0 -0.01482931736212467 -0.0036994659814889529 0 -0.014868866389807721 -0.0038431411520006876 0 -0.014718409392844198 -0.0039186982312603407 0 -0.01482931736212467 -0.0036994659814889529 0 -0.014940143077453571 -0.0039473793000528732 0 -0.014868866389807721 -0.0038431411520006876 0 -0.014718409392844198 -0.0039186982312603407 0 -0.014718409392844198 -0.0039186982312603407 0 -0.01473295312265227 -0.0042454431033218465 0 -0.014419234764714484 -0.0040600760833281787 0 -0.014940143077453571 -0.0039473793000528732 0 -0.014718409392844198 -0.0039186982312603407 0 -0.01473295312265227 -0.0042454431033218465 0 -0.014289755885030841 -0.0043570778487303429 0 -0.01473295312265227 -0.0042454431033218465 0 -0.014419234764714484 -0.0040600760833281787 0 -0.014419234764714484 -0.0040600760833281787 0 -0.014561315350038705 -0.0037248268428819028 0 -0.014257893593991152 -0.0036902941326612819 0 -0.014718409392844198 -0.0039186982312603407 0 -0.014419234764714484 -0.0040600760833281787 0 -0.014561315350038705 -0.0037248268428819028 0 -0.014561315350038705 -0.0037248268428819028 0 -0.014381297029819147 -0.0034389764974382285 0 -0.014693845295505563 -0.0035484654552902276 0 -0.014561315350038705 -0.0037248268428819028 0 -0.014381297029819147 -0.0034389764974382285 0 -0.014257893593991152 -0.0036902941326612819 0 -0.012181460749594079 -0.0027298387793935259 0 -0.011448820829678245 -0.0020921749194644803 0 -0.012701858773430887 -0.0013616936046970548 0 -0.013117999379902694 -0.0030604505318575365 0 -0.012985198831107511 -0.0016859945443708562 0 -0.012181460749594079 -0.0027298387793935259 0 -0.013627962525278902 -0.0023393532964924432 0 -0.012701858773430887 -0.0013616936046970548 0 -0.014381297029819147 -0.0034389764974382285 0 -0.014737333574393182 -0.0033284777153221867 0 -0.014693845295505563 -0.0035484654552902276 0 -0.012985198831107511 -0.0016859945443708562 0 -0.011417943380210481 -0.00039379575395590791 0 -0.012985198831107511 -0.0016859945443708562 0 -0.014630148798213649 -0.0027350251965751371 0 -0.014737333574393182 -0.0033284777153221867 0 -0.014693845295505563 -0.0035484654552902276 0 -0.014958247941994733 -0.0035528449400545358 0 -0.014693845295505563 -0.0035484654552902276 0 -0.01482931736212467 -0.0036994659814889529 0 -0.014958247941994733 -0.0035528449400545358 0 -0.014561315350038705 -0.0037248268428819028 0 -0.014693845295505563 -0.0035484654552902276 0 -0.01482931736212467 -0.0036994659814889529 0 -0.015641418658950974 -0.0025990407730990925 0 -0.014931054278599438 -0.0018593377068118427 0 -0.015501786193564349 -0.0012574647629284047 0 -0.01496111149729259 -0.0037607872610315447 0 -0.01482931736212467 -0.0036994659814889529 0 -0.014979773390537557 -0.0035369399989604055 0 -0.014652860650891858 -0.0035601006413281287 0 -0.014630148798213649 -0.0027350251965751371 0 -0.016440297413567485 -0.0023681728043098912 0 -0.014630148798213649 -0.0027350251965751371 0 -0.015187047920938905 -0.0037612982832325721 0 -0.01496111149729259 -0.0037607872610315447 0 -0.014979773390537557 -0.0035369399989604055 0 -0.014630148798213649 -0.0027350251965751371 0 -0.014875574157315611 -0.00060394372063976977 0 -0.013130687611246134 -0.0011093733992716319 0 -0.013721172525736115 -0.001724491505245729 0 -0.014151261644237297 -0.0012661758935052917 0 -0.010768244921169776 -7.2885236652605394e-05 0 -0.011266418260177805 7.192493934705012e-05 0 -0.010890155641174319 0.00040068592019705784 0 -0.013130687611246134 -0.0011093733992716319 0 -0.014105956979949857 -0.0008430379068940781 0 -0.014151261644237297 -0.0012661758935052917 0 -0.012985198831107511 -0.0016859945443708562 0 -0.012929076619966447 8.1475889013928132e-06 0 -0.012929076619966447 8.1475889013928132e-06 0 -0.014875574157315611 -0.00060394372063976977 0 -0.014875574157315611 -0.00060394372063976977 0 -0.015110237151948336 0.00036494002298284703 0 -0.016808006222951855 -0.00023096951392972379 0 -0.017141474995550014 0.00012370565534494375 0 -0.017511878787921119 -0.00095120074018452655 0 -0.02066751412635208 -8.0918955915612454e-05 0 -0.020640735292748052 -5.2787744082014836e-05 0 -0.020646233718138184 5.4788402352704578e-05 0 -0.013648732217474044 0.00022226730775466572 0 -0.013709668851179952 0.00021459848931249076 0 -0.013700832554558831 0.0002370905464380781 0 -0.013648732217474044 0.00022226730775466572 0 -0.013660358521456173 0.00015426212926103358 0 -0.013709668851179952 0.00021459848931249076 0 -0.015110237151948336 0.00036494002298284703 0 -0.012404002736263129 0.0012817680010149457 0 -0.012929076619966447 8.1475889013928132e-06 0 -0.012404002736263129 0.0012817680010149457 0 -0.020640735292748052 -5.2787744082014836e-05 0 -0.020617574667863438 -0.00012602691069631418 0 -0.020642529290907704 -0.0001198562763528653 0 -0.02066751412635208 -8.0918955915612454e-05 0 -0.020640735292748052 -5.2787744082014836e-05 0 -0.020642529290907704 -0.0001198562763528653 0 -0.015110237151948336 0.00036494002298284703 0 -0.01375010987517363 0.001443888540250252 0 -0.014417544025233011 0.0011210048268120274 0 -0.0145463931121771 0.0007141759023438245 0 -0.01385496194115849 0.00053528540338041851 0 -0.012404002736263129 0.0012817680010149457 0 -0.01375010987517363 0.001443888540250252 0 -0.016925914947379477 -0.0012158409040179618 0 -0.016808006222951855 -0.00023096951392972379 0 -0.017511878787921119 -0.00095120074018452655 0 -0.016440297413567485 -0.0023681728043098912 0 -0.014875574157315611 -0.00060394372063976977 0 -0.015110237151948336 0.00036494002298284703 0 -0.020109688893761798 -0.00051383292156195618 0 -0.016525727181625201 -0.0089297217635602236 0 -0.016951468177013082 -0.0083667010620307545 0 -0.015784107737969014 -0.0085341052698793517 0 -0.016951468177013082 -0.0083667010620307545 0 -0.016152624409273213 -0.0075678536008383819 0 -0.015784107737969014 -0.0085341052698793517 0 -0.016525727181625201 -0.0089297217635602236 0 -0.015784107737969014 -0.0085341052698793517 0 -0.016094052012557723 -0.0095038457304623767 0 -0.016525727181625201 -0.0089297217635602236 0 -0.016951468177013082 -0.0083667010620307545 0 -0.017177372228588818 -0.0092324793359978511 0 -0.016951468177013082 -0.0083667010620307545 0 -0.018001268187694052 -0.0092489904978805791 0 -0.017299008140034496 -0.0094400085819145094 0 -0.017116038665731755 -0.0087094120614141547 0 -0.017605874283622952 -0.0083788376652822565 0 -0.01782144993889203 -0.008281293624801369 0 -0.016951468177013082 -0.0083667010620307545 0 -0.018001268187694052 -0.0092489904978805791 0 -0.01782144993889203 -0.008281293624801369 0 -0.017259357892951254 -0.007213204827163415 0 -0.018507938319497295 -0.0076201156583309533 0 -0.01782144993889203 -0.008281293624801369 0 -0.016951468177013082 -0.0083667010620307545 0 -0.017259357892951254 -0.007213204827163415 0 -0.016951468177013082 -0.0083667010620307545 0 -0.017259357892951254 -0.007213204827163415 0 -0.016152624409273213 -0.0075678536008383819 0 -0.016152624409273213 -0.0075678536008383819 0 -0.015192282310827842 -0.0074242765098487609 0 -0.015784107737969014 -0.0085341052698793517 0 -0.01560285961024371 -0.0063432931832569034 0 -0.016152624409273213 -0.0075678536008383819 0 -0.015192282310827842 -0.0074242765098487609 0 -0.014951255526336592 -0.0051052956255901649 0 -0.014275848633939076 -0.0064576051957949401 0 -0.013982187428086247 -0.0066942653970247174 0 -0.015192282310827842 -0.0074242765098487609 0 -0.014474363484690314 -0.0082459551782334793 0 -0.014289755885030841 -0.0043570778487303429 0 -0.014419234764714484 -0.0040600760833281787 0 -0.014157439133061431 -0.0039530507026718786 0 -0.014419234764714484 -0.0040600760833281787 0 -0.014157439133061431 -0.0039530507026718786 0 -0.014257893593991152 -0.0036902941326612819 0 -0.014275848633939076 -0.0064576051957949401 0 -0.014547447355048482 -0.0051330073068304397 0 -0.014474363484690314 -0.0082459551782334793 0 -0.015784107737969014 -0.0085341052698793517 0 -0.014978989454659135 -0.0097606160069505649 0 -0.015192282310827842 -0.0074242765098487609 0 -0.014474363484690314 -0.0082459551782334793 0 -0.015784107737969014 -0.0085341052698793517 0 -0.015784107737969014 -0.0085341052698793517 0 -0.014978989454659135 -0.0097606160069505649 0 -0.016094052012557723 -0.0095038457304623767 0 -0.018620355020553227 -0.0057268076820285712 0 -0.018618173589117985 -0.0057016116374299609 0 -0.018604287659454599 -0.0057558602163644852 0 -0.014547447355048482 -0.0051330073068304397 0 -0.017680823391306034 -0.0075623139011853401 0 -0.014157439133061431 -0.0039530507026718786 0 -0.014028673937480488 -0.0035519811848044275 0 -0.014257893593991152 -0.0036902941326612819 0 -0.014381297029819147 -0.0034389764974382285 0 -0.014028673937480488 -0.0035519811848044275 0 -0.014257893593991152 -0.0036902941326612819 0 -0.013117999379902694 -0.0030604505318575365 0 -0.014547447355048482 -0.0051330073068304397 0 -0.010733007399405777 -0.0031213787677444303 0 -0.011448820829678245 -0.0020921749194644803 0 -0.010512184200416453 -0.0019219127177329321 0 -0.012181460749594079 -0.0027298387793935259 0 -0.010733007399405777 -0.0031213787677444303 0 -0.011448820829678245 -0.0020921749194644803 0 -0.011448820829678245 -0.0020921749194644803 0 -0.010512184200416453 -0.0019219127177329321 0 -0.011123012427739836 -0.0013172806981089724 0 -0.018620355020553227 -0.0057268076820285712 0 -0.018618173589117985 -0.0057016116374299609 0 -0.018645141148363402 -0.0056451457243866235 0 -0.014547447355048482 -0.0051330073068304397 0 -0.013566816351252014 -0.00318460694826787 0 -0.010733007399405777 -0.0031213787677444303 0 -0.010512184200416453 -0.0019219127177329321 0 -0.010172134356987153 -0.0014012434992539736 0 -0.018585600226152129 -0.0057292884608044787 0 -0.018618173589117985 -0.0057016116374299609 0 -0.018621541978135633 -0.0056480099322526334 0 -0.018585600226152129 -0.0057292884608044787 0 -0.018618173589117985 -0.0057016116374299609 0 -0.018604287659454599 -0.0057558602163644852 0 -0.018585600226152129 -0.0057292884608044787 0 -0.018604287659454599 -0.0057558602163644852 0 -0.018556721480117295 -0.0057933598309324449 0 -0.016525727181625201 -0.0089297217635602236 0 -0.016094052012557723 -0.0095038457304623767 0 -0.017177372228588818 -0.0092324793359978511 0 -0.017680823391306034 -0.0075623139011853401 0 -0.017605874283622952 -0.0083788376652822565 0 -0.018001268187694052 -0.0092489904978805791 0 -0.018027087906241336 -0.0093396351095724837 0 -0.018210152620694506 -0.0095565014960934183 0 -0.017605874283622952 -0.0083788376652822565 0 -0.01860762916108177 -0.0072790976352726236 0 -0.018027087906241336 -0.0093396351095724837 0 -0.018574139203741496 -0.0092460831062940278 0 -0.018210152620694506 -0.0095565014960934183 0 -0.017791813195035276 -0.0088675435651902838 0 -0.017605874283622952 -0.0083788376652822565 0 -0.018585600226152129 -0.0057292884608044787 0 -0.018546964212387562 -0.005708450582839579 0 -0.018621541978135633 -0.0056480099322526334 0 -0.018585600226152129 -0.0057292884608044787 0 -0.018556721480117295 -0.0057933598309324449 0 -0.018546964212387562 -0.005708450582839579 0 -0.018574139203741496 -0.0092460831062940278 0 -0.018210152620694506 -0.0095565014960934183 0 -0.017907087195008661 -0.008993368329348125 0 -0.018032746074372379 -0.0098613701261912688 0 -0.018210152620694506 -0.0095565014960934183 0 -0.017907087195008661 -0.008993368329348125 0 -0.018032746074372379 -0.0098613701261912688 0 -0.017068673984669762 -0.0094572757157860426 0 -0.017907087195008661 -0.008993368329348125 0 -0.018032746074372379 -0.0098613701261912688 0 -0.018210152620694506 -0.0095565014960934183 0 -0.018929600838112921 -0.0087492445754031485 0 -0.018001268187694052 -0.0092489904978805791 0 -0.018210152620694506 -0.0095565014960934183 0 -0.018315224487643739 -0.0087855982693713225 0 -0.018315224487643739 -0.0087855982693713225 0 -0.018929600838112921 -0.0087492445754031485 0 -0.018507938319497295 -0.0076201156583309533 0 -0.01782144993889203 -0.008281293624801369 0 -0.018315224487643739 -0.0087855982693713225 0 -0.018507938319497295 -0.0076201156583309533 0 -0.018210152620694506 -0.0095565014960934183 0 -0.018315224487643739 -0.0087855982693713225 0 -0.018929600838112921 -0.0087492445754031485 0 -0.01782144993889203 -0.008281293624801369 0 -0.018001268187694052 -0.0092489904978805791 0 -0.018315224487643739 -0.0087855982693713225 0 -0.018032746074372379 -0.0098613701261912688 0 -0.018929600838112921 -0.0087492445754031485 0 -0.020381252247108725 -0.0088412769421030452 0 -0.018929600838112921 -0.0087492445754031485 0 -0.019742199507035908 -0.0070961948857685064 0 -0.018507938319497295 -0.0076201156583309533 0 -0.018929600838112921 -0.0087492445754031485 0 -0.019742199507035908 -0.0070961948857685064 0 -0.020286894954302373 -0.0076912928561267335 0 -0.021994005704155179 -0.0072176442051799326 0 -0.021082633784908631 -0.0073017581595369837 0 -0.020381252247108725 -0.0088412769421030452 0 -0.018437634892858139 -0.0073664244854521289 0 -0.018466367084622959 -0.0092478615897418678 0 -0.019914620528757442 -0.0082701864795624233 0 -0.018437634892858139 -0.0073664244854521289 0 -0.016944776424679394 -0.0099568238634249202 0 -0.018466367084622959 -0.0092478615897418678 0 -0.020240808339998785 -0.0073079683313428774 0 -0.018708357136906471 -0.0092886675899683073 0 -0.021994005704155179 -0.0072176442051799326 0 -0.021082633784908631 -0.0073017581595369837 0 -0.021580855277469325 -0.0062477374917290149 0 -0.021082633784908631 -0.0073017581595369837 0 -0.020286894954302373 -0.0076912928561267335 0 -0.020381252247108725 -0.0088412769421030452 0 -0.021082633784908631 -0.0073017581595369837 0 -0.020286894954302373 -0.0076912928561267335 0 -0.021085852761989314 -0.0061858072603007304 0 -0.020483706801365627 -0.0075084239921919226 0 -0.021406438353940269 -0.0064353538380414813 0 -0.019742199507035908 -0.0070961948857685064 0 -0.020286894954302373 -0.0076912928561267335 0 -0.020660897635080264 -0.0067165702237655138 0 -0.018929600838112921 -0.0087492445754031485 0 -0.020286894954302373 -0.0076912928561267335 0 -0.020381252247108725 -0.0088412769421030452 0 -0.016944776424679394 -0.0099568238634249202 0 -0.018466367084622959 -0.0092478615897418678 0 -0.017791842730803031 -0.010103647892760996 0 -0.017791842730803031 -0.010103647892760996 0 -0.01654804876759184 -0.010539224619987573 0 -0.018588823606809871 -0.010333010430864884 0 -0.017791842730803031 -0.010103647892760996 0 -0.017060846532695798 -0.010212604860878282 0 -0.01654804876759184 -0.010539224619987573 0 -0.016944776424679394 -0.0099568238634249202 0 -0.017791842730803031 -0.010103647892760996 0 -0.017060846532695798 -0.010212604860878282 0 -0.018032746074372379 -0.0098613701261912688 0 -0.016944776424679394 -0.0099568238634249202 0 -0.017060846532695798 -0.010212604860878282 0 -0.018154508893372934 -0.0097771578702022053 0 -0.018708357136906471 -0.0092886675899683073 0 -0.017068673984669762 -0.0094572757157860426 0 -0.01654804876759184 -0.010539224619987573 0 -0.01606244453880306 -0.0090891389875645892 0 -0.017060846532695798 -0.010212604860878282 0 -0.017068673984669762 -0.0094572757157860426 0 -0.01654804876759184 -0.010539224619987573 0 -0.018032746074372379 -0.0098613701261912688 0 -0.017060846532695798 -0.010212604860878282 0 -0.017068673984669762 -0.0094572757157860426 0 -0.01654804876759184 -0.010539224619987573 0 -0.015202369070097491 -0.0091603933121894455 0 -0.01606244453880306 -0.0090891389875645892 0 -0.016727186074262039 -0.010637696609680822 0 -0.015954993833291964 -0.010852872919419049 0 -0.015202369070097491 -0.0091603933121894455 0 -0.013595997752994379 -0.01064791545010558 0 -0.013829651740285425 -0.0089895735462103311 0 -0.01654804876759184 -0.010539224619987573 0 -0.015202369070097491 -0.0091603933121894455 0 -0.013595997752994379 -0.01064791545010558 0 -0.013595997752994379 -0.01064791545010558 0 -0.012813416488274831 -0.0094766280963877944 0 -0.013829651740285425 -0.0089895735462103311 0 -0.013595997752994379 -0.01064791545010558 0 -0.012813416488274831 -0.0094766280963877944 0 -0.011859457094621384 -0.010561124788738465 0 -0.015954993833291964 -0.010852872919419049 0 -0.018178947808567741 -0.010576174818245342 0 -0.012813416488274831 -0.0094766280963877944 0 -0.01195786539560836 -0.0093623370105242968 0 -0.012525927542923343 -0.0087908683245154964 0 -0.012813416488274831 -0.0094766280963877944 0 -0.01195786539560836 -0.0093623370105242968 0 -0.011859457094621384 -0.010561124788738465 0 -0.019041355792644144 -0.011152764084932243 0 -0.020357219806795602 -0.011068551918905255 0 -0.019608849797937828 -0.01026444475617602 0 -0.018178947808567741 -0.010576174818245342 0 -0.021014662524457217 -0.011455491369001484 0 -0.023378051843200347 -0.013341065738569651 0 -0.023489730747088804 -0.011772058035510298 0 -0.021704074592029717 -0.011836004295405014 0 -0.019608849797937828 -0.01026444475617602 0 -0.018588823606809871 -0.010333010430864884 0 -0.019556740477355786 -0.0098264059282707466 0 -0.01654804876759184 -0.010539224619987573 0 -0.019041355792644144 -0.011152764084932243 0 -0.018588823606809871 -0.010333010430864884 0 -0.017791842730803031 -0.010103647892760996 0 -0.018588823606809871 -0.010333010430864884 0 -0.019556740477355786 -0.0098264059282707466 0 -0.019041355792644144 -0.011152764084932243 0 -0.019608849797937828 -0.01026444475617602 0 -0.018588823606809871 -0.010333010430864884 0 -0.019402470058659967 -0.0092083947637830819 0 -0.020012493327746596 -0.0091729765403957067 0 -0.019471297972276477 -0.0099469234835727408 0 -0.019661944388612955 -0.008379018190070274 0 -0.019444475015122326 -0.0073453765626775806 0 -0.018537521424956887 -0.0086613192549611293 0 -0.021858942037794527 -0.0087723758448475797 0 -0.015574264927459369 -0.0086186854901731929 0 -0.018799284769196727 -0.0092456293192582015 0 -0.019402470058659967 -0.0092083947637830819 0 -0.019471297972276477 -0.0099469234835727408 0 -0.01195786539560836 -0.0093623370105242968 0 -0.011859457094621384 -0.010561124788738465 0 -0.010407581510127136 -0.0088940460690454179 0 -0.018178947808567741 -0.010576174818245342 0 -0.015574264927459369 -0.0086186854901731929 0 -0.025538141213630555 -0.013138562529402313 0 -0.02676075995836379 -0.010873571558206436 0 -0.024806965941636689 -0.01045615928569912 0 -0.023489730747088804 -0.011772058035510298 0 -0.025538141213630555 -0.013138562529402313 0 -0.024806965941636689 -0.01045615928569912 0 -0.023378051843200347 -0.013341065738569651 0 -0.023489730747088804 -0.011772058035510298 0 -0.025538141213630555 -0.013138562529402313 0 -0.018178947808567741 -0.010576174818245342 0 -0.023146814763666038 -0.011013456948868841 0 -0.025538141213630555 -0.013138562529402313 0 -0.02759064523174885 -0.012953649586537899 0 -0.02676075995836379 -0.010873571558206436 0 -0.023146814763666038 -0.011013456948868841 0 -0.021858942037794527 -0.0087723758448475797 0 -0.02676075995836379 -0.010873571558206436 0 -0.026034819885016519 -0.0092033091069098748 0 -0.024806965941636689 -0.01045615928569912 0 -0.027516849325103707 -0.0090386278982939224 0 -0.02676075995836379 -0.010873571558206436 0 -0.026034819885016519 -0.0092033091069098748 0 -0.024806965941636689 -0.01045615928569912 0 -0.024595816694275376 -0.0082333590843004338 0 -0.022695457760192373 -0.0096244934124820047 0 -0.026034819885016519 -0.0092033091069098748 0 -0.024806965941636689 -0.01045615928569912 0 -0.024595816694275376 -0.0082333590843004338 0 -0.023489730747088804 -0.011772058035510298 0 -0.024806965941636689 -0.01045615928569912 0 -0.022695457760192373 -0.0096244934124820047 0 -0.024595816694275376 -0.0082333590843004338 0 -0.023832412750477806 -0.0067938067943865543 0 -0.0254374947976399 -0.0064128736414998892 0 -0.024595816694275376 -0.0082333590843004338 0 -0.026451378576685416 -0.007643887428008065 0 -0.0254374947976399 -0.0064128736414998892 0 -0.026034819885016519 -0.0092033091069098748 0 -0.024595816694275376 -0.0082333590843004338 0 -0.026451378576685416 -0.007643887428008065 0 -0.027516849325103707 -0.0090386278982939224 0 -0.026034819885016519 -0.0092033091069098748 0 -0.026451378576685416 -0.007643887428008065 0 -0.027908519236976344 -0.0074767062579021602 0 -0.026451378576685416 -0.007643887428008065 0 -0.02709499809293496 -0.0060109562706560024 0 -0.027908519236976344 -0.0074767062579021602 0 -0.027516849325103707 -0.0090386278982939224 0 -0.026451378576685416 -0.007643887428008065 0 -0.019556740477355786 -0.0098264059282707466 0 -0.021345461198506843 -0.0085208636862534552 0 -0.019914620528757442 -0.0082701864795624233 0 -0.018466367084622959 -0.0092478615897418678 0 -0.019556740477355786 -0.0098264059282707466 0 -0.019914620528757442 -0.0082701864795624233 0 -0.018466367084622959 -0.0092478615897418678 0 -0.017791842730803031 -0.010103647892760996 0 -0.019556740477355786 -0.0098264059282707466 0 -0.021014662524457217 -0.011455491369001484 0 -0.0195440075896527 -0.009844013737391159 0 -0.021704074592029717 -0.011836004295405014 0 -0.019556740477355786 -0.0098264059282707466 0 -0.022695457760192373 -0.0096244934124820047 0 -0.019556740477355786 -0.0098264059282707466 0 -0.022695457760192373 -0.0096244934124820047 0 -0.021345461198506843 -0.0085208636862534552 0 -0.023489730747088804 -0.011772058035510298 0 -0.021704074592029717 -0.011836004295405014 0 -0.022695457760192373 -0.0096244934124820047 0 -0.022695457760192373 -0.0096244934124820047 0 -0.021345461198506843 -0.0085208636862534552 0 -0.022952090762486957 -0.0080495149309578705 0 -0.021345461198506843 -0.0085208636862534552 0 -0.022952090762486957 -0.0080495149309578705 0 -0.021909962028992896 -0.007312921417088003 0 -0.024595816694275376 -0.0082333590843004338 0 -0.022695457760192373 -0.0096244934124820047 0 -0.022952090762486957 -0.0080495149309578705 0 -0.022952090762486957 -0.0080495149309578705 0 -0.021909962028992896 -0.007312921417088003 0 -0.023832412750477806 -0.0067938067943865543 0 -0.024595816694275376 -0.0082333590843004338 0 -0.022952090762486957 -0.0080495149309578705 0 -0.023832412750477806 -0.0067938067943865543 0 -0.021909962028992896 -0.007312921417088003 0 -0.019914620528757442 -0.0082701864795624233 0 -0.020882778558296469 -0.0066583786710326951 0 -0.021345461198506843 -0.0085208636862534552 0 -0.021909962028992896 -0.007312921417088003 0 -0.019914620528757442 -0.0082701864795624233 0 -0.018437634892858139 -0.0073664244854521289 0 -0.019914620528757442 -0.0082701864795624233 0 -0.020882778558296469 -0.0066583786710326951 0 -0.021994005704155179 -0.0072176442051799326 0 -0.023593241713098401 -0.0049330975888717135 0 -0.02236379989901258 -0.005710255043594608 0 -0.018437634892858139 -0.0073664244854521289 0 -0.020882778558296469 -0.0066583786710326951 0 -0.021362119896919652 -0.0046115771700368964 0 -0.020240808339998785 -0.0073079683313428774 0 -0.022479115989119388 -0.004842422492253238 0 -0.020882778558296469 -0.0066583786710326951 0 -0.022798187376356457 -0.0057957561472114713 0 -0.021362119896919652 -0.0046115771700368964 0 -0.021909962028992896 -0.007312921417088003 0 -0.020882778558296469 -0.0066583786710326951 0 -0.022798187376356457 -0.0057957561472114713 0 -0.021909962028992896 -0.007312921417088003 0 -0.023832412750477806 -0.0067938067943865543 0 -0.022798187376356457 -0.0057957561472114713 0 -0.023832412750477806 -0.0067938067943865543 0 -0.022798187376356457 -0.0057957561472114713 0 -0.024584321531812416 -0.005205312503387181 0 -0.022479115989119388 -0.004842422492253238 0 -0.02441293581157539 -0.0030228116915977333 0 -0.022798187376356457 -0.0057957561472114713 0 -0.023911169752780931 -0.0043102378767500829 0 -0.021362119896919652 -0.0046115771700368964 0 -0.023911169752780931 -0.0043102378767500829 0 -0.021362119896919652 -0.0046115771700368964 0 -0.02467823068380574 -0.0028898720076688746 0 -0.022798187376356457 -0.0057957561472114713 0 -0.023911169752780931 -0.0043102378767500829 0 -0.024584321531812416 -0.005205312503387181 0 -0.023361463135810501 -0.0038588007594779219 0 -0.023593241713098401 -0.0049330975888717135 0 -0.02467823068380574 -0.0028898720076688746 0 -0.023361463135810501 -0.0038588007594779219 0 -0.023593241713098401 -0.0049330975888717135 0 -0.022277075594881322 -0.0044183023645051594 0 -0.023593241713098401 -0.0049330975888717135 0 -0.02236379989901258 -0.005710255043594608 0 -0.022277075594881322 -0.0044183023645051594 0 -0.028188034912333633 -0.0054353408209275858 0 -0.02709499809293496 -0.0060109562706560024 0 -0.027179962109462785 -0.004471499085977459 0 -0.027908519236976344 -0.0074767062579021602 0 -0.028310637706881501 -0.0063249500003402532 0 -0.02709499809293496 -0.0060109562706560024 0 -0.026451378576685416 -0.007643887428008065 0 -0.02709499809293496 -0.0060109562706560024 0 -0.0254374947976399 -0.0064128736414998892 0 -0.02709499809293496 -0.0060109562706560024 0 -0.0254374947976399 -0.0064128736414998892 0 -0.025996902254772369 -0.0050620399471239322 0 -0.0254374947976399 -0.0064128736414998892 0 -0.024584321531812416 -0.005205312503387181 0 -0.025996902254772369 -0.0050620399471239322 0 -0.023832412750477806 -0.0067938067943865543 0 -0.0254374947976399 -0.0064128736414998892 0 -0.024584321531812416 -0.005205312503387181 0 -0.023911169752780931 -0.0043102378767500829 0 -0.024584321531812416 -0.005205312503387181 0 -0.025741970863679051 -0.0034818875155359572 0 -0.024584321531812416 -0.005205312503387181 0 -0.025996902254772369 -0.0050620399471239322 0 -0.025741970863679051 -0.0034818875155359572 0 -0.027929747984222566 -0.0038500365881188425 0 -0.027179962109462785 -0.004471499085977459 0 -0.027365277928429056 -0.003144446472445322 0 -0.025996902254772369 -0.0050620399471239322 0 -0.027179962109462785 -0.004471499085977459 0 -0.025741970863679051 -0.0034818875155359572 0 -0.02709499809293496 -0.0060109562706560024 0 -0.025996902254772369 -0.0050620399471239322 0 -0.027179962109462785 -0.004471499085977459 0 -0.027179962109462785 -0.004471499085977459 0 -0.027365277928429056 -0.003144446472445322 0 -0.025741970863679051 -0.0034818875155359572 0 -0.027365277928429056 -0.003144446472445322 0 -0.025741970863679051 -0.0034818875155359572 0 -0.02675840005752923 -0.0020809753434018548 0 -0.025741970863679051 -0.0034818875155359572 0 -0.025613575696561919 -0.0023324286792891849 0 -0.02467823068380574 -0.0028898720076688746 0 -0.025741970863679051 -0.0034818875155359572 0 -0.025613575696561919 -0.0023324286792891849 0 -0.02675840005752923 -0.0020809753434018548 0 -0.026543605367939573 -0.0010508479610290211 0 -0.025915566293884449 -0.0016712897652474592 0 -0.02675840005752923 -0.0020809753434018548 0 -0.025613575696561919 -0.0023324286792891849 0 -0.025915566293884449 -0.0016712897652474592 0 -0.02675840005752923 -0.0020809753434018548 0 -0.02789118126029462 -0.0010682709161809727 0 -0.02675840005752923 -0.0020809753434018548 0 -0.027854847617538342 -0.002216744770184582 0 -0.027365277928429056 -0.003144446472445322 0 -0.02675840005752923 -0.0020809753434018548 0 -0.027854847617538342 -0.002216744770184582 0 -0.023361463135810501 -0.0038588007594779219 0 -0.023559774876012973 -0.0028906973937033878 0 -0.02467823068380574 -0.0028898720076688746 0 -0.023361463135810501 -0.0038588007594779219 0 -0.023559774876012973 -0.0028906973937033878 0 -0.022277075594881322 -0.0044183023645051594 0 -0.024153472859873529 -0.0026958714695762558 0 -0.022843470853715509 -0.0045322675831892161 0 -0.024181414997773199 -0.0030838320657086567 0 -0.022843470853715509 -0.0045322675831892161 0 -0.024582388075530086 -0.0026394262892199187 0 -0.024345030155431793 -0.0024651848653696267 0 -0.023890192438776957 -0.003598165877023361 0 -0.023911169752780931 -0.0043102378767500829 0 -0.025741970863679051 -0.0034818875155359572 0 -0.02467823068380574 -0.0028898720076688746 0 -0.023559774876012973 -0.0028906973937033878 0 -0.02467823068380574 -0.0028898720076688746 0 -0.025115823427307827 -0.0018236084531790635 0 -0.025613575696561919 -0.0023324286792891849 0 -0.02467823068380574 -0.0028898720076688746 0 -0.025115823427307827 -0.0018236084531790635 0 -0.025613575696561919 -0.0023324286792891849 0 -0.025915566293884449 -0.0016712897652474592 0 -0.025115823427307827 -0.0018236084531790635 0 -0.024855329907699928 -0.0018531862959630129 0 -0.024181414997773199 -0.0030838320657086567 0 -0.024582388075530086 -0.0026394262892199187 0 -0.024345030155431793 -0.0024651848653696267 0 -0.025115823427307827 -0.0018236084531790635 0 -0.024773149469375019 -0.0015109031292515436 0 -0.024345030155431793 -0.0024651848653696267 0 -0.025115823427307827 -0.0018236084531790635 0 -0.024153472859873529 -0.0026958714695762558 0 -0.024931573823571328 -0.0019435469511516154 0 -0.024868610385301099 -0.0022274979081740431 0 -0.023886978354101654 -0.0038065715964300359 0 -0.023775303710853787 -0.0030724016590960444 0 -0.024868610385301099 -0.0022274979081740431 0 -0.023775303710853787 -0.0030724016590960444 0 -0.023965897266255254 -0.0024403236683523226 0 -0.023775303710853787 -0.0030724016590960444 0 -0.023965897266255254 -0.0024403236683523226 0 -0.023280074915682656 -0.0026489356952229147 0 -0.022829507852617118 -0.0019168535322169442 0 -0.023280074915682656 -0.0026489356952229147 0 -0.022269160907059261 -0.0029772647040932181 0 -0.023280074915682656 -0.0026489356952229147 0 -0.023019922422338437 -0.0035013066932190269 0 -0.022269160907059261 -0.0029772647040932181 0 -0.023019922422338437 -0.0035013066932190269 0 -0.021935141325371395 -0.0041042749222530662 0 -0.022269160907059261 -0.0029772647040932181 0 -0.023775303710853787 -0.0030724016590960444 0 -0.023280074915682656 -0.0026489356952229147 0 -0.023019922422338437 -0.0035013066932190269 0 -0.023886978354101654 -0.0038065715964300359 0 -0.023775303710853787 -0.0030724016590960444 0 -0.023019922422338437 -0.0035013066932190269 0 -0.023886978354101654 -0.0038065715964300359 0 -0.023019922422338437 -0.0035013066932190269 0 -0.022840270133065426 -0.004332809622437951 0 -0.023886978354101654 -0.0038065715964300359 0 -0.022840270133065426 -0.004332809622437951 0 -0.023028956217781026 -0.0053100292496066487 0 -0.023019922422338437 -0.0035013066932190269 0 -0.022840270133065426 -0.004332809622437951 0 -0.021935141325371395 -0.0041042749222530662 0 -0.022840270133065426 -0.004332809622437951 0 -0.021935141325371395 -0.0041042749222530662 0 -0.022328714211729543 -0.0049487021089951516 0 -0.021935141325371395 -0.0041042749222530662 0 -0.020480104962691155 -0.0044853611634896439 0 -0.021347455315333753 -0.0052852246799816186 0 -0.021935141325371395 -0.0041042749222530662 0 -0.021150342873070473 -0.0032515556320158257 0 -0.020480104962691155 -0.0044853611634896439 0 -0.020636183419002335 -0.0020110345324703418 0 -0.021769215151708078 -0.0021983722598223543 0 -0.021150342873070473 -0.0032515556320158257 0 -0.021935141325371395 -0.0041042749222530662 0 -0.021150342873070473 -0.0032515556320158257 0 -0.022269160907059261 -0.0029772647040932181 0 -0.021769215151708078 -0.0021983722598223543 0 -0.021150342873070473 -0.0032515556320158257 0 -0.022269160907059261 -0.0029772647040932181 0 -0.019292253517716965 -0.002093206621513956 0 -0.020636183419002335 -0.0020110345324703418 0 -0.01992452857215779 -0.0032156652349742175 0 -0.020636183419002335 -0.0020110345324703418 0 -0.021150342873070473 -0.0032515556320158257 0 -0.01992452857215779 -0.0032156652349742175 0 -0.019292253517716965 -0.002093206621513956 0 -0.018600455690874308 -0.0032176566560902782 0 -0.01992452857215779 -0.0032156652349742175 0 -0.018600455690874308 -0.0032176566560902782 0 -0.01992452857215779 -0.0032156652349742175 0 -0.018967439001898751 -0.0042142755811461321 0 -0.021150342873070473 -0.0032515556320158257 0 -0.01992452857215779 -0.0032156652349742175 0 -0.020480104962691155 -0.0044853611634896439 0 -0.01992452857215779 -0.0032156652349742175 0 -0.018967439001898751 -0.0042142755811461321 0 -0.020480104962691155 -0.0044853611634896439 0 -0.018967439001898751 -0.0042142755811461321 0 -0.020480104962691155 -0.0044853611634896439 0 -0.019443936916873343 -0.0053119960489920702 0 -0.020480104962691155 -0.0044853611634896439 0 -0.019443936916873343 -0.0053119960489920702 0 -0.020423379458290158 -0.0059810412475539412 0 -0.018228722759818215 -0.0051161205461607963 0 -0.018967439001898751 -0.0042142755811461321 0 -0.019443936916873343 -0.0053119960489920702 0 -0.017816701916107628 -0.0054922859683726134 0 -0.019363784992821802 -0.0052996617655615315 0 -0.017286337755813116 -0.0058945521214057734 0 -0.018507938319497295 -0.0076201156583309533 0 -0.019443936916873343 -0.0053119960489920702 0 -0.019742199507035908 -0.0070961948857685064 0 -0.019443936916873343 -0.0053119960489920702 0 -0.020423379458290158 -0.0059810412475539412 0 -0.019742199507035908 -0.0070961948857685064 0 -0.018507938319497295 -0.0076201156583309533 0 -0.019443936916873343 -0.0053119960489920702 0 -0.019742199507035908 -0.0070961948857685064 0 -0.020423379458290158 -0.0059810412475539412 0 -0.020660897635080264 -0.0067165702237655138 0 -0.020286894954302373 -0.0076912928561267335 0 -0.020660897635080264 -0.0067165702237655138 0 -0.021851785917517692 -0.0065446310478341624 0 -0.020423379458290158 -0.0059810412475539412 0 -0.020660897635080264 -0.0067165702237655138 0 -0.021192466965653255 -0.0060955380165357859 0 -0.021192466965653255 -0.0060955380165357859 0 -0.021851785917517692 -0.0065446310478341624 0 -0.021951049728317736 -0.0056299649080533828 0 -0.020660897635080264 -0.0067165702237655138 0 -0.021192466965653255 -0.0060955380165357859 0 -0.021851785917517692 -0.0065446310478341624 0 -0.021613174084727745 -0.0061364652725885774 0 -0.022843470853715509 -0.0045322675831892161 0 -0.021406438353940269 -0.0064353538380414813 0 -0.022843470853715509 -0.0045322675831892161 0 -0.021580855277469325 -0.0062477374917290149 0 -0.021085852761989314 -0.0061858072603007304 0 -0.022174886107711785 -0.0046522544146323785 0 -0.021580855277469325 -0.0062477374917290149 0 -0.02236379989901258 -0.005710255043594608 0 -0.022277075594881322 -0.0044183023645051594 0 -0.021082633784908631 -0.0073017581595369837 0 -0.021580855277469325 -0.0062477374917290149 0 -0.021085852761989314 -0.0061858072603007304 0 -0.021994005704155179 -0.0072176442051799326 0 -0.021580855277469325 -0.0062477374917290149 0 -0.02236379989901258 -0.005710255043594608 0 -0.021851785917517692 -0.0065446310478341624 0 -0.021951049728317736 -0.0056299649080533828 0 -0.023028956217781026 -0.0053100292496066487 0 -0.022840270133065426 -0.004332809622437951 0 -0.023028956217781026 -0.0053100292496066487 0 -0.022328714211729543 -0.0049487021089951516 0 -0.021951049728317736 -0.0056299649080533828 0 -0.023028956217781026 -0.0053100292496066487 0 -0.022328714211729543 -0.0049487021089951516 0 -0.021951049728317736 -0.0056299649080533828 0 -0.022328714211729543 -0.0049487021089951516 0 -0.021347455315333753 -0.0052852246799816186 0 -0.021935141325371395 -0.0041042749222530662 0 -0.022328714211729543 -0.0049487021089951516 0 -0.021347455315333753 -0.0052852246799816186 0 -0.020480104962691155 -0.0044853611634896439 0 -0.020423379458290158 -0.0059810412475539412 0 -0.021347455315333753 -0.0052852246799816186 0 -0.020423379458290158 -0.0059810412475539412 0 -0.021192466965653255 -0.0060955380165357859 0 -0.021347455315333753 -0.0052852246799816186 0 -0.021192466965653255 -0.0060955380165357859 0 -0.021951049728317736 -0.0056299649080533828 0 -0.021347455315333753 -0.0052852246799816186 0 -0.028978786155866881 3.6597321804838489e-05 0 -0.027519675127319416 3.2162566821925182e-09 0 -0.027200837123723468 -0.00014043151073175669 0 -0.028978786155866881 3.6597321804838489e-05 0 -0.027519675127319416 3.2162566821925182e-09 0 -0.02937228062054071 5.1583489749357855e-07 0 -0.027519675127319416 3.2162566821925182e-09 0 -0.027200837123723468 -0.00014043151073175669 0 -0.025667785781613151 -1.4826622612009475e-07 0 -0.028921678841931336 -0.00016574041451750482 0 -0.02746129870205901 -0.00020097591302914507 0 -0.029004861540754302 -0.00037336517017982223 0 -0.027200837123723468 -0.00014043151073175669 0 -0.029011227694624005 -0.00058305926716271613 0 -0.029004861540754302 -0.00037336517017982223 0 -0.029011227694624005 -0.00058305926716271613 0 -0.030592261366444141 -0.00076315044693523598 0 -0.025288653081408253 -0.00060042633867553102 0 -0.026537533660840058 -0.0012808500902721908 0 -0.029004861540754302 -0.00037336517017982223 0 -0.031041992915039656 -0.00054334458323179518 0 -0.030445979743118575 -0.0003728317886522305 0 -0.028921678841931336 -0.00016574041451750482 0 -0.030385467825018747 -0.00023400451516275184 0 -0.029004861540754302 -0.00037336517017982223 0 -0.031041992915039656 -0.00054334458323179518 0 -0.030592261366444141 -0.00076315044693523598 0 -0.031041992915039656 -0.00054334458323179518 0 -0.030445979743118575 -0.0003728317886522305 0 -0.032272209601237022 -0.00030250961681491784 0 -0.028978786155866881 3.6597321804838489e-05 0 -0.030284901619135857 -0.0001175189319316714 0 -0.030076254164006791 5.298974237616021e-05 0 -0.028978786155866881 3.6597321804838489e-05 0 -0.030076254164006791 5.298974237616021e-05 0 -0.02937228062054071 5.1583489749357855e-07 0 -0.030076254164006791 5.298974237616021e-05 0 -0.02937228062054071 5.1583489749357855e-07 0 -0.031220453194394347 -5.4074674040515693e-07 0 -0.030076254164006791 5.298974237616021e-05 0 -0.031220453194394347 -5.4074674040515693e-07 0 -0.030563762112152278 -4.647088826011363e-05 0 -0.030284901619135857 -0.0001175189319316714 0 -0.030076254164006791 5.298974237616021e-05 0 -0.030563762112152278 -4.647088826011363e-05 0 -0.031224454835247942 9.3735097636723461e-08 0 -0.032284476755819615 2.1433957332904017e-05 0 -0.033911336448824561 -5.430103437202982e-05 0 -0.034997314045616748 1.0343510988453123e-06 0 -0.034736492203342205 3.5348213058603801e-05 0 -0.031229456050919781 -1.7560692012082172e-06 0 -0.033911336448824561 -5.430103437202982e-05 0 -0.034997314045616748 1.0343510988453123e-06 0 -0.034997314045616748 1.0343510988453123e-06 0 -0.034999376034118741 7.0496973729862649e-08 0 -0.034736492203342205 3.5348213058603801e-05 0 -0.0333635076828201 0.00021658939858654221 0 -0.034612624656077437 0.00017814894918177914 0 -0.034999376034118741 7.0496973729862649e-08 0 -0.034736492203342205 3.5348213058603801e-05 0 -0.03484011565609544 0.00012807991972479675 0 -0.032284476755819615 2.1433957332904017e-05 0 -0.0333635076828201 0.00021658939858654221 0 -0.031973148601514838 0.0005754411330277275 0 -0.031582409888891078 -3.3941170597987166e-05 0 -0.033237769522024806 0.00013769550677679164 0 -0.031973148601514838 0.0005754411330277275 0 -0.033237769522024806 0.00013769550677679164 0 -0.03484011565609544 0.00012807991972479675 0 -0.031582409888891078 -3.3941170597987166e-05 0 -0.032272209601237022 -0.00030250961681491784 0 -0.033237769522024806 0.00013769550677679164 0 -0.030563762112152278 -4.647088826011363e-05 0 -0.031973148601514838 0.0005754411330277275 0 -0.031582409888891078 -3.3941170597987166e-05 0 -0.030284901619135857 -0.0001175189319316714 0 -0.030563762112152278 -4.647088826011363e-05 0 -0.031582409888891078 -3.3941170597987166e-05 0 -0.030385467825018747 -0.00023400451516275184 0 -0.031422184035530966 -1.0254778989649385e-06 0 -0.030445979743118575 -0.0003728317886522305 0 -0.031582409888891078 -3.3941170597987166e-05 0 -0.032272209601237022 -0.00030250961681491784 0 -0.028722801256960213 -0.0012679404572603107 0 -0.028245569992221373 -0.0028497666065691717 0 -0.025060064352304727 -0.0032113001322121399 0 -0.028722801256960213 -0.0012679404572603107 0 -0.023823342742622787 -0.0035512618339248068 0 -0.025060064352304727 -0.0032113001322121399 0 -0.032272209601237022 -0.00030250961681491784 0 -0.033728409048751171 -0.00033714711549247511 0 -0.0322087653394868 -0.0007299436133763478 0 -0.031113546074200485 -0.00087215978215332112 0 -0.028052904158275972 -0.0021499892764490257 0 -0.032272209601237022 -0.00030250961681491784 0 -0.033823296051020413 3.1457337111714206e-06 0 -0.033728409048751171 -0.00033714711549247511 0 -0.032272209601237022 -0.00030250961681491784 0 -0.033823296051020413 3.1457337111714206e-06 0 -0.033237769522024806 0.00013769550677679164 0 -0.034999376034118741 7.0496973729862649e-08 0 -0.03499793137104068 8.0323204382452662e-07 0 -0.03484011565609544 0.00012807991972479675 0 -0.033823296051020413 3.1457337111714206e-06 0 -0.034347420032356996 0.00015202298154771952 0 -0.034645102201245802 8.3912572937549338e-05 0 -0.033823296051020413 3.1457337111714206e-06 0 -0.033237769522024806 0.00013769550677679164 0 -0.034347420032356996 0.00015202298154771952 0 -0.034347420032356996 0.00015202298154771952 0 -0.03499793137104068 8.0323204382452662e-07 0 -0.03484011565609544 0.00012807991972479675 0 -0.033237769522024806 0.00013769550677679164 0 -0.034347420032356996 0.00015202298154771952 0 -0.03484011565609544 0.00012807991972479675 0 -0.034999307925302647 -1.3489447439339324e-07 0 -0.033341209194972063 -1.9730289370589216e-05 0 -0.03499793137104068 8.0323204382452662e-07 0 -0.035000602056483476 -3.5775051155307449e-07 0 -0.034645102201245802 8.3912572937549338e-05 0 -0.034347420032356996 0.00015202298154771952 0 -0.03499793137104068 8.0323204382452662e-07 0 -0.034645102201245802 8.3912572937549338e-05 0 -0.034995790941943571 1.9645212309964539e-06 0 -0.032153178310236612 0.00010697340518487995 0 -0.033648837403154525 -0.00026979784545392291 0 -0.032153178310236612 0.00010697340518487995 0 -0.031869323577553899 -0.0013231929356554211 0 -0.033648837403154525 -0.00026979784545392291 0 -0.033823296051020413 3.1457337111714206e-06 0 -0.034645102201245802 8.3912572937549338e-05 0 -0.033728409048751171 -0.00033714711549247511 0 -0.032153178310236612 0.00010697340518487995 0 -0.031869323577553899 -0.0013231929356554211 0 -0.028722801256960213 -0.0012679404572603107 0 -0.033341209194972063 -1.9730289370589216e-05 0 -0.031113546074200485 -0.00087215978215332112 0 -0.031869323577553899 -0.0013231929356554211 0 -0.028722801256960213 -0.0012679404572603107 0 -0.030243397290776488 -0.0024951929532888782 0 -0.030243397290776488 -0.0024951929532888782 0 -0.028245569992221373 -0.0028497666065691717 0 -0.029469446202333674 -0.0042789744298718253 0 -0.028722801256960213 -0.0012679404572603107 0 -0.030243397290776488 -0.0024951929532888782 0 -0.028245569992221373 -0.0028497666065691717 0 -0.031869323577553899 -0.0013231929356554211 0 -0.030243397290776488 -0.0024951929532888782 0 -0.031900049158319149 -0.0032311868620117862 0 -0.031869323577553899 -0.0013231929356554211 0 -0.031900049158319149 -0.0032311868620117862 0 -0.033945831125072795 -0.0015854295460402078 0 -0.031900049158319149 -0.0032311868620117862 0 -0.03097961029503099 -0.0052604548993137532 0 -0.032640944314394481 -0.0054797821749640371 0 -0.03097961029503099 -0.0052604548993137532 0 -0.029959769467187446 -0.0069297936300998508 0 -0.029469446202333674 -0.0042789744298718253 0 -0.030243397290776488 -0.0024951929532888782 0 -0.031900049158319149 -0.0032311868620117862 0 -0.029469446202333674 -0.0042789744298718253 0 -0.031900049158319149 -0.0032311868620117862 0 -0.03097961029503099 -0.0052604548993137532 0 -0.029469446202333674 -0.0042789744298718253 0 -0.03097961029503099 -0.0052604548993137532 0 -0.029959769467187446 -0.0069297936300998508 0 -0.031945352395487708 -0.0077850125877240821 0 -0.03097961029503099 -0.0052604548993137532 0 -0.031945352395487708 -0.0077850125877240821 0 -0.032640944314394481 -0.0054797821749640371 0 -0.024967814052621353 -0.0048251387380851473 0 -0.025203133875559783 -0.0032797143771388371 0 -0.029959769467187446 -0.0069297936300998508 0 -0.027715042117677169 -0.0066607539789780646 0 -0.029160658459140582 -0.0090271277489140222 0 -0.029959769467187446 -0.0069297936300998508 0 -0.027715042117677169 -0.0066607539789780646 0 -0.029469446202333674 -0.0042789744298718253 0 -0.027715042117677169 -0.0066607539789780646 0 -0.029469446202333674 -0.0042789744298718253 0 -0.027682717059301313 -0.0042183161753496417 0 -0.028245569992221373 -0.0028497666065691717 0 -0.029469446202333674 -0.0042789744298718253 0 -0.027682717059301313 -0.0042183161753496417 0 -0.027715042117677169 -0.0066607539789780646 0 -0.027682717059301313 -0.0042183161753496417 0 -0.025060064352304727 -0.0032113001322121399 0 -0.028245569992221373 -0.0028497666065691717 0 -0.027682717059301313 -0.0042183161753496417 0 -0.025060064352304727 -0.0032113001322121399 0 -0.021980273377766611 -0.0027756445576068525 0 -0.023823342742622787 -0.0035512618339248068 0 -0.025060064352304727 -0.0032113001322121399 0 -0.024967814052621353 -0.0048251387380851473 0 -0.024736972041820307 -0.0031026192132868687 0 -0.031041992915039656 -0.00054334458323179518 0 -0.032272209601237022 -0.00030250961681491784 0 -0.0322087653394868 -0.0007299436133763478 0 -0.028052904158275972 -0.0021499892764490257 0 -0.026537533660840058 -0.0012808500902721908 0 -0.031041992915039656 -0.00054334458323179518 0 -0.0322087653394868 -0.0007299436133763478 0 -0.030592261366444141 -0.00076315044693523598 0 -0.021980273377766611 -0.0027756445576068525 0 -0.023823342742622787 -0.0035512618339248068 0 -0.022133468392304002 -0.001851643180907037 0 -0.023823342742622787 -0.0035512618339248068 0 -0.022133468392304002 -0.001851643180907037 0 -0.022473868815398198 -0.00172924256788427 0 -0.021980273377766611 -0.0027756445576068525 0 -0.022133468392304002 -0.001851643180907037 0 -0.021171400769327952 -0.0013830920503764938 0 -0.022133468392304002 -0.001851643180907037 0 -0.021545458220361836 -0.0012457534191126992 0 -0.021704827352947632 -0.0010108364220508788 0 -0.022133468392304002 -0.001851643180907037 0 -0.021545458220361836 -0.0012457534191126992 0 -0.021171400769327952 -0.0013830920503764938 0 -0.021534664878349711 -0.00063478158859104467 0 -0.022473868815398198 -0.00172924256788427 0 -0.021704827352947632 -0.0010108364220508788 0 -0.022133468392304002 -0.001851643180907037 0 -0.022473868815398198 -0.00172924256788427 0 -0.021704827352947632 -0.0010108364220508788 0 -0.021704827352947632 -0.0010108364220508788 0 -0.021284905684621717 -0.00065087873019855464 0 -0.021234223963493552 -0.00046588232440562658 0 -0.021534664878349711 -0.00063478158859104467 0 -0.021704827352947632 -0.0010108364220508788 0 -0.021234223963493552 -0.00046588232440562658 0 -0.021545458220361836 -0.0012457534191126992 0 -0.021214019660525826 -0.00078659029877170572 0 -0.021073654654984082 -0.0010546859774277651 0 -0.021545458220361836 -0.0012457534191126992 0 -0.021704827352947632 -0.0010108364220508788 0 -0.021214019660525826 -0.00078659029877170572 0 -0.021284905684621717 -0.00065087873019855464 0 -0.021214019660525826 -0.00078659029877170572 0 -0.020965489460110641 -0.00040183707467934094 0 -0.021704827352947632 -0.0010108364220508788 0 -0.021284905684621717 -0.00065087873019855464 0 -0.021214019660525826 -0.00078659029877170572 0 -0.021214019660525826 -0.00078659029877170572 0 -0.020875877331367497 -0.00074754282193488877 0 -0.020801891834055543 -0.00046111453426766802 0 -0.023274621699655485 -0.0012760487269103927 0 -0.025203133875559783 -0.0032797143771388371 0 -0.020719963977250396 -0.0010280912536013015 0 -0.020354278744621264 -0.00074808488082791895 0 -0.020772464894070513 -0.0015076017127343599 0 -0.020875877331367497 -0.00074754282193488877 0 -0.021073654654984082 -0.0010546859774277651 0 -0.020719963977250396 -0.0010280912536013015 0 -0.021214019660525826 -0.00078659029877170572 0 -0.020875877331367497 -0.00074754282193488877 0 -0.021073654654984082 -0.0010546859774277651 0 -0.021073654654984082 -0.0010546859774277651 0 -0.020719963977250396 -0.0010280912536013015 0 -0.020939560171683774 -0.0012318322089874408 0 -0.020875877331367497 -0.00074754282193488877 0 -0.020719963977250396 -0.0010280912536013015 0 -0.020601683030546037 -0.00071713907655515782 0 -0.020719963977250396 -0.0010280912536013015 0 -0.020601683030546037 -0.00071713907655515782 0 -0.020354278744621264 -0.00074808488082791895 0 -0.020875877331367497 -0.00074754282193488877 0 -0.020601683030546037 -0.00071713907655515782 0 -0.020643014041984147 -0.00053220042494817521 0 -0.020601683030546037 -0.00071713907655515782 0 -0.020354278744621264 -0.00074808488082791895 0 -0.020403560083777781 -0.00042096676202432959 0 -0.026562879536398139 -0.0023670307883365219 0 -0.026627369645626547 -0.0020197250823729457 0 -0.026242588662411116 -0.00175719814429779 0 -0.026562879536398139 -0.0023670307883365219 0 -0.02687722410079561 -0.0024850367964859496 0 -0.026827036690690063 -0.002602302023109094 0 -0.026562879536398139 -0.0023670307883365219 0 -0.02687722410079561 -0.0024850367964859496 0 -0.02679305626837291 -0.0023033286615873633 0 -0.02679305626837291 -0.0023033286615873633 0 -0.026945115337453571 -0.002054915079043926 0 -0.027032541499756261 -0.0025619417178131599 0 -0.026380589336396917 -0.0025647247943317909 0 -0.025795095730417276 -0.0023657461062427288 0 -0.02687722410079561 -0.0024850367964859496 0 -0.026991305515335864 -0.0025400099417904032 0 -0.026827036690690063 -0.002602302023109094 0 -0.02687722410079561 -0.0024850367964859496 0 -0.02679305626837291 -0.0023033286615873633 0 -0.027032541499756261 -0.0025619417178131599 0 -0.02679305626837291 -0.0023033286615873633 0 -0.026945115337453571 -0.002054915079043926 0 -0.026627369645626547 -0.0020197250823729457 0 -0.026562879536398139 -0.0023670307883365219 0 -0.02679305626837291 -0.0023033286615873633 0 -0.026627369645626547 -0.0020197250823729457 0 -0.029598185694281187 -0.0047931309605517653 0 -0.025203133875559783 -0.0032797143771388371 0 -0.029959769467187446 -0.0069297936300998508 0 -0.031945352395487708 -0.0077850125877240821 0 -0.029160658459140582 -0.0090271277489140222 0 -0.026945115337453571 -0.002054915079043926 0 -0.026962373505165643 -0.0014694744990086648 0 -0.026627369645626547 -0.0020197250823729457 0 -0.026962373505165643 -0.0014694744990086648 0 -0.026627369645626547 -0.0020197250823729457 0 -0.026242588662411116 -0.00175719814429779 0 -0.021980273377766611 -0.0027756445576068525 0 -0.021171400769327952 -0.0013830920503764938 0 -0.020779633735027964 -0.0015644021998882302 0 -0.021171400769327952 -0.0013830920503764938 0 -0.020939560171683774 -0.0012318322089874408 0 -0.020772464894070513 -0.0015076017127343599 0 -0.021545458220361836 -0.0012457534191126992 0 -0.021073654654984082 -0.0010546859774277651 0 -0.021171400769327952 -0.0013830920503764938 0 -0.022259623054411828 -0.0031619299570891241 0 -0.025203133875559783 -0.0032797143771388371 0 -0.021073654654984082 -0.0010546859774277651 0 -0.021171400769327952 -0.0013830920503764938 0 -0.020939560171683774 -0.0012318322089874408 0 -0.020719963977250396 -0.0010280912536013015 0 -0.020939560171683774 -0.0012318322089874408 0 -0.020772464894070513 -0.0015076017127343599 0 -0.031223788497192401 -0.0025629429476852427 0 -0.032512896876609146 -0.0015876764693532224 0 -0.03097938939245945 -0.0010141897417383157 0 -0.031223788497192401 -0.0025629429476852427 0 -0.030628163312665962 -0.0023363080087852399 0 -0.03097938939245945 -0.0010141897417383157 0 -0.026962373505165643 -0.0014694744990086648 0 -0.027384689912993688 -0.0019021192723824682 0 -0.027742770236824622 -0.0011765602626107069 0 -0.029144704661663703 -0.0018906563853525239 0 -0.031579080787211826 -0.0021653360216589879 0 -0.026945115337453571 -0.002054915079043926 0 -0.026962373505165643 -0.0014694744990086648 0 -0.027384689912993688 -0.0019021192723824682 0 -0.030628163312665962 -0.0023363080087852399 0 -0.030888326538932746 -0.0026708171590878516 0 -0.030856419569388869 -0.0025704393013345952 0 -0.026945115337453571 -0.002054915079043926 0 -0.027384689912993688 -0.0019021192723824682 0 -0.027032541499756261 -0.0025619417178131599 0 -0.030628163312665962 -0.0023363080087852399 0 -0.030856419569388869 -0.0025704393013345952 0 -0.030928952428283855 -0.0025920671485920267 0 -0.029144704661663703 -0.0018906563853525239 0 -0.025795095730417276 -0.0023657461062427288 0 -0.030856419569388869 -0.0025704393013345952 0 -0.030912645222830326 -0.002542027120844378 0 -0.030928952428283855 -0.0025920671485920267 0 -0.030888326538932746 -0.0026708171590878516 0 -0.030856419569388869 -0.0025704393013345952 0 -0.030912645222830326 -0.002542027120844378 0 -0.031223788497192401 -0.0025629429476852427 0 -0.030935223971466461 -0.0026017956298938294 0 -0.030541954105126133 -0.0025631718942666468 0 -0.030912645222830326 -0.002542027120844378 0 -0.030935223971466461 -0.0026017956298938294 0 -0.030875294816714867 -0.0025239267406669975 0 -0.030912645222830326 -0.002542027120844378 0 -0.030928952428283855 -0.0025920671485920267 0 -0.030935223971466461 -0.0026017956298938294 0 -0.031223788497192401 -0.0025629429476852427 0 -0.030928952428283855 -0.0025920671485920267 0 -0.030935223971466461 -0.0026017956298938294 0 -0.031223788497192401 -0.0025629429476852427 0 -0.030628163312665962 -0.0023363080087852399 0 -0.030928952428283855 -0.0025920671485920267 0 -0.030935223971466461 -0.0026017956298938294 0 -0.030671765696710134 -0.0026641248518909609 0 -0.030875294816714867 -0.0025239267406669975 0 -0.031227116620944607 -0.0025646110571041418 0 -0.031827511992611975 -0.0025545811047857892 0 -0.031223788497192401 -0.0025629429476852427 0 -0.030541954105126133 -0.0025631718942666468 0 -0.030342852830475234 -0.0029444241960055713 0 -0.030935223971466461 -0.0026017956298938294 0 -0.030541954105126133 -0.0025631718942666468 0 -0.030671765696710134 -0.0026641248518909609 0 -0.030342852830475234 -0.0029444241960055713 0 -0.029576573895536872 -0.0024133699143647751 0 -0.030210780807395868 -0.0021906362041026507 0 -0.030541954105126133 -0.0025631718942666468 0 -0.030342852830475234 -0.0029444241960055713 0 -0.030210780807395868 -0.0021906362041026507 0 -0.033447148097004741 -0.0022143425221156773 0 -0.033448214782276352 -0.0011512596471293416 0 -0.034241806806310025 -0.0011933793508994487 0 -0.033447148097004741 -0.0022143425221156773 0 -0.032512896876609146 -0.0015876764693532224 0 -0.033448214782276352 -0.0011512596471293416 0 -0.031223788497192401 -0.0025629429476852427 0 -0.033447148097004741 -0.0022143425221156773 0 -0.032512896876609146 -0.0015876764693532224 0 -0.032512896876609146 -0.0015876764693532224 0 -0.032542598916962359 -0.00044415977231246996 0 -0.033448214782276352 -0.0011512596471293416 0 -0.033448214782276352 -0.0011512596471293416 0 -0.034126529797018808 -0.00037419429732693451 0 -0.034241806806310025 -0.0011933793508994487 0 -0.032542598916962359 -0.00044415977231246996 0 -0.033448214782276352 -0.0011512596471293416 0 -0.034126529797018808 -0.00037419429732693451 0 -0.033662630432538775 -0.00028896205054159215 0 -0.03391177886149379 -0.00040015178210036755 0 -0.034277277541041019 -0.00038683927679654476 0 -0.034256220819766772 -0.00035607547489216381 0 -0.034330147157584839 -0.00034759726621192425 0 -0.034277277541041019 -0.00038683927679654476 0 -0.034126529797018808 -0.00037419429732693451 0 -0.034330147157584839 -0.00034759726621192425 0 -0.035247752450834127 -0.0033310210950924829 0 -0.034472420092823156 -0.0064501548972507386 0 -0.03364655110715685 -0.0039137582374028316 0 -0.035010978623825378 -0.0020368551756125104 0 -0.031579080787211826 -0.0021653360216589879 0 -0.034277277541041019 -0.00038683927679654476 0 -0.034256220819766772 -0.00035607547489216381 0 -0.03417246707132738 -0.00045158637034462912 0 -0.032512896876609146 -0.0015876764693532224 0 -0.032542598916962359 -0.00044415977231246996 0 -0.03097938939245945 -0.0010141897417383157 0 -0.033662630432538775 -0.00028896205054159215 0 -0.031579080787211826 -0.0021653360216589879 0 -0.029598185694281187 -0.0047931309605517653 0 -0.031579080787211826 -0.0021653360216589879 0 -0.031945352395487708 -0.0077850125877240821 0 -0.034472420092823156 -0.0064501548972507386 0 -0.032640944314394481 -0.0054797821749640371 0 -0.034472420092823156 -0.0064501548972507386 0 -0.032640944314394481 -0.0054797821749640371 0 -0.03364655110715685 -0.0039137582374028316 0 -0.031900049158319149 -0.0032311868620117862 0 -0.032640944314394481 -0.0054797821749640371 0 -0.03364655110715685 -0.0039137582374028316 0 -0.031900049158319149 -0.0032311868620117862 0 -0.03364655110715685 -0.0039137582374028316 0 -0.033945831125072795 -0.0015854295460402078 0 -0.035247752450834127 -0.0033310210950924829 0 -0.03364655110715685 -0.0039137582374028316 0 -0.033945831125072795 -0.0015854295460402078 0 -0.035010978623825378 -0.0020368551756125104 0 -0.034872892665779379 -0.00070322930685854789 0 -0.035247752450834127 -0.0033310210950924829 0 -0.033945831125072795 -0.0015854295460402078 0 -0.035398336919853446 -0.0011059333090239105 0 -0.033945831125072795 -0.0015854295460402078 0 -0.034690203539220206 -0.00015742718007843737 0 -0.035398336919853446 -0.0011059333090239105 0 -0.031869323577553899 -0.0013231929356554211 0 -0.033945831125072795 -0.0015854295460402078 0 -0.033648837403154525 -0.00026979784545392291 0 -0.033945831125072795 -0.0015854295460402078 0 -0.033648837403154525 -0.00026979784545392291 0 -0.034690203539220206 -0.00015742718007843737 0 -0.034995790941943571 1.9645212309964539e-06 0 -0.033648837403154525 -0.00026979784545392291 0 -0.034690203539220206 -0.00015742718007843737 0 -0.034995790941943571 1.9645212309964539e-06 0 -0.034690203539220206 -0.00015742718007843737 0 -0.035000664502179549 -5.4867277051152949e-07 0 -0.034999689290411508 2.7364102973259606e-08 0 -0.034958321214942766 -8.0519451656599049e-05 0 -0.034860776543226495 -6.7744822802045512e-05 0 -0.034690203539220206 -0.00015742718007843737 0 -0.035000664502179549 -5.4867277051152949e-07 0 -0.034958321214942766 -8.0519451656599049e-05 0 -0.035000664502179549 -5.4867277051152949e-07 0 -0.034999689290411508 2.7364102973259606e-08 0 -0.034958321214942766 -8.0519451656599049e-05 0 -0.034959865067173697 -0.00018506875166064135 0 -0.034872892665779379 -0.00070322930685854789 0 -0.034958321214942766 -8.0519451656599049e-05 0 -0.034716701747634769 -0.00013198906075390269 0 -0.034436667916795456 -0.00022310840415522894 0 -0.034690203539220206 -0.00015742718007843737 0 -0.034958321214942766 -8.0519451656599049e-05 0 -0.035398336919853446 -0.0011059333090239105 0 -0.034958321214942766 -8.0519451656599049e-05 0 -0.034716701747634769 -0.00013198906075390269 0 -0.034860776543226495 -6.7744822802045512e-05 0 -0.034716701747634769 -0.00013198906075390269 0 -0.034436667916795456 -0.00022310840415522894 0 -0.034491732872330677 -0.00027213644769107011 0 -0.034256220819766772 -0.00035607547489216381 0 -0.034436667916795456 -0.00022310840415522894 0 -0.034330147157584839 -0.00034759726621192425 0 -0.034436667916795456 -0.00022310840415522894 0 -0.034330147157584839 -0.00034759726621192425 0 -0.034491732872330677 -0.00027213644769107011 0 -0.034126529797018808 -0.00037419429732693451 0 -0.034330147157584839 -0.00034759726621192425 0 -0.034491732872330677 -0.00027213644769107011 0 -0.034126529797018808 -0.00037419429732693451 0 -0.034491732872330677 -0.00027213644769107011 0 -0.034623580777105228 -0.00041247389961494082 0 -0.034491732872330677 -0.00027213644769107011 0 -0.034623580777105228 -0.00041247389961494082 0 -0.034741787819862077 -0.00019334344542518467 0 -0.034623580777105228 -0.00041247389961494082 0 -0.034741787819862077 -0.00019334344542518467 0 -0.034840317498575663 -0.0003380392919942274 0 -0.034716701747634769 -0.00013198906075390269 0 -0.034491732872330677 -0.00027213644769107011 0 -0.034741787819862077 -0.00019334344542518467 0 -0.034716701747634769 -0.00013198906075390269 0 -0.034741787819862077 -0.00019334344542518467 0 -0.034860776543226495 -6.7744822802045512e-05 0 -0.034741787819862077 -0.00019334344542518467 0 -0.034860776543226495 -6.7744822802045512e-05 0 -0.034906913378163311 -6.9885991825335714e-05 0 -0.034741787819862077 -0.00019334344542518467 0 -0.034906913378163311 -6.9885991825335714e-05 0 -0.034928424743573362 -0.00012958460625713873 0 -0.034860776543226495 -6.7744822802045512e-05 0 -0.034906913378163311 -6.9885991825335714e-05 0 -0.034999836474322615 -6.5168826726904998e-08 0 -0.034999689290411508 2.7364102973259606e-08 0 -0.034860776543226495 -6.7744822802045512e-05 0 -0.034999836474322615 -6.5168826726904998e-08 0 -0.034906913378163311 -6.9885991825335714e-05 0 -0.034999836474322615 -6.5168826726904998e-08 0 -0.034999956454470779 -8.1831358844679501e-09 0 -0.034906913378163311 -6.9885991825335714e-05 0 -0.034999956454470779 -8.1831358844679501e-09 0 -0.034928424743573362 -0.00012958460625713873 0 -0.035010940005612591 -7.1600924842862103e-05 0 -0.034999956454470779 -8.1831358844679501e-09 0 -0.034928424743573362 -0.00012958460625713873 0 -0.035041573983358977 -0.00031921401964684471 0 -0.034928424743573362 -0.00012958460625713873 0 -0.034840317498575663 -0.0003380392919942274 0 -0.035010940005612591 -7.1600924842862103e-05 0 -0.035041573983358977 -0.00031921401964684471 0 -0.034928424743573362 -0.00012958460625713873 0 -0.034741787819862077 -0.00019334344542518467 0 -0.034928424743573362 -0.00012958460625713873 0 -0.034840317498575663 -0.0003380392919942274 0 -0.035041573983358977 -0.00031921401964684471 0 -0.034840317498575663 -0.0003380392919942274 0 -0.034894930968304316 -0.00072076458141450436 0 -0.034832952067796359 -0.00088124823758707334 0 -0.034791594558169436 -0.0010169320716141689 0 -0.034894930968304316 -0.00072076458141450436 0 -0.03475502256141684 -0.00074791708523613875 0 -0.034937470829375018 -0.00072000853162569253 0 -0.035041573983358977 -0.00031921401964684471 0 -0.035064476529427069 -0.00044744646691479312 0 -0.034894930968304316 -0.00072076458141450436 0 -0.034832952067796359 -0.00088124823758707334 0 -0.034894930968304316 -0.00072076458141450436 0 -0.03485641901376612 -0.00090396244505736207 0 -0.034894930968304316 -0.00072076458141450436 0 -0.03485641901376612 -0.00090396244505736207 0 -0.034778385665443556 -0.00097135832912162337 0 -0.034894930968304316 -0.00072076458141450436 0 -0.034778385665443556 -0.00097135832912162337 0 -0.03461183252991281 -0.00081675791931050791 0 -0.034623580777105228 -0.00041247389961494082 0 -0.034840317498575663 -0.0003380392919942274 0 -0.034894930968304316 -0.00072076458141450436 0 -0.034623580777105228 -0.00041247389961494082 0 -0.034894930968304316 -0.00072076458141450436 0 -0.03461183252991281 -0.00081675791931050791 0 -0.034126529797018808 -0.00037419429732693451 0 -0.034623580777105228 -0.00041247389961494082 0 -0.03461183252991281 -0.00081675791931050791 0 -0.034126529797018808 -0.00037419429732693451 0 -0.03461183252991281 -0.00081675791931050791 0 -0.034241806806310025 -0.0011933793508994487 0 -0.03461183252991281 -0.00081675791931050791 0 -0.034684015547690565 -0.0012356602224862904 0 -0.034241806806310025 -0.0011933793508994487 0 -0.034778385665443556 -0.00097135832912162337 0 -0.03461183252991281 -0.00081675791931050791 0 -0.034684015547690565 -0.0012356602224862904 0 -0.034684015547690565 -0.0012356602224862904 0 -0.034464828847496833 -0.001625549056388637 0 -0.03478968392332335 -0.0010573355496380759 0 -0.034684015547690565 -0.0012356602224862904 0 -0.034241806806310025 -0.0011933793508994487 0 -0.034464828847496833 -0.001625549056388637 0 -0.033447148097004741 -0.0022143425221156773 0 -0.034241806806310025 -0.0011933793508994487 0 -0.034464828847496833 -0.001625549056388637 0 -0.030342852830475234 -0.0029444241960055713 0 -0.029319175982730789 -0.0030385822085992739 0 -0.029576573895536872 -0.0024133699143647751 0 -0.031827511992611975 -0.0025545811047857892 0 -0.031856190531081567 -0.0023329393327295284 0 -0.029319175982730789 -0.0030385822085992739 0 -0.028873766295557601 -0.0024428995133168865 0 -0.029576573895536872 -0.0024133699143647751 0 -0.029319175982730789 -0.0030385822085992739 0 -0.028873766295557601 -0.0024428995133168865 0 -0.027966835995160477 -0.0030854844645500906 0 -0.031856190531081567 -0.0023329393327295284 0 -0.031310432297595177 -0.0020756770813710234 0 -0.027966835995160477 -0.0030854844645500906 0 -0.02723816597248371 -0.0025038856667136461 0 -0.028157081640751241 -0.0021979999123875695 0 -0.028873766295557601 -0.0024428995133168865 0 -0.027966835995160477 -0.0030854844645500906 0 -0.028157081640751241 -0.0021979999123875695 0 -0.033834709995582836 -0.00081339776461170044 0 -0.03478968392332335 -0.0010573355496380759 0 -0.034750512554103732 -0.0011537649101058622 0 -0.030266898095213716 -0.0019876758457588006 0 -0.031310432297595177 -0.0020756770813710234 0 -0.0264710695432866 -0.003044228689474562 0 -0.027966835995160477 -0.0030854844645500906 0 -0.02723816597248371 -0.0025038856667136461 0 -0.0264710695432866 -0.003044228689474562 0 -0.02723816597248371 -0.0025038856667136461 0 -0.026620477292080648 -0.0024937447406902305 0 -0.033834709995582836 -0.00081339776461170044 0 -0.033714567260739521 -0.0012326370743299478 0 -0.034750512554103732 -0.0011537649101058622 0 -0.034463398435576394 -0.0010698854701954716 0 -0.034608799580973459 -0.0011227569921317027 0 -0.034821942652434067 -0.00083705039571752981 0 -0.03485641901376612 -0.00090396244505736207 0 -0.034750512554103732 -0.0011537649101058622 0 -0.034684015547690565 -0.0012356602224862904 0 -0.03478968392332335 -0.0010573355496380759 0 -0.034750512554103732 -0.0011537649101058622 0 -0.03485641901376612 -0.00090396244505736207 0 -0.034778385665443556 -0.00097135832912162337 0 -0.034750512554103732 -0.0011537649101058622 0 -0.034778385665443556 -0.00097135832912162337 0 -0.034684015547690565 -0.0012356602224862904 0 -0.034750512554103732 -0.0011537649101058622 0 -0.019940309708244518 -0.00084203378148263518 0 -0.021730559955165259 -0.001507495725663714 0 -0.020737590502617125 -8.7163692290283997e-05 0 -0.023141080653085278 -0.0013135462474150247 0 -0.024681288065395129 -0.001361631876772266 0 -0.026166904343134647 -0.00095960242289017843 0 -0.02765383389276329 -0.0013318080873325764 0 -0.026803411013994052 -0.001908749809174488 0 -0.02723816597248371 -0.0025038856667136461 0 -0.02765383389276329 -0.0013318080873325764 0 -0.026803411013994052 -0.001908749809174488 0 -0.02723816597248371 -0.0025038856667136461 0 -0.026620477292080648 -0.0024937447406902305 0 -0.026803411013994052 -0.001908749809174488 0 -0.02723816597248371 -0.0025038856667136461 0 -0.02765383389276329 -0.0013318080873325764 0 -0.028157081640751241 -0.0021979999123875695 0 -0.02765383389276329 -0.0013318080873325764 0 -0.028157081640751241 -0.0021979999123875695 0 -0.029057298725496374 -0.0017461702491420488 0 -0.028873766295557601 -0.0024428995133168865 0 -0.028157081640751241 -0.0021979999123875695 0 -0.029057298725496374 -0.0017461702491420488 0 -0.028873766295557601 -0.0024428995133168865 0 -0.029057298725496374 -0.0017461702491420488 0 -0.029576573895536872 -0.0024133699143647751 0 -0.026725994604562348 -0.001934761371635726 0 -0.028866466838568153 -0.0023898439997539068 0 -0.029057298725496374 -0.0017461702491420488 0 -0.029576573895536872 -0.0024133699143647751 0 -0.030210780807395868 -0.0021906362041026507 0 -0.024402638954025922 -0.0021195240079677335 0 -0.025726408693471814 -0.00012919632890344811 0 -0.027566798086485423 -0.0026326171951771625 0 -0.021730559955165259 -0.001507495725663714 0 -0.024402638954025922 -0.0021195240079677335 0 -0.023103465316833008 0.00061049781368052248 0 -0.024681288065395129 -0.001361631876772266 0 -0.026725994604562348 -0.001934761371635726 0 -0.024402638954025922 -0.0021195240079677335 0 -0.023103465316833008 0.00061049781368052248 0 -0.025726408693471814 -0.00012919632890344811 0 -0.021768291640977655 0.00061510768876695237 0 -0.023017675829774993 0.00014793732877504736 0 -0.02025135477771102 0.00044367169302217722 0 -0.020250702492643786 0.00054078449266806259 0 -0.020254831623558102 0.00046897978421354557 0 -0.020361061536029335 0.00069715146140160672 0 -0.02025135477771102 0.00044367169302217722 0 -0.020250702492643786 0.00054078449266806259 0 -0.020250702492643786 0.00054078449266806259 0 -0.020226987726326678 0.00050199598954262013 0 -0.020254831623558102 0.00046897978421354557 0 -0.020250702492643786 0.00054078449266806259 0 -0.020314147674628011 0.0005856469607351917 0 -0.020228589002722112 0.00052623526320729082 0 -0.020250702492643786 0.00054078449266806259 0 -0.020228589002722112 0.00052623526320729082 0 -0.020226987726326678 0.00050199598954262013 0 -0.020361061536029335 0.00069715146140160672 0 -0.020250702492643786 0.00054078449266806259 0 -0.020314147674628011 0.0005856469607351917 0 -0.020361061536029335 0.00069715146140160672 0 -0.020314147674628011 0.0005856469607351917 0 -0.020485838634336548 0.00067744965909399368 0 -0.020314147674628011 0.0005856469607351917 0 -0.020485838634336548 0.00067744965909399368 0 -0.020353486238594409 0.00054428580745048672 0 -0.020485838634336548 0.00067744965909399368 0 -0.020453601920236441 0.00056128784866861579 0 -0.020576842448556093 0.00060276754626642872 0 -0.020728077558306614 0.00072861982155505935 0 -0.020485838634336548 0.00067744965909399368 0 -0.020829376931275827 0.00082318102038809158 0 -0.020485838634336548 0.00067744965909399368 0 -0.020453601920236441 0.00056128784866861579 0 -0.020353486238594409 0.00054428580745048672 0 -0.020361061536029335 0.00069715146140160672 0 -0.020485838634336548 0.00067744965909399368 0 -0.020829376931275827 0.00082318102038809158 0 -0.021768291640977655 0.00061510768876695237 0 -0.020947854624369863 0.00082172906071174313 0 -0.020728077558306614 0.00072861982155505935 0 -0.020485838634336548 0.00067744965909399368 0 -0.020576842448556093 0.00060276754626642872 0 -0.021730559955165259 -0.001507495725663714 0 -0.023103465316833008 0.00061049781368052248 0 -0.021644134413907629 0.00013591982078378764 0 -0.023103465316833008 0.00061049781368052248 0 -0.021644134413907629 0.00013591982078378764 0 -0.020829376931275827 0.00082318102038809158 0 -0.020737590502617125 -8.7163692290283997e-05 0 -0.020527118001449796 0.00051472074731946269 0 -0.020829376931275827 0.00082318102038809158 0 -0.021644134413907629 0.00013591982078378764 0 -0.020737590502617125 -8.7163692290283997e-05 0 -0.020829376931275827 0.00082318102038809158 0 -0.021730559955165259 -0.001507495725663714 0 -0.021644134413907629 0.00013591982078378764 0 -0.020737590502617125 -8.7163692290283997e-05 0 -0.020527118001449796 0.00051472074731946269 0 -0.020829376931275827 0.00082318102038809158 0 -0.02053035427933517 0.00082683758294165857 0 -0.020728077558306614 0.00072861982155505935 0 -0.020829376931275827 0.00082318102038809158 0 -0.02053035427933517 0.00082683758294165857 0 -0.020728077558306614 0.00072861982155505935 0 -0.02053035427933517 0.00082683758294165857 0 -0.020580026521215287 0.0010886404693862567 0 -0.020690293499323147 0.00076212131108604705 0 -0.020635695736988181 0.00074655302784401188 0 -0.020728077558306614 0.00072861982155505935 0 -0.020728527407913366 0.00050904353642463435 0 -0.020617087686726064 0.00051101785288830111 0 -0.020648184999686941 0.00044463256313532102 0 -0.020728527407913366 0.00050904353642463435 0 -0.020617087686726064 0.00051101785288830111 0 -0.020648184999686941 0.00044463256313532102 0 -0.020728527407913366 0.00050904353642463435 0 -0.020674364902232251 0.00036107172806340305 0 -0.019019394894929629 -0.00027807216015830635 0 -0.020635695736988181 0.00074655302784401188 0 -0.020453601920236441 0.00056128784866861579 0 -0.020576842448556093 0.00060276754626642872 0 -0.020490508560105123 0.00048472138569960867 0 -0.020453601920236441 0.00056128784866861579 0 -0.020490508560105123 0.00048472138569960867 0 -0.020381400286436122 0.00048824074081838404 0 -0.020576842448556093 0.00060276754626642872 0 -0.020617087686726064 0.00051101785288830111 0 -0.020490508560105123 0.00048472138569960867 0 -0.020728077558306614 0.00072861982155505935 0 -0.020576842448556093 0.00060276754626642872 0 -0.020617087686726064 0.00051101785288830111 0 -0.020648184999686941 0.00044463256313532102 0 -0.020617087686726064 0.00051101785288830111 0 -0.020552733963482013 0.00037496131655717673 0 -0.020617087686726064 0.00051101785288830111 0 -0.020490508560105123 0.00048472138569960867 0 -0.020552733963482013 0.00037496131655717673 0 -0.020490508560105123 0.00048472138569960867 0 -0.020413253955453167 0.00041014265880010085 0 -0.020552733963482013 0.00037496131655717673 0 -0.020490508560105123 0.00048472138569960867 0 -0.020413253955453167 0.00041014265880010085 0 -0.020381400286436122 0.00048824074081838404 0 -0.020413253955453167 0.00041014265880010085 0 -0.020431385269832538 0.00034132491783391304 0 -0.020552733963482013 0.00037496131655717673 0 -0.020413253955453167 0.00041014265880010085 0 -0.020431385269832538 0.00034132491783391304 0 -0.020330406224435639 0.00034817839047957802 0 -0.020431385269832538 0.00034132491783391304 0 -0.020552733963482013 0.00037496131655717673 0 -0.020480241956157122 0.00029862991557554796 0 -0.020552733963482013 0.00037496131655717673 0 -0.020541149849614956 0.00029755663791054013 0 -0.020480241956157122 0.00029862991557554796 0 -0.020552733963482013 0.00037496131655717673 0 -0.020541149849614956 0.00029755663791054013 0 -0.020604002526342209 0.00027968407990056277 0 -0.020541149849614956 0.00029755663791054013 0 -0.020526505026032631 0.0002352238599194893 0 -0.020480241956157122 0.00029862991557554796 0 -0.020541149849614956 0.00029755663791054013 0 -0.020526505026032631 0.0002352238599194893 0 -0.020604002526342209 0.00027968407990056277 0 -0.020526505026032631 0.0002352238599194893 0 -0.020480241956157122 0.00029862991557554796 0 -0.020451252770725497 0.00023996921013695835 0 -0.020431385269832538 0.00034132491783391304 0 -0.020480241956157122 0.00029862991557554796 0 -0.020384861719053547 0.00027622796301317781 0 -0.020480241956157122 0.00029862991557554796 0 -0.020451252770725497 0.00023996921013695835 0 -0.020384861719053547 0.00027622796301317781 0 -0.020451252770725497 0.00023996921013695835 0 -0.020384861719053547 0.00027622796301317781 0 -0.02036350094514551 0.00020839128295363778 0 -0.020431385269832538 0.00034132491783391304 0 -0.020384861719053547 0.00027622796301317781 0 -0.020330406224435639 0.00034817839047957802 0 -0.020822659834864983 0.00036902281807607535 0 -0.020674364902232251 0.00036107172806340305 0 -0.020682815222272836 0.00026275081397632614 0 -0.020822659834864983 0.00036902281807607535 0 -0.020728527407913366 0.00050904353642463435 0 -0.020674364902232251 0.00036107172806340305 0 -0.020648184999686941 0.00044463256313532102 0 -0.020552733963482013 0.00037496131655717673 0 -0.020674364902232251 0.00036107172806340305 0 -0.020552733963482013 0.00037496131655717673 0 -0.020674364902232251 0.00036107172806340305 0 -0.020604002526342209 0.00027968407990056277 0 -0.020674364902232251 0.00036107172806340305 0 -0.020604002526342209 0.00027968407990056277 0 -0.020682815222272836 0.00026275081397632614 0 -0.020526505026032631 0.0002352238599194893 0 -0.020604002526342209 0.00027968407990056277 0 -0.020594986579580664 0.00021181750288941251 0 -0.020604002526342209 0.00027968407990056277 0 -0.020682815222272836 0.00026275081397632614 0 -0.020594986579580664 0.00021181750288941251 0 -0.020822659834864983 0.00036902281807607535 0 -0.020755142554136741 0.00018554427262746178 0 -0.020682815222272836 0.00026275081397632614 0 -0.020640735292748052 -5.2787744082014836e-05 0 -0.020646233718138184 5.4788402352704578e-05 0 -0.020633666216602679 -1.0159171278361054e-05 0 -0.020755142554136741 0.00018554427262746178 0 -0.020682815222272836 0.00026275081397632614 0 -0.020638507644994187 0.00014146064940473527 0 -0.020755142554136741 0.00018554427262746178 0 -0.020638507644994187 0.00014146064940473527 0 -0.020633666216602679 -1.0159171278361054e-05 0 -0.020638507644994187 0.00014146064940473527 0 -0.020564723565181655 2.4609761099005364e-05 0 -0.020633666216602679 -1.0159171278361054e-05 0 -0.020109688893761798 -0.00051383292156195618 0 -0.02067649100212918 0.00023172175137205642 0 -0.020638507644994187 0.00014146064940473527 0 -0.020564723565181655 2.4609761099005364e-05 0 -0.020526662671894513 0.00014267678609027512 0 -0.020682815222272836 0.00026275081397632614 0 -0.020638507644994187 0.00014146064940473527 0 -0.020594986579580664 0.00021181750288941251 0 -0.020638507644994187 0.00014146064940473527 0 -0.020594986579580664 0.00021181750288941251 0 -0.020526662671894513 0.00014267678609027512 0 -0.020526505026032631 0.0002352238599194893 0 -0.020594986579580664 0.00021181750288941251 0 -0.020526662671894513 0.00014267678609027512 0 -0.020526505026032631 0.0002352238599194893 0 -0.020526662671894513 0.00014267678609027512 0 -0.020441006961609564 0.00016958102846941446 0 -0.020526505026032631 0.0002352238599194893 0 -0.020451252770725497 0.00023996921013695835 0 -0.020441006961609564 0.00016958102846941446 0 -0.02036350094514551 0.00020839128295363778 0 -0.020441006961609564 0.00016958102846941446 0 -0.020316484808905411 0.00012925800838824825 0 -0.020451252770725497 0.00023996921013695835 0 -0.02036350094514551 0.00020839128295363778 0 -0.020441006961609564 0.00016958102846941446 0 -0.020441006961609564 0.00016958102846941446 0 -0.020453317675865914 5.8825067844409934e-05 0 -0.020316484808905411 0.00012925800838824825 0 -0.020453317675865914 5.8825067844409934e-05 0 -0.020338010447916083 -2.705165803958711e-05 0 -0.020316484808905411 0.00012925800838824825 0 -0.020526662671894513 0.00014267678609027512 0 -0.020441006961609564 0.00016958102846941446 0 -0.020453317675865914 5.8825067844409934e-05 0 -0.020564723565181655 2.4609761099005364e-05 0 -0.020526662671894513 0.00014267678609027512 0 -0.020453317675865914 5.8825067844409934e-05 0 -0.020564723565181655 2.4609761099005364e-05 0 -0.020453317675865914 5.8825067844409934e-05 0 -0.020516951338409414 -9.0546462652220757e-05 0 -0.020453317675865914 5.8825067844409934e-05 0 -0.020338010447916083 -2.705165803958711e-05 0 -0.020516951338409414 -9.0546462652220757e-05 0 -0.020338010447916083 -2.705165803958711e-05 0 -0.020516951338409414 -9.0546462652220757e-05 0 -0.02038345473346433 -0.00032177948470994038 0 -0.020516951338409414 -9.0546462652220757e-05 0 -0.020597046708876333 -8.0806233855911441e-05 0 -0.020613013448779732 -0.00015352664211894885 0 -0.020597046708876333 -8.0806233855911441e-05 0 -0.020617574667863438 -0.00012602691069631418 0 -0.020613013448779732 -0.00015352664211894885 0 -0.020640735292748052 -5.2787744082014836e-05 0 -0.020597046708876333 -8.0806233855911441e-05 0 -0.020617574667863438 -0.00012602691069631418 0 -0.020640735292748052 -5.2787744082014836e-05 0 -0.020597046708876333 -8.0806233855911441e-05 0 -0.020633666216602679 -1.0159171278361054e-05 0 -0.020564723565181655 2.4609761099005364e-05 0 -0.020597046708876333 -8.0806233855911441e-05 0 -0.020633666216602679 -1.0159171278361054e-05 0 -0.020564723565181655 2.4609761099005364e-05 0 -0.020516951338409414 -9.0546462652220757e-05 0 -0.020597046708876333 -8.0806233855911441e-05 0 -0.019990970398182865 4.2990209378082695e-05 0 -0.019811485007475083 -8.6169845758763975e-05 0 -0.019832896901195725 0.0001831867812529831 0 -0.019578764005986796 -2.399965232913958e-05 0 -0.019811442129903219 0.00010168561852410368 0 -0.019990970398182865 4.2990209378082695e-05 0 -0.019811485007475083 -8.6169845758763975e-05 0 -0.019866715849774522 -7.9688756856474683e-05 0 -0.019990970398182865 4.2990209378082695e-05 0 -0.019866715849774522 -7.9688756856474683e-05 0 -0.019967963873648471 -0.00010760635299845769 0 -0.019811485007475083 -8.6169845758763975e-05 0 -0.019803721664594053 -0.00010905966191699722 0 -0.019866715849774522 -7.9688756856474683e-05 0 -0.019619610207910757 0.00014594788984818741 0 -0.019714491346264466 -0.0001225896787579061 0 -0.019322747708194834 -7.1109836584871513e-05 0 -0.019811485007475083 -8.6169845758763975e-05 0 -0.019714491346264466 -0.0001225896787579061 0 -0.019803721664594053 -0.00010905966191699722 0 -0.019578764005986796 -2.399965232913958e-05 0 -0.019618281519786552 -7.6196229558118947e-05 0 -0.019714491346264466 -0.0001225896787579061 0 -0.019803721664594053 -0.00010905966191699722 0 -0.019875438647799875 -0.00017712357818790771 0 -0.019875438647799875 -0.00017712357818790771 0 -0.019967963873648471 -0.00010760635299845769 0 -0.019953595768987142 -0.00032196616746291314 0 -0.019803721664594053 -0.00010905966191699722 0 -0.019875438647799875 -0.00017712357818790771 0 -0.019866715849774522 -7.9688756856474683e-05 0 -0.019875438647799875 -0.00017712357818790771 0 -0.019866715849774522 -7.9688756856474683e-05 0 -0.019967963873648471 -0.00010760635299845769 0 -0.019967963873648471 -0.00010760635299845769 0 -0.020143254000288699 -9.7174811838828654e-05 0 -0.019953595768987142 -0.00032196616746291314 0 -0.020338010447916083 -2.705165803958711e-05 0 -0.020143254000288699 -9.7174811838828654e-05 0 -0.02038345473346433 -0.00032177948470994038 0 -0.020338010447916083 -2.705165803958711e-05 0 -0.020143254000288699 -9.7174811838828654e-05 0 -0.020195345910599849 4.7622143445154977e-05 0 -0.019990970398182865 4.2990209378082695e-05 0 -0.019967963873648471 -0.00010760635299845769 0 -0.020143254000288699 -9.7174811838828654e-05 0 -0.019990970398182865 4.2990209378082695e-05 0 -0.020143254000288699 -9.7174811838828654e-05 0 -0.020195345910599849 4.7622143445154977e-05 0 -0.019990970398182865 4.2990209378082695e-05 0 -0.020195345910599849 4.7622143445154977e-05 0 -0.020171381779825234 0.00017687661791049452 0 -0.020195345910599849 4.7622143445154977e-05 0 -0.020316484808905411 0.00012925800838824825 0 -0.020171381779825234 0.00017687661791049452 0 -0.020338010447916083 -2.705165803958711e-05 0 -0.020195345910599849 4.7622143445154977e-05 0 -0.020316484808905411 0.00012925800838824825 0 -0.020316484808905411 0.00012925800838824825 0 -0.020287745378914562 0.0002311506486148366 0 -0.020171381779825234 0.00017687661791049452 0 -0.02036350094514551 0.00020839128295363778 0 -0.020316484808905411 0.00012925800838824825 0 -0.020287745378914562 0.0002311506486148366 0 -0.020384861719053547 0.00027622796301317781 0 -0.02036350094514551 0.00020839128295363778 0 -0.020287745378914562 0.0002311506486148366 0 -0.020287745378914562 0.0002311506486148366 0 -0.020171381779825234 0.00017687661791049452 0 -0.020241750988951191 0.00031144298698647035 0 -0.020171381779825234 0.00017687661791049452 0 -0.020066549017637714 0.00026303889388813972 0 -0.020241750988951191 0.00031144298698647035 0 -0.019990970398182865 4.2990209378082695e-05 0 -0.020066549017637714 0.00026303889388813972 0 -0.019832896901195725 0.0001831867812529831 0 -0.019990970398182865 4.2990209378082695e-05 0 -0.020171381779825234 0.00017687661791049452 0 -0.020066549017637714 0.00026303889388813972 0 -0.020066549017637714 0.00026303889388813972 0 -0.020153473857111016 0.00044243366391704851 0 -0.019832896901195725 0.0001831867812529831 0 -0.020153473857111016 0.00044243366391704851 0 -0.020172729471328761 0.00049762879636501187 0 -0.020071817969251931 0.00043769115378302032 0 -0.020179687236119438 0.00049930777808082714 0 -0.019811442129903219 0.00010168561852410368 0 -0.020066549017637714 0.00026303889388813972 0 -0.020176453768232676 0.00036230786077589791 0 -0.020153473857111016 0.00044243366391704851 0 -0.020176453768232676 0.00036230786077589791 0 -0.020153473857111016 0.00044243366391704851 0 -0.020241734167042582 0.00041667908821074962 0 -0.020153473857111016 0.00044243366391704851 0 -0.020241734167042582 0.00041667908821074962 0 -0.020214613329323915 0.00048313113817428401 0 -0.020287745378914562 0.0002311506486148366 0 -0.020241750988951191 0.00031144298698647035 0 -0.020330406224435639 0.00034817839047957802 0 -0.020384861719053547 0.00027622796301317781 0 -0.020287745378914562 0.0002311506486148366 0 -0.020330406224435639 0.00034817839047957802 0 -0.020066549017637714 0.00026303889388813972 0 -0.020176453768232676 0.00036230786077589791 0 -0.020241750988951191 0.00031144298698647035 0 -0.020176453768232676 0.00036230786077589791 0 -0.020241750988951191 0.00031144298698647035 0 -0.020241734167042582 0.00041667908821074962 0 -0.020241750988951191 0.00031144298698647035 0 -0.020241734167042582 0.00041667908821074962 0 -0.020330406224435639 0.00034817839047957802 0 -0.020241734167042582 0.00041667908821074962 0 -0.020330406224435639 0.00034817839047957802 0 -0.020328253153717148 0.00043019866894217191 0 -0.020413253955453167 0.00041014265880010085 0 -0.020330406224435639 0.00034817839047957802 0 -0.020328253153717148 0.00043019866894217191 0 -0.020381400286436122 0.00048824074081838404 0 -0.020328253153717148 0.00043019866894217191 0 -0.020283944630699886 0.0005049397325009781 0 -0.020413253955453167 0.00041014265880010085 0 -0.020381400286436122 0.00048824074081838404 0 -0.020328253153717148 0.00043019866894217191 0 -0.020241734167042582 0.00041667908821074962 0 -0.020328253153717148 0.00043019866894217191 0 -0.020283944630699886 0.0005049397325009781 0 -0.020241734167042582 0.00041667908821074962 0 -0.020283944630699886 0.0005049397325009781 0 -0.020214613329323915 0.00048313113817428401 0 -0.020314147674628011 0.0005856469607351917 0 -0.020283944630699886 0.0005049397325009781 0 -0.020353486238594409 0.00054428580745048672 0 -0.020314147674628011 0.0005856469607351917 0 -0.020283944630699886 0.0005049397325009781 0 -0.020228589002722112 0.00052623526320729082 0 -0.020381400286436122 0.00048824074081838404 0 -0.020283944630699886 0.0005049397325009781 0 -0.020353486238594409 0.00054428580745048672 0 -0.020453601920236441 0.00056128784866861579 0 -0.020381400286436122 0.00048824074081838404 0 -0.020353486238594409 0.00054428580745048672 0 -0.020153473857111016 0.00044243366391704851 0 -0.020172729471328761 0.00049762879636501187 0 -0.020214613329323915 0.00048313113817428401 0 -0.020172729471328761 0.00049762879636501187 0 -0.020214613329323915 0.00048313113817428401 0 -0.020228589002722112 0.00052623526320729082 0 -0.020283944630699886 0.0005049397325009781 0 -0.020214613329323915 0.00048313113817428401 0 -0.020228589002722112 0.00052623526320729082 0 -0.020172729471328761 0.00049762879636501187 0 -0.020228589002722112 0.00052623526320729082 0 -0.020226987726326678 0.00050199598954262013 0 -0.020241326296920225 0.00054770923760098008 0 -0.020310899508845511 0.00048983572113072543 0 -0.020226987726326678 0.00050199598954262013 0 -0.020172729471328761 0.00049762879636501187 0 -0.020241326296920225 0.00054770923760098008 0 -0.020226987726326678 0.00050199598954262013 0 -0.02013129572443844 0.00021970656632314703 0 -0.02038519162638338 0.00025124301317674226 0 -0.020216706564731284 0.00051858165404735865 0 -0.02013129572443844 0.00021970656632314703 0 -0.020343903482610476 -8.4815611521121684e-05 0 -0.020274585276130627 -1.7659868064953875e-06 0 -0.020407506085644199 4.0011385631175647e-05 0 -0.020343903482610476 -8.4815611521121684e-05 0 -0.020459784863676802 -0.00012457491841997743 0 -0.020407506085644199 4.0011385631175647e-05 0 -0.020343903482610476 -8.4815611521121684e-05 0 -0.020318917158610193 -0.00020233676806869478 0 -0.020459784863676802 -0.00012457491841997743 0 -0.019613578164095483 -0.00011926193480097087 0 -0.019698908567895163 -7.2116572307513716e-05 0 -0.019676669969999991 -0.00012829836290952662 0 -0.019696721921314844 -0.00047713154051715187 0 -0.02013129572443844 0.00021970656632314703 0 -0.02013129572443844 0.00021970656632314703 0 -0.019811442129903219 0.00010168561852410368 0 -0.020153473857111016 0.00044243366391704851 0 -0.020071817969251931 0.00043769115378302032 0 -0.020098377402552877 0.0003505656168829455 0 -0.019698908567895163 -7.2116572307513716e-05 0 -0.019722194928939257 -0.00014732014143171578 0 -0.019676669969999991 -0.00012829836290952662 0 -0.019811442129903219 0.00010168561852410368 0 -0.019103619924793119 -0.0003366116351133984 0 -0.019722194928939257 -0.00014732014143171578 0 -0.019676669969999991 -0.00012829836290952662 0 -0.019696955285582438 -0.00018638375174940297 0 -0.019696721921314844 -0.00047713154051715187 0 -0.019103619924793119 -0.0003366116351133984 0 -0.018628269318606477 -0.0012025214741015933 0 -0.018626102603634204 -0.0010771095002905277 0 -0.018489836121095417 -0.0010896099695073035 0 -0.019613578164095483 -0.00011926193480097087 0 -0.019676669969999991 -0.00012829836290952662 0 -0.019696955285582438 -0.00018638375174940297 0 -0.018626102603634204 -0.0010771095002905277 0 -0.018489836121095417 -0.0010896099695073035 0 -0.018552779809082862 -0.00096317758258119863 0 -0.019566447857498066 -0.00010294395538770052 0 -0.01954482025625414 -3.8296931881334469e-05 0 -0.019524445278743134 -7.0234586721248943e-05 0 -0.019103619924793119 -0.0003366116351133984 0 -0.01884384809949223 -0.00062434862708911831 0 -0.018947521343453892 0.00068176645791571055 0 -0.018977941420238613 -0.00016992056866894771 0 -0.018276856990524136 -0.00034524730848495023 0 -0.019322747708194834 -7.1109836584871513e-05 0 -0.018947521343453892 0.00068176645791571055 0 -0.018977941420238613 -0.00016992056866894771 0 -0.019619610207910757 0.00014594788984818741 0 -0.019322747708194834 -7.1109836584871513e-05 0 -0.018947521343453892 0.00068176645791571055 0 -0.019578764005986796 -2.399965232913958e-05 0 -0.019103619924793119 -0.0003366116351133984 0 -0.018751534429816252 -0.0011515133558224523 0 -0.018897950278472783 -0.0010957542498946683 0 -0.018719285510349123 -0.00097517223231557862 0 -0.018626102603634204 -0.0010771095002905277 0 -0.018751534429816252 -0.0011515133558224523 0 -0.018719285510349123 -0.00097517223231557862 0 -0.018626102603634204 -0.0010771095002905277 0 -0.018719285510349123 -0.00097517223231557862 0 -0.018552779809082862 -0.00096317758258119863 0 -0.019696721921314844 -0.00047713154051715187 0 -0.019408558205349615 -0.00094441887561718101 0 -0.018628269318606477 -0.0012025214741015933 0 -0.018626102603634204 -0.0010771095002905277 0 -0.018751534429816252 -0.0011515133558224523 0 -0.019408558205349615 -0.00094441887561718101 0 -0.019309424076917048 -0.0009623171690646545 0 -0.020152496731473402 -0.00065355939027267459 0 -0.02018590944946675 -0.00020351016533991896 0 -0.019893913410360484 -0.00029277731169916369 0 -0.019696721921314844 -0.00047713154051715187 0 -0.020297702953387235 -0.00018136272173132175 0 -0.020498915592331728 -0.00046558556109836029 0 -0.020152496731473402 -0.00065355939027267459 0 -0.02018590944946675 -0.00020351016533991896 0 -0.020343903482610476 -8.4815611521121684e-05 0 -0.020318917158610193 -0.00020233676806869478 0 -0.020201726296134658 -0.00011417103736605765 0 -0.020343903482610476 -8.4815611521121684e-05 0 -0.020201726296134658 -0.00011417103736605765 0 -0.020274585276130627 -1.7659868064953875e-06 0 -0.020201726296134658 -0.00011417103736605765 0 -0.020274585276130627 -1.7659868064953875e-06 0 -0.020168896100274933 1.3943938009724749e-05 0 -0.02018590944946675 -0.00020351016533991896 0 -0.020013828706878112 1.7075992250115513e-05 0 -0.019893913410360484 -0.00029277731169916369 0 -0.020201726296134658 -0.00011417103736605765 0 -0.020168896100274933 1.3943938009724749e-05 0 -0.020013828706878112 1.7075992250115513e-05 0 -0.020297702953387235 -0.00018136272173132175 0 -0.019984752702735569 2.335507003109351e-05 0 -0.020168896100274933 1.3943938009724749e-05 0 -0.020110116025191686 7.6701769098358577e-05 0 -0.020013828706878112 1.7075992250115513e-05 0 -0.020168896100274933 1.3943938009724749e-05 0 -0.020110116025191686 7.6701769098358577e-05 0 -0.020205657897132596 6.7970805428911081e-05 0 -0.020205657897132596 6.7970805428911081e-05 0 -0.020179995941704248 9.6790787236092246e-05 0 -0.020228815241212273 0.00010414250523070485 0 -0.020110116025191686 7.6701769098358577e-05 0 -0.020205657897132596 6.7970805428911081e-05 0 -0.020179995941704248 9.6790787236092246e-05 0 -0.020110116025191686 7.6701769098358577e-05 0 -0.020179995941704248 9.6790787236092246e-05 0 -0.020145987784589908 9.3863327663344393e-05 0 -0.020179995941704248 9.6790787236092246e-05 0 -0.020217776469939556 0.00010645667333197207 0 -0.020193578755099452 8.8266823430229274e-05 0 -0.020179995941704248 9.6790787236092246e-05 0 -0.020193578755099452 8.8266823430229274e-05 0 -0.020145987784589908 9.3863327663344393e-05 0 -0.020179995941704248 9.6790787236092246e-05 0 -0.020217776469939556 0.00010645667333197207 0 -0.020228815241212273 0.00010414250523070485 0 -0.020217776469939556 0.00010645667333197207 0 -0.020193578755099452 8.8266823430229274e-05 0 -0.020236169693367865 9.1901939845959142e-05 0 -0.020217776469939556 0.00010645667333197207 0 -0.02026934533764737 0.00014187274044380024 0 -0.020236169693367865 9.1901939845959142e-05 0 -0.02026934533764737 0.00014187274044380024 0 -0.020282538311729919 9.901767111749505e-05 0 -0.020354425189530713 0.00023047304681911873 0 -0.02026934533764737 0.00014187274044380024 0 -0.020354425189530713 0.00023047304681911873 0 -0.020310488648113117 0.00016931209529875795 0 -0.020217776469939556 0.00010645667333197207 0 -0.02026934533764737 0.00014187274044380024 0 -0.020228815241212273 0.00010414250523070485 0 -0.02026934533764737 0.00014187274044380024 0 -0.020228815241212273 0.00010414250523070485 0 -0.020282538311729919 9.901767111749505e-05 0 -0.020274585276130627 -1.7659868064953875e-06 0 -0.020205657897132596 6.7970805428911081e-05 0 -0.020282538311729919 9.901767111749505e-05 0 -0.020205657897132596 6.7970805428911081e-05 0 -0.020228815241212273 0.00010414250523070485 0 -0.020282538311729919 9.901767111749505e-05 0 -0.020274585276130627 -1.7659868064953875e-06 0 -0.020168896100274933 1.3943938009724749e-05 0 -0.020205657897132596 6.7970805428911081e-05 0 -0.020274585276130627 -1.7659868064953875e-06 0 -0.020282538311729919 9.901767111749505e-05 0 -0.020407506085644199 4.0011385631175647e-05 0 -0.020310899508845511 0.00048983572113072543 0 -0.020226987726326678 0.00050199598954262013 0 -0.020254831623558102 0.00046897978421354557 0 -0.020310899508845511 0.00048983572113072543 0 -0.020254831623558102 0.00046897978421354557 0 -0.020292296779425636 0.00036486521083895981 0 -0.02025135477771102 0.00044367169302217722 0 -0.020254831623558102 0.00046897978421354557 0 -0.020292296779425636 0.00036486521083895981 0 -0.020282538311729919 9.901767111749505e-05 0 -0.020407506085644199 4.0011385631175647e-05 0 -0.020354425189530713 0.00023047304681911873 0 -0.020310899508845511 0.00048983572113072543 0 -0.020292296779425636 0.00036486521083895981 0 -0.020354425189530713 0.00023047304681911873 0 -0.02038519162638338 0.00025124301317674226 0 -0.020347911379631222 0.0002437332979472663 0 -0.020335498187447055 0.00021977555023758546 0 -0.020335209720953228 0.00011949661643304108 0 -0.02032886327505808 0.00016647910786833203 0 -0.020292296779425636 0.00036486521083895981 0 -0.020354425189530713 0.00023047304681911873 0 -0.020335498187447055 0.00021977555023758546 0 -0.024493938206044466 -0.00047163096934226028 0 -0.025494419327710575 -0.00085110295755155905 0 -0.020354425189530713 0.00023047304681911873 0 -0.020335498187447055 0.00021977555023758546 0 -0.02032886327505808 0.00016647910786833203 0 -0.023017675829774993 0.00014793732877504736 0 -0.024493938206044466 -0.00047163096934226028 0 -0.025726408693471814 -0.00012919632890344811 0 -0.028574933677379045 -0.0010917407972740175 0 -0.027566798086485423 -0.0026326171951771625 0 -0.02025135477771102 0.00044367169302217722 0 -0.020292296779425636 0.00036486521083895981 0 -0.020335498187447055 0.00021977555023758546 0 -0.028866466838568153 -0.0023898439997539068 0 -0.030517977985131155 -0.0026619721500550581 0 -0.030541954105126133 -0.0025631718942666468 0 -0.030210780807395868 -0.0021906362041026507 0 -0.030671765696710134 -0.0026641248518909609 0 -0.028574933677379045 -0.0010917407972740175 0 -0.027566798086485423 -0.0026326171951771625 0 -0.030671765696710134 -0.0026641248518909609 0 -0.028574933677379045 -0.0010917407972740175 0 -0.030671765696710134 -0.0026641248518909609 0 -0.030940560666892585 -0.0021020771721711237 0 -0.030671765696710134 -0.0026641248518909609 0 -0.030940560666892585 -0.0021020771721711237 0 -0.030875294816714867 -0.0025239267406669975 0 -0.020335209720953228 0.00011949661643304108 0 -0.020305383027436417 0.00011075638666675372 0 -0.020295899522690342 9.1735255926259584e-05 0 -0.030912645222830326 -0.002542027120844378 0 -0.030940560666892585 -0.0021020771721711237 0 -0.030875294816714867 -0.0025239267406669975 0 -0.030888326538932746 -0.0026708171590878516 0 -0.030912645222830326 -0.002542027120844378 0 -0.030940560666892585 -0.0021020771721711237 0 -0.020293016412038362 9.1178422018591975e-05 0 -0.020335209720953228 0.00011949661643304108 0 -0.020295899522690342 9.1735255926259584e-05 0 -0.025795095730417276 -0.0023657461062427288 0 -0.025494419327710575 -0.00085110295755155905 0 -0.020293016412038362 9.1178422018591975e-05 0 -0.020261540851065317 5.9885546606291303e-05 0 -0.020295899522690342 9.1735255926259584e-05 0 -0.020274155357066892 7.6832306885278839e-05 0 -0.020261540851065317 5.9885546606291303e-05 0 -0.020295899522690342 9.1735255926259584e-05 0 -0.020305383027436417 0.00011075638666675372 0 -0.020274155357066892 7.6832306885278839e-05 0 -0.020295899522690342 9.1735255926259584e-05 0 -0.020305383027436417 0.00011075638666675372 0 -0.020274155357066892 7.6832306885278839e-05 0 -0.020269844983999419 9.1073792365923634e-05 0 -0.020305383027436417 0.00011075638666675372 0 -0.020269844983999419 9.1073792365923634e-05 0 -0.020289677045077916 0.00013289831215423256 0 -0.020274155357066892 7.6832306885278839e-05 0 -0.020269844983999419 9.1073792365923634e-05 0 -0.020238835871551321 4.4480720344369048e-05 0 -0.020269844983999419 9.1073792365923634e-05 0 -0.020238835871551321 4.4480720344369048e-05 0 -0.020236169693367865 9.1901939845959142e-05 0 -0.020274155357066892 7.6832306885278839e-05 0 -0.020261540851065317 5.9885546606291303e-05 0 -0.020238835871551321 4.4480720344369048e-05 0 -0.020261540851065317 5.9885546606291303e-05 0 -0.020238835871551321 4.4480720344369048e-05 0 -0.020227805307498441 1.3357740451810732e-05 0 -0.020238835871551321 4.4480720344369048e-05 0 -0.020236169693367865 9.1901939845959142e-05 0 -0.020205695337595555 5.7873788040270666e-05 0 -0.020193578755099452 8.8266823430229274e-05 0 -0.020236169693367865 9.1901939845959142e-05 0 -0.020205695337595555 5.7873788040270666e-05 0 -0.020269844983999419 9.1073792365923634e-05 0 -0.020236169693367865 9.1901939845959142e-05 0 -0.020289677045077916 0.00013289831215423256 0 -0.02026934533764737 0.00014187274044380024 0 -0.020289677045077916 0.00013289831215423256 0 -0.020310488648113117 0.00016931209529875795 0 -0.02026934533764737 0.00014187274044380024 0 -0.020236169693367865 9.1901939845959142e-05 0 -0.020289677045077916 0.00013289831215423256 0 -0.020354425189530713 0.00023047304681911873 0 -0.020310488648113117 0.00016931209529875795 0 -0.02032886327505808 0.00016647910786833203 0 -0.020289677045077916 0.00013289831215423256 0 -0.020310488648113117 0.00016931209529875795 0 -0.02032886327505808 0.00016647910786833203 0 -0.020305383027436417 0.00011075638666675372 0 -0.020289677045077916 0.00013289831215423256 0 -0.02032886327505808 0.00016647910786833203 0 -0.020335209720953228 0.00011949661643304108 0 -0.020305383027436417 0.00011075638666675372 0 -0.02032886327505808 0.00016647910786833203 0 -0.020365962955262558 -5.9818438510956349e-05 0 -0.020430013680232884 -0.00018052441419116771 0 -0.020588326066690553 -0.00020529193455995069 0 -0.020365962955262558 -5.9818438510956349e-05 0 -0.020312637416341563 -9.9473369347709509e-05 0 -0.020430013680232884 -0.00018052441419116771 0 -0.020447970987590831 -4.9507213332440559e-05 0 -0.020588326066690553 -0.00020529193455995069 0 -0.020648107381174379 -0.00015575998563925763 0 -0.020365962955262558 -5.9818438510956349e-05 0 -0.020447970987590831 -4.9507213332440559e-05 0 -0.020588326066690553 -0.00020529193455995069 0 -0.020365962955262558 -5.9818438510956349e-05 0 -0.020447970987590831 -4.9507213332440559e-05 0 -0.020268759642095867 3.0074059500750383e-05 0 -0.020365962955262558 -5.9818438510956349e-05 0 -0.020248673242946325 4.0723695709528542e-06 0 -0.020268759642095867 3.0074059500750383e-05 0 -0.020248673242946325 4.0723695709528542e-06 0 -0.020268759642095867 3.0074059500750383e-05 0 -0.020207985561009698 5.0217410056232185e-05 0 -0.020238835871551321 4.4480720344369048e-05 0 -0.020205695337595555 5.7873788040270666e-05 0 -0.020215886615235032 1.8526112770757374e-05 0 -0.020248673242946325 4.0723695709528542e-06 0 -0.020215886615235032 1.8526112770757374e-05 0 -0.020207985561009698 5.0217410056232185e-05 0 -0.020205695337595555 5.7873788040270666e-05 0 -0.020215886615235032 1.8526112770757374e-05 0 -0.020207985561009698 5.0217410056232185e-05 0 -0.020248673242946325 4.0723695709528542e-06 0 -0.020215886615235032 1.8526112770757374e-05 0 -0.020208221437550029 -4.0317244299841628e-05 0 -0.020238835871551321 4.4480720344369048e-05 0 -0.020215886615235032 1.8526112770757374e-05 0 -0.020227805307498441 1.3357740451810732e-05 0 -0.020261540851065317 5.9885546606291303e-05 0 -0.020208221437550029 -4.0317244299841628e-05 0 -0.020227805307498441 1.3357740451810732e-05 0 -0.020215886615235032 1.8526112770757374e-05 0 -0.020208221437550029 -4.0317244299841628e-05 0 -0.020227805307498441 1.3357740451810732e-05 0 -0.020365962955262558 -5.9818438510956349e-05 0 -0.020248673242946325 4.0723695709528542e-06 0 -0.020312637416341563 -9.9473369347709509e-05 0 -0.020248673242946325 4.0723695709528542e-06 0 -0.020208221437550029 -4.0317244299841628e-05 0 -0.020312637416341563 -9.9473369347709509e-05 0 -0.020208221437550029 -4.0317244299841628e-05 0 -0.020312637416341563 -9.9473369347709509e-05 0 -0.020290199662956327 -0.00020022828543845615 0 -0.020312637416341563 -9.9473369347709509e-05 0 -0.020382317138968507 -0.00023726988411582436 0 -0.020430013680232884 -0.00018052441419116771 0 -0.026562879536398139 -0.0023670307883365219 0 -0.026841182952657781 -0.0028912064334860399 0 -0.026827036690690063 -0.002602302023109094 0 -0.020312637416341563 -9.9473369347709509e-05 0 -0.020382317138968507 -0.00023726988411582436 0 -0.020290199662956327 -0.00020022828543845615 0 -0.020290199662956327 -0.00020022828543845615 0 -0.020115274078680793 -0.0002190150593374813 0 -0.020403560083777781 -0.00042096676202432959 0 -0.020354278744621264 -0.00074808488082791895 0 -0.020115274078680793 -0.0002190150593374813 0 -0.020403560083777781 -0.00042096676202432959 0 -0.023274621699655485 -0.0012760487269103927 0 -0.02356846731117199 -0.0011358512604059271 0 -0.020382317138968507 -0.00023726988411582436 0 -0.020290199662956327 -0.00020022828543845615 0 -0.020403560083777781 -0.00042096676202432959 0 -0.020293016412038362 9.1178422018591975e-05 0 -0.020261540851065317 5.9885546606291303e-05 0 -0.020232798155984468 5.2848084088277112e-05 0 -0.020261540851065317 5.9885546606291303e-05 0 -0.020208221437550029 -4.0317244299841628e-05 0 -0.020232798155984468 5.2848084088277112e-05 0 -0.022621849495757115 -0.00096140458015963215 0 -0.02356846731117199 -0.0011358512604059271 0 -0.020208221437550029 -4.0317244299841628e-05 0 -0.020290199662956327 -0.00020022828543845615 0 -0.020115274078680793 -0.0002190150593374813 0 -0.026991305515335864 -0.0025400099417904032 0 -0.026841182952657781 -0.0028912064334860399 0 -0.026827036690690063 -0.002602302023109094 0 -0.025795095730417276 -0.0023657461062427288 0 -0.02356846731117199 -0.0011358512604059271 0 -0.020601683030546037 -0.00071713907655515782 0 -0.020403560083777781 -0.00042096676202432959 0 -0.020643014041984147 -0.00053220042494817521 0 -0.020403560083777781 -0.00042096676202432959 0 -0.020643014041984147 -0.00053220042494817521 0 -0.020533356452094163 -0.00032709318643886476 0 -0.020533356452094163 -0.00032709318643886476 0 -0.020430013680232884 -0.00018052441419116771 0 -0.020588326066690553 -0.00020529193455995069 0 -0.020382317138968507 -0.00023726988411582436 0 -0.020403560083777781 -0.00042096676202432959 0 -0.020533356452094163 -0.00032709318643886476 0 -0.020382317138968507 -0.00023726988411582436 0 -0.020533356452094163 -0.00032709318643886476 0 -0.020430013680232884 -0.00018052441419116771 0 -0.020533356452094163 -0.00032709318643886476 0 -0.020588326066690553 -0.00020529193455995069 0 -0.020801891834055543 -0.00046111453426766802 0 -0.020643014041984147 -0.00053220042494817521 0 -0.020533356452094163 -0.00032709318643886476 0 -0.020801891834055543 -0.00046111453426766802 0 -0.020875877331367497 -0.00074754282193488877 0 -0.020643014041984147 -0.00053220042494817521 0 -0.020801891834055543 -0.00046111453426766802 0 -0.021214019660525826 -0.00078659029877170572 0 -0.020801891834055543 -0.00046111453426766802 0 -0.020965489460110641 -0.00040183707467934094 0 -0.020965489460110641 -0.00040183707467934094 0 -0.020821502502375352 -0.00022838796131591203 0 -0.020648107381174379 -0.00015575998563925763 0 -0.020588326066690553 -0.00020529193455995069 0 -0.020965489460110641 -0.00040183707467934094 0 -0.020648107381174379 -0.00015575998563925763 0 -0.020588326066690553 -0.00020529193455995069 0 -0.020801891834055543 -0.00046111453426766802 0 -0.020965489460110641 -0.00040183707467934094 0 -0.021284905684621717 -0.00065087873019855464 0 -0.020965489460110641 -0.00040183707467934094 0 -0.021234223963493552 -0.00046588232440562658 0 -0.021234223963493552 -0.00046588232440562658 0 -0.02076058207496306 -0.00017647150211809202 0 -0.020821502502375352 -0.00022838796131591203 0 -0.020965489460110641 -0.00040183707467934094 0 -0.021234223963493552 -0.00046588232440562658 0 -0.020821502502375352 -0.00022838796131591203 0 -0.02076058207496306 -0.00017647150211809202 0 -0.020821502502375352 -0.00022838796131591203 0 -0.020493764971021622 -4.2475602317760672e-05 0 -0.02076058207496306 -0.00017647150211809202 0 -0.020493764971021622 -4.2475602317760672e-05 0 -0.02045486494428574 -5.4132122660303439e-05 0 -0.020821502502375352 -0.00022838796131591203 0 -0.020648107381174379 -0.00015575998563925763 0 -0.020493764971021622 -4.2475602317760672e-05 0 -0.020447970987590831 -4.9507213332440559e-05 0 -0.020648107381174379 -0.00015575998563925763 0 -0.020493764971021622 -4.2475602317760672e-05 0 -0.020493764971021622 -4.2475602317760672e-05 0 -0.020236330284536069 5.6394886289961292e-05 0 -0.02029080766118627 4.1396487540219094e-05 0 -0.020447970987590831 -4.9507213332440559e-05 0 -0.020493764971021622 -4.2475602317760672e-05 0 -0.02029080766118627 4.1396487540219094e-05 0 -0.020493764971021622 -4.2475602317760672e-05 0 -0.020236330284536069 5.6394886289961292e-05 0 -0.020235347277303896 2.9170775722325672e-05 0 -0.020236330284536069 5.6394886289961292e-05 0 -0.020125539725748334 0.00010004004473094728 0 -0.02029080766118627 4.1396487540219094e-05 0 -0.02045486494428574 -5.4132122660303439e-05 0 -0.020235347277303896 2.9170775722325672e-05 0 -0.020165282374914273 -1.3284303974250632e-05 0 -0.020493764971021622 -4.2475602317760672e-05 0 -0.02045486494428574 -5.4132122660303439e-05 0 -0.020235347277303896 2.9170775722325672e-05 0 -0.020235347277303896 2.9170775722325672e-05 0 -0.020014550398094678 0.00010507691990259475 0 -0.019971683161466525 4.6936646235661872e-05 0 -0.020235347277303896 2.9170775722325672e-05 0 -0.019971683161466525 4.6936646235661872e-05 0 -0.020165282374914273 -1.3284303974250632e-05 0 -0.020014550398094678 0.00010507691990259475 0 -0.020125539725748334 0.00010004004473094728 0 -0.019966923483112575 0.0001369751196461637 0 -0.020236330284536069 5.6394886289961292e-05 0 -0.020014550398094678 0.00010507691990259475 0 -0.020125539725748334 0.00010004004473094728 0 -0.020236330284536069 5.6394886289961292e-05 0 -0.020235347277303896 2.9170775722325672e-05 0 -0.020014550398094678 0.00010507691990259475 0 -0.020048022205643373 0.00011476737480852258 0 -0.020125539725748334 0.00010004004473094728 0 -0.019966923483112575 0.0001369751196461637 0 -0.020048022205643373 0.00011476737480852258 0 -0.020115188491739999 9.5443056910948801e-05 0 -0.020083085317696672 9.6531112921388387e-05 0 -0.020048022205643373 0.00011476737480852258 0 -0.020115188491739999 9.5443056910948801e-05 0 -0.020125539725748334 0.00010004004473094728 0 -0.020115188491739999 9.5443056910948801e-05 0 -0.020125539725748334 0.00010004004473094728 0 -0.020192179634928035 7.4372192530659058e-05 0 -0.020115188491739999 9.5443056910948801e-05 0 -0.020192179634928035 7.4372192530659058e-05 0 -0.020135747329320774 8.8454693106612459e-05 0 -0.020125539725748334 0.00010004004473094728 0 -0.020192179634928035 7.4372192530659058e-05 0 -0.02029080766118627 4.1396487540219094e-05 0 -0.020192179634928035 7.4372192530659058e-05 0 -0.020268759642095867 3.0074059500750383e-05 0 -0.02029080766118627 4.1396487540219094e-05 0 -0.020192179634928035 7.4372192530659058e-05 0 -0.020268759642095867 3.0074059500750383e-05 0 -0.020197151746002888 6.6072608494506302e-05 0 -0.020447970987590831 -4.9507213332440559e-05 0 -0.020268759642095867 3.0074059500750383e-05 0 -0.02029080766118627 4.1396487540219094e-05 0 -0.020180031602900127 7.612194480977615e-05 0 -0.020207985561009698 5.0217410056232185e-05 0 -0.020197151746002888 6.6072608494506302e-05 0 -0.020205695337595555 5.7873788040270666e-05 0 -0.020180031602900127 7.612194480977615e-05 0 -0.020207985561009698 5.0217410056232185e-05 0 -0.020193578755099452 8.8266823430229274e-05 0 -0.020205695337595555 5.7873788040270666e-05 0 -0.020180031602900127 7.612194480977615e-05 0 -0.020268759642095867 3.0074059500750383e-05 0 -0.020207985561009698 5.0217410056232185e-05 0 -0.020197151746002888 6.6072608494506302e-05 0 -0.020192179634928035 7.4372192530659058e-05 0 -0.020197151746002888 6.6072608494506302e-05 0 -0.020135747329320774 8.8454693106612459e-05 0 -0.020197151746002888 6.6072608494506302e-05 0 -0.020135747329320774 8.8454693106612459e-05 0 -0.020148546449648828 8.6617453522698198e-05 0 -0.020193578755099452 8.8266823430229274e-05 0 -0.020180031602900127 7.612194480977615e-05 0 -0.020145987784589908 9.3863327663344393e-05 0 -0.020180031602900127 7.612194480977615e-05 0 -0.020148546449648828 8.6617453522698198e-05 0 -0.020145987784589908 9.3863327663344393e-05 0 -0.020180031602900127 7.612194480977615e-05 0 -0.020197151746002888 6.6072608494506302e-05 0 -0.020148546449648828 8.6617453522698198e-05 0 -0.020148546449648828 8.6617453522698198e-05 0 -0.020145987784589908 9.3863327663344393e-05 0 -0.020095300766717027 9.3761336782631838e-05 0 -0.020110116025191686 7.6701769098358577e-05 0 -0.020145987784589908 9.3863327663344393e-05 0 -0.020095300766717027 9.3761336782631838e-05 0 -0.020135747329320774 8.8454693106612459e-05 0 -0.020148546449648828 8.6617453522698198e-05 0 -0.020095300766717027 9.3761336782631838e-05 0 -0.020095300766717027 9.3761336782631838e-05 0 -0.020083085317696672 9.6531112921388387e-05 0 -0.020032627796749036 9.6597382586910839e-05 0 -0.020115188491739999 9.5443056910948801e-05 0 -0.020135747329320774 8.8454693106612459e-05 0 -0.020083085317696672 9.6531112921388387e-05 0 -0.020135747329320774 8.8454693106612459e-05 0 -0.020095300766717027 9.3761336782631838e-05 0 -0.020083085317696672 9.6531112921388387e-05 0 -0.020048022205643373 0.00011476737480852258 0 -0.020083085317696672 9.6531112921388387e-05 0 -0.020032627796749036 9.6597382586910839e-05 0 -0.020110116025191686 7.6701769098358577e-05 0 -0.020032627796749036 9.6597382586910839e-05 0 -0.020013828706878112 1.7075992250115513e-05 0 -0.020110116025191686 7.6701769098358577e-05 0 -0.020095300766717027 9.3761336782631838e-05 0 -0.020032627796749036 9.6597382586910839e-05 0 -0.019988170563476466 9.01833775457615e-05 0 -0.01973510012106796 -4.6208531452653859e-05 0 -0.020032627796749036 9.6597382586910839e-05 0 -0.020013828706878112 1.7075992250115513e-05 0 -0.019532131371032699 -0.00023766269987894294 0 -0.020013828706878112 1.7075992250115513e-05 0 -0.019532131371032699 -0.00023766269987894294 0 -0.019893913410360484 -0.00029277731169916369 0 -0.020048022205643373 0.00011476737480852258 0 -0.020032627796749036 9.6597382586910839e-05 0 -0.01992148762576897 0.00014040411954473081 0 -0.020048022205643373 0.00011476737480852258 0 -0.019966923483112575 0.0001369751196461637 0 -0.01992148762576897 0.00014040411954473081 0 -0.019966923483112575 0.0001369751196461637 0 -0.01992148762576897 0.00014040411954473081 0 -0.019782856168241155 0.00014231413833938145 0 -0.01973510012106796 -4.6208531452653859e-05 0 -0.01933701103318787 -0.00033013713043096089 0 -0.019532131371032699 -0.00023766269987894294 0 -0.019893913410360484 -0.00029277731169916369 0 -0.019514547446545655 -0.00058736004137975562 0 -0.020152496731473402 -0.00065355939027267459 0 -0.019893913410360484 -0.00029277731169916369 0 -0.019514547446545655 -0.00058736004137975562 0 -0.020152496731473402 -0.00065355939027267459 0 -0.019514547446545655 -0.00058736004137975562 0 -0.019703684382730412 -0.00086502661978523699 0 -0.019514547446545655 -0.00058736004137975562 0 -0.019119230201102608 -0.00098592911502668216 0 -0.019113248028533852 -0.00073622445557885866 0 -0.019532131371032699 -0.00023766269987894294 0 -0.019514547446545655 -0.00058736004137975562 0 -0.019113248028533852 -0.00073622445557885866 0 -0.01992148762576897 0.00014040411954473081 0 -0.01960358308366213 0.00010323156421007138 0 -0.019588283019649985 0.00014759591640247903 0 -0.019145955328413958 -0.00099542771386887147 0 -0.019309424076917048 -0.0009623171690646545 0 -0.019514547446545655 -0.00058736004137975562 0 -0.019119230201102608 -0.00098592911502668216 0 -0.019703684382730412 -0.00086502661978523699 0 -0.019119230201102608 -0.00098592911502668216 0 -0.018897950278472783 -0.0010957542498946683 0 -0.018890591912657056 -0.00091429980292326903 0 -0.019262405193220335 0.00012615062724694097 0 -0.019201535524715468 2.7406571766522706e-05 0 -0.018857186366646114 4.1855474571667505e-05 0 -0.019262405193220335 0.00012615062724694097 0 -0.019315116859187059 0.00016509333274451911 0 -0.018959695630536316 0.00015513364898238317 0 -0.019262405193220335 0.00012615062724694097 0 -0.018959695630536316 0.00015513364898238317 0 -0.018857186366646114 4.1855474571667505e-05 0 -0.019262405193220335 0.00012615062724694097 0 -0.01960358308366213 0.00010323156421007138 0 -0.019201535524715468 2.7406571766522706e-05 0 -0.01933701103318787 -0.00033013713043096089 0 -0.019326133298724669 -0.00036618540884561686 0 -0.019119230201102608 -0.00098592911502668216 0 -0.019113248028533852 -0.00073622445557885866 0 -0.019027472090676876 -0.00096886550908575756 0 -0.019262405193220335 0.00012615062724694097 0 -0.01960358308366213 0.00010323156421007138 0 -0.019588283019649985 0.00014759591640247903 0 -0.019262405193220335 0.00012615062724694097 0 -0.019588283019649985 0.00014759591640247903 0 -0.019315116859187059 0.00016509333274451911 0 -0.019588283019649985 0.00014759591640247903 0 -0.019315116859187059 0.00016509333274451911 0 -0.019557043449661273 0.00014760346322813711 0 -0.019315116859187059 0.00016509333274451911 0 -0.019557043449661273 0.00014760346322813711 0 -0.019301336114822688 0.00014269272513659442 0 -0.019557043449661273 0.00014760346322813711 0 -0.019782856168241155 0.00014231413833938145 0 -0.019703851011178528 0.00010141742556439433 0 -0.01992148762576897 0.00014040411954473081 0 -0.019588283019649985 0.00014759591640247903 0 -0.019782856168241155 0.00014231413833938145 0 -0.019588283019649985 0.00014759591640247903 0 -0.019557043449661273 0.00014760346322813711 0 -0.019782856168241155 0.00014231413833938145 0 -0.020014550398094678 0.00010507691990259475 0 -0.019966923483112575 0.0001369751196461637 0 -0.019782856168241155 0.00014231413833938145 0 -0.020014550398094678 0.00010507691990259475 0 -0.019703851011178528 0.00010141742556439433 0 -0.019971683161466525 4.6936646235661872e-05 0 -0.020014550398094678 0.00010507691990259475 0 -0.019782856168241155 0.00014231413833938145 0 -0.019703851011178528 0.00010141742556439433 0 -0.019703851011178528 0.00010141742556439433 0 -0.019741227243564054 -9.9438736598155801e-06 0 -0.019301336114822688 0.00014269272513659442 0 -0.019703851011178528 0.00010141742556439433 0 -0.019741227243564054 -9.9438736598155801e-06 0 -0.019971683161466525 4.6936646235661872e-05 0 -0.019741227243564054 -9.9438736598155801e-06 0 -0.01933373193519564 5.7846359483051767e-05 0 -0.019301336114822688 0.00014269272513659442 0 -0.019557043449661273 0.00014760346322813711 0 -0.019703851011178528 0.00010141742556439433 0 -0.019301336114822688 0.00014269272513659442 0 -0.019315116859187059 0.00016509333274451911 0 -0.018782752780001293 0.00022703828398442258 0 -0.018959695630536316 0.00015513364898238317 0 -0.019315116859187059 0.00016509333274451911 0 -0.019301336114822688 0.00014269272513659442 0 -0.018782752780001293 0.00022703828398442258 0 -0.01933373193519564 5.7846359483051767e-05 0 -0.018782752780001293 0.00022703828398442258 0 -0.019027104622457616 0.00015640401651013526 0 -0.01933373193519564 5.7846359483051767e-05 0 -0.019301336114822688 0.00014269272513659442 0 -0.018782752780001293 0.00022703828398442258 0 -0.018782752780001293 0.00022703828398442258 0 -0.018517636351488787 0.00013063751624333407 0 -0.018248413498077605 0.00018703463430576897 0 -0.018782752780001293 0.00022703828398442258 0 -0.01810168114135852 0.00020867876655831645 0 -0.018248413498077605 0.00018703463430576897 0 -0.018782752780001293 0.00022703828398442258 0 -0.018959695630536316 0.00015513364898238317 0 -0.018517636351488787 0.00013063751624333407 0 -0.018417179978332889 5.9668196304840639e-07 0 -0.01810168114135852 0.00020867876655831645 0 -0.019027104622457616 0.00015640401651013526 0 -0.018417179978332889 5.9668196304840639e-07 0 -0.01810168114135852 0.00020867876655831645 0 -0.016722893679039452 9.3801276726958406e-08 0 -0.018782752780001293 0.00022703828398442258 0 -0.01810168114135852 0.00020867876655831645 0 -0.019027104622457616 0.00015640401651013526 0 -0.018417179978332889 5.9668196304840639e-07 0 -0.019027104622457616 0.00015640401651013526 0 -0.020106748750167797 -9.0943278189034088e-08 0 -0.01933373193519564 5.7846359483051767e-05 0 -0.019027104622457616 0.00015640401651013526 0 -0.019635959739207776 -0.00018763734000958011 0 -0.019027104622457616 0.00015640401651013526 0 -0.020106748750167797 -9.0943278189034088e-08 0 -0.019635959739207776 -0.00018763734000958011 0 -0.019741227243564054 -9.9438736598155801e-06 0 -0.01933373193519564 5.7846359483051767e-05 0 -0.019635959739207776 -0.00018763734000958011 0 -0.020111444620118039 -6.2653947638771049e-07 0 -0.022797445361374593 -0.00027366982693023315 0 -0.021963509918513188 -4.6503351600260185e-07 0 -0.020110907161002743 2.5208523753058245e-07 0 -0.021300751791803189 -0.00010856660060474738 0 -0.021963509918513188 -4.6503351600260185e-07 0 -0.023815642812606952 -2.4398832233117898e-07 0 -0.023680206744603003 -0.00014620267551992717 0 -0.022797445361374593 -0.00027366982693023315 0 -0.021963509918513188 -4.6503351600260185e-07 0 -0.023680206744603003 -0.00014620267551992717 0 -0.023815642812606952 -2.4398832233117898e-07 0 -0.023680206744603003 -0.00014620267551992717 0 -0.025470070777579679 -0.00015186839027330721 0 -0.023680206744603003 -0.00014620267551992717 0 -0.025210200050657803 -0.00038691088766766254 0 -0.025470070777579679 -0.00015186839027330721 0 -0.019741227243564054 -9.9438736598155801e-06 0 -0.019635959739207776 -0.00018763734000958011 0 -0.020043435267828952 -4.5078409956769748e-05 0 -0.021300751791803189 -0.00010856660060474738 0 -0.022654792976137848 -0.00016596629922069564 0 -0.022797445361374593 -0.00027366982693023315 0 -0.023680206744603003 -0.00014620267551992717 0 -0.025210200050657803 -0.00038691088766766254 0 -0.019741227243564054 -9.9438736598155801e-06 0 -0.020043435267828952 -4.5078409956769748e-05 0 -0.020165282374914273 -1.3284303974250632e-05 0 -0.019741227243564054 -9.9438736598155801e-06 0 -0.019971683161466525 4.6936646235661872e-05 0 -0.020165282374914273 -1.3284303974250632e-05 0 -0.02045486494428574 -5.4132122660303439e-05 0 -0.020165282374914273 -1.3284303974250632e-05 0 -0.02044086012506225 -8.0186465731095638e-05 0 -0.020043435267828952 -4.5078409956769748e-05 0 -0.020165282374914273 -1.3284303974250632e-05 0 -0.02044086012506225 -8.0186465731095638e-05 0 -0.022654792976137848 -0.00016596629922069564 0 -0.024019734612210738 -0.0002566194751659517 0 -0.020043435267828952 -4.5078409956769748e-05 0 -0.02044086012506225 -8.0186465731095638e-05 0 -0.020724506605118893 -0.00014512446029163058 0 -0.027200837123723468 -0.00014043151073175669 0 -0.029011227694624005 -0.00058305926716271613 0 -0.027273952246659197 -0.00042992377058198832 0 -0.02076058207496306 -0.00017647150211809202 0 -0.02044086012506225 -8.0186465731095638e-05 0 -0.020724506605118893 -0.00014512446029163058 0 -0.02076058207496306 -0.00017647150211809202 0 -0.02045486494428574 -5.4132122660303439e-05 0 -0.02044086012506225 -8.0186465731095638e-05 0 -0.021534664878349711 -0.00063478158859104467 0 -0.021234223963493552 -0.00046588232440562658 0 -0.020724506605118893 -0.00014512446029163058 0 -0.025288653081408253 -0.00060042633867553102 0 -0.024019734612210738 -0.0002566194751659517 0 -0.021234223963493552 -0.00046588232440562658 0 -0.02076058207496306 -0.00017647150211809202 0 -0.020724506605118893 -0.00014512446029163058 0 -0.027200837123723468 -0.00014043151073175669 0 -0.027273952246659197 -0.00042992377058198832 0 -0.025470070777579679 -0.00015186839027330721 0 -0.027200837123723468 -0.00014043151073175669 0 -0.025667785781613151 -1.4826622612009475e-07 0 -0.025470070777579679 -0.00015186839027330721 0 -0.023815642812606952 -2.4398832233117898e-07 0 -0.025667785781613151 -1.4826622612009475e-07 0 -0.025470070777579679 -0.00015186839027330721 0 -0.025210200050657803 -0.00038691088766766254 0 -0.027273952246659197 -0.00042992377058198832 0 -0.025470070777579679 -0.00015186839027330721 0 -0.0098125947160684155 7.9605179870264524e-05 0 -0.0099542623957668882 0.00015186220873362422 0 -0.0099930922464028012 0.00018442596923547868 0 -0.010024473612123681 0.00011696997305751503 0 -0.0099542623957668882 0.00015186220873362422 0 -0.010003996409298605 0.00017583464541004931 0 -0.0098125947160684155 7.9605179870264524e-05 0 -0.010024473612123681 0.00011696997305751503 0 -0.0099542623957668882 0.00015186220873362422 0 -0.010891324280008262 3.1678342678427368e-07 0 -0.010098018176386961 7.1295823370073796e-05 0 -0.010962109154571723 -3.0728261202156666e-05 0 -0.0099640431351436798 9.4830775186107658e-05 0 -0.010344090876492773 0.00025994172956525518 0 -0.010891324280008262 3.1678342678427368e-07 0 -0.010098018176386961 7.1295823370073796e-05 0 -0.0088888729814996584 3.3783697239452761e-07 0 -0.0098125947160684155 7.9605179870264524e-05 0 -0.010098018176386961 7.1295823370073796e-05 0 -0.010962109154571723 -3.0728261202156666e-05 0 -0.0098125947160684155 7.9605179870264524e-05 0 -0.0095948996294757446 6.7160031060971043e-05 0 -0.0093058964223535923 -4.4428164201803253e-05 0 -0.0098125947160684155 7.9605179870264524e-05 0 -0.010098018176386961 7.1295823370073796e-05 0 -0.0095948996294757446 6.7160031060971043e-05 0 -0.010098018176386961 7.1295823370073796e-05 0 -0.0095948996294757446 6.7160031060971043e-05 0 -0.0088888729814996584 3.3783697239452761e-07 0 -0.0095948996294757446 6.7160031060971043e-05 0 -0.0088888729814996584 3.3783697239452761e-07 0 -0.0093058964223535923 -4.4428164201803253e-05 0 -0.0098125947160684155 7.9605179870264524e-05 0 -0.010024473612123681 0.00011696997305751503 0 -0.0093058964223535923 -4.4428164201803253e-05 0 -0.008174475914120044 -0.00015363474722990207 0 -0.0077810879392005497 -0.00012401562279706769 0 -0.0061576956562404391 -0.0005154554386055352 0 -0.0060246134964276228 -0.00037427349016490232 0 -0.0062834820472987118 -0.00039525303026514193 0 -0.0055517420309361904 -0.00060245922737732916 0 -0.0054929220708942964 -0.00051779982610587576 0 -0.0060246134964276228 -0.00037427349016490232 0 -0.0058214898914826603 -0.00043441718445445181 0 -0.005871965583602012 -0.00021318809576781637 0 -0.0060246134964276228 -0.00037427349016490232 0 -0.0059638861144067886 -0.00055536880178176185 0 -0.0058214898914826603 -0.00043441718445445181 0 -0.0061576956562404391 -0.0005154554386055352 0 -0.0060246134964276228 -0.00037427349016490232 0 -0.0059638861144067886 -0.00055536880178176185 0 -0.0061576956562404391 -0.0005154554386055352 0 -0.0059638861144067886 -0.00055536880178176185 0 -0.0060850347098134819 -0.00070190171103840697 0 -0.008174475914120044 -0.00015363474722990207 0 -0.0074796932820844772 -0.00037143205633971977 0 -0.0059638861144067886 -0.00055536880178176185 0 -0.0060850347098134819 -0.00070190171103840697 0 -0.0058817883454846728 -0.00077566306530278629 0 -0.0074796932820844772 -0.00037143205633971977 0 -0.011934060767028227 -0.00054859853721560682 0 -0.0060850347098134819 -0.00070190171103840697 0 -0.0060133077013293399 -0.00094825853395976041 0 -0.0058817883454846728 -0.00077566306530278629 0 -0.010023180385013668 0.00019505338449985987 0 -0.010024957309896663 0.00019918334375113148 0 -0.010056553707486095 0.00022026220093180826 0 -0.010062911556734227 0.00018621236983776859 0 -0.010023180385013668 0.00019505338449985987 0 -0.010056553707486095 0.00022026220093180826 0 -0.010024473612123681 0.00011696997305751503 0 -0.010062911556734227 0.00018621236983776859 0 -0.010003996409298605 0.00017583464541004931 0 -0.010062911556734227 0.00018621236983776859 0 -0.010023180385013668 0.00019505338449985987 0 -0.010003996409298605 0.00017583464541004931 0 -0.010023180385013668 0.00019505338449985987 0 -0.010003996409298605 0.00017583464541004931 0 -0.0099930922464028012 0.00018442596923547868 0 -0.0099542623957668882 0.00015186220873362422 0 -0.010003996409298605 0.00017583464541004931 0 -0.0099930922464028012 0.00018442596923547868 0 -0.010891324280008262 3.1678342678427368e-07 0 -0.010962109154571723 -3.0728261202156666e-05 0 -0.012892874182906093 -6.6386531370321275e-07 0 -0.010023180385013668 0.00019505338449985987 0 -0.0099930922464028012 0.00018442596923547868 0 -0.010024957309896663 0.00019918334375113148 0 -0.010344090876492773 0.00025994172956525518 0 -0.012414635544394306 -0.00016283563642980248 0 -0.010962109154571723 -3.0728261202156666e-05 0 -0.01277608357886497 -3.9378914828928487e-05 0 -0.012892874182906093 -6.6386531370321275e-07 0 -0.012935336896057158 -2.220099283847993e-07 0 -0.012894866113593599 -1.6466550880570429e-09 0 -0.013334211596613781 5.133413606070552e-10 0 -0.012414635544394306 -0.00016283563642980248 0 -0.012893456159992288 -4.0563828306928718e-07 0 -0.012414635544394306 -0.00016283563642980248 0 -0.013333440841062029 -4.4972947499569394e-07 0 -0.012414635544394306 -0.00016283563642980248 0 -0.013759731598971675 -0.00038076046275150406 0 -0.013874706148718358 -0.00086402395181953584 0 -0.0133379073281792 -3.7574960748187928e-06 0 -0.015048850603139263 -0.00022867151305228621 0 -0.013874706148718358 -0.00086402395181953584 0 -0.015048850603139263 -0.00022867151305228621 0 -0.016699195211798384 -0.0011273364294841803 0 -0.0133379073281792 -3.7574960748187928e-06 0 -0.015048850603139263 -0.00022867151305228621 0 -0.015028931535773922 9.7882248853362896e-07 0 -0.015048850603139263 -0.00022867151305228621 0 -0.016699195211798384 -0.0011273364294841803 0 -0.016514612441278078 -8.0878017309185071e-05 0 -0.016699195211798384 -0.0011273364294841803 0 -0.016514612441278078 -8.0878017309185071e-05 0 -0.017596791151561722 -0.00028478638292304389 0 -0.015048850603139263 -0.00022867151305228621 0 -0.016514612441278078 -8.0878017309185071e-05 0 -0.015028931535773922 9.7882248853362896e-07 0 -0.016514612441278078 -8.0878017309185071e-05 0 -0.015028931535773922 9.7882248853362896e-07 0 -0.01679071467453162 0.0001009536640733411 0 -0.015028931535773922 9.7882248853362896e-07 0 -0.01679071467453162 0.0001009536640733411 0 -0.016722893679039452 9.3801276726958406e-08 0 -0.016514612441278078 -8.0878017309185071e-05 0 -0.017649970141561902 0.00012893994135654662 0 -0.017596791151561722 -0.00028478638292304389 0 -0.016514612441278078 -8.0878017309185071e-05 0 -0.01679071467453162 0.0001009536640733411 0 -0.017649970141561902 0.00012893994135654662 0 -0.01810168114135852 0.00020867876655831645 0 -0.01679071467453162 0.0001009536640733411 0 -0.017649970141561902 0.00012893994135654662 0 -0.01810168114135852 0.00020867876655831645 0 -0.017649970141561902 0.00012893994135654662 0 -0.018248413498077605 0.00018703463430576897 0 -0.01810168114135852 0.00020867876655831645 0 -0.01679071467453162 0.0001009536640733411 0 -0.016722893679039452 9.3801276726958406e-08 0 -0.01855761705933252 8.6981257844831698e-06 0 -0.018517636351488787 0.00013063751624333407 0 -0.018210709154158261 -3.5500051125204963e-05 0 -0.01855761705933252 8.6981257844831698e-06 0 -0.01863890691066921 -0.00014729110801605898 0 -0.018857186366646114 4.1855474571667505e-05 0 -0.01855761705933252 8.6981257844831698e-06 0 -0.018517636351488787 0.00013063751624333407 0 -0.018857186366646114 4.1855474571667505e-05 0 -0.018959695630536316 0.00015513364898238317 0 -0.018517636351488787 0.00013063751624333407 0 -0.018857186366646114 4.1855474571667505e-05 0 -0.018517636351488787 0.00013063751624333407 0 -0.017649970141561902 0.00012893994135654662 0 -0.018248413498077605 0.00018703463430576897 0 -0.018517636351488787 0.00013063751624333407 0 -0.017649970141561902 0.00012893994135654662 0 -0.018210709154158261 -3.5500051125204963e-05 0 -0.017649970141561902 0.00012893994135654662 0 -0.018210709154158261 -3.5500051125204963e-05 0 -0.017596791151561722 -0.00028478638292304389 0 -0.018276840980899493 -0.00025921214953023703 0 -0.018210709154158261 -3.5500051125204963e-05 0 -0.017596791151561722 -0.00028478638292304389 0 -0.01855761705933252 8.6981257844831698e-06 0 -0.018210709154158261 -3.5500051125204963e-05 0 -0.01863890691066921 -0.00014729110801605898 0 -0.018276840980899493 -0.00025921214953023703 0 -0.018761140893864204 -0.00022479963510307807 0 -0.01863890691066921 -0.00014729110801605898 0 -0.018276840980899493 -0.00025921214953023703 0 -0.018210709154158261 -3.5500051125204963e-05 0 -0.01863890691066921 -0.00014729110801605898 0 -0.018276840980899493 -0.00025921214953023703 0 -0.017596791151561722 -0.00028478638292304389 0 -0.018173733270962625 -0.0010052158088739562 0 -0.011934060767028227 -0.00054859853721560682 0 -0.017531720058511117 -0.00069764939518645566 0 -0.018276840980899493 -0.00025921214953023703 0 -0.018173733270962625 -0.0010052158088739562 0 -0.018761140893864204 -0.00022479963510307807 0 -0.013759731598971675 -0.00038076046275150406 0 -0.011934060767028227 -0.00054859853721560682 0 -0.010062911556734227 0.00018621236983776859 0 -0.010056553707486095 0.00022026220093180826 0 -0.010131334355169384 0.0002321264478042206 0 -0.016699195211798384 -0.0011273364294841803 0 -0.017596791151561722 -0.00028478638292304389 0 -0.018173733270962625 -0.0010052158088739562 0 -0.011934060767028227 -0.00054859853721560682 0 -0.008540496703795265 -0.0011357299605128871 0 -0.0057396513589431427 -0.00088434262264798903 0 -0.0058403425139079207 -0.0010120516758862323 0 -0.0058817883454846728 -0.00077566306530278629 0 -0.0060133077013293399 -0.00094825853395976041 0 -0.0058403425139079207 -0.0010120516758862323 0 -0.0058817883454846728 -0.00077566306530278629 0 -0.0057396513589431427 -0.00088434262264798903 0 -0.0058403425139079207 -0.0010120516758862323 0 -0.0056445982903459459 -0.0010711369871441614 0 -0.0057396513589431427 -0.00088434262264798903 0 -0.0055457542691070404 -0.0008819492011950472 0 -0.0056445982903459459 -0.0010711369871441614 0 -0.0055457542691070404 -0.0008819492011950472 0 -0.0056445982903459459 -0.0010711369871441614 0 -0.0054126569206008352 -0.00087544326307897598 0 -0.018966208966258735 -0.00080215455360179723 0 -0.019046013059307188 -0.00086619358210461973 0 -0.018995676568483704 -0.0008753115278675455 0 -0.012853174796637718 -0.0008126966445296946 0 -0.012910011667075736 -0.00079787156214120275 0 -0.012931474634938848 -0.00073138995637892759 0 -0.012910011667075736 -0.00079787156214120275 0 -0.012958987556315433 -0.00078170222389352731 0 -0.012931474634938848 -0.00073138995637892759 0 -0.012328451243959771 -0.00049093794304204841 0 -0.017531720058511117 -0.00069764939518645566 0 -0.008540496703795265 -0.0011357299605128871 0 -0.012328451243959771 -0.00049093794304204841 0 -0.018748742512626822 -0.00023347818211662185 0 -0.01863890691066921 -0.00014729110801605898 0 -0.018857186366646114 4.1855474571667505e-05 0 -0.017531720058511117 -0.00069764939518645566 0 -0.01812810578842947 -0.00066934299808632199 0 -0.019046013059307188 -0.00086619358210461973 0 -0.018995676568483704 -0.0008753115278675455 0 -0.019027472090676876 -0.00096886550908575756 0 -0.018995676568483704 -0.0008753115278675455 0 -0.019027472090676876 -0.00096886550908575756 0 -0.01900963697673241 -0.0009149315015522597 0 -0.018748742512626822 -0.00023347818211662185 0 -0.019201535524715468 2.7406571766522706e-05 0 -0.018857186366646114 4.1855474571667505e-05 0 -0.017531720058511117 -0.00069764939518645566 0 -0.019326133298724669 -0.00036618540884561686 0 -0.019119230201102608 -0.00098592911502668216 0 -0.018890591912657056 -0.00091429980292326903 0 -0.01900963697673241 -0.0009149315015522597 0 -0.019119230201102608 -0.00098592911502668216 0 -0.019027472090676876 -0.00096886550908575756 0 -0.01900963697673241 -0.0009149315015522597 0 -0.018890591912657056 -0.00091429980292326903 0 -0.01900963697673241 -0.0009149315015522597 0 -0.018909736969902006 -0.00079660977415573647 0 -0.018995676568483704 -0.0008753115278675455 0 -0.01900963697673241 -0.0009149315015522597 0 -0.018909736969902006 -0.00079660977415573647 0 -0.018890591912657056 -0.00091429980292326903 0 -0.018909736969902006 -0.00079660977415573647 0 -0.01877059948104521 -0.00079657563418387815 0 -0.011468758617661149 8.497907377596975e-05 0 -0.011604032498211736 -9.9538392696028115e-05 0 -0.01179020329649655 0.00018978078967558232 0 -0.015690091406226389 -0.00027601563589123274 0 -0.015458634180559807 -0.00029945028640390937 0 -0.018966208966258735 -0.00080215455360179723 0 -0.018995676568483704 -0.0008753115278675455 0 -0.018909736969902006 -0.00079660977415573647 0 -0.012328451243959771 -0.00049093794304204841 0 -0.015690091406226389 -0.00027601563589123274 0 -0.012328451243959771 -0.00049093794304204841 0 -0.0082182557864308552 -0.00047310897859196893 0 -0.01118577539429432 -9.258031113689747e-07 0 -0.011468758617661149 8.497907377596975e-05 0 -0.011384124983293966 -0.00020998345885680226 0 -0.011468758617661149 8.497907377596975e-05 0 -0.011384124983293966 -0.00020998345885680226 0 -0.011604032498211736 -9.9538392696028115e-05 0 -0.011384124983293966 -0.00020998345885680226 0 -0.011604032498211736 -9.9538392696028115e-05 0 -0.011583971712848265 -0.00044492116553073086 0 -0.0082182557864308552 -0.00047310897859196893 0 -0.0056572407021269451 -0.00078159416524194668 0 -0.0053390980272457539 -0.00081262693586039026 0 -0.0054150091042510203 -0.00080012552283905737 0 -0.0053516874139048383 -0.00077476407528060027 0 0.0011560158541937258 -0.00099108934618537281 0 0.00096084902570992209 -0.00058304670051667704 0 0.0014877093515378976 -0.00072477434125643454 0 -0.0056572407021269451 -0.00078159416524194668 0 -0.0016732807813361144 -0.00087057962463117536 0 -0.0054150091042510203 -0.00080012552283905737 0 -0.0053465369192975684 -0.00077478334382672157 0 -0.0053516874139048383 -0.00077476407528060027 0 -0.0055457542691070404 -0.0008819492011950472 0 -0.0054126569206008352 -0.00087544326307897598 0 -0.0054150091042510203 -0.00080012552283905737 0 -0.0054126569206008352 -0.00087544326307897598 0 -0.0053390980272457539 -0.00081262693586039026 0 -0.0054150091042510203 -0.00080012552283905737 0 -0.0055351248388582214 -0.00087989807684356065 0 -0.0055551846073132087 -0.00071112690833688452 0 -0.0055457542691070404 -0.0008819492011950472 0 -0.0054150091042510203 -0.00080012552283905737 0 -0.0053851681883517943 -0.00077531007381310805 0 -0.0057396513589431427 -0.00088434262264798903 0 -0.0055457542691070404 -0.0008819492011950472 0 -0.0057323490905020653 -0.00061976596608393853 0 -0.0057396513589431427 -0.00088434262264798903 0 -0.0058817883454846728 -0.00077566306530278629 0 -0.0057323490905020653 -0.00061976596608393853 0 -0.0059638861144067886 -0.00055536880178176185 0 -0.0058817883454846728 -0.00077566306530278629 0 -0.0057323490905020653 -0.00061976596608393853 0 -0.0054150091042510203 -0.00080012552283905737 0 -0.0053851681883517943 -0.00077531007381310805 0 -0.0053465369192975684 -0.00077478334382672157 0 -0.0053851681883517943 -0.00077531007381310805 0 -0.0053465369192975684 -0.00077478334382672157 0 -0.005274531878169314 -0.00077346279507105819 0 -0.0059638861144067886 -0.00055536880178176185 0 -0.0057323490905020653 -0.00061976596608393853 0 -0.0058214898914826603 -0.00043441718445445181 0 -0.0055551846073132087 -0.00071112690833688452 0 -0.0055517420309361904 -0.00060245922737732916 0 -0.0053465369192975684 -0.00077478334382672157 0 -0.005274531878169314 -0.00077346279507105819 0 -0.0053142285999183613 -0.00079577086482736381 0 0.00073234558154013779 -0.00015809131004544948 0 0.0010877795076060009 -0.00011851973424484032 0 0.00096084902570992209 -0.00058304670051667704 0 -0.0023765883919235273 -0.00041550594234965289 0 -0.0016732807813361144 -0.00087057962463117536 0 0.0010877795076060009 -0.00011851973424484032 0 0.00096084902570992209 -0.00058304670051667704 0 0.0014590822122279336 -0.00025699271275660726 0 -0.0053465369192975684 -0.00077478334382672157 0 -0.0053142285999183613 -0.00079577086482736381 0 -0.0053516874139048383 -0.00077476407528060027 0 -0.0075835290704754452 -0.002242143687673559 0 -0.0078692171269389571 -0.0015595089959122275 0 -0.0067808043367706657 -0.001573700667699005 0 0.0017437257832054471 -0.00047834955212284249 0 0.0014590822122279336 -0.00025699271275660726 0 0.0014877093515378976 -0.00072477434125643454 0 -0.0012160160858666641 -0.00087701993543234165 0 -0.0024765760554307115 -0.0011175102285942236 0 0.00096084902570992209 -0.00058304670051667704 0 0.0014590822122279336 -0.00025699271275660726 0 0.0014877093515378976 -0.00072477434125643454 0 -0.0012160160858666641 -0.00087701993543234165 0 0.0025534385569930844 -0.00040367633493693523 0 0.0014590822122279336 -0.00025699271275660726 0 0.0019482460163693868 -8.7191658853609432e-05 0 0.0016976519679295719 9.403431701994075e-05 0 0.0019455366628991387 -0.00034706547623223217 0 0.0014590822122279336 -0.00025699271275660726 0 0.0019482460163693868 -8.7191658853609432e-05 0 0.0020948482074684221 -0.00010854726615024933 0 0.002003847943722875 -0.00010551696714966681 0 0.0021214936032662173 -3.4345617427812047e-05 0 0.0019482460163693868 -8.7191658853609432e-05 0 0.0020948482074684221 -0.00010854726615024933 0 0.0021214936032662173 -3.4345617427812047e-05 0 0.0019455366628991387 -0.00034706547623223217 0 0.0019482460163693868 -8.7191658853609432e-05 0 0.0020948482074684221 -0.00010854726615024933 0 -0.0012160160858666641 -0.00087701993543234165 0 0.0023080318700006534 0.00057596300231431484 0 0.002003847943722875 -0.00010551696714966681 0 0.0019425867635476796 4.4184874485024699e-05 0 0.0015315711944016244 0.00014578811448517727 0 0.0020948482074684221 -0.00010854726615024933 0 0.002003847943722875 -0.00010551696714966681 0 0.0019425867635476796 4.4184874485024699e-05 0 0.0019498394445894222 0.00049100982462260548 0 0.0021471319700118972 0.0011591769691196923 0 0.0019425867635476796 4.4184874485024699e-05 0 0.0018141436871999617 0.00037762628657617305 0 0.0015315711944016244 0.00014578811448517727 0 -0.0012160160858666641 -0.00087701993543234165 0 -0.003888548755725081 -0.00070052329772570898 0 -0.0075835290704754452 -0.002242143687673559 0 -0.0078692171269389571 -0.0015595089959122275 0 -0.0087390404243220723 -0.0015622293408348604 0 0.0022536144588085633 4.6598030920599099e-05 0 0.0019425867635476796 4.4184874485024699e-05 0 0.0018141436871999617 0.00037762628657617305 0 0.0022536144588085633 4.6598030920599099e-05 0 0.0020948482074684221 -0.00010854726615024933 0 0.0019425867635476796 4.4184874485024699e-05 0 -0.0084242446188756807 -0.0013830800355485067 0 -0.0085996836908218237 -0.00052596950141203141 0 -0.0076124820535116728 -0.00096203155384843762 0 -0.0084242446188756807 -0.0013830800355485067 0 -0.0078692171269389571 -0.0015595089959122275 0 -0.0087390404243220723 -0.0015622293408348604 0 -0.0084242446188756807 -0.0013830800355485067 0 -0.0078692171269389571 -0.0015595089959122275 0 -0.0076124820535116728 -0.00096203155384843762 0 -0.0084242446188756807 -0.0013830800355485067 0 -0.0087390404243220723 -0.0015622293408348604 0 -0.0089336249190847417 -0.00078829049324563485 0 -0.0084242446188756807 -0.0013830800355485067 0 -0.0085996836908218237 -0.00052596950141203141 0 -0.009604469409530924 -0.00047930043965736883 0 -0.0084977829792244348 -0.0013361177037879862 0 -0.0092647909883182382 -0.00062348378728004376 0 -0.0085996836908218237 -0.00052596950141203141 0 -0.0092293729149083795 0.00064751214321190147 0 -0.009604469409530924 -0.00047930043965736883 0 -0.0085996836908218237 -0.00052596950141203141 0 -0.0076124820535116728 -0.00096203155384843762 0 -0.0078516607246810616 1.5545492297681615e-05 0 -0.0069896729723099692 -0.00056919049229940016 0 -0.0076124820535116728 -0.00096203155384843762 0 -0.0078516607246810616 1.5545492297681615e-05 0 -0.0069896729723099692 -0.00056919049229940016 0 -0.0076124820535116728 -0.00096203155384843762 0 -0.0067808043367706657 -0.001573700667699005 0 -0.0078692171269389571 -0.0015595089959122275 0 -0.0076124820535116728 -0.00096203155384843762 0 -0.0067808043367706657 -0.001573700667699005 0 -0.0056572407021269451 -0.00078159416524194668 0 -0.0024765760554307115 -0.0011175102285942236 0 -0.0059348155908532556 -0.00083227272826503877 0 -0.0069896729723099692 -0.00056919049229940016 0 -0.0067808043367706657 -0.001573700667699005 0 -0.0056572407021269451 -0.00078159416524194668 0 -0.0092308998287159855 0.00048984658090045377 0 -0.0059348155908532556 -0.00083227272826503877 0 -0.0069896729723099692 -0.00056919049229940016 0 -0.0067822111096582337 0.00055866109602117366 0 -0.011604032498211736 -9.9538392696028115e-05 0 -0.011583971712848265 -0.00044492116553073086 0 -0.011867400409073765 -0.00010326550011191206 0 -0.0069896729723099692 -0.00056919049229940016 0 -0.0067822111096582337 0.00055866109602117366 0 -0.0078516607246810616 1.5545492297681615e-05 0 -0.0067822111096582337 0.00055866109602117366 0 -0.0081599603439712568 0.0010625458057725765 0 -0.0078516607246810616 1.5545492297681615e-05 0 -0.0067822111096582337 0.00055866109602117366 0 -0.0077050280796231406 0.0020440281936738216 0 -0.0081599603439712568 0.0010625458057725765 0 -0.0092308998287159855 0.00048984658090045377 0 -0.013939351460618006 -0.00015210189152379747 0 -0.011867400409073765 -0.00010326550011191206 0 -0.01179020329649655 0.00018978078967558232 0 -0.012161319357389887 0.00028479348029887991 0 -0.011604032498211736 -9.9538392696028115e-05 0 -0.011867400409073765 -0.00010326550011191206 0 -0.01179020329649655 0.00018978078967558232 0 -0.018890591912657056 -0.00091429980292326903 0 -0.01877059948104521 -0.00079657563418387815 0 -0.018719285510349123 -0.00097517223231557862 0 -0.015458634180559807 -0.00029945028640390937 0 -0.013939351460618006 -0.00015210189152379747 0 -0.01877059948104521 -0.00079657563418387815 0 -0.018606231130233204 -0.00083239620933721619 0 -0.018719285510349123 -0.00097517223231557862 0 -0.018606231130233204 -0.00083239620933721619 0 -0.018719285510349123 -0.00097517223231557862 0 -0.018552779809082862 -0.00096317758258119863 0 -0.018897950278472783 -0.0010957542498946683 0 -0.018890591912657056 -0.00091429980292326903 0 -0.018719285510349123 -0.00097517223231557862 0 -0.018977941420238613 -0.00016992056866894771 0 -0.018276856990524136 -0.00034524730848495023 0 -0.018828632516472949 -0.001088564188529413 0 -0.018977941420238613 -0.00016992056866894771 0 -0.018828632516472949 -0.001088564188529413 0 -0.019485479012416224 -0.00039951301318372142 0 -0.019322747708194834 -7.1109836584871513e-05 0 -0.018977941420238613 -0.00016992056866894771 0 -0.019485479012416224 -0.00039951301318372142 0 -0.013939351460618006 -0.00015210189152379747 0 -0.013699469697088488 0.00068687986532872561 0 -0.017542837826705283 -0.0014215837637418659 0 -0.018276856990524136 -0.00034524730848495023 0 -0.018828632516472949 -0.001088564188529413 0 -0.0077050280796231406 0.0020440281936738216 0 -0.0090772190999191711 0.0024240481055063769 0 -0.0081599603439712568 0.0010625458057725765 0 -0.013939351460618006 -0.00015210189152379747 0 -0.01884384809949223 -0.00062434862708911831 0 -0.0090772190999191711 0.0024240481055063769 0 -0.0081599603439712568 0.0010625458057725765 0 -0.0092293729149083795 0.00064751214321190147 0 -0.0090772190999191711 0.0024240481055063769 0 -0.0092293729149083795 0.00064751214321190147 0 -0.010556485654107443 0.001674350935759886 0 -0.0085996836908218237 -0.00052596950141203141 0 -0.0078516607246810616 1.5545492297681615e-05 0 -0.0092293729149083795 0.00064751214321190147 0 -0.0081599603439712568 0.0010625458057725765 0 -0.0078516607246810616 1.5545492297681615e-05 0 -0.0092293729149083795 0.00064751214321190147 0 -0.0092293729149083795 0.00064751214321190147 0 -0.010714985550794674 0.00052235378986669682 0 -0.009604469409530924 -0.00047930043965736883 0 -0.010080760195062294 0.00019093735168958828 0 -0.0092647909883182382 -0.00062348378728004376 0 -0.0094677305793194402 -0.00011128765909064323 0 -0.010238032663144886 0.00027259722268067335 0 -0.0095753004910652077 -0.00073521477074796197 0 -0.0099884347383817403 0.00013004104910090754 0 -0.0096538276481206026 -0.00063802880544043972 0 -0.0098708967027438307 -0.00030494421911338453 0 -0.010020903576077907 0.00019159108617255877 0 -0.0095753004910652077 -0.00073521477074796197 0 -0.0094677305793194402 -0.00011128765909064323 0 -0.010238032663144886 0.00027259722268067335 0 -0.010167022654959551 0.00064162738930694527 0 -0.010714985550794674 0.00052235378986669682 0 -0.010556485654107443 0.001674350935759886 0 -0.011829464282602412 0.0015664820508226481 0 -0.010080760195062294 0.00019093735168958828 0 -0.011105352556217123 0.001207038368574409 0 -0.0092293729149083795 0.00064751214321190147 0 -0.010714985550794674 0.00052235378986669682 0 -0.010556485654107443 0.001674350935759886 0 -0.0090772190999191711 0.0024240481055063769 0 -0.010556485654107443 0.001674350935759886 0 -0.01051964827323308 0.0028127423469037315 0 -0.013699469697088488 0.00068687986532872561 0 -0.015211410206617045 0.0010814266326058843 0 -0.010556485654107443 0.001674350935759886 0 -0.011398516091804185 0.0023465184804147593 0 -0.01051964827323308 0.0028127423469037315 0 -0.010556485654107443 0.001674350935759886 0 -0.011398516091804185 0.0023465184804147593 0 -0.011829464282602412 0.0015664820508226481 0 -0.015211410206617045 0.0010814266326058843 0 -0.016372388901839147 0.0014385258828903127 0 -0.019953595768987142 -0.00032196616746291314 0 -0.01991692972464059 -0.00064066417712105327 0 -0.02038345473346433 -0.00032177948470994038 0 -0.011398516091804185 0.0023465184804147593 0 -0.01051964827323308 0.0028127423469037315 0 -0.012003015002854209 0.0031972702973808009 0 -0.020143254000288699 -9.7174811838828654e-05 0 -0.019953595768987142 -0.00032196616746291314 0 -0.02038345473346433 -0.00032177948470994038 0 -0.019714491346264466 -0.0001225896787579061 0 -0.019875438647799875 -0.00017712357818790771 0 -0.019953595768987142 -0.00032196616746291314 0 -0.018828632516472949 -0.001088564188529413 0 -0.019485479012416224 -0.00039951301318372142 0 -0.01991692972464059 -0.00064066417712105327 0 -0.019714491346264466 -0.0001225896787579061 0 -0.019953595768987142 -0.00032196616746291314 0 -0.019485479012416224 -0.00039951301318372142 0 -0.019714491346264466 -0.0001225896787579061 0 -0.019322747708194834 -7.1109836584871513e-05 0 -0.019485479012416224 -0.00039951301318372142 0 -0.019953595768987142 -0.00032196616746291314 0 -0.019485479012416224 -0.00039951301318372142 0 -0.01991692972464059 -0.00064066417712105327 0 -0.01351937717001666 0.0035723317879041176 0 -0.012003015002854209 0.0031972702973808009 0 -0.012641830721547169 0.0029760774070573012 0 -0.020516951338409414 -9.0546462652220757e-05 0 -0.020613013448779732 -0.00015352664211894885 0 -0.02038345473346433 -0.00032177948470994038 0 -0.016075652169066066 0.0018773439459689434 0 -0.016372388901839147 0.0014385258828903127 0 -0.01351937717001666 0.0035723317879041176 0 -0.012641830721547169 0.0029760774070573012 0 -0.012951163277914231 0.0026518556421009521 0 -0.010416564818504906 0.0014159718011844187 0 -0.011443493754718613 0.0016033753498346057 0 -0.01224812058539318 0.0012431993484015203 0 -0.01272935489417955 0.0023738317894985909 0 -0.011790852857899482 0.00076413378043162781 0 -0.0073335894948496376 0.0022592465363749357 0 -0.0073805388880817391 0.001934101048633387 0 -0.0078543718696682668 0.0023094284979465556 0 -0.016075652169066066 0.0018773439459689434 0 -0.011443493754718613 0.0016033753498346057 0 -0.0073335894948496376 0.0022592465363749357 0 -0.0078543718696682668 0.0023094284979465556 0 -0.0078957408415732157 0.0028628070067789869 0 -0.010416564818504906 0.0014159718011844187 0 -0.011776594975344036 0.0021890966443769747 0 -0.01224812058539318 0.0012431993484015203 0 -0.012705770305736743 0.0020639994729520226 0 -0.01272935489417955 0.0023738317894985909 0 -0.012227838143272081 0.0012255970860571422 0 -0.012705770305736743 0.0020639994729520226 0 -0.013550594942582067 0.002587892641435793 0 -0.010416564818504906 0.0014159718011844187 0 -0.01375010987517363 0.001443888540250252 0 -0.012705770305736743 0.0020639994729520226 0 -0.01272935489417955 0.0023738317894985909 0 -0.013550594942582067 0.002587892641435793 0 -0.020617574667863438 -0.00012602691069631418 0 -0.020604328890832583 -0.0001388390892165036 0 -0.020642529290907704 -0.0001198562763528653 0 -0.016457773179569087 0.0018152012362083237 0 -0.016075652169066066 0.0018773439459689434 0 -0.012003015002854209 0.0031972702973808009 0 -0.012641830721547169 0.0029760774070573012 0 -0.012096710277283956 0.0024886350933483177 0 -0.012641830721547169 0.0029760774070573012 0 -0.012096710277283956 0.0024886350933483177 0 -0.012951163277914231 0.0026518556421009521 0 -0.011443493754718613 0.0016033753498346057 0 -0.011105352556217123 0.001207038368574409 0 -0.010951828915349493 0.0014391948759769739 0 -0.010238032663144886 0.00027259722268067335 0 -0.010167022654959551 0.00064162738930694527 0 -0.011443493754718613 0.0016033753498346057 0 -0.0099884347383817403 0.00013004104910090754 0 -0.012096710277283956 0.0024886350933483177 0 -0.012951163277914231 0.0026518556421009521 0 -0.011829464282602412 0.0015664820508226481 0 -0.010480154539308825 0.0011281203043105425 0 -0.010020903576077907 0.00019159108617255877 0 -0.010235621178540873 0.0004880042104571677 0 -0.011398516091804185 0.0023465184804147593 0 -0.012003015002854209 0.0031972702973808009 0 -0.012096710277283956 0.0024886350933483177 0 -0.011398516091804185 0.0023465184804147593 0 -0.012096710277283956 0.0024886350933483177 0 -0.011829464282602412 0.0015664820508226481 0 -0.0073335894948496376 0.0022592465363749357 0 -0.0073805388880817391 0.001934101048633387 0 -0.0068889525785977056 0.0015236863112512008 0 -0.010610624472280171 0.0012843442657909175 0 -0.010480154539308825 0.0011281203043105425 0 -0.010235621178540873 0.0004880042104571677 0 -0.0073805388880817391 0.001934101048633387 0 -0.0072669347779783667 0.0015859490582557738 0 -0.0068889525785977056 0.0015236863112512008 0 -0.010416564818504906 0.0014159718011844187 0 -0.0083138032338909429 0.00098810339083132623 0 -0.0073805388880817391 0.001934101048633387 0 -0.0072669347779783667 0.0015859490582557738 0 -0.0075522646656507779 0.0014284014409179585 0 -0.0070456161409790542 0.0011188936086973863 0 -0.007494160510470727 0.0009362988150823907 0 -0.0075522646656507779 0.0014284014409179585 0 -0.0072669347779783667 0.0015859490582557738 0 -0.0070456161409790542 0.0011188936086973863 0 -0.0075522646656507779 0.0014284014409179585 0 -0.0072669347779783667 0.0015859490582557738 0 -0.0068889525785977056 0.0015236863112512008 0 -0.0070456161409790542 0.0011188936086973863 0 -0.0064487806150929743 0.00086697796194162683 0 -0.0068889525785977056 0.0015236863112512008 0 -0.0070456161409790542 0.0011188936086973863 0 -0.0098708967027438307 -0.00030494421911338453 0 -0.010020903576077907 0.00019159108617255877 0 -0.010235621178540873 0.0004880042104571677 0 -0.0087097596286905381 0.00023779895385935305 0 -0.0083138032338909429 0.00098810339083132623 0 -0.0064487806150929743 0.00086697796194162683 0 -0.0070456161409790542 0.0011188936086973863 0 -0.0067755963899218076 0.00053511459838790449 0 -0.0033094987132681803 0.0022645119448779501 0 -0.004530848310289306 0.0027217977014074583 0 -0.0070456161409790542 0.0011188936086973863 0 -0.0067755963899218076 0.00053511459838790449 0 -0.007494160510470727 0.0009362988150823907 0 -0.00012240878739325285 0.003847924803834557 0 -0.0013516999046681894 0.0045278402015300001 0 -0.0013038682404710902 0.0030958119597966705 0 -0.00033256136665524917 0.0025551746848086654 0 -0.0013038682404710902 0.0030958119597966705 0 -0.0014654215290492995 0.0020001882314528794 0 -0.00033256136665524917 0.0025551746848086654 0 -0.00012240878739325285 0.003847924803834557 0 -0.0013038682404710902 0.0030958119597966705 0 -0.00033256136665524917 0.0025551746848086654 0 -0.00012240878739325285 0.003847924803834557 0 0.0010058851596140425 0.0031926161586762368 0 -0.0064487806150929743 0.00086697796194162683 0 -0.0067755963899218076 0.00053511459838790449 0 -0.0059757724843945547 0.00012659386571020593 0 -0.0087097596286905381 0.00023779895385935305 0 -0.0033209203765005458 0.00082771388806590542 0 -0.0098708967027438307 -0.00030494421911338453 0 -0.00948674250267224 -0.001076116139079177 0 -0.0095753004910652077 -0.00073521477074796197 0 -0.0033094987132681803 0.0022645119448779501 0 -0.0033209203765005458 0.00082771388806590542 0 -0.00948674250267224 -0.001076116139079177 0 -0.0095753004910652077 -0.00073521477074796197 0 -0.0089336249190847417 -0.00078829049324563485 0 -0.0094677305793194402 -0.00011128765909064323 0 -0.0095753004910652077 -0.00073521477074796197 0 -0.0089336249190847417 -0.00078829049324563485 0 -0.0087390404243220723 -0.0015622293408348604 0 -0.00948674250267224 -0.001076116139079177 0 -0.0089336249190847417 -0.00078829049324563485 0 0.0018141436871999617 0.00037762628657617305 0 0.0010667243532871155 0.0007878039851417014 0 0.0015315711944016244 0.00014578811448517727 0 -0.003888548755725081 -0.00070052329772570898 0 -0.0033209203765005458 0.00082771388806590542 0 -0.0033209203765005458 0.00082771388806590542 0 0.0021471319700118972 0.0011591769691196923 0 -0.00033256136665524917 0.0025551746848086654 0 0.0010058851596140425 0.0031926161586762368 0 0.00048980173041428027 0.002062595010635257 0 0.0010058851596140425 0.0031926161586762368 0 0.00048980173041428027 0.002062595010635257 0 0.001601708993438112 0.0020537933124149441 0 0.00048980173041428027 0.002062595010635257 0 0.001601708993438112 0.0020537933124149441 0 0.0012838057536662978 0.0013916354257267811 0 0.0020999458060629176 0.001007809189052012 0 0.001601708993438112 0.0020537933124149441 0 0.0012838057536662978 0.0013916354257267811 0 0.0020999458060629176 0.001007809189052012 0 0.0012838057536662978 0.0013916354257267811 0 0.0014347206465542529 0.00074452032756598164 0 0.0012838057536662978 0.0013916354257267811 0 0.00070892611784517982 0.0010864559899039737 0 0.0014347206465542529 0.00074452032756598164 0 0.00048980173041428027 0.002062595010635257 0 0.00070892611784517982 0.0010864559899039737 0 7.3351210769567607e-05 0.0011528621691789924 0 0.00048980173041428027 0.002062595010635257 0 0.0012838057536662978 0.0013916354257267811 0 0.00070892611784517982 0.0010864559899039737 0 0.00048980173041428027 0.002062595010635257 0 7.3351210769567607e-05 0.0011528621691789924 0 -0.00070360304654589162 0.0012435883015100204 0 7.3351210769567607e-05 0.0011528621691789924 0 -0.00070360304654589162 0.0012435883015100204 0 -0.00029898742584503568 0.00081389424615070888 0 -0.00033256136665524917 0.0025551746848086654 0 -0.00070360304654589162 0.0012435883015100204 0 -0.0014654215290492995 0.0020001882314528794 0 -0.00033256136665524917 0.0025551746848086654 0 0.00048980173041428027 0.002062595010635257 0 -0.00070360304654589162 0.0012435883015100204 0 0.00031275611458117921 6.201710639598138e-05 0 -0.00029751150634217406 0.00038321763021891686 0 0.00020494480609077438 0.00066818211979680433 0 0.00031275611458117921 6.201710639598138e-05 0 0.00020494480609077438 0.00066818211979680433 0 0.00089655968219709602 0.00046950584517932615 0 0.00031275611458117921 6.201710639598138e-05 0 -0.00028558620471513709 2.3181582500218976e-05 0 -9.706368896051684e-05 -0.00026715884938412199 0 0.00031275611458117921 6.201710639598138e-05 0 -0.00028558620471513709 2.3181582500218976e-05 0 -0.00029751150634217406 0.00038321763021891686 0 -0.00028558620471513709 2.3181582500218976e-05 0 -0.00071750491742859771 0.00017190200029126406 0 -0.00059724683716771184 -0.00023947653699801436 0 -0.00071750491742859771 0.00017190200029126406 0 -0.00059724683716771184 -0.00023947653699801436 0 -0.00092514781628204432 -9.8167466030888098e-05 0 -0.00071750491742859771 0.00017190200029126406 0 -0.00029751150634217406 0.00038321763021891686 0 -0.00068170053526933811 0.00057350092395372072 0 -0.00028558620471513709 2.3181582500218976e-05 0 -0.00071750491742859771 0.00017190200029126406 0 -0.00029751150634217406 0.00038321763021891686 0 -0.00029751150634217406 0.00038321763021891686 0 -0.00068170053526933811 0.00057350092395372072 0 -0.00029898742584503568 0.00081389424615070888 0 -0.00070360304654589162 0.0012435883015100204 0 -0.00068170053526933811 0.00057350092395372072 0 -0.00029898742584503568 0.00081389424615070888 0 -0.00070360304654589162 0.0012435883015100204 0 -0.00068170053526933811 0.00057350092395372072 0 -0.0010040903838820273 0.00051826104219461337 0 7.3351210769567607e-05 0.0011528621691789924 0 -0.00029898742584503568 0.00081389424615070888 0 0.00020494480609077438 0.00066818211979680433 0 -0.00029751150634217406 0.00038321763021891686 0 -0.00029898742584503568 0.00081389424615070888 0 0.00020494480609077438 0.00066818211979680433 0 0.00070892611784517982 0.0010864559899039737 0 7.3351210769567607e-05 0.0011528621691789924 0 0.00020494480609077438 0.00066818211979680433 0 0.00070892611784517982 0.0010864559899039737 0 0.00020494480609077438 0.00066818211979680433 0 0.00089655968219709602 0.00046950584517932615 0 0.00070892611784517982 0.0010864559899039737 0 0.00089655968219709602 0.00046950584517932615 0 0.0014347206465542529 0.00074452032756598164 0 0.00089655968219709602 0.00046950584517932615 0 0.0014347206465542529 0.00074452032756598164 0 0.001621201887431393 0.00018805595646891502 0 0.0014347206465542529 0.00074452032756598164 0 0.001621201887431393 0.00018805595646891502 0 0.0019773038688171269 0.00041207978955783175 0 0.001621201887431393 0.00018805595646891502 0 0.001080644550471478 4.6306326615744643e-05 0 0.0016775574106116461 -0.00022637932859259847 0 0.00089655968219709602 0.00046950584517932615 0 0.001621201887431393 0.00018805595646891502 0 0.001080644550471478 4.6306326615744643e-05 0 0.00031275611458117921 6.201710639598138e-05 0 0.00089655968219709602 0.00046950584517932615 0 0.001080644550471478 4.6306326615744643e-05 0 0.001080644550471478 4.6306326615744643e-05 0 0.00089782347860067684 -0.00039592411740169695 0 0.0016775574106116461 -0.00022637932859259847 0 0.00031275611458117921 6.201710639598138e-05 0 0.001080644550471478 4.6306326615744643e-05 0 0.00089782347860067684 -0.00039592411740169695 0 0.00089782347860067684 -0.00039592411740169695 0 0.0014648124592327523 -0.00060651023108095991 0 0.001011833283637189 -0.00074727601474398539 0 0.00089782347860067684 -0.00039592411740169695 0 0.00058823365394845937 -0.00085946215453915802 0 0.00024961801494122101 -0.00053153079932923084 0 0.00089782347860067684 -0.00039592411740169695 0 0.00058823365394845937 -0.00085946215453915802 0 0.001011833283637189 -0.00074727601474398539 0 0.00089782347860067684 -0.00039592411740169695 0 0.0016775574106116461 -0.00022637932859259847 0 0.0014648124592327523 -0.00060651023108095991 0 0.0016775574106116461 -0.00022637932859259847 0 0.0014648124592327523 -0.00060651023108095991 0 0.0024088487960291631 -0.00055786839764263539 0 0.001621201887431393 0.00018805595646891502 0 0.0016775574106116461 -0.00022637932859259847 0 0.0021683106014399709 -0.00018419086005666541 0 0.0021064111165557575 -0.00075270139409443974 0 0.0023403027486108654 -0.00058888519197596544 0 0.0014648124592327523 -0.00060651023108095991 0 0.0011693671216402022 -0.0011614785434512908 0 0.0024088487960291631 -0.00055786839764263539 0 0.0029627634239096151 -0.00030664270431205517 0 0.0027701609549363733 -0.00027842474867429589 0 0.0024088487960291631 -0.00055786839764263539 0 0.0021064111165557575 -0.00075270139409443974 0 0.0012916207378561517 -0.00032708982255883395 0 0.00058823365394845937 -0.00085946215453915802 0 0.0011693671216402022 -0.0011614785434512908 0 0.0001131244857550752 -0.0013837427998689535 0 0.00058823365394845937 -0.00085946215453915802 0 0.001011833283637189 -0.00074727601474398539 0 0.0011693671216402022 -0.0011614785434512908 0 0.0014648124592327523 -0.00060651023108095991 0 0.001011833283637189 -0.00074727601474398539 0 0.0011693671216402022 -0.0011614785434512908 0 0.00058823365394845937 -0.00085946215453915802 0 0.00018735405520800251 -0.00092009736324313906 0 0.0001131244857550752 -0.0013837427998689535 0 0.00018735405520800251 -0.00092009736324313906 0 -0.0001490941011930038 -0.00081739021551812047 0 0.0001131244857550752 -0.0013837427998689535 0 0.00018735405520800251 -0.00092009736324313906 0 0.00024961801494122101 -0.00053153079932923084 0 -0.0001490941011930038 -0.00081739021551812047 0 0.00058823365394845937 -0.00085946215453915802 0 0.00018735405520800251 -0.00092009736324313906 0 0.00024961801494122101 -0.00053153079932923084 0 0.00031275611458117921 6.201710639598138e-05 0 0.00089782347860067684 -0.00039592411740169695 0 0.00024961801494122101 -0.00053153079932923084 0 0.00031275611458117921 6.201710639598138e-05 0 0.00024961801494122101 -0.00053153079932923084 0 -9.706368896051684e-05 -0.00026715884938412199 0 0.00024961801494122101 -0.00053153079932923084 0 -9.706368896051684e-05 -0.00026715884938412199 0 -0.0001490941011930038 -0.00081739021551812047 0 -9.706368896051684e-05 -0.00026715884938412199 0 -0.00059724683716771184 -0.00023947653699801436 0 -0.00051984037775701061 -0.0006145296119329204 0 -0.00028558620471513709 2.3181582500218976e-05 0 -9.706368896051684e-05 -0.00026715884938412199 0 -0.00059724683716771184 -0.00023947653699801436 0 -9.706368896051684e-05 -0.00026715884938412199 0 -0.00051984037775701061 -0.0006145296119329204 0 -0.0001490941011930038 -0.00081739021551812047 0 -0.00059724683716771184 -0.00023947653699801436 0 -0.00051984037775701061 -0.0006145296119329204 0 -0.00093714857069817216 -0.00056250521475882068 0 -0.00085953758037506198 -0.00054348313342633106 0 0.0012916207378561517 -0.00032708982255883395 0 -0.0001490941011930038 -0.00081739021551812047 0 -0.00071269358836667941 -0.001134365206767334 0 0.0001131244857550752 -0.0013837427998689535 0 -0.00067187966971112023 3.8501463275644622e-05 0 0.00054061788804602579 -0.00032182895771901176 0 -0.0010030936320392925 -0.00061440111258427371 0 -0.00051984037775701061 -0.0006145296119329204 0 -0.0001490941011930038 -0.00081739021551812047 0 -0.00071269358836667941 -0.001134365206767334 0 -0.00051984037775701061 -0.0006145296119329204 0 -0.00071269358836667941 -0.001134365206767334 0 -0.00093714857069817216 -0.00056250521475882068 0 0.0012916207378561517 -0.00032708982255883395 0 -0.00079036591764275596 -0.00031054006509977761 0 0.0018673076364359397 0.00053020043235057818 0 0.0015820989995097546 -0.00046436493290049361 0 -0.00056324711580354526 -6.7286453835798782e-05 0 0.0015820989995097546 -0.00046436493290049361 0 0.00085090983376403075 -0.0011485726887468645 0 -0.00056324711580354526 -6.7286453835798782e-05 0 0.00085090983376403075 -0.0011485726887468645 0 -0.00026903923005511151 -0.0012860648502945105 0 -0.00056324711580354526 -6.7286453835798782e-05 0 0.0018673076364359397 0.00053020043235057818 0 0.0027117961590618195 -0.00027637925273120537 0 0.0029987898071291018 -0.00012155277172081121 0 0.0012916207378561517 -0.00032708982255883395 0 0.0031783705755352625 -0.00017863588095621554 0 0.0018673076364359397 0.00053020043235057818 0 0.0015820989995097546 -0.00046436493290049361 0 0.0027117961590618195 -0.00027637925273120537 0 0.0015820989995097546 -0.00046436493290049361 0 0.0027117961590618195 -0.00027637925273120537 0 0.0021658014168116713 -0.0021810305202380306 0 0.0021658014168116713 -0.0021810305202380306 0 0.00085090983376403075 -0.0011485726887468645 0 0.0010349828974741469 -0.0028046408295235538 0 0.0027117961590618195 -0.00027637925273120537 0 0.00297828193397906 -9.5905113352634947e-05 0 0.002918318082231352 -0.00021314025116420091 0 0.0027112608728868878 -0.00031898101303114265 0 0.0025575866292383972 -0.0011161603707802227 0 0.0015820989995097546 -0.00046436493290049361 0 0.0021658014168116713 -0.0021810305202380306 0 0.00085090983376403075 -0.0011485726887468645 0 0.00085090983376403075 -0.0011485726887468645 0 -0.00026903923005511151 -0.0012860648502945105 0 -0.00028160968598310603 -0.0024432092616055285 0 0.00085090983376403075 -0.0011485726887468645 0 0.0010349828974741469 -0.0028046408295235538 0 -0.00028160968598310603 -0.0024432092616055285 0 0.0010349828974741469 -0.0028046408295235538 0 0.00064806383465538435 -0.0041086563662182793 0 -0.00028160968598310603 -0.0024432092616055285 0 0.00036524834771082989 -0.0039961233549229303 0 -0.00026374906066995688 -0.0024654207962115497 0 0.0021658014168116713 -0.0021810305202380306 0 0.0010349828974741469 -0.0028046408295235538 0 0.0017519319049219952 -0.0039354611971455008 0 0.0025575866292383972 -0.0011161603707802227 0 0.0022830500602286021 -0.0020932000385513075 0 0.00297828193397906 -9.5905113352634947e-05 0 0.0028028940948488243 -0.00023846041217284026 0 0.0029910779920907155 -0.00012291533908605418 0 0.0028028940948488243 -0.00023846041217284026 0 0.0029337652729064553 -0.00045938964611547594 0 0.0029910779920907155 -0.00012291533908605418 0 0.0028028940948488243 -0.00023846041217284026 0 0.0029337652729064553 -0.00045938964611547594 0 0.0025657674894538213 -0.00073865484977468871 0 0.0017519319049219952 -0.0039354611971455008 0 0.00064806383465538435 -0.0041086563662182793 0 0.0014234557664832346 -0.0055998052057214974 0 0.0022830500602286021 -0.0020932000385513075 0 0.0019667628705880061 -0.0032241395446216494 0 7.5422676647510697e-05 -0.0034612025289111172 0 -0.0004420733518850051 -0.0036561435943427509 0 -0.00028160968598310603 -0.0024432092616055285 0 0.00036524834771082989 -0.0039961233549229303 0 0.0019667628705880061 -0.0032241395446216494 0 7.5422676647510697e-05 -0.0034612025289111172 0 -0.0004420733518850051 -0.0036561435943427509 0 -0.00022588191271252349 -0.0040913954086944674 0 0.0010349828974741469 -0.0028046408295235538 0 0.0017519319049219952 -0.0039354611971455008 0 0.00064806383465538435 -0.0041086563662182793 0 0.0036157809188420973 -0.00035724920360551257 0 0.0032083479540637289 -0.00013804151410615735 0 0.0035042937118023951 0.00011137322572764395 0 0.0036157809188420973 -0.00035724920360551257 0 0.0032083479540637289 -0.00013804151410615735 0 0.003255955694417066 -0.00066591817553793991 0 0.0029337652729064553 -0.00045938964611547594 0 0.0032083479540637289 -0.00013804151410615735 0 0.0029910779920907155 -0.00012291533908605418 0 0.0029337652729064553 -0.00045938964611547594 0 0.0032083479540637289 -0.00013804151410615735 0 0.003255955694417066 -0.00066591817553793991 0 0.0032083479540637289 -0.00013804151410615735 0 0.0030577229917547397 -8.2422231458039805e-05 0 0.0031865272093373745 -4.2181351499178378e-05 0 0.0032083479540637289 -0.00013804151410615735 0 0.0029910779920907155 -0.00012291533908605418 0 0.0030577229917547397 -8.2422231458039805e-05 0 0.00297828193397906 -9.5905113352634947e-05 0 0.0029910779920907155 -0.00012291533908605418 0 0.0030577229917547397 -8.2422231458039805e-05 0 0.0032083479540637289 -0.00013804151410615735 0 0.0031865272093373745 -4.2181351499178378e-05 0 0.0035042937118023951 0.00011137322572764395 0 0.0031865272093373745 -4.2181351499178378e-05 0 0.0029556687810395987 -0.00016832794418137096 0 0.0030050206088042819 -0.00014436188856780646 0 0.0029556687810395987 -0.00016832794418137096 0 0.0030050206088042819 -0.00014436188856780646 0 0.0029534019917966956 -0.000180106370455448 0 0.0031865272093373745 -4.2181351499178378e-05 0 0.0029556687810395987 -0.00016832794418137096 0 0.0030450285713598301 -0.00010274497706427113 0 0.00297828193397906 -9.5905113352634947e-05 0 0.0030577229917547397 -8.2422231458039805e-05 0 0.0030050206088042819 -0.00014436188856780646 0 0.00297828193397906 -9.5905113352634947e-05 0 0.0030050206088042819 -0.00014436188856780646 0 0.002918318082231352 -0.00021314025116420091 0 0.0030577229917547397 -8.2422231458039805e-05 0 0.0031865272093373745 -4.2181351499178378e-05 0 0.0030050206088042819 -0.00014436188856780646 0 0.0030050206088042819 -0.00014436188856780646 0 0.002918318082231352 -0.00021314025116420091 0 0.0029534019917966956 -0.000180106370455448 0 0.0029627634239096151 -0.00030664270431205517 0 0.0031120310686140735 -0.00012950353476969898 0 0.0029987898071291018 -0.00012155277172081121 0 0.0027117961590618195 -0.00027637925273120537 0 0.002918318082231352 -0.00021314025116420091 0 0.0029987898071291018 -0.00012155277172081121 0 0.002918318082231352 -0.00021314025116420091 0 0.0029987898071291018 -0.00012155277172081121 0 0.0029534019917966956 -0.000180106370455448 0 0.0029627634239096151 -0.00030664270431205517 0 0.0029987898071291018 -0.00012155277172081121 0 0.0029534019917966956 -0.000180106370455448 0 0.0029556687810395987 -0.00016832794418137096 0 0.0029534019917966956 -0.000180106370455448 0 0.0027701609549363733 -0.00027842474867429589 0 0.0029627634239096151 -0.00030664270431205517 0 0.0029534019917966956 -0.000180106370455448 0 0.0027701609549363733 -0.00027842474867429589 0 0.0027701609549363733 -0.00027842474867429589 0 0.0026693008540277343 -0.00032082293680194495 0 0.0024088487960291631 -0.00055786839764263539 0 0.0029556687810395987 -0.00016832794418137096 0 0.0027701609549363733 -0.00027842474867429589 0 0.0026693008540277343 -0.00032082293680194495 0 0.0026693008540277343 -0.00032082293680194495 0 0.0026988829686495725 -0.00019761237644629162 0 0.002546656667686587 -0.00040553817247372074 0 0.0026693008540277343 -0.00032082293680194495 0 0.002546656667686587 -0.00040553817247372074 0 0.0025337207078360451 -0.00041014157652614935 0 0.0026693008540277343 -0.00032082293680194495 0 0.0026988829686495725 -0.00019761237644629162 0 0.0030450285713598301 -0.00010274497706427113 0 0.0029556687810395987 -0.00016832794418137096 0 0.0026693008540277343 -0.00032082293680194495 0 0.0030450285713598301 -0.00010274497706427113 0 0.0030450285713598301 -0.00010274497706427113 0 0.0030424483307564683 0.00012197236965135346 0 0.0035042937118023951 0.00011137322572764395 0 0.0031865272093373745 -4.2181351499178378e-05 0 0.0030450285713598301 -0.00010274497706427113 0 0.0035042937118023951 0.00011137322572764395 0 0.0026988829686495725 -0.00019761237644629162 0 0.0030450285713598301 -0.00010274497706427113 0 0.0030424483307564683 0.00012197236965135346 0 0.0032517010577531934 0.00067239690099708295 0 0.0030424483307564683 0.00012197236965135346 0 0.0034583467091245236 0.00037655984003103887 0 0.0029692056859531636 0.00021455674700781479 0 0.003025635743380562 0.00011968041783304542 0 0.0030424483307564683 0.00012197236965135346 0 0.0030420158383477882 0.00010572552375154462 0 0.0033591244013746755 7.5658855226932417e-05 0 0.0054019193528631699 0.00012847327511730078 0 0.0042870158084377776 -0.00024144620649620726 0 0.0050904033567451563 -0.00059539118569507435 0 0.0030424483307564683 0.00012197236965135346 0 0.0030420158383477882 0.00010572552375154462 0 0.0035042937118023951 0.00011137322572764395 0 0.0054019193528631699 0.00012847327511730078 0 0.0042870158084377776 -0.00024144620649620726 0 0.0035042937118023951 0.00011137322572764395 0 0.0042381367293919748 5.8052394936459444e-05 0 0.0036159142897485412 0.00013802371468100004 0 0.0036157809188420973 -0.00035724920360551257 0 0.0042870158084377776 -0.00024144620649620726 0 0.0035042937118023951 0.00011137322572764395 0 0.0041712642664979774 -2.1390677601274119e-05 0 0.0036571876314480251 -7.3108629360343251e-05 0 0.0040954390265675392 0.00050872153407835713 0 0.0041712642664979774 -2.1390677601274119e-05 0 0.003939252496024971 -0.0001699715397546071 0 0.0036571876314480251 -7.3108629360343251e-05 0 0.0036300625494988703 -6.3532542323039518e-05 0 0.0040618279539123238 0.00048181940649759457 0 0.0041712642664979774 -2.1390677601274119e-05 0 0.003939252496024971 -0.0001699715397546071 0 0.0042003761741674916 -0.00027102312446117505 0 0.0036571876314480251 -7.3108629360343251e-05 0 0.0033591244013746755 7.5658855226932417e-05 0 0.0034583467091245236 0.00037655984003103887 0 0.0036571876314480251 -7.3108629360343251e-05 0 0.0033591244013746755 7.5658855226932417e-05 0 0.0036504379750935995 -0.00028624272285968002 0 0.0030424483307564683 0.00012197236965135346 0 0.0033591244013746755 7.5658855226932417e-05 0 0.0034583467091245236 0.00037655984003103887 0 0.0042381367293919748 5.8052394936459444e-05 0 0.0051522846571206262 -0.00041779355363923116 0 0.0030420158383477882 0.00010572552375154462 0 0.0033591244013746755 7.5658855226932417e-05 0 0.0036504379750935995 -0.00028624272285968002 0 0.0036571876314480251 -7.3108629360343251e-05 0 0.0034583467091245236 0.00037655984003103887 0 0.0037956632424206468 0.0004863701413761158 0 0.0041712642664979774 -2.1390677601274119e-05 0 0.0040954390265675392 0.00050872153407835713 0 0.0043447608476552893 0.00019426350025960793 0 0.0034583467091245236 0.00037655984003103887 0 0.0037956632424206468 0.0004863701413761158 0 0.0036042127560830532 0.00082000561615537071 0 0.0037956632424206468 0.0004863701413761158 0 0.0036042127560830532 0.00082000561615537071 0 0.0039671680723979957 0.00092466918020623983 0 0.0032517010577531934 0.00067239690099708295 0 0.0034583467091245236 0.00037655984003103887 0 0.0036042127560830532 0.00082000561615537071 0 0.0029692056859531636 0.00021455674700781479 0 0.0030361730134861971 0.00038484912083394408 0 0.0032517010577531934 0.00067239690099708295 0 0.0036042127560830532 0.00082000561615537071 0 0.0033888843939027416 0.0011063195246874798 0 0.0036042127560830532 0.00082000561615537071 0 0.0037193410828138046 0.0012276379400112112 0 0.0033888843939027416 0.0011063195246874798 0 0.0036042127560830532 0.00082000561615537071 0 0.0037193410828138046 0.0012276379400112112 0 0.0039671680723979957 0.00092466918020623983 0 0.0014809718597828198 0.00095972111470112931 0 0.0013721615446331474 0.00063825804384385015 0 0.001233839326785163 0.0009154398354405093 0 0.0014809718597828198 0.00095972111470112931 0 0.0015751874164045567 0.00060344125204781385 0 0.0013721615446331474 0.00063825804384385015 0 0.0014809718597828198 0.00095972111470112931 0 0.0015751874164045567 0.00060344125204781385 0 0.0017618040760849754 0.00059025299403598166 0 0.0024912611559801175 0.0011977583205880376 0 0.0025838581807260158 0.00060249655446153018 0 0.0015751874164045567 0.00060344125204781385 0 0.0013721615446331474 0.00063825804384385015 0 0.0014834528847486545 0.00049174109555091079 0 0.0026298556632387057 -0.00013403002824829407 0 0.0025209551145783595 -0.00025200298225972498 0 0.002546656667686587 -0.00040553817247372074 0 0.0026298556632387057 -0.00013403002824829407 0 0.0025209551145783595 -0.00025200298225972498 0 0.0024218886255360245 -7.9133823103146652e-05 0 0.0015751874164045567 0.00060344125204781385 0 0.0017618040760849754 0.00059025299403598166 0 0.0017414651250853477 0.00049810442935184572 0 0.0025838581807260158 0.00060249655446153018 0 0.002351934534058586 0.00047774297773829324 0 0.0037193410828138046 0.0012276379400112112 0 0.0034895543600786901 0.0015104166672245815 0 0.0033888843939027416 0.0011063195246874798 0 0.0025838581807260158 0.00060249655446153018 0 0.0030361730134861971 0.00038484912083394408 0 0.002546656667686587 -0.00040553817247372074 0 0.0025337207078360451 -0.00041014157652614935 0 0.002461212391632865 -0.00031439359753522664 0 0.0025209551145783595 -0.00025200298225972498 0 0.002546656667686587 -0.00040553817247372074 0 0.002461212391632865 -0.00031439359753522664 0 0.0025337207078360451 -0.00041014157652614935 0 0.0024088487960291631 -0.00055786839764263539 0 0.002461212391632865 -0.00031439359753522664 0 0.0026693008540277343 -0.00032082293680194495 0 0.0025337207078360451 -0.00041014157652614935 0 0.0024088487960291631 -0.00055786839764263539 0 0.0024088487960291631 -0.00055786839764263539 0 0.0021683106014399709 -0.00018419086005666541 0 0.002461212391632865 -0.00031439359753522664 0 0.0016775574106116461 -0.00022637932859259847 0 0.0024088487960291631 -0.00055786839764263539 0 0.0021683106014399709 -0.00018419086005666541 0 0.0021683106014399709 -0.00018419086005666541 0 0.0023263139773099599 -9.3263244180454886e-05 0 0.0021458489527905727 8.7031905338986763e-05 0 0.0025209551145783595 -0.00025200298225972498 0 0.002461212391632865 -0.00031439359753522664 0 0.0024218886255360245 -7.9133823103146652e-05 0 0.0021683106014399709 -0.00018419086005666541 0 0.002461212391632865 -0.00031439359753522664 0 0.0023263139773099599 -9.3263244180454886e-05 0 0.002461212391632865 -0.00031439359753522664 0 0.0023263139773099599 -9.3263244180454886e-05 0 0.0024218886255360245 -7.9133823103146652e-05 0 0.0024218886255360245 -7.9133823103146652e-05 0 0.0023217913737754708 7.2110740070245713e-05 0 0.0021901818118448776 8.5147213473542286e-05 0 0.0023263139773099599 -9.3263244180454886e-05 0 0.0024218886255360245 -7.9133823103146652e-05 0 0.0023217913737754708 7.2110740070245713e-05 0 0.0023263139773099599 -9.3263244180454886e-05 0 0.0023217913737754708 7.2110740070245713e-05 0 0.0021458489527905727 8.7031905338986763e-05 0 0.001621201887431393 0.00018805595646891502 0 0.0021458489527905727 8.7031905338986763e-05 0 0.0019773038688171269 0.00041207978955783175 0 0.001621201887431393 0.00018805595646891502 0 0.0021683106014399709 -0.00018419086005666541 0 0.0021458489527905727 8.7031905338986763e-05 0 0.0023217913737754708 7.2110740070245713e-05 0 0.0021458489527905727 8.7031905338986763e-05 0 0.0019773038688171269 0.00041207978955783175 0 0.0020999458060629176 0.001007809189052012 0 0.0014347206465542529 0.00074452032756598164 0 0.0019773038688171269 0.00041207978955783175 0 0.0020999458060629176 0.001007809189052012 0 0.0023217913737754708 7.2110740070245713e-05 0 0.0019773038688171269 0.00041207978955783175 0 0.0019498394445894222 0.00049100982462260548 0 0.0023142951956813046 0.00010136813166626164 0 0.002003847943722875 -0.00010551696714966681 0 0.0023217913737754708 7.2110740070245713e-05 0 0.0021214936032662173 -3.4345617427812047e-05 0 0.0023217913737754708 7.2110740070245713e-05 0 0.0021901818118448776 8.5147213473542286e-05 0 0.0021214936032662173 -3.4345617427812047e-05 0 0.0019482460163693868 -8.7191658853609432e-05 0 0.0021901818118448776 8.5147213473542286e-05 0 0.0021214936032662173 -3.4345617427812047e-05 0 0.0021901818118448776 8.5147213473542286e-05 0 0.0016976519679295719 9.403431701994075e-05 0 0.0017399043596935744 0.00029185497025413612 0 0.0019482460163693868 -8.7191658853609432e-05 0 0.0021901818118448776 8.5147213473542286e-05 0 0.0016976519679295719 9.403431701994075e-05 0 0.0014590822122279336 -0.00025699271275660726 0 0.0016976519679295719 9.403431701994075e-05 0 0.0013419581766831565 0.00013750215482682938 0 0.0016976519679295719 9.403431701994075e-05 0 0.0013419581766831565 0.00013750215482682938 0 0.0015068494598576411 0.00031272718059980746 0 0.0015068494598576411 0.00031272718059980746 0 0.0016067465850215226 0.00044376738555683035 0 0.0017399043596935744 0.00029185497025413612 0 0.0016976519679295719 9.403431701994075e-05 0 0.0015068494598576411 0.00031272718059980746 0 0.0017399043596935744 0.00029185497025413612 0 0.0013419581766831565 0.00013750215482682938 0 0.0015068494598576411 0.00031272718059980746 0 0.0012135668282519459 0.00040439989171859133 0 0.0015068494598576411 0.00031272718059980746 0 0.0014834528847486545 0.00049174109555091079 0 0.0012135668282519459 0.00040439989171859133 0 0.0013721615446331474 0.00063825804384385015 0 0.0014834528847486545 0.00049174109555091079 0 0.0012135668282519459 0.00040439989171859133 0 0.0015751874164045567 0.00060344125204781385 0 0.0014834528847486545 0.00049174109555091079 0 0.0016067465850215226 0.00044376738555683035 0 0.0015068494598576411 0.00031272718059980746 0 0.0014834528847486545 0.00049174109555091079 0 0.0016067465850215226 0.00044376738555683035 0 0.0015751874164045567 0.00060344125204781385 0 0.0016067465850215226 0.00044376738555683035 0 0.0017414651250853477 0.00049810442935184572 0 0.0025838581807260158 0.00060249655446153018 0 0.0021290198770466209 -1.932565084419346e-06 0 0.0021901818118448776 8.5147213473542286e-05 0 0.0017414651250853477 0.00049810442935184572 0 0.0017399043596935744 0.00029185497025413612 0 0.0026298556632387057 -0.00013403002824829407 0 0.0024218886255360245 -7.9133823103146652e-05 0 0.0021901818118448776 8.5147213473542286e-05 0 0.0017770907565352325 0.00063483656983414011 0 0.0021901818118448776 8.5147213473542286e-05 0 0.0017414651250853477 0.00049810442935184572 0 0.0016067465850215226 0.00044376738555683035 0 0.0017414651250853477 0.00049810442935184572 0 0.0017399043596935744 0.00029185497025413612 0 0.00094575988965383856 0.00019762774016520186 0 0.00051155772313386751 0.00025969107692329341 0 0.00086564148437377807 0.0004859525536910721 0 0.0012135668282519459 0.00040439989171859133 0 0.00094575988965383856 0.00019762774016520186 0 0.00086564148437377807 0.0004859525536910721 0 0.0013419581766831565 0.00013750215482682938 0 0.0012135668282519459 0.00040439989171859133 0 0.00094575988965383856 0.00019762774016520186 0 0.0010877795076060009 -0.00011851973424484032 0 0.0013419581766831565 0.00013750215482682938 0 0.00094575988965383856 0.00019762774016520186 0 0.0010877795076060009 -0.00011851973424484032 0 0.0014590822122279336 -0.00025699271275660726 0 0.0013419581766831565 0.00013750215482682938 0 0.00073234558154013779 -0.00015809131004544948 0 0.0010877795076060009 -0.00011851973424484032 0 0.00094575988965383856 0.00019762774016520186 0 0.00073234558154013779 -0.00015809131004544948 0 0.00094575988965383856 0.00019762774016520186 0 0.00051155772313386751 0.00025969107692329341 0 -0.005274531878169314 -0.00077346279507105819 0 -0.0053142285999183613 -0.00079577086482736381 0 -0.005238650219302368 -0.00082940095524565557 0 -0.0023765883919235273 -0.00041550594234965289 0 -0.0023295399453544196 -0.00029359791610832482 0 -0.005274531878169314 -0.00077346279507105819 0 -0.005238650219302368 -0.00082940095524565557 0 -0.0051834117670791473 -0.00080932002996462809 0 -0.0023295399453544196 -0.00029359791610832482 0 -0.0025800754277786296 -0.00019596066096945941 0 -0.005238650219302368 -0.00082940095524565557 0 -0.0051619442378518102 -0.00086736206990503293 0 -0.0051834117670791473 -0.00080932002996462809 0 0.00051155772313386751 0.00025969107692329341 0 0.00063508807985750702 0.00058536650469135287 0 0.00086564148437377807 0.0004859525536910721 0 0.00063508807985750702 0.00058536650469135287 0 0.00032436636428539924 0.0006161115244043713 0 0.00063937134162138961 0.0007692112385293921 0 0.00051155772313386751 0.00025969107692329341 0 0.00063508807985750702 0.00058536650469135287 0 0.00032436636428539924 0.0006161115244043713 0 0.00063508807985750702 0.00058536650469135287 0 0.00063937134162138961 0.0007692112385293921 0 0.00081737548467577853 0.00066745564119021275 0 0.00032436636428539924 0.0006161115244043713 0 0.00056468961710504995 0.0009633902418150188 0 9.8922503273812557e-05 0.00096479085035956031 0 0.00032436636428539924 0.0006161115244043713 0 0.00063937134162138961 0.0007692112385293921 0 0.00056468961710504995 0.0009633902418150188 0 0.00063937134162138961 0.0007692112385293921 0 0.00075995779306494988 0.00091691888469749969 0 0.00056468961710504995 0.0009633902418150188 0 0.00075995779306494988 0.00091691888469749969 0 0.00086214295730094716 0.00086876337042945972 0 0.00085581388455009764 0.00078995103365435361 0 0.00086214295730094716 0.00086876337042945972 0 0.00096272958439830899 0.00083924046708991318 0 0.0009063028658653293 0.0008312728683368063 0 0.00096272958439830899 0.00083924046708991318 0 0.00085581388455009764 0.00078995103365435361 0 0.0010880638771236279 0.00063872275160595053 0 0.00086214295730094716 0.00086876337042945972 0 0.0009063028658653293 0.0008312728683368063 0 0.00085581388455009764 0.00078995103365435361 0 0.00096272958439830899 0.00083924046708991318 0 0.0009063028658653293 0.0008312728683368063 0 0.00085581388455009764 0.00078995103365435361 0 0.00063937134162138961 0.0007692112385293921 0 0.00075995779306494988 0.00091691888469749969 0 0.00085581388455009764 0.00078995103365435361 0 0.00063937134162138961 0.0007692112385293921 0 0.00085581388455009764 0.00078995103365435361 0 0.00081737548467577853 0.00066745564119021275 0 0.00085581388455009764 0.00078995103365435361 0 0.00081737548467577853 0.00066745564119021275 0 0.0010880638771236279 0.00063872275160595053 0 0.00081737548467577853 0.00066745564119021275 0 0.00086564148437377807 0.0004859525536910721 0 0.0010880638771236279 0.00063872275160595053 0 0.00063508807985750702 0.00058536650469135287 0 0.00081737548467577853 0.00066745564119021275 0 0.00086564148437377807 0.0004859525536910721 0 0.0012135668282519459 0.00040439989171859133 0 0.00086564148437377807 0.0004859525536910721 0 0.0010880638771236279 0.00063872275160595053 0 0.0013721615446331474 0.00063825804384385015 0 0.0012135668282519459 0.00040439989171859133 0 0.0010880638771236279 0.00063872275160595053 0 0.0023591711032676806 0.0011871537410857069 0 0.0011197073893494986 0.00073271326378981266 0 0.0013721615446331474 0.00063825804384385015 0 0.0010880638771236279 0.00063872275160595053 0 0.001233839326785163 0.0009154398354405093 0 0.0010054385694730236 0.00097817963238614174 0 0.001233839326785163 0.0009154398354405093 0 0.0012118081010629739 0.0013491213655368005 0 0.0014809718597828198 0.00095972111470112931 0 0.001233839326785163 0.0009154398354405093 0 0.0012118081010629739 0.0013491213655368005 0 0.0010054385694730236 0.00097817963238614174 0 0.0010880638771236279 0.00063872275160595053 0 0.001233839326785163 0.0009154398354405093 0 0.0024912611559801175 0.0011977583205880376 0 0.0033211566131254927 0.0011701462779326534 0 0.0023591711032676806 0.0011871537410857069 0 0.0033211566131254927 0.0011701462779326534 0 0.00075995779306494988 0.00091691888469749969 0 0.0008376506257606795 0.0011227356547680481 0 0.00070558926334169032 0.0010441884069671238 0 0.0043362820165318509 0.0019332576606391674 0 0.0040527188955427375 0.0013431648852363436 0 0.0046211364725195206 0.0011815994712051137 0 0.00086214295730094716 0.00086876337042945972 0 0.00096272958439830899 0.00083924046708991318 0 0.0008376506257606795 0.0011227356547680481 0 0.0023591711032676806 0.0011871537410857069 0 0.0027045451370309825 0.0012933344935099924 0 0.00075995779306494988 0.00091691888469749969 0 0.00086214295730094716 0.00086876337042945972 0 0.0008376506257606795 0.0011227356547680481 0 0.0040527188955427375 0.0013431648852363436 0 0.0046211364725195206 0.0011815994712051137 0 0.0044292924662021988 0.00085467850442593482 0 0.0027045451370309825 0.0012933344935099924 0 0.0032209410998105983 0.00035222280909292907 0 0.0046211364725195206 0.0011815994712051137 0 0.0044292924662021988 0.00085467850442593482 0 0.0049691974683412233 0.00038940988809578844 0 0.0040618279539123238 0.00048181940649759457 0 0.0033211566131254927 0.0011701462779326534 0 0.0040954390265675392 0.00050872153407835713 0 0.004387674923125591 0.0010669144829003761 0 0.0046420680627115626 0.00072720781417709066 0 0.0033211566131254927 0.0011701462779326534 0 0.0046032944226519395 0.00071614387824154864 0 0.0040954390265675392 0.00050872153407835713 0 0.0046420680627115626 0.00072720781417709066 0 0.0045073734751509328 0.00035044809811038657 0 0.0040954390265675392 0.00050872153407835713 0 0.0045073734751509328 0.00035044809811038657 0 0.0043447608476552893 0.00019426350025960793 0 0.0045073734751509328 0.00035044809811038657 0 0.004702605477273099 0.00016489978615420408 0 0.0045369693793973036 0.00015146660391269343 0 0.0045073734751509328 0.00035044809811038657 0 0.0043447608476552893 0.00019426350025960793 0 0.0045369693793973036 0.00015146660391269343 0 0.0046420680627115626 0.00072720781417709066 0 0.0045073734751509328 0.00035044809811038657 0 0.0046841774481698592 0.0003815062468452415 0 0.0046420680627115626 0.00072720781417709066 0 0.0046841774481698592 0.0003815062468452415 0 0.0047463319709314571 0.00043751542176905444 0 0.0046841774481698592 0.0003815062468452415 0 0.0047463319709314571 0.00043751542176905444 0 0.0047877206834939217 0.00027497498655381215 0 0.0044292924662021988 0.00085467850442593482 0 0.0048737389935518639 0.00036064468407789456 0 0.0049691974683412233 0.00038940988809578844 0 0.0046032944226519395 0.00071614387824154864 0 0.0048095509861713799 0.00043815618877809178 0 0.0046420680627115626 0.00072720781417709066 0 0.0047463319709314571 0.00043751542176905444 0 0.0048737389935518639 0.00036064468407789456 0 0.0047463319709314571 0.00043751542176905444 0 0.0048737389935518639 0.00036064468407789456 0 0.0047877206834939217 0.00027497498655381215 0 0.0048737389935518639 0.00036064468407789456 0 0.0048953944036021976 0.00030466597306747 0 0.0049691974683412233 0.00038940988809578844 0 0.0048953944036021976 0.00030466597306747 0 0.0049128028816354183 0.00011647494795984408 0 0.0049691974683412233 0.00038940988809578844 0 0.0047877206834939217 0.00027497498655381215 0 0.004702605477273099 0.00016489978615420408 0 0.0049128028816354183 0.00011647494795984408 0 0.0048737389935518639 0.00036064468407789456 0 0.0048953944036021976 0.00030466597306747 0 0.0047877206834939217 0.00027497498655381215 0 0.0048953944036021976 0.00030466597306747 0 0.0047877206834939217 0.00027497498655381215 0 0.0049128028816354183 0.00011647494795984408 0 0.0045073734751509328 0.00035044809811038657 0 0.0046841774481698592 0.0003815062468452415 0 0.004702605477273099 0.00016489978615420408 0 0.0046841774481698592 0.0003815062468452415 0 0.0047877206834939217 0.00027497498655381215 0 0.004702605477273099 0.00016489978615420408 0 0.004702605477273099 0.00016489978615420408 0 0.0046161872864080378 -3.2657849573719964e-05 0 0.0045369693793973036 0.00015146660391269343 0 0.004702605477273099 0.00016489978615420408 0 0.0048515294913791312 -8.4520634117933209e-05 0 0.0046161872864080378 -3.2657849573719964e-05 0 0.004702605477273099 0.00016489978615420408 0 0.0049128028816354183 0.00011647494795984408 0 0.0048515294913791312 -8.4520634117933209e-05 0 0.0048515294913791312 -8.4520634117933209e-05 0 0.0046161872864080378 -3.2657849573719964e-05 0 0.0047780601448286514 -0.00031700232422807623 0 0.0046161872864080378 -3.2657849573719964e-05 0 0.0044207384922982937 -1.5183268716717486e-05 0 0.0044874586472643963 -0.00023059255661138202 0 0.0041712642664979774 -2.1390677601274119e-05 0 0.0044207384922982937 -1.5183268716717486e-05 0 0.0044874586472643963 -0.00023059255661138202 0 0.0041712642664979774 -2.1390677601274119e-05 0 0.0044207384922982937 -1.5183268716717486e-05 0 0.0043447608476552893 0.00019426350025960793 0 0.0044207384922982937 -1.5183268716717486e-05 0 0.0043447608476552893 0.00019426350025960793 0 0.0045369693793973036 0.00015146660391269343 0 0.0046161872864080378 -3.2657849573719964e-05 0 0.0044207384922982937 -1.5183268716717486e-05 0 0.0045369693793973036 0.00015146660391269343 0 0.0045058679130561509 -0.00085877058767767445 0 0.0042690633295106081 -0.0015797032440437171 0 0.0039493911465465926 -0.00051885023035682396 0 0.0045058679130561509 -0.00085877058767767445 0 0.005165733727039299 -0.00096795630981202723 0 0.0042690633295106081 -0.0015797032440437171 0 0.0045058679130561509 -0.00085877058767767445 0 0.005165733727039299 -0.00096795630981202723 0 0.0049527471818882713 -0.00040040551924887247 0 0.0051459178651379082 -0.00074637491700095136 0 0.0049667828011483138 -0.00031876295198938847 0 0.0048515294913791312 -8.4520634117933209e-05 0 0.0050530332115449389 -5.9690083292553003e-05 0 0.0049532972076228431 -0.0003335606855660745 0 0.0049128028816354183 0.00011647494795984408 0 0.0048515294913791312 -8.4520634117933209e-05 0 0.0050530332115449389 -5.9690083292553003e-05 0 0.005165733727039299 -0.00096795630981202723 0 0.0053401922492555803 -0.0015444468269965859 0 0.0042690633295106081 -0.0015797032440437171 0 0.0049128028816354183 0.00011647494795984408 0 0.0050530332115449389 -5.9690083292553003e-05 0 0.0049691974683412233 0.00038940988809578844 0 0.0051459178651379082 -0.00074637491700095136 0 0.0032209410998105983 0.00035222280909292907 0 0.0032209410998105983 0.00035222280909292907 0 0.0022477812540378289 -0.00014872240728417067 0 0.00075639681791254683 0.0013955891187736346 0 0.00035816410122636074 0.0014112337321896479 0 0.00042718486989815838 0.001241816059972683 0 0.00042718486989815838 0.001241816059972683 0 0.00061332378801473759 0.0011384359793413768 0 0.00042903909493833268 0.0010936605466524401 0 0.00042718486989815838 0.001241816059972683 0 0.00042903909493833268 0.0010936605466524401 0 0.0002440243359608985 0.0011373668203788364 0 0.0008376506257606795 0.0011227356547680481 0 0.00075639681791254683 0.0013955891187736346 0 0.00061332378801473759 0.0011384359793413768 0 0.00075639681791254683 0.0013955891187736346 0 0.00042718486989815838 0.001241816059972683 0 0.00061332378801473759 0.0011384359793413768 0 0.0008376506257606795 0.0011227356547680481 0 0.00061332378801473759 0.0011384359793413768 0 0.00070558926334169032 0.0010441884069671238 0 0.00061332378801473759 0.0011384359793413768 0 0.00070558926334169032 0.0010441884069671238 0 0.00056468961710504995 0.0009633902418150188 0 0.00061332378801473759 0.0011384359793413768 0 0.00056468961710504995 0.0009633902418150188 0 0.00042903909493833268 0.0010936605466524401 0 0.00075995779306494988 0.00091691888469749969 0 0.00070558926334169032 0.0010441884069671238 0 0.00056468961710504995 0.0009633902418150188 0 0.00056468961710504995 0.0009633902418150188 0 0.00042903909493833268 0.0010936605466524401 0 0.00031529089039066351 0.0010174153872599281 0 0.00056468961710504995 0.0009633902418150188 0 0.00022350861788968186 0.00090916372463251507 0 0.00031529089039066351 0.0010174153872599281 0 0.00111505592332757 0.0010162017081733303 0 -0.0011932018993535529 0.00073112118229385562 0 0.00022350861788968186 0.00090916372463251507 0 0.00018125383067454744 0.00096529699824630759 0 0.00031529089039066351 0.0010174153872599281 0 0.0002169451524224155 0.00089792543937636563 0 0.00018125383067454744 0.00096529699824630759 0 4.3546508345637109e-05 0.00098334003584123956 0 -0.0011932018993535529 0.00073112118229385562 0 -0.00074246837084767129 0.00059512177570565812 0 0.00018125383067454744 0.00096529699824630759 0 0.00014341448990013071 0.0010513027451630184 0 0.00022371332984523601 0.0010463320260623776 0 0.00018125383067454744 0.00096529699824630759 0 0.00014341448990013071 0.0010513027451630184 0 4.3546508345637109e-05 0.00098334003584123956 0 0.00014341448990013071 0.0010513027451630184 0 0.00022371332984523601 0.0010463320260623776 0 0.0002440243359608985 0.0011373668203788364 0 0.00018125383067454744 0.00096529699824630759 0 0.00031529089039066351 0.0010174153872599281 0 0.00022371332984523601 0.0010463320260623776 0 0.00031529089039066351 0.0010174153872599281 0 0.00022371332984523601 0.0010463320260623776 0 0.0002440243359608985 0.0011373668203788364 0 0.00042903909493833268 0.0010936605466524401 0 0.00031529089039066351 0.0010174153872599281 0 0.0002440243359608985 0.0011373668203788364 0 -0.0011932018993535529 0.00073112118229385562 0 -0.0037552279574557521 -0.0002032404969362886 0 0.0002169451524224155 0.00089792543937636563 0 -8.5545304720190034e-05 0.00087893766319513682 0 4.3546508345637109e-05 0.00098334003584123956 0 -8.5545304720190034e-05 0.00087893766319513682 0 -4.4503643400275742e-05 0.00097120641248786197 0 4.3546508345637109e-05 0.00098334003584123956 0 -9.662227315583119e-05 0.00096311021065373533 0 -8.5545304720190034e-05 0.00087893766319513682 0 -0.0001362183403994205 0.0010118092639003302 0 -0.0037552279574557521 -0.0002032404969362886 0 -0.0012117534191606143 0.00060235485722062959 0 -9.662227315583119e-05 0.00096311021065373533 0 -8.5545304720190034e-05 0.00087893766319513682 0 -4.4503643400275742e-05 0.00097120641248786197 0 -0.00094131219077119499 0.00055851390944815346 0 -0.0012117534191606143 0.00060235485722062959 0 0.00014341448990013071 0.0010513027451630184 0 4.3546508345637109e-05 0.00098334003584123956 0 8.1503890999923766e-05 0.0011237314824217135 0 4.3546508345637109e-05 0.00098334003584123956 0 -3.9267508662866902e-05 0.0010547339463929158 0 8.1503890999923766e-05 0.0011237314824217135 0 -9.662227315583119e-05 0.00096311021065373533 0 -4.4503643400275742e-05 0.00097120641248786197 0 -3.9267508662866902e-05 0.0010547339463929158 0 -4.4503643400275742e-05 0.00097120641248786197 0 4.3546508345637109e-05 0.00098334003584123956 0 -3.9267508662866902e-05 0.0010547339463929158 0 -9.662227315583119e-05 0.00096311021065373533 0 -3.9267508662866902e-05 0.0010547339463929158 0 -0.00012539916744099913 0.001007899681712571 0 -3.9267508662866902e-05 0.0010547339463929158 0 8.1503890999923766e-05 0.0011237314824217135 0 -4.757217939328347e-05 0.0012297859274405438 0 -3.9267508662866902e-05 0.0010547339463929158 0 -4.757217939328347e-05 0.0012297859274405438 0 -0.00016560832750579305 0.0011163719527686341 0 8.1503890999923766e-05 0.0011237314824217135 0 -4.757217939328347e-05 0.0012297859274405438 0 0.00014168954149654676 0.0012701004798319855 0 0.00035816410122636074 0.0014112337321896479 0 0.00042718486989815838 0.001241816059972683 0 0.00014168954149654676 0.0012701004798319855 0 0.00042718486989815838 0.001241816059972683 0 0.0002440243359608985 0.0011373668203788364 0 0.00014168954149654676 0.0012701004798319855 0 8.1503890999923766e-05 0.0011237314824217135 0 0.0002440243359608985 0.0011373668203788364 0 0.00014168954149654676 0.0012701004798319855 0 0.00014341448990013071 0.0010513027451630184 0 8.1503890999923766e-05 0.0011237314824217135 0 0.0002440243359608985 0.0011373668203788364 0 0.00035816410122636074 0.0014112337321896479 0 0.00014168954149654676 0.0012701004798319855 0 -6.0274518879471297e-05 0.0014138072558823622 0 0.0022477812540378289 -0.00014872240728417067 0 0.0013960938513850577 -0.00011162949499792656 0 0.0042690633295106081 -0.0015797032440437171 0 0.0026941250936431279 -0.0016683131835260037 0 0.0030405452798813936 -0.00063833155545641883 0 -4.757217939328347e-05 0.0012297859274405438 0 0.00014168954149654676 0.0012701004798319855 0 -6.0274518879471297e-05 0.0014138072558823622 0 0.0042690633295106081 -0.0015797032440437171 0 0.0030405452798813936 -0.00063833155545641883 0 0.0039493911465465926 -0.00051885023035682396 0 0.0013344316751938612 -0.00030111951963825926 0 -0.0011600813279243065 -4.182681279849614e-06 0 -0.00041898450728092149 -0.00092499894407207964 0 0.0013344316751938612 -0.00030111951963825926 0 -0.0011600813279243065 -4.182681279849614e-06 0 0.00071932819736317711 1.1974356658113956e-06 0 0.0026941250936431279 -0.0016683131835260037 0 0.0030405452798813936 -0.00063833155545641883 0 0.0013344316751938612 -0.00030111951963825926 0 -6.0274518879471297e-05 0.0014138072558823622 0 -0.00046078689124530176 0.0014130870834356225 0 -0.00028719109703979748 0.0012141414697004289 0 0.0013960938513850577 -0.00011162949499792656 0 -0.00073305287366147985 0.00038495473028820265 0 0.0026941250936431279 -0.0016683131835260037 0 0.0013344316751938612 -0.00030111951963825926 0 -0.00041898450728092149 -0.00092499894407207964 0 -0.0011654021316790017 -9.1173182322083326e-07 0 -0.001801212671577295 -2.840004324704069e-05 0 -0.0028034892397641475 9.188185903562756e-07 0 -0.00073305287366147985 0.00038495473028820265 0 -0.0017417193117798546 0.0007696011191047641 0 -0.0011633689232551456 5.0513881956070885e-07 0 -0.00073305287366147985 0.00038495473028820265 0 -0.001801212671577295 -2.840004324704069e-05 0 -0.0028034892397641475 9.188185903562756e-07 0 -0.0030597056616614416 6.1788456255837133e-05 0 -0.0028034892397641475 9.188185903562756e-07 0 -0.0030597056616614416 6.1788456255837133e-05 0 -0.0033002391311073168 0.00010545905053754898 0 -0.0017417193117798546 0.0007696011191047641 0 -0.0012117534191606143 0.00060235485722062959 0 -4.757217939328347e-05 0.0012297859274405438 0 -6.0274518879471297e-05 0.0014138072558823622 0 -0.00028719109703979748 0.0012141414697004289 0 -0.00028719109703979748 0.0012141414697004289 0 -0.00016560832750579305 0.0011163719527686341 0 -0.00012326668303863352 0.0010106869649329758 0 -4.757217939328347e-05 0.0012297859274405438 0 -0.00028719109703979748 0.0012141414697004289 0 -0.00016560832750579305 0.0011163719527686341 0 -0.0030294955247736357 2.0610669639411939e-05 0 -0.0033002391311073168 0.00010545905053754898 0 -0.0032584731473504738 -0.00021826517772316476 0 -0.0029516600989393936 -0.0001623443972550511 0 -0.0030294955247736357 2.0610669639411939e-05 0 -0.0032584731473504738 -0.00021826517772316476 0 -0.0030597056616614416 6.1788456255837133e-05 0 -0.0030294955247736357 2.0610669639411939e-05 0 -0.0033002391311073168 0.00010545905053754898 0 -0.00064958679016755526 0.00086234688994854536 0 -0.0012117534191606143 0.00060235485722062959 0 -3.9267508662866902e-05 0.0010547339463929158 0 -0.00016560832750579305 0.0011163719527686341 0 -0.00012539916744099913 0.001007899681712571 0 -0.0028034892397641475 9.188185903562756e-07 0 -0.0033002391311073168 0.00010545905053754898 0 -0.0044397549623512731 -9.178857523127951e-07 0 -0.0033002391311073168 0.00010545905053754898 0 -0.0044397549623512731 -9.178857523127951e-07 0 -0.0032584731473504738 -0.00021826517772316476 0 -0.004443748988577116 -1.0963237221526108e-06 0 -0.0056113829045200186 7.4140379863534608e-05 0 -0.0056645889787911279 8.2642660284307051e-07 0 -0.004443748988577116 -1.0963237221526108e-06 0 -0.0056113829045200186 7.4140379863534608e-05 0 -0.005721768717388288 -0.00027847449848804258 0 -0.0044419674942165052 -1.416406427668307e-07 0 -0.0046020012601920395 -0.00019432302512773034 0 -0.0056113829045200186 7.4140379863534608e-05 0 -0.0056645889787911279 8.2642660284307051e-07 0 -0.0060284393242063319 0.00011241358623144756 0 -0.0056645889787911279 8.2642660284307051e-07 0 -0.0060284393242063319 0.00011241358623144756 0 -0.0068827211056245998 -5.1239591019157084e-07 0 -0.0060284393242063319 0.00011241358623144756 0 -0.0059352088614492374 2.2629950686909864e-05 0 -0.0059704886767406396 4.8972793943867171e-05 0 -0.0056113829045200186 7.4140379863534608e-05 0 -0.0060284393242063319 0.00011241358623144756 0 -0.0059352088614492374 2.2629950686909864e-05 0 -0.0060084993067558027 -0.00014285924784106853 0 -0.0059352088614492374 2.2629950686909864e-05 0 -0.005721768717388288 -0.00027847449848804258 0 -0.0037552279574557521 -0.0002032404969362886 0 -0.0046020012601920395 -0.00019432302512773034 0 -0.0056113829045200186 7.4140379863534608e-05 0 -0.0059352088614492374 2.2629950686909864e-05 0 -0.005721768717388288 -0.00027847449848804258 0 -0.0050909257165969064 -0.00091189565819519401 0 -0.0050365195983525226 -0.00090721591799995205 0 -0.0051037045074834447 -0.00085326144628327825 0 -0.0060084993067558027 -0.00014285924784106853 0 -0.0059352088614492374 2.2629950686909864e-05 0 -0.0059704886767406396 4.8972793943867171e-05 0 -0.0037552279574557521 -0.0002032404969362886 0 -0.005786134490083591 -0.00042112955496957145 0 -0.0051619442378518102 -0.00086736206990503293 0 -0.0050909257165969064 -0.00091189565819519401 0 -0.0051037045074834447 -0.00085326144628327825 0 -0.0025800754277786296 -0.00019596066096945941 0 -0.0011932018993535529 0.00073112118229385562 0 -0.0059704886767406396 4.8972793943867171e-05 0 -0.0060532893870992154 -0.00014582064096089019 0 -0.005871965583602012 -0.00021318809576781637 0 -0.0060284393242063319 0.00011241358623144756 0 -0.0059704886767406396 4.8972793943867171e-05 0 -0.0060532893870992154 -0.00014582064096089019 0 -0.0051619442378518102 -0.00086736206990503293 0 -0.0051037045074834447 -0.00085326144628327825 0 -0.0051834117670791473 -0.00080932002996462809 0 -0.005786134490083591 -0.00042112955496957145 0 -0.0054929220708942964 -0.00051779982610587576 0 -0.0060246134964276228 -0.00037427349016490232 0 -0.0060532893870992154 -0.00014582064096089019 0 -0.005871965583602012 -0.00021318809576781637 0 -0.0060246134964276228 -0.00037427349016490232 0 -0.0060532893870992154 -0.00014582064096089019 0 -0.0062834820472987118 -0.00039525303026514193 0 -0.0060532893870992154 -0.00014582064096089019 0 -0.0062834820472987118 -0.00039525303026514193 0 -0.0062586938924365293 -0.00012660089690129107 0 -0.0077810879392005497 -0.00012401562279706769 0 -0.0068862963811623969 2.9323480572416023e-07 0 -0.0088888729814996584 3.3783697239452761e-07 0 -0.0093058964223535923 -4.4428164201803253e-05 0 -0.0068871724812368425 -6.9066649175904963e-07 0 -0.0060284393242063319 0.00011241358623144756 0 -0.0068827211056245998 -5.1239591019157084e-07 0 -0.0062586938924365293 -0.00012660089690129107 0 -0.0062834820472987118 -0.00039525303026514193 0 -0.0068827211056245998 -5.1239591019157084e-07 0 -0.0062586938924365293 -0.00012660089690129107 0 -0.0060284393242063319 0.00011241358623144756 0 -0.0060532893870992154 -0.00014582064096089019 0 -0.0062586938924365293 -0.00012660089690129107 0 -0.0089086818541771855 -0.0037932678878585795 0 -0.0085827858901276199 -0.0036328532560836132 0 -0.0082257151144951458 -0.0031955468377191931 0 -0.0089086818541771855 -0.0037932678878585795 0 -0.0085827858901276199 -0.0036328532560836132 0 -0.0091220085737784423 -0.0040840926704800214 0 -0.0085827858901276199 -0.0036328532560836132 0 -0.0082257151144951458 -0.0031955468377191931 0 -0.0079192935190930628 -0.003318770608508219 0 -0.0085827858901276199 -0.0036328532560836132 0 -0.008467464120854749 -0.0037387290492021225 0 -0.0079192935190930628 -0.003318770608508219 0 -0.0085827858901276199 -0.0036328532560836132 0 -0.008467464120854749 -0.0037387290492021225 0 -0.0091220085737784423 -0.0040840926704800214 0 -0.0091220085737784423 -0.0040840926704800214 0 -0.0098359709952751898 -0.0045593888023261839 0 -0.0086667381392272758 -0.004078191842919885 0 -0.008467464120854749 -0.0037387290492021225 0 -0.0091220085737784423 -0.0040840926704800214 0 -0.0086667381392272758 -0.004078191842919885 0 -0.0091220085737784423 -0.0040840926704800214 0 -0.0098359709952751898 -0.0045593888023261839 0 -0.0097011533360366522 -0.0044713713444904449 0 -0.014197904464887612 -0.0027293758103837467 0 -0.016646652160632588 -0.0036295070848717729 0 -0.014485826410342847 -0.0026663079758342243 0 -0.014395610312569737 -0.0028714564932358043 0 -0.014449053715729443 -0.0028250538712328408 0 -0.0089086818541771855 -0.0037932678878585795 0 -0.0091220085737784423 -0.0040840926704800214 0 -0.0097011533360366522 -0.0044713713444904449 0 -0.014449053715729443 -0.0028250538712328408 0 -0.014463743246818778 -0.0027028322005479863 0 -0.01444249204157255 -0.0026279373161886754 0 -0.01178839190829426 -0.0034058834667883356 0 -0.011989909175521009 -0.0038446300640693075 0 -0.014395610312569737 -0.0028714564932358043 0 -0.014449053715729443 -0.0028250538712328408 0 -0.015201910661459383 -0.0035546979014466043 0 -0.014485826410342847 -0.0026663079758342243 0 -0.014449053715729443 -0.0028250538712328408 0 -0.014463743246818778 -0.0027028322005479863 0 -0.014463743246818778 -0.0027028322005479863 0 -0.014435362498715135 -0.0026845027541755758 0 -0.01444249204157255 -0.0026279373161886754 0 -0.014435362498715135 -0.0026845027541755758 0 -0.014371895291430322 -0.0026759304191194839 0 -0.01444249204157255 -0.0026279373161886754 0 -0.014485826410342847 -0.0026663079758342243 0 -0.014463743246818778 -0.0027028322005479863 0 -0.014435362498715135 -0.0026845027541755758 0 -0.014371895291430322 -0.0026759304191194839 0 -0.01444249204157255 -0.0026279373161886754 0 -0.014278573952295617 -0.0025582807942519208 0 -0.010649420086752671 0.00019482124652146234 0 -0.013448784402672354 -0.0016518463992227018 0 -0.0075691195452228122 0.0020594317342085781 0 -0.007994388382104884 0.0016407041566294201 0 -0.0076028774543490966 0.0017126750289460937 0 -0.0075691195452228122 0.0020594317342085781 0 -0.0076028774543490966 0.0017126750289460937 0 -0.0071874661502919447 0.0017941732192694091 0 -0.01178839190829426 -0.0034058834667883356 0 -0.01011849695200112 -0.0014738459920122977 0 -0.010649420086752671 0.00019482124652146234 0 -0.01011849695200112 -0.0014738459920122977 0 -0.014435362498715135 -0.0026845027541755758 0 -0.014371895291430322 -0.0026759304191194839 0 -0.014401481558587255 -0.0027323669458613475 0 -0.014485826410342847 -0.0026663079758342243 0 -0.014435362498715135 -0.0026845027541755758 0 -0.014401481558587255 -0.0027323669458613475 0 -0.01011849695200112 -0.0014738459920122977 0 -0.0082234943648455613 -0.0024428159329736581 0 -0.0076028774543490966 0.0017126750289460937 0 -0.0076796278224679562 0.00097742690060774289 0 -0.0071874661502919447 0.0017941732192694091 0 -0.007994388382104884 0.0016407041566294201 0 -0.0076028774543490966 0.0017126750289460937 0 -0.0076796278224679562 0.00097742690060774289 0 -0.0076143346905736898 -0.0021470845641892587 0 -0.0080050488666649922 -0.0024708053925806463 0 -0.0075876973452510483 -0.0021383519237461344 0 -0.0079094933797199084 -0.0022764241110272759 0 -0.0076143346905736898 -0.0021470845641892587 0 -0.0080050488666649922 -0.0024708053925806463 0 -0.01011849695200112 -0.0014738459920122977 0 -0.0073498605807405734 -0.00047384635501914677 0 -0.0080050488666649922 -0.0024708053925806463 0 -0.0075357364079925949 -0.0023057004698604274 0 -0.0075876973452510483 -0.0021383519237461344 0 -0.0080050488666649922 -0.0024708053925806463 0 -0.0078226334341500361 -0.0026884695186141531 0 -0.0075357364079925949 -0.0023057004698604274 0 -0.0089086818541771855 -0.0037932678878585795 0 -0.0083452830697818663 -0.0030229252099888528 0 -0.0082257151144951458 -0.0031955468377191931 0 -0.0089086818541771855 -0.0037932678878585795 0 -0.0088180226642832465 -0.0030820993943277654 0 -0.0083452830697818663 -0.0030229252099888528 0 -0.0088180226642832465 -0.0030820993943277654 0 -0.0080050488666649922 -0.0024708053925806463 0 -0.0083452830697818663 -0.0030229252099888528 0 -0.0083452830697818663 -0.0030229252099888528 0 -0.0082257151144951458 -0.0031955468377191931 0 -0.0078226334341500361 -0.0026884695186141531 0 -0.0080050488666649922 -0.0024708053925806463 0 -0.0083452830697818663 -0.0030229252099888528 0 -0.0078226334341500361 -0.0026884695186141531 0 -0.0082257151144951458 -0.0031955468377191931 0 -0.0074636123131425333 -0.00285302484218572 0 -0.0079192935190930628 -0.003318770608508219 0 -0.0082257151144951458 -0.0031955468377191931 0 -0.0074636123131425333 -0.00285302484218572 0 -0.0078226334341500361 -0.0026884695186141531 0 -0.0074636123131425333 -0.00285302484218572 0 -0.0078226334341500361 -0.0026884695186141531 0 -0.0072414601312333054 -0.0024711561750483673 0 -0.0078226334341500361 -0.0026884695186141531 0 -0.0072414601312333054 -0.0024711561750483673 0 -0.0075357364079925949 -0.0023057004698604274 0 -0.0074636123131425333 -0.00285302484218572 0 -0.0068804732146999972 -0.0026732940757038721 0 -0.0072414601312333054 -0.0024711561750483673 0 -0.0074636123131425333 -0.00285302484218572 0 -0.0069168901483523714 -0.0029291966716415256 0 -0.0068804732146999972 -0.0026732940757038721 0 -0.0069168901483523714 -0.0029291966716415256 0 -0.0068804732146999972 -0.0026732940757038721 0 -0.006327904835839772 -0.0028474016132372768 0 -0.0065987944030001799 -0.0029363843558481125 0 -0.0063240310718817227 -0.0028003002470007379 0 -0.0065599229209380838 -0.0031942376717437409 0 -0.006327904835839772 -0.0028474016132372768 0 -0.0065987944030001799 -0.0029363843558481125 0 -0.0063240310718817227 -0.0028003002470007379 0 -0.0069168901483523714 -0.0029291966716415256 0 -0.006327904835839772 -0.0028474016132372768 0 -0.0065987944030001799 -0.0029363843558481125 0 -0.0069168901483523714 -0.0029291966716415256 0 -0.0065987944030001799 -0.0029363843558481125 0 -0.0069526521749111152 -0.0031557170691954256 0 -0.0065987944030001799 -0.0029363843558481125 0 -0.0069526521749111152 -0.0031557170691954256 0 -0.0065599229209380838 -0.0031942376717437409 0 -0.0069526521749111152 -0.0031557170691954256 0 -0.0065599229209380838 -0.0031942376717437409 0 -0.0068953354138601751 -0.0034387253775199108 0 -0.0065599229209380838 -0.0031942376717437409 0 -0.0065146472186591855 -0.0034673392305098905 0 -0.0068953354138601751 -0.0034387253775199108 0 -0.0069526521749111152 -0.0031557170691954256 0 -0.0073855681566982953 -0.0033863917310320113 0 -0.0068953354138601751 -0.0034387253775199108 0 -0.0069526521749111152 -0.0031557170691954256 0 -0.007352199440771561 -0.0031359734004895068 0 -0.0073855681566982953 -0.0033863917310320113 0 -0.0079192935190930628 -0.003318770608508219 0 -0.007352199440771561 -0.0031359734004895068 0 -0.0073855681566982953 -0.0033863917310320113 0 -0.0074636123131425333 -0.00285302484218572 0 -0.0079192935190930628 -0.003318770608508219 0 -0.007352199440771561 -0.0031359734004895068 0 -0.0074636123131425333 -0.00285302484218572 0 -0.0069168901483523714 -0.0029291966716415256 0 -0.007352199440771561 -0.0031359734004895068 0 -0.0069168901483523714 -0.0029291966716415256 0 -0.0069526521749111152 -0.0031557170691954256 0 -0.007352199440771561 -0.0031359734004895068 0 -0.0062535094774624047 -0.0028515240594500758 0 -0.0059776800381464278 -0.0030810855001362348 0 -0.0058643621385364251 -0.0029109165123590848 0 -0.0061890546019871808 -0.002743956335040341 0 -0.0060614067167805256 -0.003098273846059259 0 -0.0061890546019871808 -0.002743956335040341 0 -0.0063240310718817227 -0.0028003002470007379 0 -0.0060614067167805256 -0.003098273846059259 0 -0.006327904835839772 -0.0028474016132372768 0 -0.0061890546019871808 -0.002743956335040341 0 -0.0063240310718817227 -0.0028003002470007379 0 -0.0061949620458338862 -0.0028731763124974522 0 -0.0053357484412740307 -0.0030889927343948809 0 -0.0063240310718817227 -0.0028003002470007379 0 -0.0065599229209380838 -0.0031942376717437409 0 -0.0061545513740570582 -0.003480077869320961 0 -0.0063240310718817227 -0.0028003002470007379 0 -0.0056885119170198379 -0.0031899276791023767 0 -0.0061545513740570582 -0.003480077869320961 0 -0.0065599229209380838 -0.0031942376717437409 0 -0.0061545513740570582 -0.003480077869320961 0 -0.0065146472186591855 -0.0034673392305098905 0 -0.0056885119170198379 -0.0031899276791023767 0 -0.0055588284061987535 -0.0036811512722610879 0 -0.0061545513740570582 -0.003480077869320961 0 -0.0055588284061987535 -0.0036811512722610879 0 -0.0061545513740570582 -0.003480077869320961 0 -0.0056665916634077588 -0.0042204732211163724 0 -0.0061545513740570582 -0.003480077869320961 0 -0.0063885726732214512 -0.0041809933726109144 0 -0.0067278080652322676 -0.0037877127978793142 0 -0.0061545513740570582 -0.003480077869320961 0 -0.0063885726732214512 -0.0041809933726109144 0 -0.0056665916634077588 -0.0042204732211163724 0 -0.0061545513740570582 -0.003480077869320961 0 -0.0065146472186591855 -0.0034673392305098905 0 -0.0067278080652322676 -0.0037877127978793142 0 -0.0063885726732214512 -0.0041809933726109144 0 -0.0056665916634077588 -0.0042204732211163724 0 -0.0063444403610861512 -0.0047782984225529781 0 -0.0063885726732214512 -0.0041809933726109144 0 -0.0066273966464822478 -0.0046925912367965436 0 -0.0069498957382144021 -0.0041920455988676475 0 -0.0063885726732214512 -0.0041809933726109144 0 -0.0067278080652322676 -0.0037877127978793142 0 -0.0069498957382144021 -0.0041920455988676475 0 -0.0063885726732214512 -0.0041809933726109144 0 -0.0066273966464822478 -0.0046925912367965436 0 -0.0063444403610861512 -0.0047782984225529781 0 -0.0066201051976632237 -0.0049774464908144836 0 -0.0072228219755857605 -0.0049372271568278127 0 -0.0057034476336461255 -0.0042102328071188955 0 -0.0072228219755857605 -0.0049372271568278127 0 -0.0079479599784737648 -0.0036990503941349158 0 -0.0072676137831963299 -0.0037623726700733592 0 -0.0077160786930017137 -0.0042317035995073776 0 -0.008467464120854749 -0.0037387290492021225 0 -0.0079479599784737648 -0.0036990503941349158 0 -0.0086667381392272758 -0.004078191842919885 0 -0.008467464120854749 -0.0037387290492021225 0 -0.0079192935190930628 -0.003318770608508219 0 -0.0079479599784737648 -0.0036990503941349158 0 -0.0079192935190930628 -0.003318770608508219 0 -0.0079479599784737648 -0.0036990503941349158 0 -0.0073855681566982953 -0.0033863917310320113 0 -0.0079479599784737648 -0.0036990503941349158 0 -0.0073855681566982953 -0.0033863917310320113 0 -0.0072676137831963299 -0.0037623726700733592 0 -0.0073855681566982953 -0.0033863917310320113 0 -0.0068953354138601751 -0.0034387253775199108 0 -0.0072676137831963299 -0.0037623726700733592 0 -0.0068953354138601751 -0.0034387253775199108 0 -0.0067278080652322676 -0.0037877127978793142 0 -0.0072676137831963299 -0.0037623726700733592 0 -0.0065146472186591855 -0.0034673392305098905 0 -0.0068953354138601751 -0.0034387253775199108 0 -0.0067278080652322676 -0.0037877127978793142 0 -0.0067278080652322676 -0.0037877127978793142 0 -0.0072676137831963299 -0.0037623726700733592 0 -0.0069498957382144021 -0.0041920455988676475 0 -0.0072676137831963299 -0.0037623726700733592 0 -0.0077160786930017137 -0.0042317035995073776 0 -0.0069498957382144021 -0.0041920455988676475 0 -0.0077160786930017137 -0.0042317035995073776 0 -0.0069498957382144021 -0.0041920455988676475 0 -0.0071993867977607779 -0.0045291328504209827 0 -0.0066273966464822478 -0.0046925912367965436 0 -0.0071993867977607779 -0.0045291328504209827 0 -0.0075418102393330034 -0.0050115171375619003 0 -0.0066273966464822478 -0.0046925912367965436 0 -0.0069498957382144021 -0.0041920455988676475 0 -0.0071993867977607779 -0.0045291328504209827 0 -0.0077160786930017137 -0.0042317035995073776 0 -0.0071993867977607779 -0.0045291328504209827 0 -0.0075418102393330034 -0.0050115171375619003 0 -0.0077160786930017137 -0.0042317035995073776 0 -0.0082653216286953744 -0.0047257307057189477 0 -0.0075418102393330034 -0.0050115171375619003 0 -0.0077160786930017137 -0.0042317035995073776 0 -0.0082653216286953744 -0.0047257307057189477 0 -0.0086667381392272758 -0.004078191842919885 0 -0.0079479599784737648 -0.0036990503941349158 0 -0.0077160786930017137 -0.0042317035995073776 0 -0.0086667381392272758 -0.004078191842919885 0 -0.0098359709952751898 -0.0045593888023261839 0 -0.0082653216286953744 -0.0047257307057189477 0 -0.0086667381392272758 -0.004078191842919885 0 -0.0098359709952751898 -0.0045593888023261839 0 -0.010002877615895798 -0.0050804435143031942 0 -0.01199694421007951 -0.0053730028770004627 0 -0.0098359709952751898 -0.0045593888023261839 0 -0.0082653216286953744 -0.0047257307057189477 0 -0.007523952769959966 -0.0062113642000281863 0 -0.0093683502190607809 -0.004726715215383084 0 -0.010073544655499053 -0.0056633700143953521 0 -0.0082653216286953744 -0.0047257307057189477 0 -0.0075418102393330034 -0.0050115171375619003 0 -0.007523952769959966 -0.0062113642000281863 0 -0.010035184948396206 -0.0055606334497163056 0 -0.0093153072590770915 -0.005112562778020583 0 -0.0095800444936239501 -0.0059110673881262801 0 -0.0066273966464822478 -0.0046925912367965436 0 -0.007523952769959966 -0.0062113642000281863 0 -0.0060283327173787796 -0.0049775430432135535 0 -0.010073544655499053 -0.0056633700143953521 0 -0.0072228219755857605 -0.0049372271568278127 0 -0.0066273966464822478 -0.0046925912367965436 0 -0.0075418102393330034 -0.0050115171375619003 0 -0.007523952769959966 -0.0062113642000281863 0 -0.012619210175991508 -0.0062860961538012692 0 -0.012163225754926692 -0.006663621748436023 0 -0.012043454153221174 -0.0071054488054150431 0 -0.012619210175991508 -0.0062860961538012692 0 -0.012720086698279641 -0.0064722812894353341 0 -0.012590382673439886 -0.0066805127098528202 0 -0.012619210175991508 -0.0062860961538012692 0 -0.011468959115162573 -0.0074504005109427961 0 -0.012267286575484851 -0.0069132534442166845 0 -0.012516074202544698 -0.0061686111419862778 0 -0.011983596090559399 -0.007729754393847146 0 -0.012700050020380417 -0.0062087658703008745 0 -0.012619210175991508 -0.0062860961538012692 0 -0.012720086698279641 -0.0064722812894353341 0 -0.012619210175991508 -0.0062860961538012692 0 -0.012219807270099747 -0.0064673396905568373 0 -0.012163225754926692 -0.006663621748436023 0 -0.010073544655499053 -0.0056633700143953521 0 -0.010922857522371801 -0.0061774323186706073 0 -0.012700050020380417 -0.0062087658703008745 0 -0.012619210175991508 -0.0062860961538012692 0 -0.012219807270099747 -0.0064673396905568373 0 -0.012619210175991508 -0.0062860961538012692 0 -0.012590382673439886 -0.0066805127098528202 0 -0.012267286575484851 -0.0069132534442166845 0 -0.012720086698279641 -0.0064722812894353341 0 -0.012590382673439886 -0.0066805127098528202 0 -0.012786113082157321 -0.0067527237225255693 0 -0.012590382673439886 -0.0066805127098528202 0 -0.012541677431628182 -0.0070088720652090493 0 -0.012267286575484851 -0.0069132534442166845 0 -0.012590382673439886 -0.0066805127098528202 0 -0.012786113082157321 -0.0067527237225255693 0 -0.012541677431628182 -0.0070088720652090493 0 -0.012700050020380417 -0.0062087658703008745 0 -0.012881865037234732 -0.0065182912209582325 0 -0.012985139808649746 -0.0064957927916349774 0 -0.010073544655499053 -0.0056633700143953521 0 -0.013337523868020206 -0.0065539634439703296 0 -0.010002877615895798 -0.0050804435143031942 0 -0.012985139808649746 -0.0064957927916349774 0 -0.01199694421007951 -0.0053730028770004627 0 -0.012720086698279641 -0.0064722812894353341 0 -0.012786113082157321 -0.0067527237225255693 0 -0.012881865037234732 -0.0065182912209582325 0 -0.012786113082157321 -0.0067527237225255693 0 -0.012881865037234732 -0.0065182912209582325 0 -0.012980491335294957 -0.0067820684372107889 0 -0.013045725492444727 -0.0066650024802740902 0 -0.013320073647659992 -0.0069793779853305395 0 -0.012985139808649746 -0.0064957927916349774 0 -0.012881865037234732 -0.0065182912209582325 0 -0.013045725492444727 -0.0066650024802740902 0 -0.012980491335294957 -0.0067820684372107889 0 -0.012881865037234732 -0.0065182912209582325 0 -0.013045725492444727 -0.0066650024802740902 0 -0.012985139808649746 -0.0064957927916349774 0 -0.012700050020380417 -0.0062087658703008745 0 -0.012720086698279641 -0.0064722812894353341 0 -0.012881865037234732 -0.0065182912209582325 0 -0.008460354886617864 -0.0055248381616327998 0 -0.0093153072590770915 -0.005112562778020583 0 -0.0090350533879229745 -0.0056782728811036699 0 -0.0078447487571246654 -0.0051598087947490202 0 -0.0072228219755857605 -0.0049372271568278127 0 -0.0057050721810874491 -0.0054341626606384062 0 -0.0059745981738134257 -0.0042961919360847102 0 -0.0068952722808612223 -0.0048642784033546644 0 -0.0093153072590770915 -0.005112562778020583 0 -0.0095800444936239501 -0.0059110673881262801 0 -0.0090350533879229745 -0.0056782728811036699 0 -0.0095800444936239501 -0.0059110673881262801 0 -0.0090350533879229745 -0.0056782728811036699 0 -0.009127518974621808 -0.0062643174832752568 0 -0.012219807270099747 -0.0064673396905568373 0 -0.012163225754926692 -0.006663621748436023 0 -0.011774353308391395 -0.0068035270635904118 0 -0.010922857522371801 -0.0061774323186706073 0 -0.011486820995135014 -0.0067387197341035217 0 -0.011659643488668927 -0.0059653606306622206 0 -0.011652760141788095 -0.0058142037760446517 0 -0.011511964750513677 -0.0057721977073535904 0 -0.0078447487571246654 -0.0051598087947490202 0 -0.011486820995135014 -0.0067387197341035217 0 -0.008460354886617864 -0.0055248381616327998 0 -0.0090350533879229745 -0.0056782728811036699 0 -0.009127518974621808 -0.0062643174832752568 0 -0.011652760141788095 -0.0058142037760446517 0 -0.011673507714938225 -0.0057234584601524949 0 -0.011511964750513677 -0.0057721977073535904 0 -0.015647375640209304 -0.0078286325229461728 0 -0.011486820995135014 -0.0067387197341035217 0 -0.014180274364137572 -0.0078264152653343324 0 -0.013830945189144987 -0.0078417467600055482 0 -0.013730894218379924 -0.0081494440756589223 0 -0.011684950040846307 -0.0056536381265049219 0 -0.011673507714938225 -0.0057234584601524949 0 -0.011511964750513677 -0.0057721977073535904 0 -0.013830945189144987 -0.0078417467600055482 0 -0.013730894218379924 -0.0081494440756589223 0 -0.013519928122722839 -0.0079104055416002877 0 -0.011486820995135014 -0.0067387197341035217 0 -0.011983596090559399 -0.007729754393847146 0 -0.012163225754926692 -0.006663621748436023 0 -0.011774353308391395 -0.0068035270635904118 0 -0.012043454153221174 -0.0071054488054150431 0 -0.011792809075348966 -0.0074772528137834584 0 -0.011468959115162573 -0.0074504005109427961 0 -0.01208293572200007 -0.0071332318783701139 0 -0.011792809075348966 -0.0074772528137834584 0 -0.011468959115162573 -0.0074504005109427961 0 -0.011530789670447548 -0.0076224324923739673 0 -0.011983596090559399 -0.007729754393847146 0 -0.011910479558396893 -0.0076713437782389262 0 -0.011530789670447548 -0.0076224324923739673 0 -0.011817632277422038 -0.0076583182084053814 0 -0.011880315892033273 -0.0079997494002915764 0 -0.011792809075348966 -0.0074772528137834584 0 -0.011530789670447548 -0.0076224324923739673 0 -0.011817632277422038 -0.0076583182084053814 0 -0.011387911868581329 -0.0074582842139298442 0 -0.011530789670447548 -0.0076224324923739673 0 -0.010407581510127136 -0.0088940460690454179 0 -0.011983596090559399 -0.007729754393847146 0 -0.015574264927459369 -0.0086186854901731929 0 -0.01195786539560836 -0.0093623370105242968 0 -0.011790780721859021 -0.0085233410110199734 0 -0.010407581510127136 -0.0088940460690454179 0 -0.011530789670447548 -0.0076224324923739673 0 -0.011790780721859021 -0.0085233410110199734 0 -0.010407581510127136 -0.0088940460690454179 0 -0.013830945189144987 -0.0078417467600055482 0 -0.013519928122722839 -0.0079104055416002877 0 -0.013831505360424236 -0.0074668719765200496 0 -0.011530789670447548 -0.0076224324923739673 0 -0.011790780721859021 -0.0085233410110199734 0 -0.011880315892033273 -0.0079997494002915764 0 -0.019661944388612955 -0.008379018190070274 0 -0.019404795928867482 -0.0095653448391812123 0 -0.018537521424956887 -0.0086613192549611293 0 -0.014180274364137572 -0.0078264152653343324 0 -0.013830945189144987 -0.0078417467600055482 0 -0.013831505360424236 -0.0074668719765200496 0 -0.015647375640209304 -0.0078286325229461728 0 -0.015574264927459369 -0.0086186854901731929 0 -0.013414816740299637 -0.0075624197951329394 0 -0.012902156250615124 -0.0071149444213092763 0 -0.012881912571897801 -0.00767674660390692 0 -0.013414816740299637 -0.0075624197951329394 0 -0.012881912571897801 -0.00767674660390692 0 -0.013368516895774393 -0.0081462379020061492 0 -0.013414816740299637 -0.0075624197951329394 0 -0.013869225456078481 -0.0075137220122846156 0 -0.013320073647659992 -0.0069793779853305395 0 -0.013414816740299637 -0.0075624197951329394 0 -0.013869225456078481 -0.0075137220122846156 0 -0.014428055343267751 -0.0081954913067340939 0 -0.013045725492444727 -0.0066650024802740902 0 -0.013320073647659992 -0.0069793779853305395 0 -0.012980491335294957 -0.0067820684372107889 0 -0.013320073647659992 -0.0069793779853305395 0 -0.012980491335294957 -0.0067820684372107889 0 -0.012902156250615124 -0.0071149444213092763 0 -0.013414816740299637 -0.0075624197951329394 0 -0.013320073647659992 -0.0069793779853305395 0 -0.012902156250615124 -0.0071149444213092763 0 -0.012786113082157321 -0.0067527237225255693 0 -0.012980491335294957 -0.0067820684372107889 0 -0.012902156250615124 -0.0071149444213092763 0 -0.012902156250615124 -0.0071149444213092763 0 -0.012541677431628182 -0.0070088720652090493 0 -0.012461771166166129 -0.0073600026337292722 0 -0.012786113082157321 -0.0067527237225255693 0 -0.012902156250615124 -0.0071149444213092763 0 -0.012541677431628182 -0.0070088720652090493 0 -0.012541677431628182 -0.0070088720652090493 0 -0.01208293572200007 -0.0071332318783701139 0 -0.012461771166166129 -0.0073600026337292722 0 -0.011468959115162573 -0.0074504005109427961 0 -0.012267286575484851 -0.0069132534442166845 0 -0.01208293572200007 -0.0071332318783701139 0 -0.012541677431628182 -0.0070088720652090493 0 -0.012267286575484851 -0.0069132534442166845 0 -0.01208293572200007 -0.0071332318783701139 0 -0.011792809075348966 -0.0074772528137834584 0 -0.01208293572200007 -0.0071332318783701139 0 -0.012057360586973398 -0.0075393835301715761 0 -0.01208293572200007 -0.0071332318783701139 0 -0.012057360586973398 -0.0075393835301715761 0 -0.012461771166166129 -0.0073600026337292722 0 -0.012057360586973398 -0.0075393835301715761 0 -0.012378522991460779 -0.0078191530190045763 0 -0.011880315892033273 -0.0079997494002915764 0 -0.012057360586973398 -0.0075393835301715761 0 -0.012461771166166129 -0.0073600026337292722 0 -0.012378522991460779 -0.0078191530190045763 0 -0.011817632277422038 -0.0076583182084053814 0 -0.012057360586973398 -0.0075393835301715761 0 -0.011880315892033273 -0.0079997494002915764 0 -0.011792809075348966 -0.0074772528137834584 0 -0.011817632277422038 -0.0076583182084053814 0 -0.012057360586973398 -0.0075393835301715761 0 -0.012902156250615124 -0.0071149444213092763 0 -0.012461771166166129 -0.0073600026337292722 0 -0.012881912571897801 -0.00767674660390692 0 -0.012461771166166129 -0.0073600026337292722 0 -0.012378522991460779 -0.0078191530190045763 0 -0.012881912571897801 -0.00767674660390692 0 -0.012378522991460779 -0.0078191530190045763 0 -0.012881912571897801 -0.00767674660390692 0 -0.012774929660620058 -0.008182690949027455 0 -0.012378522991460779 -0.0078191530190045763 0 -0.012774929660620058 -0.008182690949027455 0 -0.012271194414402945 -0.0082561253694056931 0 -0.012774929660620058 -0.008182690949027455 0 -0.012271194414402945 -0.0082561253694056931 0 -0.012525927542923343 -0.0087908683245154964 0 -0.012378522991460779 -0.0078191530190045763 0 -0.011880315892033273 -0.0079997494002915764 0 -0.012271194414402945 -0.0082561253694056931 0 -0.011790780721859021 -0.0085233410110199734 0 -0.011880315892033273 -0.0079997494002915764 0 -0.012271194414402945 -0.0082561253694056931 0 -0.01195786539560836 -0.0093623370105242968 0 -0.011790780721859021 -0.0085233410110199734 0 -0.012525927542923343 -0.0087908683245154964 0 -0.011790780721859021 -0.0085233410110199734 0 -0.012271194414402945 -0.0082561253694056931 0 -0.012525927542923343 -0.0087908683245154964 0 -0.012813416488274831 -0.0094766280963877944 0 -0.013065102238567857 -0.0086931384172190089 0 -0.012525927542923343 -0.0087908683245154964 0 -0.012774929660620058 -0.008182690949027455 0 -0.013065102238567857 -0.0086931384172190089 0 -0.012525927542923343 -0.0087908683245154964 0 -0.012813416488274831 -0.0094766280963877944 0 -0.013065102238567857 -0.0086931384172190089 0 -0.013829651740285425 -0.0089895735462103311 0 -0.013065102238567857 -0.0086931384172190089 0 -0.013829651740285425 -0.0089895735462103311 0 -0.013368516895774393 -0.0081462379020061492 0 -0.012881912571897801 -0.00767674660390692 0 -0.012774929660620058 -0.008182690949027455 0 -0.013368516895774393 -0.0081462379020061492 0 -0.012774929660620058 -0.008182690949027455 0 -0.013065102238567857 -0.0086931384172190089 0 -0.013368516895774393 -0.0081462379020061492 0 -0.013829651740285425 -0.0089895735462103311 0 -0.013368516895774393 -0.0081462379020061492 0 -0.014428055343267751 -0.0081954913067340939 0 -0.013414816740299637 -0.0075624197951329394 0 -0.013368516895774393 -0.0081462379020061492 0 -0.014428055343267751 -0.0081954913067340939 0 -0.015202369070097491 -0.0091603933121894455 0 -0.013829651740285425 -0.0089895735462103311 0 -0.014428055343267751 -0.0081954913067340939 0 -0.015202369070097491 -0.0091603933121894455 0 -0.01606244453880306 -0.0090891389875645892 0 -0.014428055343267751 -0.0081954913067340939 0 -0.01606244453880306 -0.0090891389875645892 0 -0.015394455092478365 -0.0081451997598147221 0 -0.014428055343267751 -0.0081954913067340939 0 -0.017068673984669762 -0.0094572757157860426 0 -0.01606244453880306 -0.0090891389875645892 0 -0.016511094754173207 -0.0082198960516437977 0 -0.01606244453880306 -0.0090891389875645892 0 -0.015394455092478365 -0.0081451997598147221 0 -0.016511094754173207 -0.0082198960516437977 0 -0.016511094754173207 -0.0082198960516437977 0 -0.01550126420986186 -0.0075249288551905167 0 -0.016053532688761703 -0.0067860033640782403 0 -0.015394455092478365 -0.0081451997598147221 0 -0.016511094754173207 -0.0082198960516437977 0 -0.01550126420986186 -0.0075249288551905167 0 -0.01550126420986186 -0.0075249288551905167 0 -0.016053532688761703 -0.0067860033640782403 0 -0.014823889297556144 -0.0066546090897042099 0 -0.015394455092478365 -0.0081451997598147221 0 -0.014428055343267751 -0.0081954913067340939 0 -0.014340750904212668 -0.00743295232607702 0 -0.013869225456078481 -0.0075137220122846156 0 -0.014428055343267751 -0.0081954913067340939 0 -0.014340750904212668 -0.00743295232607702 0 -0.015394455092478365 -0.0081451997598147221 0 -0.01550126420986186 -0.0075249288551905167 0 -0.014340750904212668 -0.00743295232607702 0 -0.01550126420986186 -0.0075249288551905167 0 -0.014340750904212668 -0.00743295232607702 0 -0.014823889297556144 -0.0066546090897042099 0 -0.014340750904212668 -0.00743295232607702 0 -0.012985139808649746 -0.0064957927916349774 0 -0.014823889297556144 -0.0066546090897042099 0 -0.013320073647659992 -0.0069793779853305395 0 -0.014340750904212668 -0.00743295232607702 0 -0.012985139808649746 -0.0064957927916349774 0 -0.013869225456078481 -0.0075137220122846156 0 -0.013320073647659992 -0.0069793779853305395 0 -0.014340750904212668 -0.00743295232607702 0 -0.012985139808649746 -0.0064957927916349774 0 -0.01199694421007951 -0.0053730028770004627 0 -0.013963117888392418 -0.0058338319518718516 0 -0.01199694421007951 -0.0053730028770004627 0 -0.013963117888392418 -0.0058338319518718516 0 -0.014369532374317869 -0.004919367505935939 0 -0.012985139808649746 -0.0064957927916349774 0 -0.013963117888392418 -0.0058338319518718516 0 -0.014823889297556144 -0.0066546090897042099 0 -0.013963117888392418 -0.0058338319518718516 0 -0.014823889297556144 -0.0066546090897042099 0 -0.015293404034566556 -0.0054425298678414764 0 -0.016053532688761703 -0.0067860033640782403 0 -0.014823889297556144 -0.0066546090897042099 0 -0.015293404034566556 -0.0054425298678414764 0 -0.016053532688761703 -0.0067860033640782403 0 -0.015293404034566556 -0.0054425298678414764 0 -0.016753199229280362 -0.0052816148894024402 0 -0.013963117888392418 -0.0058338319518718516 0 -0.015293404034566556 -0.0054425298678414764 0 -0.014369532374317869 -0.004919367505935939 0 -0.015522140110068172 -0.0043082561922136824 0 -0.014369532374317869 -0.004919367505935939 0 -0.014445763982433317 -0.0040315454100870035 0 -0.014449053715729443 -0.0028250538712328408 0 -0.015201910661459383 -0.0035546979014466043 0 -0.017501072199730332 -0.0039288204967212774 0 -0.015522140110068172 -0.0043082561922136824 0 -0.015201910661459383 -0.0035546979014466043 0 -0.017501072199730332 -0.0039288204967212774 0 -0.015293404034566556 -0.0054425298678414764 0 -0.015522140110068172 -0.0043082561922136824 0 -0.014369532374317869 -0.004919367505935939 0 -0.015293404034566556 -0.0054425298678414764 0 -0.015522140110068172 -0.0043082561922136824 0 -0.016753199229280362 -0.0052816148894024402 0 -0.015522140110068172 -0.0043082561922136824 0 -0.015201910661459383 -0.0035546979014466043 0 -0.014445763982433317 -0.0040315454100870035 0 -0.014395610312569737 -0.0028714564932358043 0 -0.015201910661459383 -0.0035546979014466043 0 -0.014445763982433317 -0.0040315454100870035 0 -0.0098359709952751898 -0.0045593888023261839 0 -0.0097011533360366522 -0.0044713713444904449 0 -0.01199694421007951 -0.0053730028770004627 0 -0.014395610312569737 -0.0028714564932358043 0 -0.01199694421007951 -0.0053730028770004627 0 -0.014445763982433317 -0.0040315454100870035 0 -0.011989909175521009 -0.0038446300640693075 0 -0.011776189762982631 -0.0053150107508563808 0 -0.01199694421007951 -0.0053730028770004627 0 -0.014369532374317869 -0.004919367505935939 0 -0.014445763982433317 -0.0040315454100870035 0 -0.017501072199730332 -0.0039288204967212774 0 -0.018252256627036362 -0.0052967106571012307 0 -0.018817680074272203 -0.0049158813785922812 0 -0.016646652160632588 -0.0036295070848717729 0 -0.013448784402672354 -0.0016518463992227018 0 -0.015522140110068172 -0.0043082561922136824 0 -0.017501072199730332 -0.0039288204967212774 0 -0.016753199229280362 -0.0052816148894024402 0 -0.017501072199730332 -0.0039288204967212774 0 -0.016753199229280362 -0.0052816148894024402 0 -0.018252256627036362 -0.0052967106571012307 0 -0.016753199229280362 -0.0052816148894024402 0 -0.018252256627036362 -0.0052967106571012307 0 -0.017376564505599681 -0.0070912885692910287 0 -0.016053532688761703 -0.0067860033640782403 0 -0.016753199229280362 -0.0052816148894024402 0 -0.017376564505599681 -0.0070912885692910287 0 -0.018281051225895184 -0.0053632828937361229 0 -0.018599114426904494 -0.0066821214487107101 0 -0.018252256627036362 -0.0052967106571012307 0 -0.018817680074272203 -0.0049158813785922812 0 -0.018585255718124721 -0.0053743063060283647 0 -0.018252256627036362 -0.0052967106571012307 0 -0.018507703655567247 -0.0055948424477604173 0 -0.018585255718124721 -0.0053743063060283647 0 -0.018252256627036362 -0.0052967106571012307 0 -0.018783212139035131 -0.0078065002905266748 0 -0.017376564505599681 -0.0070912885692910287 0 -0.018783212139035131 -0.0078065002905266748 0 -0.017376564505599681 -0.0070912885692910287 0 -0.017907087195008661 -0.008993368329348125 0 -0.016511094754173207 -0.0082198960516437977 0 -0.016053532688761703 -0.0067860033640782403 0 -0.017376564505599681 -0.0070912885692910287 0 -0.017068673984669762 -0.0094572757157860426 0 -0.016511094754173207 -0.0082198960516437977 0 -0.017907087195008661 -0.008993368329348125 0 -0.016511094754173207 -0.0082198960516437977 0 -0.017376564505599681 -0.0070912885692910287 0 -0.017907087195008661 -0.008993368329348125 0 -0.018574139203741496 -0.0092460831062940278 0 -0.018783212139035131 -0.0078065002905266748 0 -0.017907087195008661 -0.008993368329348125 0 -0.018546964212387562 -0.005708450582839579 0 -0.018507703655567247 -0.0055948424477604173 0 -0.018621541978135633 -0.0056480099322526334 0 -0.01860762916108177 -0.0072790976352726236 0 -0.018599114426904494 -0.0066821214487107101 0 -0.018507703655567247 -0.0055948424477604173 0 -0.018719136449559432 -0.0055076283465236783 0 -0.018585255718124721 -0.0053743063060283647 0 -0.018507703655567247 -0.0055948424477604173 0 -0.018719136449559432 -0.0055076283465236783 0 -0.018621541978135633 -0.0056480099322526334 0 -0.016706876835561973 -0.0046093577811648625 0 -0.013566816351252014 -0.00318460694826787 0 -0.013001837485182305 -0.0023322101983391441 0 -0.01343937643176399 -0.0024446669736078244 0 -0.013779319687114669 -0.0035415843142357823 0 -0.018719136449559432 -0.0055076283465236783 0 -0.018621541978135633 -0.0056480099322526334 0 -0.018645141148363402 -0.0056451457243866235 0 -0.018618173589117985 -0.0057016116374299609 0 -0.018621541978135633 -0.0056480099322526334 0 -0.018645141148363402 -0.0056451457243866235 0 -0.0098558323437924339 -0.00044260080110421841 0 -0.010114122395412319 -0.0012364625497551865 0 -0.010119468666748578 -0.0013306917414875701 0 -0.011043997861517512 -0.0011700266759688052 0 -0.013566816351252014 -0.00318460694826787 0 -0.010114122395412319 -0.0012364625497551865 0 -0.010119468666748578 -0.0013306917414875701 0 -0.011123012427739836 -0.0013172806981089724 0 -0.010512184200416453 -0.0019219127177329321 0 -0.010119468666748578 -0.0013306917414875701 0 -0.011123012427739836 -0.0013172806981089724 0 -0.011123012427739836 -0.0013172806981089724 0 -0.011763264361068079 -0.00036107729326545094 0 -0.012701858773430887 -0.0013616936046970548 0 -0.010274847190846953 -0.0012759874358115055 0 -0.01100686135057209 -0.00015728225372041633 0 -0.010114122395412319 -0.0012364625497551865 0 -0.011123012427739836 -0.0013172806981089724 0 -0.011763264361068079 -0.00036107729326545094 0 -0.011448820829678245 -0.0020921749194644803 0 -0.011123012427739836 -0.0013172806981089724 0 -0.012701858773430887 -0.0013616936046970548 0 -0.010225396167963465 5.7422113530695268e-05 0 -0.010334830998093385 -0.00013170487793820232 0 -0.010187497850382577 -0.00013943726801798526 0 -0.010114122395412319 -0.0012364625497551865 0 -0.010950417932150798 -0.00070104130720905096 0 -0.010390769354314995 -0.00072476675329030292 0 -0.010950417932150798 -0.00070104130720905096 0 -0.010390769354314995 -0.00072476675329030292 0 -0.010334830998093385 -0.00013170487793820232 0 -0.01100686135057209 -0.00015728225372041633 0 -0.010290614295362125 -0.00012284620001962518 0 -0.0098558323437924339 -0.00044260080110421841 0 -0.010114122395412319 -0.0012364625497551865 0 -0.010390769354314995 -0.00072476675329030292 0 -0.011782850348993184 -0.0016865127242904133 0 -0.013566816351252014 -0.00318460694826787 0 -0.010390769354314995 -0.00072476675329030292 0 -0.010160898699301426 -0.00035388005502292707 0 -0.010334830998093385 -0.00013170487793820232 0 -0.0098558323437924339 -0.00044260080110421841 0 -0.010390769354314995 -0.00072476675329030292 0 -0.010160898699301426 -0.00035388005502292707 0 -0.0098558323437924339 -0.00044260080110421841 0 -0.010160898699301426 -0.00035388005502292707 0 -0.01007384254542356 -0.00016649042704365533 0 -0.0078134447536008858 0.0022264261604062691 0 -0.0087031415935615569 0.0012504003048312185 0 -0.01007384254542356 -0.00016649042704365533 0 -0.010288093555672329 -2.6893782889865829e-05 0 -0.0096928115226334981 0.00020418650362951022 0 -0.01007384254542356 -0.00016649042704365533 0 -0.010334830998093385 -0.00013170487793820232 0 -0.010288093555672329 -2.6893782889865829e-05 0 -0.010160898699301426 -0.00035388005502292707 0 -0.01007384254542356 -0.00016649042704365533 0 -0.010334830998093385 -0.00013170487793820232 0 -0.0078134447536008858 0.0022264261604062691 0 -0.0072309773617814698 0.0022849345278390287 0 -0.0055818246604513542 0.0043414194217447147 0 -0.0051394974303252076 0.0037412967256517816 0 -0.0046935884895466327 0.0045475377775360259 0 -0.010334830998093385 -0.00013170487793820232 0 -0.010288093555672329 -2.6893782889865829e-05 0 -0.010187497850382577 -0.00013943726801798526 0 -0.0051394974303252076 0.0037412967256517816 0 -0.0046935884895466327 0.0045475377775360259 0 -0.0043910956622699717 0.0035459454525392968 0 -0.0055818246604513542 0.0043414194217447147 0 -0.0051394974303252076 0.0037412967256517816 0 -0.0058622848993025245 0.0034391195768721915 0 -0.0055818246604513542 0.0043414194217447147 0 -0.0064881594953706658 0.0041119157757719318 0 -0.0058622848993025245 0.0034391195768721915 0 -0.0087031415935615569 0.0012504003048312185 0 -0.0067864967486516489 0.0029898694087966303 0 -0.0064881594953706658 0.0041119157757719318 0 -0.0068387313184019097 0.0030172533375014405 0 -0.0058622848993025245 0.0034391195768721915 0 -0.0073695628177380245 0.0021506022365897896 0 -0.0074416290870130556 0.002144989517965783 0 -0.0073209349869423936 0.0020574656891658243 0 -0.0087031415935615569 0.0012504003048312185 0 -0.013448784402672354 -0.0016518463992227018 0 -0.016706876835561973 -0.0046093577811648625 0 -0.013448784402672354 -0.0016518463992227018 0 -0.018719136449559432 -0.0055076283465236783 0 -0.018817680074272203 -0.0049158813785922812 0 -0.018585255718124721 -0.0053743063060283647 0 -0.0098558323437924339 -0.00044260080110421841 0 -0.01007384254542356 -0.00016649042704365533 0 -0.0096928115226334981 0.00020418650362951022 0 -0.011782850348993184 -0.0016865127242904133 0 -0.0087031415935615569 0.0012504003048312185 0 -0.013001837485182305 -0.0023322101983391441 0 -0.01343937643176399 -0.0024446669736078244 0 -0.013086512199175417 -0.0013377392557499591 0 -0.013001837485182305 -0.0023322101983391441 0 -0.013086512199175417 -0.0013377392557499591 0 -0.012217431435096272 -0.0011131459961797976 0 -0.0073805388880817391 0.001934101048633387 0 -0.0078543718696682668 0.0023094284979465556 0 -0.0085609139708043517 0.0015757891670054496 0 -0.0071836978530917519 0.0020298334011749799 0 -0.0088511209292339091 0.0012473661012227337 0 -0.0073805388880817391 0.001934101048633387 0 -0.0080047986263842245 0.0017363749784715338 0 -0.0075522646656507779 0.0014284014409179585 0 -0.0081485391896883447 0.0029281624876416716 0 -0.0078543718696682668 0.0023094284979465556 0 -0.0085609139708043517 0.0015757891670054496 0 -0.011266418260177805 7.192493934705012e-05 0 -0.011443970751660338 0.00011816254452305121 0 -0.011202373227160389 0.00078581835897434903 0 -0.012404002736263129 0.0012817680010149457 0 -0.0088511209292339091 0.0012473661012227337 0 -0.0081485391896883447 0.0029281624876416716 0 -0.0078543718696682668 0.0023094284979465556 0 -0.0078957408415732157 0.0028628070067789869 0 -0.016075652169066066 0.0018773439459689434 0 -0.01375010987517363 0.001443888540250252 0 -0.011266418260177805 7.192493934705012e-05 0 -0.011202373227160389 0.00078581835897434903 0 -0.010890155641174319 0.00040068592019705784 0 -0.0088511209292339091 0.0012473661012227337 0 -0.0080242314015462838 0.0017089364372252604 0 -0.011202373227160389 0.00078581835897434903 0 -0.010890155641174319 0.00040068592019705784 0 -0.010653482172891133 0.00091844984984563451 0 -0.010890155641174319 0.00040068592019705784 0 -0.010432309767311753 0.00027126862837897311 0 -0.010653482172891133 0.00091844984984563451 0 -0.010768244921169776 -7.2885236652605394e-05 0 -0.010890155641174319 0.00040068592019705784 0 -0.010432309767311753 0.00027126862837897311 0 -0.01100686135057209 -0.00015728225372041633 0 -0.011417943380210481 -0.00039379575395590791 0 -0.01100686135057209 -0.00015728225372041633 0 -0.0080242314015462838 0.0017089364372252604 0 -0.010107839229202638 0.00060755151390968272 0 -0.010432309767311753 0.00027126862837897311 0 -0.010653482172891133 0.00091844984984563451 0 -0.010225396167963465 5.7422113530695268e-05 0 -0.010187497850382577 -0.00013943726801798526 0 -0.0099019769526049774 -5.9749433147989386e-05 0 -0.0072309773617814698 0.0022849345278390287 0 -0.0080242314015462838 0.0017089364372252604 0 -0.0046935884895466327 0.0045475377775360259 0 -0.0037831085196834797 0.0040319034083634298 0 -0.0038566147638650476 0.0047406151889948008 0 -0.0046935884895466327 0.0045475377775360259 0 -0.0043910956622699717 0.0035459454525392968 0 -0.0037831085196834797 0.0040319034083634298 0 -0.0043910956622699717 0.0035459454525392968 0 -0.0037831085196834797 0.0040319034083634298 0 -0.0033807745297776168 0.0033441617725392401 0 -0.0037831085196834797 0.0040319034083634298 0 -0.0031168983018348916 0.0043501897909419334 0 -0.0033807745297776168 0.0033441617725392401 0 -0.0080242314015462838 0.0017089364372252604 0 -0.0048606066811699364 0.0034413026097796159 0 -0.0037831085196834797 0.0040319034083634298 0 -0.0038566147638650476 0.0047406151889948008 0 -0.0031168983018348916 0.0043501897909419334 0 -0.0074255780558004584 0.0020261734671222185 0 -0.0071625978953206038 0.0020970977775779864 0 -0.0073590517927010135 0.0022096070855764532 0 -0.0088511209292339091 0.0012473661012227337 0 -0.0048606066811699364 0.0034413026097796159 0 -0.0025986805507183575 0.0051813381573835695 0 -0.002010545876953393 0.003765583015498414 0 -0.0030349422134227722 0.0038283793622550001 0 -0.0048606066811699364 0.0034413026097796159 0 -0.0029057142673491083 0.0039229892374230951 0 -0.0025986805507183575 0.0051813381573835695 0 -0.0013516999046681894 0.0045278402015300001 0 -0.002010545876953393 0.003765583015498414 0 -0.0048606066811699364 0.0034413026097796159 0 -0.004530848310289306 0.0027217977014074583 0 -0.0080047986263842245 0.0017363749784715338 0 -0.0081318770669548228 0.0013111773583248832 0 -0.0075522646656507779 0.0014284014409179585 0 -0.0081318770669548228 0.0013111773583248832 0 -0.007494160510470727 0.0009362988150823907 0 -0.0075522646656507779 0.0014284014409179585 0 -0.0013038682404710902 0.0030958119597966705 0 -0.002010545876953393 0.003765583015498414 0 -0.0022891087076299058 0.0027210507181101512 0 -0.0013038682404710902 0.0030958119597966705 0 -0.0022891087076299058 0.0027210507181101512 0 -0.0014654215290492995 0.0020001882314528794 0 -0.0013516999046681894 0.0045278402015300001 0 -0.0013038682404710902 0.0030958119597966705 0 -0.002010545876953393 0.003765583015498414 0 -0.002010545876953393 0.003765583015498414 0 -0.0030349422134227722 0.0038283793622550001 0 -0.0022891087076299058 0.0027210507181101512 0 -0.0030349422134227722 0.0038283793622550001 0 -0.0022891087076299058 0.0027210507181101512 0 -0.0035608327124044981 0.0023375428555298034 0 -0.0029057142673491083 0.0039229892374230951 0 -0.0036469082677743486 0.0022375411975805418 0 -0.0033807745297776168 0.0033441617725392401 0 -0.0035608327124044981 0.0023375428555298034 0 -0.0043119927574098212 0.0027745954775891552 0 -0.0043910956622699717 0.0035459454525392968 0 -0.0043119927574098212 0.0027745954775891552 0 -0.005188281309210771 0.0028084263059070876 0 -0.0043910956622699717 0.0035459454525392968 0 -0.0033807745297776168 0.0033441617725392401 0 -0.0043119927574098212 0.0027745954775891552 0 -0.0035608327124044981 0.0023375428555298034 0 -0.0043119927574098212 0.0027745954775891552 0 -0.0049233088268456401 0.0017813305819426456 0 -0.0035608327124044981 0.0023375428555298034 0 -0.0036033522846108065 0.0011296161520097418 0 -0.0049233088268456401 0.0017813305819426456 0 -0.0036033522846108065 0.0011296161520097418 0 -0.0049233088268456401 0.0017813305819426456 0 -0.0045504268588115685 0.00036491172075656342 0 -0.0035608327124044981 0.0023375428555298034 0 -0.0036033522846108065 0.0011296161520097418 0 -0.0024747663660469495 0.0014583946745252287 0 -0.0022891087076299058 0.0027210507181101512 0 -0.0035608327124044981 0.0023375428555298034 0 -0.0024747663660469495 0.0014583946745252287 0 -0.0036033522846108065 0.0011296161520097418 0 -0.0024747663660469495 0.0014583946745252287 0 -0.0025712172300016113 0.00065712114949704515 0 -0.0024747663660469495 0.0014583946745252287 0 -0.0018228583882456345 0.0010455653944306232 0 -0.0025712172300016113 0.00065712114949704515 0 -0.0024747663660469495 0.0014583946745252287 0 -0.0018228583882456345 0.0010455653944306232 0 -0.0014654215290492995 0.0020001882314528794 0 -0.00070360304654589162 0.0012435883015100204 0 -0.0018228583882456345 0.0010455653944306232 0 -0.0018616534129700794 -0.00012735278848956675 0 -0.00070360304654589162 0.0012435883015100204 0 -0.0018228583882456345 0.0010455653944306232 0 -0.0014654215290492995 0.0020001882314528794 0 -0.0022891087076299058 0.0027210507181101512 0 -0.0024747663660469495 0.0014583946745252287 0 -0.0014654215290492995 0.0020001882314528794 0 -0.0068387313184019097 0.0030172533375014405 0 -0.0060353608513536803 0.0024167027105276872 0 -0.0071874661502919447 0.0017941732192694091 0 -0.0067864967486516489 0.0029898694087966303 0 -0.0072976383020469894 0.0016271816398823905 0 -0.0075691195452228122 0.0020594317342085781 0 -0.0073209349869423936 0.0020574656891658243 0 -0.0071874661502919447 0.0017941732192694091 0 -0.0075691195452228122 0.0020594317342085781 0 -0.0074416290870130556 0.002144989517965783 0 -0.0073209349869423936 0.0020574656891658243 0 -0.0068387313184019097 0.0030172533375014405 0 -0.0058622848993025245 0.0034391195768721915 0 -0.0060353608513536803 0.0024167027105276872 0 -0.0058622848993025245 0.0034391195768721915 0 -0.005188281309210771 0.0028084263059070876 0 -0.0060353608513536803 0.0024167027105276872 0 -0.0051394974303252076 0.0037412967256517816 0 -0.0043910956622699717 0.0035459454525392968 0 -0.005188281309210771 0.0028084263059070876 0 -0.0051394974303252076 0.0037412967256517816 0 -0.0058622848993025245 0.0034391195768721915 0 -0.005188281309210771 0.0028084263059070876 0 -0.0043119927574098212 0.0027745954775891552 0 -0.005188281309210771 0.0028084263059070876 0 -0.0049233088268456401 0.0017813305819426456 0 -0.005188281309210771 0.0028084263059070876 0 -0.0060353608513536803 0.0024167027105276872 0 -0.0049233088268456401 0.0017813305819426456 0 -0.0060353608513536803 0.0024167027105276872 0 -0.0049233088268456401 0.0017813305819426456 0 -0.0061401086079868232 0.0014792935765453432 0 -0.0049233088268456401 0.0017813305819426456 0 -0.0057016723661158517 0.00057476242907479797 0 -0.0045504268588115685 0.00036491172075656342 0 -0.0049233088268456401 0.0017813305819426456 0 -0.0061401086079868232 0.0014792935765453432 0 -0.0057016723661158517 0.00057476242907479797 0 -0.0061401086079868232 0.0014792935765453432 0 -0.0071874661502919447 0.0017941732192694091 0 -0.0067006801973658169 0.00082586050508102549 0 -0.0061401086079868232 0.0014792935765453432 0 -0.0067006801973658169 0.00082586050508102549 0 -0.0057016723661158517 0.00057476242907479797 0 -0.0060353608513536803 0.0024167027105276872 0 -0.0061401086079868232 0.0014792935765453432 0 -0.0071874661502919447 0.0017941732192694091 0 -0.0076796278224679562 0.00097742690060774289 0 -0.0071874661502919447 0.0017941732192694091 0 -0.0067006801973658169 0.00082586050508102549 0 -0.0076796278224679562 0.00097742690060774289 0 -0.007172270476596263 0.00011864161389239068 0 -0.0067006801973658169 0.00082586050508102549 0 -0.007218127049227102 -0.00073114036291335206 0 -0.0066084446026300498 -0.00093655051027206958 0 -0.007172270476596263 0.00011864161389239068 0 -0.0060803514133672201 0.00011317155985135597 0 -0.0065538994688351818 -0.00087637082576394628 0 -0.007172270476596263 0.00011864161389239068 0 -0.0060803514133672201 0.00011317155985135597 0 -0.0067006801973658169 0.00082586050508102549 0 -0.0060803514133672201 0.00011317155985135597 0 -0.0067006801973658169 0.00082586050508102549 0 -0.0056228984332940563 0.00077874976904708016 0 -0.006619884001567539 0.00081282317142669625 0 -0.0056758488849617374 0.00067638254824379065 0 -0.0060803514133672201 0.00011317155985135597 0 -0.0056228984332940563 0.00077874976904708016 0 -0.0052518209082206176 0.00021002499911298742 0 -0.0056228984332940563 0.00077874976904708016 0 -0.0052518209082206176 0.00021002499911298742 0 -0.0047042416079063872 0.00064887965613510934 0 -0.0056758488849617374 0.00067638254824379065 0 -0.0045986478700586605 0.00050602452535286602 0 -0.0052518209082206176 0.00021002499911298742 0 -0.0047042416079063872 0.00064887965613510934 0 -0.0046872591671087678 -7.5115662833578702e-05 0 -0.0052518209082206176 0.00021002499911298742 0 -0.0053325632090928448 -0.00039864798143176601 0 -0.0046872591671087678 -7.5115662833578702e-05 0 -0.0060803514133672201 0.00011317155985135597 0 -0.0052518209082206176 0.00021002499911298742 0 -0.0053325632090928448 -0.00039864798143176601 0 -0.0060803514133672201 0.00011317155985135597 0 -0.0053325632090928448 -0.00039864798143176601 0 -0.0065538994688351818 -0.00087637082576394628 0 -0.0053325632090928448 -0.00039864798143176601 0 -0.0055346368477010507 -0.0010008218860626367 0 -0.0065538994688351818 -0.00087637082576394628 0 -0.0053325632090928448 -0.00039864798143176601 0 -0.0046872591671087678 -7.5115662833578702e-05 0 -0.0045639437556635049 -0.00062422566525374798 0 -0.0053325632090928448 -0.00039864798143176601 0 -0.0055346368477010507 -0.0010008218860626367 0 -0.0045639437556635049 -0.00062422566525374798 0 -0.0055346368477010507 -0.0010008218860626367 0 -0.0045639437556635049 -0.00062422566525374798 0 -0.0044177410171656944 -0.00098193992542925691 0 -0.0055346368477010507 -0.0010008218860626367 0 -0.0064169004703945164 -0.0012511252525338904 0 -0.0065538994688351818 -0.00087637082576394628 0 -0.0064169004703945164 -0.0012511252525338904 0 -0.0067122532566042644 -0.0013481793556660408 0 -0.0069720395216960312 -0.00118819868571137 0 -0.0064169004703945164 -0.0012511252525338904 0 -0.0065538994688351818 -0.00087637082576394628 0 -0.0069720395216960312 -0.00118819868571137 0 -0.0072869030889972999 -0.00149845322346726 0 -0.0065538994688351818 -0.00087637082576394628 0 -0.0069720395216960312 -0.00118819868571137 0 -0.00071750491742859771 0.00017190200029126406 0 -0.00092514781628204432 -9.8167466030888098e-05 0 -0.0010106811434753753 0.00024861497793127792 0 -0.00092514781628204432 -9.8167466030888098e-05 0 -0.0012357895348694891 5.8604580199497736e-05 0 -0.0010106811434753753 0.00024861497793127792 0 -0.0012357895348694891 5.8604580199497736e-05 0 -0.0010106811434753753 0.00024861497793127792 0 -0.001193124471167474 0.00055040780696930176 0 -0.00071750491742859771 0.00017190200029126406 0 -0.00068170053526933811 0.00057350092395372072 0 -0.0010106811434753753 0.00024861497793127792 0 -0.0010106811434753753 0.00024861497793127792 0 -0.0010040903838820273 0.00051826104219461337 0 -0.001193124471167474 0.00055040780696930176 0 -0.00068170053526933811 0.00057350092395372072 0 -0.0010106811434753753 0.00024861497793127792 0 -0.0010040903838820273 0.00051826104219461337 0 -0.0018228583882456345 0.0010455653944306232 0 -0.0018616534129700794 -0.00012735278848956675 0 -0.0025712172300016113 0.00065712114949704515 0 -0.00060978752022927934 0.0011521936393391423 0 -0.0019263421108150266 0.00042698645712548153 0 -0.00070360304654589162 0.0012435883015100204 0 -0.0010040903838820273 0.00051826104219461337 0 -0.0011489374518169331 0.0005328205444977862 0 -0.0014156449688294075 0.00040674614043525504 0 -0.0019263421108150266 0.00042698645712548153 0 -0.0018616534129700794 -0.00012735278848956675 0 -0.0025712172300016113 0.00065712114949704515 0 -0.0032903518737235505 0.00012180233951804021 0 -0.0019263421108150266 0.00042698645712548153 0 -0.0037113216255231125 0.00031103317593065557 0 -0.0012357895348694891 5.8604580199497736e-05 0 -0.001193124471167474 0.00055040780696930176 0 -0.0017321046768928043 -4.4501376594650666e-05 0 -0.0031072934259096692 0.00044165877404838652 0 -0.003567394923585065 -7.7487451004045415e-05 0 -0.0039151798764199969 0.00053915863370699864 0 -0.0019263421108150266 0.00042698645712548153 0 -0.0026872949978948612 -0.00010241942599484482 0 -0.0012357895348694891 5.8604580199497736e-05 0 -0.0017321046768928043 -4.4501376594650666e-05 0 -0.0013504273616830841 -0.00036097087770570814 0 -0.003567394923585065 -7.7487451004045415e-05 0 -0.0041793838357516901 8.5423466890552233e-05 0 -0.0039371702444867271 -0.00020662003168673372 0 -0.003567394923585065 -7.7487451004045415e-05 0 -0.0041793838357516901 8.5423466890552233e-05 0 -0.0039151798764199969 0.00053915863370699864 0 -0.0041793838357516901 8.5423466890552233e-05 0 -0.0042616315331675883 -0.0002879355808123487 0 -0.0039371702444867271 -0.00020662003168673372 0 -0.0041793838357516901 8.5423466890552233e-05 0 -0.0039151798764199969 0.00053915863370699864 0 -0.0047042416079063872 0.00064887965613510934 0 -0.0036033522846108065 0.0011296161520097418 0 -0.0032903518737235505 0.00012180233951804021 0 -0.0045504268588115685 0.00036491172075656342 0 -0.0036033522846108065 0.0011296161520097418 0 -0.0025712172300016113 0.00065712114949704515 0 -0.0032903518737235505 0.00012180233951804021 0 -0.0037113216255231125 0.00031103317593065557 0 -0.0045986478700586605 0.00050602452535286602 0 -0.0041793838357516901 8.5423466890552233e-05 0 -0.0047042416079063872 0.00064887965613510934 0 -0.0046872591671087678 -7.5115662833578702e-05 0 -0.0041793838357516901 8.5423466890552233e-05 0 -0.0046872591671087678 -7.5115662833578702e-05 0 -0.0042616315331675883 -0.0002879355808123487 0 -0.0045639437556635049 -0.00062422566525374798 0 -0.0041076109392357051 -0.00053496503405271354 0 -0.0042616315331675883 -0.0002879355808123487 0 -0.0046872591671087678 -7.5115662833578702e-05 0 -0.0045639437556635049 -0.00062422566525374798 0 -0.0042616315331675883 -0.0002879355808123487 0 -0.0045639437556635049 -0.00062422566525374798 0 -0.0041076109392357051 -0.00053496503405271354 0 -0.0044177410171656944 -0.00098193992542925691 0 -0.0031859747173793589 -0.00031972795731934837 0 -0.0044916680382453616 -0.00078946283544669544 0 -0.0040722737440539976 -0.00054499254051899718 0 -0.0041076109392357051 -0.00053496503405271354 0 -0.0044177410171656944 -0.00098193992542925691 0 -0.0030968819442244284 0.00079662197583718576 0 -0.0026392835746194164 -6.4511925169996568e-05 0 -0.0044177410171656944 -0.00098193992542925691 0 -0.003567394923585065 -7.7487451004045415e-05 0 -0.0040377403662065154 -0.00055735534157746634 0 -0.0039371702444867271 -0.00020662003168673372 0 -0.0040377403662065154 -0.00055735534157746634 0 -0.0040878280555363107 -0.00039541306832864483 0 -0.0039371702444867271 -0.00020662003168673372 0 -0.0031859747173793589 -0.00031972795731934837 0 -0.0033003630331017255 -0.00030436546448649437 0 -0.0041076109392357051 -0.00053496503405271354 0 -0.0040878280555363107 -0.00039541306832864483 0 -0.0042616315331675883 -0.0002879355808123487 0 -0.0040377403662065154 -0.00055735534157746634 0 -0.0041076109392357051 -0.00053496503405271354 0 -0.0040878280555363107 -0.00039541306832864483 0 -0.0040878280555363107 -0.00039541306832864483 0 -0.0042616315331675883 -0.0002879355808123487 0 -0.0039371702444867271 -0.00020662003168673372 0 -0.0017321046768928043 -4.4501376594650666e-05 0 -0.0022800657165089676 -0.00066684377402205887 0 -0.0017194030943623122 -0.00049876419864248284 0 -0.0022800657165089676 -0.00066684377402205887 0 -0.0017194030943623122 -0.00049876419864248284 0 -0.0014959362369076951 -0.00089924188272836843 0 -0.0026872949978948612 -0.00010241942599484482 0 -0.0031859747173793589 -0.00031972795731934837 0 -0.0017321046768928043 -4.4501376594650666e-05 0 -0.0017194030943623122 -0.00049876419864248284 0 -0.0013504273616830841 -0.00036097087770570814 0 -0.0017194030943623122 -0.00049876419864248284 0 -0.0014959362369076951 -0.00089924188272836843 0 -0.0013504273616830841 -0.00036097087770570814 0 -0.0030968819442244284 0.00079662197583718576 0 -0.0026392835746194164 -6.4511925169996568e-05 0 -0.0018539977513559003 0.00037560800641122001 0 -0.0031859747173793589 -0.00031972795731934837 0 -0.001573097316061956 -0.00025777305674684159 0 -0.0026392835746194164 -6.4511925169996568e-05 0 -0.0018539977513559003 0.00037560800641122001 0 -0.0025121001593063704 -0.00088522061238721921 0 -0.00085953758037506198 -0.00054348313342633106 0 -0.001573097316061956 -0.00025777305674684159 0 -0.00071269358836667941 -0.001134365206767334 0 -0.0014959362369076951 -0.00089924188272836843 0 -0.00093714857069817216 -0.00056250521475882068 0 -0.00067187966971112023 3.8501463275644622e-05 0 -0.0018539977513559003 0.00037560800641122001 0 -0.0010030936320392925 -0.00061440111258427371 0 -0.0014959362369076951 -0.00089924188272836843 0 -0.00093714857069817216 -0.00056250521475882068 0 -0.0013504273616830841 -0.00036097087770570814 0 -0.00092514781628204432 -9.8167466030888098e-05 0 -0.0012357895348694891 5.8604580199497736e-05 0 -0.0013504273616830841 -0.00036097087770570814 0 -0.00092514781628204432 -9.8167466030888098e-05 0 -0.00093714857069817216 -0.00056250521475882068 0 -0.0013504273616830841 -0.00036097087770570814 0 -0.00059724683716771184 -0.00023947653699801436 0 -0.00092514781628204432 -9.8167466030888098e-05 0 -0.00093714857069817216 -0.00056250521475882068 0 -0.0010836137805967459 -0.0014263584407824639 0 -0.0019074944171042665 -0.0022508382851079739 0 -0.00028160968598310603 -0.0024432092616055285 0 -0.0010836137805967459 -0.0014263584407824639 0 -0.00026903923005511151 -0.0012860648502945105 0 -0.00028160968598310603 -0.0024432092616055285 0 -0.0010836137805967459 -0.0014263584407824639 0 -0.00056324711580354526 -6.7286453835798782e-05 0 -0.0025121001593063704 -0.00088522061238721921 0 -0.0010836137805967459 -0.0014263584407824639 0 -0.00026903923005511151 -0.0012860648502945105 0 -0.00056324711580354526 -6.7286453835798782e-05 0 -0.0018539977513559003 0.00037560800641122001 0 -0.0010030936320392925 -0.00061440111258427371 0 -0.0025121001593063704 -0.00088522061238721921 0 -0.00079036591764275596 -0.00031054006509977761 0 -0.0023905690762273534 -0.00083057310126330886 0 -0.0010836137805967459 -0.0014263584407824639 0 -0.0025121001593063704 -0.00088522061238721921 0 -0.0019074944171042665 -0.0022508382851079739 0 -0.0025121001593063704 -0.00088522061238721921 0 -0.0032922750373119841 -0.001723289996818663 0 -0.0019074944171042665 -0.0022508382851079739 0 -0.0032922750373119841 -0.001723289996818663 0 -0.0041950379582488349 -0.0019410999758853254 0 -0.0032577275175331311 -0.0026674221846863127 0 -0.0025121001593063704 -0.00088522061238721921 0 -0.0032922750373119841 -0.001723289996818663 0 -0.0044177410171656944 -0.00098193992542925691 0 -0.0026392835746194164 -6.4511925169996568e-05 0 -0.0025121001593063704 -0.00088522061238721921 0 -0.0044177410171656944 -0.00098193992542925691 0 -0.0032922750373119841 -0.001723289996818663 0 -0.0044177410171656944 -0.00098193992542925691 0 -0.0041950379582488349 -0.0019410999758853254 0 -0.0041950379582488349 -0.0019410999758853254 0 -0.0042411200632002238 -0.0026942746719754631 0 -0.0032577275175331311 -0.0026674221846863127 0 -0.0042411200632002238 -0.0026942746719754631 0 -0.003880224836155164 -0.003480695445933827 0 -0.0032577275175331311 -0.0026674221846863127 0 -0.0042411200632002238 -0.0026942746719754631 0 -0.003880224836155164 -0.003480695445933827 0 -0.00487671390247864 -0.0031076824251158532 0 -0.0028771904206949502 -0.0034727983664108453 0 -0.0032577275175331311 -0.0026674221846863127 0 -0.0021210612212134473 -0.0031437876511448502 0 -0.003880224836155164 -0.003480695445933827 0 -0.0028771904206949502 -0.0034727983664108453 0 -0.0033173732348962888 -0.0038796322197868402 0 -0.003880224836155164 -0.003480695445933827 0 -0.0028771904206949502 -0.0034727983664108453 0 -0.0032577275175331311 -0.0026674221846863127 0 -0.0028771904206949502 -0.0034727983664108453 0 -0.0027816088491470574 -0.0040101415806558091 0 -0.0033173732348962888 -0.0038796322197868402 0 -0.0032922750373119841 -0.001723289996818663 0 -0.0032577275175331311 -0.0026674221846863127 0 -0.0019074944171042665 -0.0022508382851079739 0 -0.0019074944171042665 -0.0022508382851079739 0 -0.0021210612212134473 -0.0031437876511448502 0 -0.00096474964883253413 -0.0033931951322832628 0 -0.0032577275175331311 -0.0026674221846863127 0 -0.0019074944171042665 -0.0022508382851079739 0 -0.0021210612212134473 -0.0031437876511448502 0 -0.0028771904206949502 -0.0034727983664108453 0 -0.0019009398392275609 -0.003993118400679424 0 -0.0027816088491470574 -0.0040101415806558091 0 -0.0028771904206949502 -0.0034727983664108453 0 -0.0021210612212134473 -0.0031437876511448502 0 -0.0019009398392275609 -0.003993118400679424 0 -0.0021210612212134473 -0.0031437876511448502 0 -0.0019009398392275609 -0.003993118400679424 0 -0.00096474964883253413 -0.0033931951322832628 0 -0.00096474964883253413 -0.0033931951322832628 0 -0.0004420733518850051 -0.0036561435943427509 0 -0.00028160968598310603 -0.0024432092616055285 0 -0.0017137086607872873 -0.004014379990594571 0 -0.0010188451623913139 -0.0034170726633699477 0 -0.001402441052333447 -0.0039175271039888085 0 -0.00096474964883253413 -0.0033931951322832628 0 -0.000785975405721848 -0.0039831498792656716 0 -0.00096474964883253413 -0.0033931951322832628 0 -0.0004420733518850051 -0.0036561435943427509 0 -0.000785975405721848 -0.0039831498792656716 0 -0.0004420733518850051 -0.0036561435943427509 0 -0.000785975405721848 -0.0039831498792656716 0 -0.00022588191271252349 -0.0040913954086944674 0 -0.0019074944171042665 -0.0022508382851079739 0 -0.00096474964883253413 -0.0033931951322832628 0 -0.00028160968598310603 -0.0024432092616055285 0 -0.0063697303867385627 -0.0017014539706079448 0 -0.0058565203995496664 -0.0015432466606702714 0 -0.0056662164757898597 -0.0022311270472574747 0 -0.0063697303867385627 -0.0017014539706079448 0 -0.0064481707122681156 -0.0015836720812993533 0 -0.0067122532566042644 -0.0013481793556660408 0 -0.0064169004703945164 -0.0012511252525338904 0 -0.0063697303867385627 -0.0017014539706079448 0 -0.0067122532566042644 -0.0013481793556660408 0 -0.0055346368477010507 -0.0010008218860626367 0 -0.0064169004703945164 -0.0012511252525338904 0 -0.0058565203995496664 -0.0015432466606702714 0 -0.0064169004703945164 -0.0012511252525338904 0 -0.0063697303867385627 -0.0017014539706079448 0 -0.0058565203995496664 -0.0015432466606702714 0 -0.0055346368477010507 -0.0010008218860626367 0 -0.0058565203995496664 -0.0015432466606702714 0 -0.0051317646827304768 -0.001601670870630308 0 -0.0055346368477010507 -0.0010008218860626367 0 -0.0044177410171656944 -0.00098193992542925691 0 -0.0051317646827304768 -0.001601670870630308 0 -0.0044177410171656944 -0.00098193992542925691 0 -0.0041950379582488349 -0.0019410999758853254 0 -0.0051317646827304768 -0.001601670870630308 0 -0.0041950379582488349 -0.0019410999758853254 0 -0.0051317646827304768 -0.001601670870630308 0 -0.0049001835906875629 -0.0022971397451272582 0 -0.0051317646827304768 -0.001601670870630308 0 -0.0056662164757898597 -0.0022311270472574747 0 -0.0049001835906875629 -0.0022971397451272582 0 -0.0058565203995496664 -0.0015432466606702714 0 -0.0051317646827304768 -0.001601670870630308 0 -0.0056662164757898597 -0.0022311270472574747 0 -0.0042411200632002238 -0.0026942746719754631 0 -0.0049001835906875629 -0.0022971397451272582 0 -0.00487671390247864 -0.0031076824251158532 0 -0.0056662164757898597 -0.0022311270472574747 0 -0.0049001835906875629 -0.0022971397451272582 0 -0.00487671390247864 -0.0031076824251158532 0 -0.0041950379582488349 -0.0019410999758853254 0 -0.0042411200632002238 -0.0026942746719754631 0 -0.0049001835906875629 -0.0022971397451272582 0 -0.00487671390247864 -0.0031076824251158532 0 -0.0056749412318859637 -0.0033293803569672078 0 -0.0046281174655428726 -0.0042719364953159276 0 -0.003880224836155164 -0.003480695445933827 0 -0.00487671390247864 -0.0031076824251158532 0 -0.0046281174655428726 -0.0042719364953159276 0 -0.0056662164757898597 -0.0022311270472574747 0 -0.00487671390247864 -0.0031076824251158532 0 -0.0056749412318859637 -0.0033293803569672078 0 -0.0056662164757898597 -0.0022311270472574747 0 -0.0056749412318859637 -0.0033293803569672078 0 -0.0063690161328579581 -0.0023995349618156228 0 -0.0045174553575343633 -0.0027281161227511899 0 -0.0056258841886489917 -0.0020285386154896309 0 -0.0034961466610920343 -0.002089155389533207 0 -0.0049470888201571476 -0.0015858696977374719 0 -0.0048040921437863407 -0.0026518535390293507 0 -0.0063697303867385627 -0.0017014539706079448 0 -0.0056662164757898597 -0.0022311270472574747 0 -0.0063690161328579581 -0.0023995349618156228 0 -0.0063697303867385627 -0.0017014539706079448 0 -0.0063690161328579581 -0.0023995349618156228 0 -0.0064481707122681156 -0.0015836720812993533 0 -0.0056258841886489917 -0.0020285386154896309 0 -0.0063302211176773752 -0.0016391552675560121 0 -0.0049470888201571476 -0.0015858696977374719 0 -0.0058509417231539587 -0.0019372275494221119 0 -0.0064481707122681156 -0.0015836720812993533 0 -0.0049470888201571476 -0.0015858696977374719 0 -0.0058509417231539587 -0.0019372275494221119 0 -0.0048040921437863407 -0.0026518535390293507 0 -0.0058509417231539587 -0.0019372275494221119 0 -0.0064347003580816509 -0.0020021142378001174 0 -0.0059310088399266063 -0.0025606903561800217 0 -0.0064347003580816509 -0.0020021142378001174 0 -0.0067168482311497158 -0.0015999449394416786 0 -0.0070280709946011401 -0.0022187908136271088 0 -0.0064347003580816509 -0.0020021142378001174 0 -0.0070280709946011401 -0.0022187908136271088 0 -0.0065038907076611129 -0.0026476896133983238 0 -0.0064347003580816509 -0.0020021142378001174 0 -0.0067168482311497158 -0.0015999449394416786 0 -0.0064481707122681156 -0.0015836720812993533 0 -0.0058509417231539587 -0.0019372275494221119 0 -0.0064347003580816509 -0.0020021142378001174 0 -0.0064481707122681156 -0.0015836720812993533 0 -0.0065614449893108221 0.00054356040915812189 0 -0.0062668444087094063 0.00029747963232813751 0 -0.006139888162858884 0.0006876280008436675 0 -0.0065614449893108221 0.00054356040915812189 0 -0.006139888162858884 0.0006876280008436675 0 -0.0066045310006510984 0.00090131967914038611 0 -0.0065614449893108221 0.00054356040915812189 0 -0.0068553428390871153 0.0006857746253855064 0 -0.0068945287612413499 5.9885341767626359e-05 0 -0.0065614449893108221 0.00054356040915812189 0 -0.0068553428390871153 0.0006857746253855064 0 -0.0066045310006510984 0.00090131967914038611 0 -0.0072977926911109948 -0.00078061742716771586 0 -0.0069012239292996795 -0.0007606709416122842 0 -0.0067168482311497158 -0.0015999449394416786 0 -0.0070280709946011401 -0.0022187908136271088 0 -0.007022292210601193 -0.0015016494736321004 0 -0.0068945287612413499 5.9885341767626359e-05 0 -0.0062668444087094063 0.00029747963232813751 0 -0.0061174303658233561 -0.00013775528547270229 0 -0.0065614449893108221 0.00054356040915812189 0 -0.0068945287612413499 5.9885341767626359e-05 0 -0.0062668444087094063 0.00029747963232813751 0 -0.0068945287612413499 5.9885341767626359e-05 0 -0.006856797930242596 -0.00094073852418813451 0 -0.0061174303658233561 -0.00013775528547270229 0 -0.007022292210601193 -0.0015016494736321004 0 -0.006856797930242596 -0.00094073852418813451 0 -0.0068154637006950106 -0.0012423896627875679 0 -0.0069012239292996795 -0.0007606709416122842 0 -0.0068751881384158725 -0.00094476941216790704 0 -0.006856797930242596 -0.00094073852418813451 0 -0.0068154637006950106 -0.0012423896627875679 0 -0.0069694886503627162 -0.0012119730143521743 0 -0.0064481707122681156 -0.0015836720812993533 0 -0.0068154637006950106 -0.0012423896627875679 0 -0.0067122532566042644 -0.0013481793556660408 0 -0.0067168482311497158 -0.0015999449394416786 0 -0.0064481707122681156 -0.0015836720812993533 0 -0.0068154637006950106 -0.0012423896627875679 0 -0.0067168482311497158 -0.0015999449394416786 0 -0.007022292210601193 -0.0015016494736321004 0 -0.0068154637006950106 -0.0012423896627875679 0 -0.0068154637006950106 -0.0012423896627875679 0 -0.0067122532566042644 -0.0013481793556660408 0 -0.0070291434790872506 -0.0012774561511496028 0 -0.0067122532566042644 -0.0013481793556660408 0 -0.0069720395216960312 -0.00118819868571137 0 -0.0070291434790872506 -0.0012774561511496028 0 -0.0069720395216960312 -0.00118819868571137 0 -0.0070291434790872506 -0.0012774561511496028 0 -0.0073094272487255621 -0.0016699937420236249 0 -0.0070291434790872506 -0.0012774561511496028 0 -0.0070936682386906775 -0.0015201837097493546 0 -0.0073094272487255621 -0.0016699937420236249 0 -0.0068154637006950106 -0.0012423896627875679 0 -0.0070291434790872506 -0.0012774561511496028 0 -0.0069694886503627162 -0.0012119730143521743 0 -0.0069694886503627162 -0.0012119730143521743 0 -0.0067131334301609915 -0.0013801810762681486 0 -0.0070936682386906775 -0.0015201837097493546 0 -0.0070291434790872506 -0.0012774561511496028 0 -0.0069694886503627162 -0.0012119730143521743 0 -0.0070936682386906775 -0.0015201837097493546 0 -0.006856797930242596 -0.00094073852418813451 0 -0.0069694886503627162 -0.0012119730143521743 0 -0.0067131334301609915 -0.0013801810762681486 0 -0.006856797930242596 -0.00094073852418813451 0 -0.0067131334301609915 -0.0013801810762681486 0 -0.0060816502699752271 -0.0010485175453709926 0 -0.0067131334301609915 -0.0013801810762681486 0 -0.0069676453093447657 -0.0017330032138575839 0 -0.006594540886999704 -0.0019235584345756404 0 -0.0067131334301609915 -0.0013801810762681486 0 -0.0070936682386906775 -0.0015201837097493546 0 -0.0069676453093447657 -0.0017330032138575839 0 -0.0070936682386906775 -0.0015201837097493546 0 -0.0072885465400481173 -0.0019116417065835991 0 -0.0073094272487255621 -0.0016699937420236249 0 -0.0070936682386906775 -0.0015201837097493546 0 -0.0072885465400481173 -0.0019116417065835991 0 -0.0069676453093447657 -0.0017330032138575839 0 -0.0069676453093447657 -0.0017330032138575839 0 -0.00709779382463082 -0.0020930498593280554 0 -0.006594540886999704 -0.0019235584345756404 0 -0.0072885465400481173 -0.0019116417065835991 0 -0.0069676453093447657 -0.0017330032138575839 0 -0.00709779382463082 -0.0020930498593280554 0 -0.00709779382463082 -0.0020930498593280554 0 -0.0068220396906980502 -0.0023012613027300136 0 -0.006594540886999704 -0.0019235584345756404 0 -0.00709779382463082 -0.0020930498593280554 0 -0.0072414601312333054 -0.0024711561750483673 0 -0.0068220396906980502 -0.0023012613027300136 0 -0.00709779382463082 -0.0020930498593280554 0 -0.0072414601312333054 -0.0024711561750483673 0 -0.0075357364079925949 -0.0023057004698604274 0 -0.0072885465400481173 -0.0019116417065835991 0 -0.00709779382463082 -0.0020930498593280554 0 -0.0075357364079925949 -0.0023057004698604274 0 -0.0072885465400481173 -0.0019116417065835991 0 -0.0075357364079925949 -0.0023057004698604274 0 -0.0075876973452510483 -0.0021383519237461344 0 -0.0076143346905736898 -0.0021470845641892587 0 -0.0075876973452510483 -0.0021383519237461344 0 -0.0073094272487255621 -0.0016699937420236249 0 -0.0073498605807405734 -0.00047384635501914677 0 -0.007218127049227102 -0.00073114036291335206 0 -0.0076143346905736898 -0.0021470845641892587 0 -0.0072869030889972999 -0.00149845322346726 0 -0.0073094272487255621 -0.0016699937420236249 0 -0.0072869030889972999 -0.00149845322346726 0 -0.0069720395216960312 -0.00118819868571137 0 -0.0073094272487255621 -0.0016699937420236249 0 -0.0072885465400481173 -0.0019116417065835991 0 -0.0075876973452510483 -0.0021383519237461344 0 -0.0073094272487255621 -0.0016699937420236249 0 -0.0048897741351957074 -0.0019185983911210013 0 -0.0038248503809893883 -0.0023839855490227053 0 -0.0050949905021812217 -0.0025142992773562857 0 -0.0048897741351957074 -0.0019185983911210013 0 -0.0050949905021812217 -0.0025142992773562857 0 -0.006081445094622169 -0.0022389490630034055 0 -0.0048897741351957074 -0.0019185983911210013 0 -0.0038248503809893883 -0.0023839855490227053 0 -0.0034992363315018453 -0.0014908388798848459 0 -0.0042427620491826369 -0.0033996278345147877 0 -0.0038248503809893883 -0.0023839855490227053 0 -0.0050949905021812217 -0.0025142992773562857 0 -0.0033874826271256936 -0.0028700326516965368 0 -0.0042427620491826369 -0.0033996278345147877 0 -0.0038248503809893883 -0.0023839855490227053 0 -0.006327904835839772 -0.0028474016132372768 0 -0.0042427620491826369 -0.0033996278345147877 0 -0.0050949905021812217 -0.0025142992773562857 0 -0.006327904835839772 -0.0028474016132372768 0 -0.0065370409290369655 -0.0025201569999990705 0 -0.006081445094622169 -0.0022389490630034055 0 -0.006327904835839772 -0.0028474016132372768 0 -0.0050949905021812217 -0.0025142992773562857 0 -0.006081445094622169 -0.0022389490630034055 0 -0.0065370409290369655 -0.0025201569999990705 0 -0.0068220396906980502 -0.0023012613027300136 0 -0.006081445094622169 -0.0022389490630034055 0 -0.0068804732146999972 -0.0026732940757038721 0 -0.0072414601312333054 -0.0024711561750483673 0 -0.0068220396906980502 -0.0023012613027300136 0 -0.0068804732146999972 -0.0026732940757038721 0 -0.006327904835839772 -0.0028474016132372768 0 -0.0065370409290369655 -0.0025201569999990705 0 -0.0068804732146999972 -0.0026732940757038721 0 -0.0065370409290369655 -0.0025201569999990705 0 -0.0068220396906980502 -0.0023012613027300136 0 -0.006594540886999704 -0.0019235584345756404 0 -0.006081445094622169 -0.0022389490630034055 0 -0.0058784744812652072 -0.0015743014183700237 0 -0.0068220396906980502 -0.0023012613027300136 0 -0.006594540886999704 -0.0019235584345756404 0 -0.006081445094622169 -0.0022389490630034055 0 -0.0048897741351957074 -0.0019185983911210013 0 -0.006081445094622169 -0.0022389490630034055 0 -0.0058784744812652072 -0.0015743014183700237 0 -0.0067131334301609915 -0.0013801810762681486 0 -0.006594540886999704 -0.0019235584345756404 0 -0.0058784744812652072 -0.0015743014183700237 0 -0.0067131334301609915 -0.0013801810762681486 0 -0.0058784744812652072 -0.0015743014183700237 0 -0.0060816502699752271 -0.0010485175453709926 0 -0.0060816502699752271 -0.0010485175453709926 0 -0.0044935736016107827 -0.0010686252204627261 0 -0.0058009337115137536 -0.00053923660972101544 0 -0.0058784744812652072 -0.0015743014183700237 0 -0.0060816502699752271 -0.0010485175453709926 0 -0.0044935736016107827 -0.0010686252204627261 0 -0.0048897741351957074 -0.0019185983911210013 0 -0.0044935736016107827 -0.0010686252204627261 0 -0.0034992363315018453 -0.0014908388798848459 0 -0.0048897741351957074 -0.0019185983911210013 0 -0.0058784744812652072 -0.0015743014183700237 0 -0.0044935736016107827 -0.0010686252204627261 0 -0.0044935736016107827 -0.0010686252204627261 0 -0.0034992363315018453 -0.0014908388798848459 0 -0.003375984996520553 -0.00087781156521074826 0 -0.0044935736016107827 -0.0010686252204627261 0 -0.003375984996520553 -0.00087781156521074826 0 -0.0033146523822507488 -0.00047369055732732527 0 -0.0028965559327176209 -0.00060286582177017758 0 -0.003375984996520553 -0.00087781156521074826 0 -0.0033146523822507488 -0.00047369055732732527 0 -0.0043632527487221812 -0.0011179336368920853 0 -0.0045740915893854126 -0.00042207739531571547 0 -0.0044935736016107827 -0.0010686252204627261 0 -0.0033146523822507488 -0.00047369055732732527 0 -0.0034946800775151375 -0.00042610567263074139 0 -0.0033146523822507488 -0.00047369055732732527 0 -0.0034946800775151375 -0.00042610567263074139 0 -0.0028635619232497854 2.1002646102399972e-05 0 -0.0028965559327176209 -0.00060286582177017758 0 -0.0033146523822507488 -0.00047369055732732527 0 -0.0027507536856496095 -0.00016619360002524694 0 -0.0033146523822507488 -0.00047369055732732527 0 -0.0027507536856496095 -0.00016619360002524694 0 -0.0028635619232497854 2.1002646102399972e-05 0 -0.006856797930242596 -0.00094073852418813451 0 -0.0060816502699752271 -0.0010485175453709926 0 -0.0058009337115137536 -0.00053923660972101544 0 -0.0044935736016107827 -0.0010686252204627261 0 -0.0058009337115137536 -0.00053923660972101544 0 -0.0052098646859086734 -0.0003325060858292481 0 -0.0052098646859086734 -0.0003325060858292481 0 -0.0056794867668123993 -0.00015067892972632372 0 -0.0055741069324698788 0.00038341280965449121 0 -0.0058009337115137536 -0.00053923660972101544 0 -0.0052098646859086734 -0.0003325060858292481 0 -0.0056794867668123993 -0.00015067892972632372 0 -0.0058009337115137536 -0.00053923660972101544 0 -0.0056794867668123993 -0.00015067892972632372 0 -0.0061174303658233561 -0.00013775528547270229 0 -0.006856797930242596 -0.00094073852418813451 0 -0.0058009337115137536 -0.00053923660972101544 0 -0.0061174303658233561 -0.00013775528547270229 0 -0.0056794867668123993 -0.00015067892972632372 0 -0.0061174303658233561 -0.00013775528547270229 0 -0.0055741069324698788 0.00038341280965449121 0 -0.0062668444087094063 0.00029747963232813751 0 -0.0061174303658233561 -0.00013775528547270229 0 -0.0055741069324698788 0.00038341280965449121 0 -0.0045740915893854126 -0.00042207739531571547 0 -0.0031515638067124677 0.00059996829064832451 0 -0.001965114389929491 0.00014748893780087299 0 -0.0022549657098399909 3.0487716523720068e-05 0 -0.0018790989234639211 1.9916417156002616e-05 0 -0.0031515638067124677 0.00059996829064832451 0 -0.0014331548678102996 0.00025395094515153437 0 -0.001965114389929491 0.00014748893780087299 0 -0.0016223619875943549 7.0468469752136336e-05 0 -0.0018790989234639211 1.9916417156002616e-05 0 -0.0062668444087094063 0.00029747963232813751 0 -0.0055741069324698788 0.00038341280965449121 0 -0.006139888162858884 0.0006876280008436675 0 -0.0015041024598048509 0.0011943545501684877 0 -0.0013137453084402979 0.00061446328855570395 0 -0.00083639649114964428 0.00071980884580620129 0 -0.0031515638067124677 0.00059996829064832451 0 -0.0035506751018431265 0.00072597127226069853 0 -0.0027507536856496095 -0.00016619360002524694 0 -0.0028635619232497854 2.1002646102399972e-05 0 -0.0024314929754512367 -1.4023602164459922e-05 0 -0.0024379068146905777 -0.00010898685571672189 0 -0.0027507536856496095 -0.00016619360002524694 0 -0.0024314929754512367 -1.4023602164459922e-05 0 -0.001965114389929491 0.00014748893780087299 0 -0.0028635619232497854 2.1002646102399972e-05 0 -0.0022549657098399909 3.0487716523720068e-05 0 -0.0034946800775151375 -0.00042610567263074139 0 -0.0035909505334322284 0.00054817109914441606 0 -0.0028635619232497854 2.1002646102399972e-05 0 -0.0028635619232497854 2.1002646102399972e-05 0 -0.0022549657098399909 3.0487716523720068e-05 0 -0.0024314929754512367 -1.4023602164459922e-05 0 -0.0031515638067124677 0.00059996829064832451 0 -0.0026423453027137559 -4.3447259694649905e-05 0 -0.0022549657098399909 3.0487716523720068e-05 0 -0.0018790989234639211 1.9916417156002616e-05 0 -0.0020501239648003633 -2.2028621059225664e-05 0 -0.0022549657098399909 3.0487716523720068e-05 0 -0.0024314929754512367 -1.4023602164459922e-05 0 -0.0020501239648003633 -2.2028621059225664e-05 0 -0.0022243137341962727 -5.6599346869895205e-05 0 -0.0024314929754512367 -1.4023602164459922e-05 0 -0.0020501239648003633 -2.2028621059225664e-05 0 -0.0024379068146905777 -0.00010898685571672189 0 -0.0022243137341962727 -5.6599346869895205e-05 0 -0.0024314929754512367 -1.4023602164459922e-05 0 -0.0020501239648003633 -2.2028621059225664e-05 0 -0.0017818954853294098 -0.00010805916035090033 0 -0.0020042355556722496 -7.3787771901979703e-05 0 -0.0022243137341962727 -5.6599346869895205e-05 0 -0.0020501239648003633 -2.2028621059225664e-05 0 -0.0020042355556722496 -7.3787771901979703e-05 0 -0.0018790989234639211 1.9916417156002616e-05 0 -0.0020501239648003633 -2.2028621059225664e-05 0 -0.0017202885831085069 -4.0742214554598362e-05 0 -0.0020501239648003633 -2.2028621059225664e-05 0 -0.0017202885831085069 -4.0742214554598362e-05 0 -0.0017818954853294098 -0.00010805916035090033 0 -0.0017202885831085069 -4.0742214554598362e-05 0 -0.0015675189871093901 -0.00013155420253942784 0 -0.0017818954853294098 -0.00010805916035090033 0 -0.0017202885831085069 -4.0742214554598362e-05 0 -0.0015675189871093901 -0.00013155420253942784 0 -0.0014140930157122045 -8.7002803697295013e-05 0 -0.0015675189871093901 -0.00013155420253942784 0 -0.0014140930157122045 -8.7002803697295013e-05 0 -0.0013320010670316636 -0.00023520270980318457 0 -0.0015675189871093901 -0.00013155420253942784 0 -0.0015454708836702554 -0.00021067652071219347 0 -0.0013320010670316636 -0.00023520270980318457 0 -0.0015675189871093901 -0.00013155420253942784 0 -0.0017818954853294098 -0.00010805916035090033 0 -0.0015454708836702554 -0.00021067652071219347 0 -0.0017818954853294098 -0.00010805916035090033 0 -0.0016313600846122613 -0.0002413604294454775 0 -0.0015454708836702554 -0.00021067652071219347 0 -0.0017818954853294098 -0.00010805916035090033 0 -0.0016313600846122613 -0.0002413604294454775 0 -0.0018292452485191729 -0.00015202197923253234 0 -0.0017818954853294098 -0.00010805916035090033 0 -0.0018292452485191729 -0.00015202197923253234 0 -0.0020042355556722496 -7.3787771901979703e-05 0 -0.0013137453084402979 0.00061446328855570395 0 -0.00071690865142868155 0.0002492614071206418 0 -0.0011309588478947061 4.6104713147343788e-05 0 -0.0013137453084402979 0.00061446328855570395 0 -0.00083639649114964428 0.00071980884580620129 0 -0.00071690865142868155 0.0002492614071206418 0 -0.0014331548678102996 0.00025395094515153437 0 -0.0012172557647136609 5.2726336488845857e-05 0 -0.0016223619875943549 7.0468469752136336e-05 0 -0.0015616203261547767 1.4183102261965675e-05 0 -0.0011309588478947061 4.6104713147343788e-05 0 -0.0015616203261547767 1.4183102261965675e-05 0 -0.0014140930157122045 -8.7002803697295013e-05 0 -0.0011309588478947061 4.6104713147343788e-05 0 -0.0018790989234639211 1.9916417156002616e-05 0 -0.0017202885831085069 -4.0742214554598362e-05 0 -0.0015616203261547767 1.4183102261965675e-05 0 -0.0016223619875943549 7.0468469752136336e-05 0 -0.0018790989234639211 1.9916417156002616e-05 0 -0.0015616203261547767 1.4183102261965675e-05 0 -0.0017202885831085069 -4.0742214554598362e-05 0 -0.0015616203261547767 1.4183102261965675e-05 0 -0.0014140930157122045 -8.7002803697295013e-05 0 -0.0014140930157122045 -8.7002803697295013e-05 0 -0.0010485276980883615 -0.00021996562995138982 0 -0.0013320010670316636 -0.00023520270980318457 0 -0.0014140930157122045 -8.7002803697295013e-05 0 -0.0010485276980883615 -0.00021996562995138982 0 -0.0011309588478947061 4.6104713147343788e-05 0 -0.00071690865142868155 0.0002492614071206418 0 -0.0011309588478947061 4.6104713147343788e-05 0 -0.00073309477960203906 -0.00014806936730938323 0 -0.0010485276980883615 -0.00021996562995138982 0 -0.0011309588478947061 4.6104713147343788e-05 0 -0.00073309477960203906 -0.00014806936730938323 0 -0.00073309477960203906 -0.00014806936730938323 0 -0.00062471248630980171 -0.00040727467064187618 0 -0.00039810321498839354 -0.00029799007407596632 0 -0.0010485276980883615 -0.00021996562995138982 0 -0.00073309477960203906 -0.00014806936730938323 0 -0.00062471248630980171 -0.00040727467064187618 0 -0.0010485276980883615 -0.00021996562995138982 0 -0.00062471248630980171 -0.00040727467064187618 0 -0.0010075668722646348 -0.00041547324380310463 0 -0.0010485276980883615 -0.00021996562995138982 0 -0.0010075668722646348 -0.00041547324380310463 0 -0.0013320010670316636 -0.00023520270980318457 0 -0.0010075668722646348 -0.00041547324380310463 0 -0.00067133596774082336 -0.00058921680409772844 0 -0.00089079373418821605 -0.00067342459944397823 0 -0.00062471248630980171 -0.00040727467064187618 0 -0.0010075668722646348 -0.00041547324380310463 0 -0.00067133596774082336 -0.00058921680409772844 0 -0.00062471248630980171 -0.00040727467064187618 0 -0.00037376673792255546 -0.00062066158433696055 0 -0.00024277334649697193 -0.00051820580653918352 0 -0.00062471248630980171 -0.00040727467064187618 0 -0.00067133596774082336 -0.00058921680409772844 0 -0.00037376673792255546 -0.00062066158433696055 0 -0.0016313600846122613 -0.0002413604294454775 0 -0.001326821597902505 -0.00037435139070035736 0 -0.0014989841013977846 -0.00037463104127948851 0 -0.0016313600846122613 -0.0002413604294454775 0 -0.0014989841013977846 -0.00037463104127948851 0 -0.001679949038340592 -0.00028753136879099654 0 -0.0016313600846122613 -0.0002413604294454775 0 -0.0015454708836702554 -0.00021067652071219347 0 -0.001326821597902505 -0.00037435139070035736 0 -0.0010075668722646348 -0.00041547324380310463 0 -0.0013320010670316636 -0.00023520270980318457 0 -0.001326821597902505 -0.00037435139070035736 0 -0.0015454708836702554 -0.00021067652071219347 0 -0.0013320010670316636 -0.00023520270980318457 0 -0.001326821597902505 -0.00037435139070035736 0 -0.001326821597902505 -0.00037435139070035736 0 -0.0012942597512302263 -0.00055167885030051554 0 -0.00089079373418821605 -0.00067342459944397823 0 -0.0010075668722646348 -0.00041547324380310463 0 -0.001326821597902505 -0.00037435139070035736 0 -0.00089079373418821605 -0.00067342459944397823 0 -0.001326821597902505 -0.00037435139070035736 0 -0.0012942597512302263 -0.00055167885030051554 0 -0.0014989841013977846 -0.00037463104127948851 0 -0.0014989841013977846 -0.00037463104127948851 0 -0.0015141872327846908 -0.00044287074047595653 0 -0.001679949038340592 -0.00028753136879099654 0 -0.0012942597512302263 -0.00055167885030051554 0 -0.0015141872327846908 -0.00044287074047595653 0 -0.0014247128594130636 -0.00062882926129112211 0 -0.0012942597512302263 -0.00055167885030051554 0 -0.0014989841013977846 -0.00037463104127948851 0 -0.0015141872327846908 -0.00044287074047595653 0 -0.0012942597512302263 -0.00055167885030051554 0 -0.0014247128594130636 -0.00062882926129112211 0 -0.0010315343211416807 -0.00088648694701232232 0 -0.0014247128594130636 -0.00062882926129112211 0 -0.0011518136172051765 -0.0011372803910726635 0 -0.0010315343211416807 -0.00088648694701232232 0 -0.0011518136172051765 -0.0011372803910726635 0 -0.00084202952937726197 -0.0012402110864593479 0 -0.0010315343211416807 -0.00088648694701232232 0 -0.0011518136172051765 -0.0011372803910726635 0 -0.00084202952937726197 -0.0012402110864593479 0 -0.00090001077907565178 -0.0014266151261926993 0 -0.0011518136172051765 -0.0011372803910726635 0 -0.00090001077907565178 -0.0014266151261926993 0 -0.0010508887888971039 -0.0013699125207966912 0 -0.00084202952937726197 -0.0012402110864593479 0 -0.00076704282948190884 -0.0010094303935409875 0 -0.0005621119569681639 -0.0013859640279088271 0 -0.00084202952937726197 -0.0012402110864593479 0 -0.0010315343211416807 -0.00088648694701232232 0 -0.00076704282948190884 -0.0010094303935409875 0 -0.0012942597512302263 -0.00055167885030051554 0 -0.0010315343211416807 -0.00088648694701232232 0 -0.00089079373418821605 -0.00067342459944397823 0 -0.0010315343211416807 -0.00088648694701232232 0 -0.00089079373418821605 -0.00067342459944397823 0 -0.00076704282948190884 -0.0010094303935409875 0 -0.00089079373418821605 -0.00067342459944397823 0 -0.00046511628009820826 -0.00088228881128050974 0 -0.00076704282948190884 -0.0010094303935409875 0 -0.00067133596774082336 -0.00058921680409772844 0 -0.00089079373418821605 -0.00067342459944397823 0 -0.00046511628009820826 -0.00088228881128050974 0 -0.00067133596774082336 -0.00058921680409772844 0 -0.00037376673792255546 -0.00062066158433696055 0 -0.00046511628009820826 -0.00088228881128050974 0 -0.00037376673792255546 -0.00062066158433696055 0 -0.00046511628009820826 -0.00088228881128050974 0 0.00011620617731214449 -0.00074652965536551978 0 -0.00046511628009820826 -0.00088228881128050974 0 -3.1229719172620994e-05 -0.0014146010566669024 0 0.00011620617731214449 -0.00074652965536551978 0 -0.00046511628009820826 -0.00088228881128050974 0 -0.0005621119569681639 -0.0013859640279088271 0 -3.1229719172620994e-05 -0.0014146010566669024 0 -0.00046511628009820826 -0.00088228881128050974 0 -0.00076704282948190884 -0.0010094303935409875 0 -0.0005621119569681639 -0.0013859640279088271 0 -0.0005621119569681639 -0.0013859640279088271 0 -0.00051399426383505248 -0.0017212129811822929 0 -0.00021100957494898332 -0.0017987771855606884 0 -0.0005621119569681639 -0.0013859640279088271 0 -0.00051399426383505248 -0.0017212129811822929 0 -0.00069209739826267417 -0.0015540746820985054 0 -0.0005621119569681639 -0.0013859640279088271 0 -3.1229719172620994e-05 -0.0014146010566669024 0 -0.00021100957494898332 -0.0017987771855606884 0 -3.1229719172620994e-05 -0.0014146010566669024 0 -0.00021100957494898332 -0.0017987771855606884 0 0.00032571751519027537 -0.0023010903365850836 0 8.5159147623586711e-05 -0.0019703354467532522 0 0.00084032978786192675 -0.0022497570787219133 0 -0.00021100957494898332 -0.0017987771855606884 0 -0.00045670731571120088 -0.0019840285725590545 0 0.00032571751519027537 -0.0023010903365850836 0 -0.00051399426383505248 -0.0017212129811822929 0 -0.00045670731571120088 -0.0019840285725590545 0 -0.00056470657696312918 -0.0017576283748978816 0 -0.00051399426383505248 -0.0017212129811822929 0 -0.00021100957494898332 -0.0017987771855606884 0 -0.00045670731571120088 -0.0019840285725590545 0 8.5159147623586711e-05 -0.0019703354467532522 0 -0.00046161496139239647 -0.0018238560449507176 0 0.00063542539118274875 -0.0019291426127034555 0 -0.00049791346298422334 -0.0017955274895368265 0 8.3485987012259092e-05 -0.0021131065728231574 0 -0.00045670731571120088 -0.0019840285725590545 0 -0.00056470657696312918 -0.0017576283748978816 0 -0.00049791346298422334 -0.0017955274895368265 0 -0.00056470657696312918 -0.0017576283748978816 0 -0.00049791346298422334 -0.0017955274895368265 0 -0.00070903081168747519 -0.0016431916008912209 0 -0.00049791346298422334 -0.0017955274895368265 0 -0.00079639623919802954 -0.0017605226344929801 0 -0.00062296723719129979 -0.0019571959900210206 0 -0.00079639623919802954 -0.0017605226344929801 0 -0.00070903081168747519 -0.0016431916008912209 0 -0.00090359394947878786 -0.001551204578927287 0 -0.00049791346298422334 -0.0017955274895368265 0 -0.00079639623919802954 -0.0017605226344929801 0 -0.00070903081168747519 -0.0016431916008912209 0 -0.00070903081168747519 -0.0016431916008912209 0 -0.00090359394947878786 -0.001551204578927287 0 -0.00090001077907565178 -0.0014266151261926993 0 -0.00090359394947878786 -0.001551204578927287 0 -0.00090001077907565178 -0.0014266151261926993 0 -0.0010508887888971039 -0.0013699125207966912 0 -0.00084202952937726197 -0.0012402110864593479 0 -0.00090001077907565178 -0.0014266151261926993 0 -0.00069209739826267417 -0.0015540746820985054 0 -0.00084202952937726197 -0.0012402110864593479 0 -0.0005621119569681639 -0.0013859640279088271 0 -0.00069209739826267417 -0.0015540746820985054 0 -0.00051399426383505248 -0.0017212129811822929 0 -0.00056470657696312918 -0.0017576283748978816 0 -0.00069209739826267417 -0.0015540746820985054 0 -0.00056470657696312918 -0.0017576283748978816 0 -0.00070903081168747519 -0.0016431916008912209 0 -0.00069209739826267417 -0.0015540746820985054 0 -0.00070903081168747519 -0.0016431916008912209 0 -0.00090001077907565178 -0.0014266151261926993 0 -0.00069209739826267417 -0.0015540746820985054 0 0.0023110521172186919 -0.0021205281177996732 0 0.0016131599547968194 -0.0023567696284087177 0 0.0017735886635614974 -0.0014743331041302207 0 0.0023110521172186919 -0.0021205281177996732 0 0.0017735886635614974 -0.0014743331041302207 0 0.0025168774168774634 -0.0015010622655886288 0 0.0023110521172186919 -0.0021205281177996732 0 0.0016131599547968194 -0.0023567696284087177 0 0.0022581302927244559 -0.0027982647632274656 0 0.0016131599547968194 -0.0023567696284087177 0 0.00032571751519027537 -0.0023010903365850836 0 0.00081649906467833034 -0.0014731363770703074 0 0.0015630353826920627 -0.0023436734065414386 0 0.00084032978786192675 -0.0022497570787219133 0 -3.1229719172620994e-05 -0.0014146010566669024 0 0.00032571751519027537 -0.0023010903365850836 0 0.00081649906467833034 -0.0014731363770703074 0 0.0016131599547968194 -0.0023567696284087177 0 0.00081649906467833034 -0.0014731363770703074 0 0.0017735886635614974 -0.0014743331041302207 0 0.00081649906467833034 -0.0014731363770703074 0 0.0012168400332232606 -0.00045498752367659613 0 0.0017735886635614974 -0.0014743331041302207 0 -3.1229719172620994e-05 -0.0014146010566669024 0 0.00081649906467833034 -0.0014731363770703074 0 0.00011620617731214449 -0.00074652965536551978 0 0.00016561075125618119 -0.00072296832687029835 0 0.00054727836419981527 -0.00058984310492411806 0 0.00011620617731214449 -0.00074652965536551978 0 3.0469924431306026e-05 -0.00063837123426566556 0 -4.3713222953726214e-05 -0.00057964649897306497 0 0.00081649906467833034 -0.0014731363770703074 0 0.00011620617731214449 -0.00074652965536551978 0 0.0012168400332232606 -0.00045498752367659613 0 0.0012168400332232606 -0.00045498752367659613 0 0.0017735886635614974 -0.0014743331041302207 0 0.0020966104457570901 -0.00089241822506933954 0 0.0012168400332232606 -0.00045498752367659613 0 0.0020966104457570901 -0.00089241822506933954 0 0.0020329876375843165 -0.00031113332502027003 0 0.0017735886635614974 -0.0014743331041302207 0 0.0025168774168774634 -0.0015010622655886288 0 0.0020966104457570901 -0.00089241822506933954 0 0.0025168774168774634 -0.0015010622655886288 0 0.0020966104457570901 -0.00089241822506933954 0 0.0026899305442428917 -0.00097863131719561785 0 0.0020966104457570901 -0.00089241822506933954 0 0.0024817839156103722 -0.00060750823944071344 0 0.0020329876375843165 -0.00031113332502027003 0 0.0020966104457570901 -0.00089241822506933954 0 0.0024817839156103722 -0.00060750823944071344 0 0.0026899305442428917 -0.00097863131719561785 0 0.00025337883155122427 -0.00056453009164189366 0 0.00027291915585320116 -0.00032667483399633022 0 0.00047591694855879569 -0.00048785097417469682 0 0.0014167767564087848 -0.00028977273215960762 0 0.00034039367345579057 -0.0013887674456724809 0 0.0024817839156103722 -0.00060750823944071344 0 0.0020329876375843165 -0.00031113332502027003 0 0.002713346425271288 -0.0001669315254001436 0 3.0469924431306026e-05 -0.00063837123426566556 0 0.00025337883155122427 -0.00056453009164189366 0 5.0294478281736973e-05 -0.00047625392217467397 0 0.00025337883155122427 -0.00056453009164189366 0 0.00014691164883427643 -0.00036606024934702933 0 5.0294478281736973e-05 -0.00047625392217467397 0 0.00054727836419981527 -0.00058984310492411806 0 0.0014167767564087848 -0.00028977273215960762 0 0.00025337883155122427 -0.00056453009164189366 0 0.00014691164883427643 -0.00036606024934702933 0 0.00027291915585320116 -0.00032667483399633022 0 0.00014691164883427643 -0.00036606024934702933 0 0.00027291915585320116 -0.00032667483399633022 0 7.1751272174137609e-05 -0.0001594260457092436 0 0.00014691164883427643 -0.00036606024934702933 0 5.0294478281736973e-05 -0.00047625392217467397 0 2.247688223240672e-06 -0.00029105927376135688 0 0.00014691164883427643 -0.00036606024934702933 0 2.247688223240672e-06 -0.00029105927376135688 0 7.1751272174137609e-05 -0.0001594260457092436 0 -0.003084730295194744 -0.002334390721085617 0 0.00034039367345579057 -0.0013887674456724809 0 -0.00037376673792255546 -0.00062066158433696055 0 0.00011620617731214449 -0.00074652965536551978 0 -0.00024277334649697193 -0.00051820580653918352 0 0.00011620617731214449 -0.00074652965536551978 0 -0.00024277334649697193 -0.00051820580653918352 0 -4.3713222953726214e-05 -0.00057964649897306497 0 -0.00024277334649697193 -0.00051820580653918352 0 -4.3713222953726214e-05 -0.00057964649897306497 0 -0.00012660629966185138 -0.00038571616693002517 0 3.0469924431306026e-05 -0.00063837123426566556 0 -4.3713222953726214e-05 -0.00057964649897306497 0 5.0294478281736973e-05 -0.00047625392217467397 0 -4.3713222953726214e-05 -0.00057964649897306497 0 5.0294478281736973e-05 -0.00047625392217467397 0 -0.00012660629966185138 -0.00038571616693002517 0 5.0294478281736973e-05 -0.00047625392217467397 0 2.247688223240672e-06 -0.00029105927376135688 0 -0.00012660629966185138 -0.00038571616693002517 0 2.247688223240672e-06 -0.00029105927376135688 0 -0.00010658881243230675 -0.00026906863850194161 0 -0.00010410406244036206 -0.0001817575572457087 0 -0.00010658881243230675 -0.00026906863850194161 0 -0.00012660629966185138 -0.00038571616693002517 0 -0.00023340303299092461 -0.00019936004183583551 0 2.247688223240672e-06 -0.00029105927376135688 0 -0.00010658881243230675 -0.00026906863850194161 0 -0.00012660629966185138 -0.00038571616693002517 0 -0.00010658881243230675 -0.00026906863850194161 0 -0.00023340303299092461 -0.00019936004183583551 0 -0.00010410406244036206 -0.0001817575572457087 0 -0.00024277334649697193 -0.00051820580653918352 0 -0.00012660629966185138 -0.00038571616693002517 0 -0.00039810321498839354 -0.00029799007407596632 0 -0.00012660629966185138 -0.00038571616693002517 0 -0.00039810321498839354 -0.00029799007407596632 0 -0.00023340303299092461 -0.00019936004183583551 0 -0.00062471248630980171 -0.00040727467064187618 0 -0.00024277334649697193 -0.00051820580653918352 0 -0.00039810321498839354 -0.00029799007407596632 0 -0.00071690865142868155 0.0002492614071206418 0 -0.00073309477960203906 -0.00014806936730938323 0 -0.0004118814964552742 -5.0024871429631804e-05 0 -0.00073309477960203906 -0.00014806936730938323 0 -0.00039810321498839354 -0.00029799007407596632 0 -0.0004118814964552742 -5.0024871429631804e-05 0 -0.00039810321498839354 -0.00029799007407596632 0 -0.00023340303299092461 -0.00019936004183583551 0 -0.0004118814964552742 -5.0024871429631804e-05 0 -0.00023340303299092461 -0.00019936004183583551 0 -0.0004118814964552742 -5.0024871429631804e-05 0 -0.00016471757972903465 -6.5649992374592625e-05 0 -0.0004118814964552742 -5.0024871429631804e-05 0 -0.00016471757972903465 -6.5649992374592625e-05 0 -0.00027807552578461482 0.00026600552523011243 0 -0.0034364195243373869 0.00071665050995709282 0 -0.0038122776641039509 -0.00081165888947171995 0 -0.00016471757972903465 -6.5649992374592625e-05 0 -0.00027807552578461482 0.00026600552523011243 0 7.0184256816322254e-05 -8.19787410528802e-05 0 -0.00023340303299092461 -0.00019936004183583551 0 -0.00010410406244036206 -0.0001817575572457087 0 -0.00016471757972903465 -6.5649992374592625e-05 0 -0.00010410406244036206 -0.0001817575572457087 0 -0.00016471757972903465 -6.5649992374592625e-05 0 -3.3248581692883942e-05 -0.00014525139447761553 0 -0.00016471757972903465 -6.5649992374592625e-05 0 -3.3248581692883942e-05 -0.00014525139447761553 0 7.0184256816322254e-05 -8.19787410528802e-05 0 2.247688223240672e-06 -0.00029105927376135688 0 -0.00010410406244036206 -0.0001817575572457087 0 -3.3248581692883942e-05 -0.00014525139447761553 0 2.247688223240672e-06 -0.00029105927376135688 0 -3.3248581692883942e-05 -0.00014525139447761553 0 7.1751272174137609e-05 -0.0001594260457092436 0 -3.3248581692883942e-05 -0.00014525139447761553 0 7.1751272174137609e-05 -0.0001594260457092436 0 7.0184256816322254e-05 -8.19787410528802e-05 0 -0.0068553428390871153 0.0006857746253855064 0 -0.0066045310006510984 0.00090131967914038611 0 -0.0068696884523401025 0.0010697473705533927 0 -0.0072977926911109948 -0.00078061742716771586 0 -0.0038122776641039509 -0.00081165888947171995 0 -0.0035506751018431265 0.00072597127226069853 0 -0.0034364195243373869 0.00071665050995709282 0 -0.00083639649114964428 0.00071980884580620129 0 -0.00071690865142868155 0.0002492614071206418 0 -0.00027807552578461482 0.00026600552523011243 0 -0.00071690865142868155 0.0002492614071206418 0 -0.0004118814964552742 -5.0024871429631804e-05 0 -0.00027807552578461482 0.00026600552523011243 0 -0.0059972453552155375 -0.0040566547323950862 0 -0.0054075551699187836 -0.0031646974926666286 0 -0.0049221310897000778 -0.0038828323598911899 0 -0.0059972453552155375 -0.0040566547323950862 0 -0.0061570284551884982 -0.0032726283183799713 0 -0.0054075551699187836 -0.0031646974926666286 0 -0.0059972453552155375 -0.0040566547323950862 0 -0.0061570284551884982 -0.0032726283183799713 0 -0.0068704835660468224 -0.0033334112471758051 0 0.00027291915585320116 -0.00032667483399633022 0 7.1751272174137609e-05 -0.0001594260457092436 0 5.8500296381147908e-05 -0.00010978697263026392 0 -0.003084730295194744 -0.002334390721085617 0 -0.0038122776641039509 -0.00081165888947171995 0 -0.0033030654501161631 -0.00079743597837424109 0 -0.0038122776641039509 -0.00081165888947171995 0 -0.0061570284551884982 -0.0032726283183799713 0 -0.0068704835660468224 -0.0033334112471758051 0 -0.0065038907076611129 -0.0026476896133983238 0 -0.0070280709946011401 -0.0022187908136271088 0 -0.0068704835660468224 -0.0033334112471758051 0 -0.0065038907076611129 -0.0026476896133983238 0 -0.0064347003580816509 -0.0020021142378001174 0 -0.0065038907076611129 -0.0026476896133983238 0 -0.0059310088399266063 -0.0025606903561800217 0 -0.0061570284551884982 -0.0032726283183799713 0 -0.0059310088399266063 -0.0025606903561800217 0 -0.0054075551699187836 -0.0031646974926666286 0 -0.0061570284551884982 -0.0032726283183799713 0 -0.0065038907076611129 -0.0026476896133983238 0 -0.0059310088399266063 -0.0025606903561800217 0 -0.0058509417231539587 -0.0019372275494221119 0 -0.0059310088399266063 -0.0025606903561800217 0 -0.0048040921437863407 -0.0026518535390293507 0 -0.0059310088399266063 -0.0025606903561800217 0 -0.0048040921437863407 -0.0026518535390293507 0 -0.0054075551699187836 -0.0031646974926666286 0 -0.0048040921437863407 -0.0026518535390293507 0 -0.0054075551699187836 -0.0031646974926666286 0 -0.0045965925263111232 -0.0033289107618448169 0 -0.0054075551699187836 -0.0031646974926666286 0 -0.0045965925263111232 -0.0033289107618448169 0 -0.0049221310897000778 -0.0038828323598911899 0 -0.0045965925263111232 -0.0033289107618448169 0 -0.0041213280753932494 -0.0037787857966850059 0 -0.0049221310897000778 -0.0038828323598911899 0 -0.0048040921437863407 -0.0026518535390293507 0 -0.0045965925263111232 -0.0033289107618448169 0 -0.0036644787242389844 -0.0031838770660360129 0 -0.0041213280753932494 -0.0037787857966850059 0 -0.0036644787242389844 -0.0031838770660360129 0 -0.0033340706203316794 -0.0037061301151043438 0 -0.0045965925263111232 -0.0033289107618448169 0 -0.0041213280753932494 -0.0037787857966850059 0 -0.0036644787242389844 -0.0031838770660360129 0 -0.0034961466610920343 -0.002089155389533207 0 -0.0048040921437863407 -0.0026518535390293507 0 -0.0036644787242389844 -0.0031838770660360129 0 -0.0034961466610920343 -0.002089155389533207 0 -0.0036644787242389844 -0.0031838770660360129 0 -0.0028144686020183775 -0.0031167356026708119 0 -0.0034961466610920343 -0.002089155389533207 0 -0.0023366929197369576 -0.0028159097960708725 0 -0.0028144686020183775 -0.0031167356026708119 0 -0.0045174553575343633 -0.0027281161227511899 0 -0.0037657756353186027 -0.0036439486292941755 0 -0.0023366929197369576 -0.0028159097960708725 0 -0.0023498470666699013 -0.0034325084922723539 0 -0.0028144686020183775 -0.0031167356026708119 0 -0.0026067977228604903 -0.0034186289182612482 0 -0.0023498470666699013 -0.0034325084922723539 0 -0.0028144686020183775 -0.0031167356026708119 0 -0.0026067977228604903 -0.0034186289182612482 0 -0.0023498470666699013 -0.0034325084922723539 0 -0.0024064418528111043 -0.0036334843384310867 0 -0.0036644787242389844 -0.0031838770660360129 0 -0.0028144686020183775 -0.0031167356026708119 0 -0.0029085301421201146 -0.0034520322028581399 0 -0.0026067977228604903 -0.0034186289182612482 0 -0.0028144686020183775 -0.0031167356026708119 0 -0.0029085301421201146 -0.0034520322028581399 0 -0.0026067977228604903 -0.0034186289182612482 0 -0.0029085301421201146 -0.0034520322028581399 0 -0.0024064418528111043 -0.0036334843384310867 0 -0.0036644787242389844 -0.0031838770660360129 0 -0.0029085301421201146 -0.0034520322028581399 0 -0.0033340706203316794 -0.0037061301151043438 0 0.003452095946716951 -0.00041325814942085411 0 0.0031453228124431899 -0.00086003582985144124 0 0.0027270268970169629 -0.0011973267352632232 0 0.00044016980063339267 -0.0019548997509275167 0 0.0026673036304962739 -0.001151893718813873 0 -0.0033340706203316794 -0.0037061301151043438 0 -0.0024064418528111043 -0.0036334843384310867 0 -0.0038216521045828255 -0.0044512195699643615 0 -0.0021334811187017537 -0.0036292386931680433 0 -0.0012375778726701997 -0.0035585326394765725 0 -0.0023762010298319152 -0.0032528300624499753 0 0.0027270268970169629 -0.0011973267352632232 0 0.002016887195856772 -0.0024679459086352855 0 -0.0024064418528111043 -0.0036334843384310867 0 -0.0023762010298319152 -0.0032528300624499753 0 0.002016887195856772 -0.0024679459086352855 0 -0.0029085301421201146 -0.0034520322028581399 0 -0.0033340706203316794 -0.0037061301151043438 0 -0.0024064418528111043 -0.0036334843384310867 0 0.003452095946716951 -0.00041325814942085411 0 0.0031453228124431899 -0.00086003582985144124 0 0.0034203131615436269 -0.00070123263013462708 0 0.00044016980063339267 -0.0019548997509275167 0 0.0018739913745567181 -0.0012267433386964738 0 -0.0023498470666699013 -0.0034325084922723539 0 -0.0023762010298319152 -0.0032528300624499753 0 -0.0020731493670758379 -0.0034883002783090201 0 0.003452095946716951 -0.00041325814942085411 0 0.0036059922273135713 -0.00060069676980970433 0 0.0039299427916943651 -0.00025510826631341119 0 0.0044520976883347324 -2.4518490526397365e-05 0 0.0018739913745567181 -0.0012267433386964738 0 -0.0023498470666699013 -0.0034325084922723539 0 -0.0024064418528111043 -0.0036334843384310867 0 -0.0023762010298319152 -0.0032528300624499753 0 0.003452095946716951 -0.00041325814942085411 0 0.0036059922273135713 -0.00060069676980970433 0 0.0034203131615436269 -0.00070123263013462708 0 0.0036059922273135713 -0.00060069676980970433 0 0.0039388303500258364 -0.00097199055453415562 0 0.0041527777808247268 -0.00056513113874922757 0 0.0036059922273135713 -0.00060069676980970433 0 0.003555138858718246 -0.00094096811654718123 0 0.0034203131615436269 -0.00070123263013462708 0 0.0036059922273135713 -0.00060069676980970433 0 0.003555138858718246 -0.00094096811654718123 0 0.0039388303500258364 -0.00097199055453415562 0 0.003555138858718246 -0.00094096811654718123 0 0.0031453228124431899 -0.00086003582985144124 0 0.0034203131615436269 -0.00070123263013462708 0 0.003555138858718246 -0.00094096811654718123 0 0.0031453228124431899 -0.00086003582985144124 0 0.0032056604438724812 -0.00096429441547424993 0 0.0031453228124431899 -0.00086003582985144124 0 0.0032056604438724812 -0.00096429441547424993 0 0.0029049026158742323 -0.00099152450039612918 0 0.0032056604438724812 -0.00096429441547424993 0 0.0029049026158742323 -0.00099152450039612918 0 0.0027803342046145035 -0.00091697497445110139 0 0.00034039367345579057 -0.0013887674456724809 0 0.0036243666438255532 -0.00088810837605625306 0 0.0029049026158742323 -0.00099152450039612918 0 0.0027270268970169629 -0.0011973267352632232 0 0.0027803342046145035 -0.00091697497445110139 0 0.0027270268970169629 -0.0011973267352632232 0 0.0040562144103761869 -0.00095399781094983609 0 0.0027803342046145035 -0.00091697497445110139 0 0.0027270268970169629 -0.0011973267352632232 0 0.0040562144103761869 -0.00095399781094983609 0 0.002016887195856772 -0.0024679459086352855 0 0.0031453228124431899 -0.00086003582985144124 0 0.0029049026158742323 -0.00099152450039612918 0 0.0027270268970169629 -0.0011973267352632232 0 0.002713346425271288 -0.0001669315254001436 0 0.0028599349647367967 -0.00068483247606861098 0 0.0033132470952886022 -0.00074744525379270659 0 0.0024817839156103722 -0.00060750823944071344 0 0.002713346425271288 -0.0001669315254001436 0 0.0028599349647367967 -0.00068483247606861098 0 -0.0059972453552155375 -0.0040566547323950862 0 -0.0049809158782012121 -0.0048172479193790054 0 -0.0049221310897000778 -0.0038828323598911899 0 -0.0049809158782012121 -0.0048172479193790054 0 -0.0049221310897000778 -0.0038828323598911899 0 -0.0044664630623777526 -0.0042370662342032343 0 -0.0041213280753932494 -0.0037787857966850059 0 -0.0044664630623777526 -0.0042370662342032343 0 -0.0038216521045828255 -0.0044512195699643615 0 -0.0049809158782012121 -0.0048172479193790054 0 -0.0044664630623777526 -0.0042370662342032343 0 -0.0038216521045828255 -0.0044512195699643615 0 0.00034039367345579057 -0.0013887674456724809 0 -0.0012375778726701997 -0.0035585326394765725 0 -0.0041213280753932494 -0.0037787857966850059 0 -0.0049221310897000778 -0.0038828323598911899 0 -0.0044664630623777526 -0.0042370662342032343 0 -0.0041213280753932494 -0.0037787857966850059 0 -0.0033340706203316794 -0.0037061301151043438 0 -0.0038216521045828255 -0.0044512195699643615 0 0.0055222393040183174 0.00011944321192892428 0 0.0058255229967990466 0.00027114798241133459 0 0.0057395976386320404 -0.00019805077703832671 0 0.0027375953292739742 -0.0022795199450881807 0 0.0015665833594738407 -0.0027005745648624366 0 0.0055222393040183174 0.00011944321192892428 0 0.0058255229967990466 0.00027114798241133459 0 0.0052739806782151491 0.0004252892093008344 0 0.0058255229967990466 0.00027114798241133459 0 0.0057395976386320404 -0.00019805077703832671 0 0.0060716831636820501 -4.9717241706781392e-06 0 0.0055222393040183174 0.00011944321192892428 0 0.0052424550107395881 -2.2654553032368293e-05 0 0.0057395976386320404 -0.00019805077703832671 0 -0.00044371072730090574 -0.0048132251863474132 0 -0.00050901838134640354 -0.0044154052709693328 0 -0.00092542393530447838 -0.0044563376198611272 0 -0.00044371072730090574 -0.0048132251863474132 0 -0.00092542393530447838 -0.0044563376198611272 0 -0.0012454270372688446 -0.0045830822236620078 0 -0.00050901838134640354 -0.0044154052709693328 0 -0.000785975405721848 -0.0039831498792656716 0 -0.00022588191271252349 -0.0040913954086944674 0 -0.00050901838134640354 -0.0044154052709693328 0 -0.000785975405721848 -0.0039831498792656716 0 -0.00092542393530447838 -0.0044563376198611272 0 -0.001402441052333447 -0.0039175271039888085 0 -0.000785975405721848 -0.0039831498792656716 0 -0.00092542393530447838 -0.0044563376198611272 0 -0.00092506494377265971 -0.0040451481525979197 0 0.0015665833594738407 -0.0027005745648624366 0 -0.001402441052333447 -0.0039175271039888085 0 -0.00092542393530447838 -0.0044563376198611272 0 -0.0012462598811537426 -0.0045848912325795015 0 -0.0017137086607872873 -0.004014379990594571 0 -0.0016104912060168107 -0.0040459272889187617 0 -0.0019009398392275609 -0.003993118400679424 0 -0.0026627098256857265 -0.0045095883374198856 0 -0.0027816088491470574 -0.0040101415806558091 0 0.0015665833594738407 -0.0027005745648624366 0 -0.0016104912060168107 -0.0040459272889187617 0 -0.001402441052333447 -0.0039175271039888085 0 -0.0012462598811537426 -0.0045848912325795015 0 -0.0019142922897682701 -0.0044041425326766821 0 0.0052739806782151491 0.0004252892093008344 0 0.0052424550107395881 -2.2654553032368293e-05 0 0.0047424135094938655 -3.3997200970164128e-05 0 0.0015665833594738407 -0.0027005745648624366 0 0.0026030722343535102 -0.0013556918553817845 0 0.0055222393040183174 0.00011944321192892428 0 0.0052739806782151491 0.0004252892093008344 0 0.0052424550107395881 -2.2654553032368293e-05 0 0.00067866934060151576 -0.0028555464222133355 0 0.00069766315315866029 -0.0028357958938696453 0 0.00068409298773032729 -0.0028578192148394558 0 0.0052739806782151491 0.0004252892093008344 0 0.0047424135094938655 -3.3997200970164128e-05 0 0.004493535306282318 9.765301307948767e-05 0 0.0040888727776072064 -0.00096586038999345065 0 0.0026030722343535102 -0.0013556918553817845 0 0.0045242043036461425 8.5962868275331098e-05 0 0.0041984601859910708 -4.8311060374915793e-05 0 0.0045101042217246404 -0.00031936744848190312 0 0.0047424135094938655 -3.3997200970164128e-05 0 0.0045242043036461425 8.5962868275331098e-05 0 0.0045101042217246404 -0.00031936744848190312 0 -0.00080878472296216268 -0.0027568944533655202 0 -0.0016104912060168107 -0.0040459272889187617 0 0.00069766315315866029 -0.0028357958938696453 0 0.00069884261347079226 -0.0028381980126970015 0 0.00068409298773032729 -0.0028578192148394558 0 0.0026030722343535102 -0.0013556918553817845 0 -0.00080878472296216268 -0.0027568944533655202 0 -0.0016104912060168107 -0.0040459272889187617 0 -0.0028240675389369263 -0.0040479619566550296 0 -0.0026627098256857265 -0.0045095883374198856 0 -0.0027816088491470574 -0.0040101415806558091 0 -0.00312094948121183 -0.0043349250696969035 0 -0.0033173732348962888 -0.0038796322197868402 0 -0.00312094948121183 -0.0043349250696969035 0 -0.0037135969927063425 -0.0042215831048368867 0 -0.0027816088491470574 -0.0040101415806558091 0 -0.0033173732348962888 -0.0038796322197868402 0 -0.00312094948121183 -0.0043349250696969035 0 -0.0033935164347707407 -0.0050759807821493764 0 -0.00312094948121183 -0.0043349250696969035 0 -0.0037135969927063425 -0.0042215831048368867 0 -0.0033935164347707407 -0.0050759807821493764 0 -0.0026866020898042207 -0.0044433967941058146 0 -0.00312094948121183 -0.0043349250696969035 0 -0.0046281174655428726 -0.0042719364953159276 0 -0.0033935164347707407 -0.0050759807821493764 0 -0.0037135969927063425 -0.0042215831048368867 0 -0.003880224836155164 -0.003480695445933827 0 -0.0046281174655428726 -0.0042719364953159276 0 -0.0037135969927063425 -0.0042215831048368867 0 -0.003880224836155164 -0.003480695445933827 0 -0.0033173732348962888 -0.0038796322197868402 0 -0.0037135969927063425 -0.0042215831048368867 0 -0.0023366929197369576 -0.0028159097960708725 0 -0.0023498470666699013 -0.0034325084922723539 0 -0.0018501547607258574 -0.0033192364169261799 0 -0.0037657756353186027 -0.0036439486292941755 0 -0.00080878472296216268 -0.0027568944533655202 0 -0.0023498470666699013 -0.0034325084922723539 0 -0.0018501547607258574 -0.0033192364169261799 0 -0.0020731493670758379 -0.0034883002783090201 0 0.00057835634728643358 -0.0016623510239290383 0 0.00088364525804028962 -0.0018384229561729251 0 0.0014960721563508105 -0.0012663243227907534 0 0.0026030722343535102 -0.0013556918553817845 0 0.0018739913745567181 -0.0012267433386964738 0 -0.00080878472296216268 -0.0027568944533655202 0 0.0018739913745567181 -0.0012267433386964738 0 0.0041984601859910708 -4.8311060374915793e-05 0 0.0041527777808247268 -0.00056513113874922757 0 0.0045101042217246404 -0.00031936744848190312 0 0.0036059922273135713 -0.00060069676980970433 0 0.0041984601859910708 -4.8311060374915793e-05 0 0.0041527777808247268 -0.00056513113874922757 0 0.0039388303500258364 -0.00097199055453415562 0 0.0041527777808247268 -0.00056513113874922757 0 0.0044764526227954364 -0.00086896049275017953 0 0.0041527777808247268 -0.00056513113874922757 0 0.0044764526227954364 -0.00086896049275017953 0 0.0045101042217246404 -0.00031936744848190312 0 0.0044764526227954364 -0.00086896049275017953 0 0.0049542848069942099 -0.00042598407095560887 0 0.005137218358257983 -0.00094255919635727217 0 0.0044764526227954364 -0.00086896049275017953 0 0.0045101042217246404 -0.00031936744848190312 0 0.0049542848069942099 -0.00042598407095560887 0 0.0047424135094938655 -3.3997200970164128e-05 0 0.0045101042217246404 -0.00031936744848190312 0 0.0049542848069942099 -0.00042598407095560887 0 0.0049542848069942099 -0.00042598407095560887 0 0.005137218358257983 -0.00094255919635727217 0 0.0057395976386320404 -0.00019805077703832671 0 0.0052424550107395881 -2.2654553032368293e-05 0 0.0049542848069942099 -0.00042598407095560887 0 0.0057395976386320404 -0.00019805077703832671 0 0.0052424550107395881 -2.2654553032368293e-05 0 0.0047424135094938655 -3.3997200970164128e-05 0 0.0049542848069942099 -0.00042598407095560887 0 0.0054645831222031992 -0.00074053664775120909 0 0.0057395976386320404 -0.00019805077703832671 0 0.0059480830545947114 -0.00059312164109714505 0 0.0053066535594671563 -0.00082624460075923995 0 0.0057224060204236413 -0.00022145516717374985 0 0.0054645831222031992 -0.00074053664775120909 0 0.0050362915073107629 -0.0013166591997200129 0 0.0056367593626896594 -0.0016601600703222785 0 0.0054645831222031992 -0.00074053664775120909 0 0.0056367593626896594 -0.0016601600703222785 0 0.006123007770221664 -0.0011924100663632529 0 0.0054645831222031992 -0.00074053664775120909 0 0.0059480830545947114 -0.00059312164109714505 0 0.006123007770221664 -0.0011924100663632529 0 0.0053066535594671563 -0.00082624460075923995 0 0.0048621329052474255 -0.0014319206177420443 0 0.0044764526227954364 -0.00086896049275017953 0 0.0046896560302846406 -0.0015167969754868507 0 0.0042164486068349549 -0.0013651299512824097 0 0.0044764526227954364 -0.00086896049275017953 0 0.005137218358257983 -0.00094255919635727217 0 0.0046896560302846406 -0.0015167969754868507 0 0.0039388303500258364 -0.00097199055453415562 0 0.0044764526227954364 -0.00086896049275017953 0 0.0042164486068349549 -0.0013651299512824097 0 0.0046896560302846406 -0.0015167969754868507 0 0.0042164486068349549 -0.0013651299512824097 0 0.0045075587619381758 -0.0020194178395415677 0 0.0042164486068349549 -0.0013651299512824097 0 0.0045075587619381758 -0.0020194178395415677 0 0.0040625087461157745 -0.0016705393255732862 0 0.0050362915073107629 -0.0013166591997200129 0 0.0045075587619381758 -0.0020194178395415677 0 0.0056367593626896594 -0.0016601600703222785 0 0.0045075587619381758 -0.0020194178395415677 0 0.0056367593626896594 -0.0016601600703222785 0 0.0053625308416258418 -0.0023773893677118511 0 0.0045075587619381758 -0.0020194178395415677 0 0.0041729332763929339 -0.0024667580382656067 0 0.0047453997042721319 -0.0027456986590351615 0 0.0045075587619381758 -0.0020194178395415677 0 0.0053625308416258418 -0.0023773893677118511 0 0.0047453997042721319 -0.0027456986590351615 0 0.0048621329052474255 -0.0014319206177420443 0 0.0045149264687739995 -0.0019962350317189207 0 0.0056367593626896594 -0.0016601600703222785 0 0.006123007770221664 -0.0011924100663632529 0 0.0064054798033433644 -0.0019308252176568465 0 0.0056367593626896594 -0.0016601600703222785 0 0.0053625308416258418 -0.0023773893677118511 0 0.0060082536525514962 -0.0024344147947946201 0 0.0056367593626896594 -0.0016601600703222785 0 0.0060082536525514962 -0.0024344147947946201 0 0.0064054798033433644 -0.0019308252176568465 0 0.003252673524983006 -0.0014173079489850043 0 0.0026899305442428917 -0.00097863131719561785 0 0.0030589259212121483 -0.00099142879382529514 0 0.0025168774168774634 -0.0015010622655886288 0 0.003252673524983006 -0.0014173079489850043 0 0.0026899305442428917 -0.00097863131719561785 0 0.0026899305442428917 -0.00097863131719561785 0 0.0028599349647367967 -0.00068483247606861098 0 0.0030589259212121483 -0.00099142879382529514 0 0.0024817839156103722 -0.00060750823944071344 0 0.0026899305442428917 -0.00097863131719561785 0 0.0028599349647367967 -0.00068483247606861098 0 0.0028599349647367967 -0.00068483247606861098 0 0.0030589259212121483 -0.00099142879382529514 0 0.0033132470952886022 -0.00074744525379270659 0 0.003252673524983006 -0.0014173079489850043 0 0.0030589259212121483 -0.00099142879382529514 0 0.0033132470952886022 -0.00074744525379270659 0 0.003555138858718246 -0.00094096811654718123 0 0.0032056604438724812 -0.00096429441547424993 0 0.0037073935540680842 -0.0013324995130575637 0 0.0032056604438724812 -0.00096429441547424993 0 0.0027803342046145035 -0.00091697497445110139 0 0.0037073935540680842 -0.0013324995130575637 0 0.0036243666438255532 -0.00088810837605625306 0 0.0034421222299698818 -0.001209196433298085 0 0.003252673524983006 -0.0014173079489850043 0 0.0033132470952886022 -0.00074744525379270659 0 0.0037073935540680842 -0.0013324995130575637 0 0.003555138858718246 -0.00094096811654718123 0 0.0039388303500258364 -0.00097199055453415562 0 0.0037073935540680842 -0.0013324995130575637 0 0.0039388303500258364 -0.00097199055453415562 0 0.0042164486068349549 -0.0013651299512824097 0 0.0037073935540680842 -0.0013324995130575637 0 0.0037073935540680842 -0.0013324995130575637 0 0.0040625087461157745 -0.0016705393255732862 0 0.0037969122768603224 -0.0019275621682704825 0 0.0042164486068349549 -0.0013651299512824097 0 0.0037073935540680842 -0.0013324995130575637 0 0.0040625087461157745 -0.0016705393255732862 0 0.003252673524983006 -0.0014173079489850043 0 0.0037073935540680842 -0.0013324995130575637 0 0.0037969122768603224 -0.0019275621682704825 0 0.0045075587619381758 -0.0020194178395415677 0 0.0040625087461157745 -0.0016705393255732862 0 0.0037969122768603224 -0.0019275621682704825 0 0.0045075587619381758 -0.0020194178395415677 0 0.0037969122768603224 -0.0019275621682704825 0 0.0041729332763929339 -0.0024667580382656067 0 0.0037969122768603224 -0.0019275621682704825 0 0.0035704449746428698 -0.002638199720787467 0 0.0041729332763929339 -0.0024667580382656067 0 0.0037969122768603224 -0.0019275621682704825 0 0.003063765119410583 -0.0020189019519754282 0 0.0035704449746428698 -0.002638199720787467 0 0.003063765119410583 -0.0020189019519754282 0 0.0028555224541527376 -0.0025428815773684346 0 0.0035704449746428698 -0.002638199720787467 0 0.003252673524983006 -0.0014173079489850043 0 0.0037969122768603224 -0.0019275621682704825 0 0.003063765119410583 -0.0020189019519754282 0 0.0025168774168774634 -0.0015010622655886288 0 0.003252673524983006 -0.0014173079489850043 0 0.003063765119410583 -0.0020189019519754282 0 0.0023110521172186919 -0.0021205281177996732 0 0.0025168774168774634 -0.0015010622655886288 0 0.003063765119410583 -0.0020189019519754282 0 0.0023110521172186919 -0.0021205281177996732 0 0.003063765119410583 -0.0020189019519754282 0 0.0028555224541527376 -0.0025428815773684346 0 0.0028555224541527376 -0.0025428815773684346 0 0.0030625671085983686 -0.0031364975254325579 0 0.0035704449746428698 -0.002638199720787467 0 0.0030625671085983686 -0.0031364975254325579 0 0.0037009441375014519 -0.0032706802556196832 0 0.0035704449746428698 -0.002638199720787467 0 0.0035704449746428698 -0.002638199720787467 0 0.0041729332763929339 -0.0024667580382656067 0 0.0042341724734281201 -0.0030542778598110156 0 0.0041729332763929339 -0.0024667580382656067 0 0.0042341724734281201 -0.0030542778598110156 0 0.0047453997042721319 -0.0027456986590351615 0 0.0037009441375014519 -0.0032706802556196832 0 0.0035704449746428698 -0.002638199720787467 0 0.0042341724734281201 -0.0030542778598110156 0 0.0037009441375014519 -0.0032706802556196832 0 0.0042341724734281201 -0.0030542778598110156 0 0.004096441587635849 -0.0037463217107048751 0 0.0042341724734281201 -0.0030542778598110156 0 0.0045663878752019386 -0.0037066747568103298 0 0.004096441587635849 -0.0037463217107048751 0 0.0045663878752019386 -0.0037066747568103298 0 0.004096441587635849 -0.0037463217107048751 0 0.0044332876321494415 -0.0041939023448225587 0 0.004096441587635849 -0.0037463217107048751 0 0.0039966120771129888 -0.0041626873949945796 0 0.0035140098377472828 -0.0037565943236600114 0 0.004096441587635849 -0.0037463217107048751 0 0.0039966120771129888 -0.0041626873949945796 0 0.0044332876321494415 -0.0041939023448225587 0 0.0039966120771129888 -0.0041626873949945796 0 0.0035140098377472828 -0.0037565943236600114 0 0.0039230893859074027 -0.0044026319385692828 0 0.0035140098377472828 -0.0037565943236600114 0 0.0033357843656910587 -0.0041263038237159197 0 0.0039230893859074027 -0.0044026319385692828 0 0.0035140098377472828 -0.0037565943236600114 0 0.0033357843656910587 -0.0041263038237159197 0 0.0028800247958280676 -0.0038659916374404303 0 0.0035140098377472828 -0.0037565943236600114 0 0.0029834451895769717 -0.0035192084056102093 0 0.0028800247958280676 -0.0038659916374404303 0 0.0030625671085983686 -0.0031364975254325579 0 0.0035140098377472828 -0.0037565943236600114 0 0.0029834451895769717 -0.0035192084056102093 0 0.0030625671085983686 -0.0031364975254325579 0 0.0029834451895769717 -0.0035192084056102093 0 0.0025198048484549869 -0.0033775074718162884 0 0.0037009441375014519 -0.0032706802556196832 0 0.004096441587635849 -0.0037463217107048751 0 0.0035140098377472828 -0.0037565943236600114 0 0.0030625671085983686 -0.0031364975254325579 0 0.0037009441375014519 -0.0032706802556196832 0 0.0035140098377472828 -0.0037565943236600114 0 0.0060082536525514962 -0.0024344147947946201 0 0.0055231032351852043 -0.0030803121406025513 0 0.0063312584831452072 -0.003058243776031682 0 0.0055231032351852043 -0.0030803121406025513 0 0.0061052173692562901 -0.0035996292147692081 0 0.0063312584831452072 -0.003058243776031682 0 0.0053625308416258418 -0.0023773893677118511 0 0.0060082536525514962 -0.0024344147947946201 0 0.0055231032351852043 -0.0030803121406025513 0 0.0055231032351852043 -0.0030803121406025513 0 0.0047453997042721319 -0.0027456986590351615 0 0.0048063981929737411 -0.0034428610495576295 0 0.0053625308416258418 -0.0023773893677118511 0 0.0055231032351852043 -0.0030803121406025513 0 0.0047453997042721319 -0.0027456986590351615 0 0.0042744565766799835 -0.0030761424362951212 0 0.00492253503403948 -0.0034411035291612678 0 0.0042341724734281201 -0.0030542778598110156 0 0.0047453997042721319 -0.0027456986590351615 0 0.0048063981929737411 -0.0034428610495576295 0 0.0045663878752019386 -0.0037066747568103298 0 0.0050588457829667784 -0.0040199991587654034 0 0.0050539962180958277 -0.0034411013831901591 0 0.0042341724734281201 -0.0030542778598110156 0 0.0045663878752019386 -0.0037066747568103298 0 0.0050539962180958277 -0.0034411013831901591 0 0.0045663878752019386 -0.0037066747568103298 0 0.0050588457829667784 -0.0040199991587654034 0 0.0044332876321494415 -0.0041939023448225587 0 0.0050588457829667784 -0.0040199991587654034 0 0.0050539962180958277 -0.0034411013831901591 0 0.0057545523402092406 -0.003872719546145344 0 0.0050588457829667784 -0.0040199991587654034 0 0.0057545523402092406 -0.003872719546145344 0 0.0055018799367675614 -0.0043540933457556054 0 0.00492253503403948 -0.0034411035291612678 0 0.0056599641740205453 -0.0038886612713778523 0 0.0057545523402092406 -0.003872719546145344 0 0.0055018799367675614 -0.0043540933457556054 0 0.0064083513334888239 -0.0043348483796476775 0 0.0055231032351852043 -0.0030803121406025513 0 0.0048063981929737411 -0.0034428610495576295 0 0.0055481603762467628 -0.0038966299689763549 0 0.0056599641740205453 -0.0038886612713778523 0 0.0063661759416424844 -0.0043067661499548203 0 0.0055481603762467628 -0.0038966299689763549 0 0.0061052173692562901 -0.0035996292147692081 0 0.0064083513334888239 -0.0043348483796476775 0 0.0055231032351852043 -0.0030803121406025513 0 0.0055481603762467628 -0.0038966299689763549 0 0.0061052173692562901 -0.0035996292147692081 0 0.0055018799367675614 -0.0043540933457556054 0 0.0058364101939888443 -0.0049306045530230084 0 0.0064083513334888239 -0.0043348483796476775 0 0.0058364101939888443 -0.0049306045530230084 0 0.0064083513334888239 -0.0043348483796476775 0 0.0066965348873896692 -0.0050542582142608008 0 0.0058364101939888443 -0.0049306045530230084 0 0.0050915499424501968 -0.0045760855383543634 0 0.0052248403030733699 -0.0051000467922537041 0 0.0055018799367675614 -0.0043540933457556054 0 0.0058364101939888443 -0.0049306045530230084 0 0.0050915499424501968 -0.0045760855383543634 0 0.0050588457829667784 -0.0040199991587654034 0 0.0055018799367675614 -0.0043540933457556054 0 0.0050915499424501968 -0.0045760855383543634 0 0.0050588457829667784 -0.0040199991587654034 0 0.0050915499424501968 -0.0045760855383543634 0 0.0044332876321494415 -0.0041939023448225587 0 0.0050915499424501968 -0.0045760855383543634 0 0.0052248403030733699 -0.0051000467922537041 0 0.0045846925737940874 -0.0048685792455923542 0 0.0050915499424501968 -0.0045760855383543634 0 0.0044332876321494415 -0.0041939023448225587 0 0.0045846925737940874 -0.0048685792455923542 0 0.004941105122764587 -0.0054553537479666934 0 0.0052248403030733699 -0.0051000467922537041 0 0.0045846925737940874 -0.0048685792455923542 0 0.011767921131158914 -0.0057277293181600469 0 0.011443708407229729 -0.0059304244740436655 0 0.018586126779223475 -0.006039783939335657 0 0.017248660706936328 -0.0062794134378520317 0 0.017667071462867379 -0.0050765406683917508 0 0.004941105122764587 -0.0054553537479666934 0 0.0052248403030733699 -0.0051000467922537041 0 0.0056442076792616079 -0.0055776256887640494 0 0.0058364101939888443 -0.0049306045530230084 0 0.0056442076792616079 -0.0055776256887640494 0 0.0063739572443147503 -0.005705042792276559 0 0.0058364101939888443 -0.0049306045530230084 0 0.0052248403030733699 -0.0051000467922537041 0 0.0056442076792616079 -0.0055776256887640494 0 0.011443708407229729 -0.0059304244740436655 0 0.011029759217482648 -0.0061025880156466384 0 0.017248660706936328 -0.0062794134378520317 0 0.015674935135631177 -0.0065043507078262315 0 0.016338721298335673 -0.0052708512076964538 0 0.0058364101939888443 -0.0049306045530230084 0 0.0063739572443147503 -0.005705042792276559 0 0.0066965348873896692 -0.0050542582142608008 0 0.0044007809815548435 -0.0040495384832186961 0 0.0030639110081306349 -0.0044744957966561753 0 0.0039230893859074027 -0.0044026319385692828 0 0.0039792298543566296 -0.0043645321957316487 0 0.0043247607245697085 -0.0031895768103818926 0 0.0056470552543986937 -0.0032649877409806185 0 0.0039230893859074027 -0.0044026319385692828 0 0.0043247607245697085 -0.0031895768103818926 0 0.0031647696495632331 -0.0052296818927000423 0 0.0031498101065322512 -0.0045533411336181953 0 0.0039230893859074027 -0.0044026319385692828 0 0.0051899654698342795 -0.0011057891612963314 0 0.0034845044065824893 -0.0056246933288107851 0 0.0033357843656910587 -0.0041263038237159197 0 0.0031498101065322512 -0.0045533411336181953 0 0.0039230893859074027 -0.0044026319385692828 0 0.0033357843656910587 -0.0041263038237159197 0 0.0031498101065322512 -0.0045533411336181953 0 0.0027416972779155096 -0.0042348555653845005 0 0.0039966120771129888 -0.0041626873949945796 0 0.0044332876321494415 -0.0041939023448225587 0 0.0039792298543566296 -0.0043645321957316487 0 0.0039966120771129888 -0.0041626873949945796 0 0.0039230893859074027 -0.0044026319385692828 0 0.0039792298543566296 -0.0043645321957316487 0 0.0044332876321494415 -0.0041939023448225587 0 0.0045846925737940874 -0.0048685792455923542 0 0.0039792298543566296 -0.0043645321957316487 0 0.0045846925737940874 -0.0048685792455923542 0 0.0039792298543566296 -0.0043645321957316487 0 0.0041047058139117854 -0.0048892275638710118 0 0.0039792298543566296 -0.0043645321957316487 0 0.0041047058139117854 -0.0048892275638710118 0 0.0038948348763297638 -0.0049211399713575627 0 0.0045846925737940874 -0.0048685792455923542 0 0.0041047058139117854 -0.0048892275638710118 0 0.0042865354521110918 -0.005325707089384837 0 0.0041047058139117854 -0.0048892275638710118 0 0.0042865354521110918 -0.005325707089384837 0 0.004013997515196651 -0.0050676077008190799 0 0.004941105122764587 -0.0054553537479666934 0 0.0045846925737940874 -0.0048685792455923542 0 0.0042865354521110918 -0.005325707089384837 0 0.018586126779223475 -0.006039783939335657 0 0.019790294028118213 -0.0058649509918442125 0 0.019459612792535746 -0.0052056212061896293 0 0.011767921131158914 -0.0057277293181600469 0 0.012034254846921083 -0.00576681951981941 0 0.019790294028118213 -0.0058649509918442125 0 0.020981486470581272 -0.0057255622001484985 0 0.02027012856595066 -0.0051169808449361221 0 0.012034254846921083 -0.00576681951981941 0 0.012488948241849818 -0.0041037344656260728 0 0.0042865354521110918 -0.005325707089384837 0 0.004013997515196651 -0.0050676077008190799 0 0.003944679800132446 -0.0051602445967276183 0 0.004013997515196651 -0.0050676077008190799 0 0.0039326928220107674 -0.0050647506645758143 0 0.003944679800132446 -0.0051602445967276183 0 0.0041047058139117854 -0.0048892275638710118 0 0.004013997515196651 -0.0050676077008190799 0 0.0038948348763297638 -0.0049211399713575627 0 0.004013997515196651 -0.0050676077008190799 0 0.0038948348763297638 -0.0049211399713575627 0 0.0039326928220107674 -0.0050647506645758143 0 0.0043247607245697085 -0.0031895768103818926 0 0.0056897775299095676 -0.0024357905896253361 0 0.0059089037945467011 -0.0013542917910950333 0 0.0056470552543986937 -0.0032649877409806185 0 0.0043247607245697085 -0.0031895768103818926 0 0.0056897775299095676 -0.0024357905896253361 0 0.0030639110081306349 -0.0044744957966561753 0 0.011236018961828652 -0.0027984143823163651 0 0.0038948348763297638 -0.0049211399713575627 0 0.0039326928220107674 -0.0050647506645758143 0 0.0039086591607013742 -0.0051021362675645592 0 0.0056470552543986937 -0.0032649877409806185 0 0.0056897775299095676 -0.0024357905896253361 0 0.0061576904812989568 -0.0021215383852777742 0 0.0056897775299095676 -0.0024357905896253361 0 0.0059089037945467011 -0.0013542917910950333 0 0.0061576904812989568 -0.0021215383852777742 0 0.015907406220490625 -0.0037013162421294056 0 0.014651859036537426 -0.0030989928704177505 0 0.015841954176374063 -0.0030048856234782982 0 0.011236018961828652 -0.0027984143823163651 0 0.018084161300852497 -0.00078122853353117857 0 0.015907406220490625 -0.0037013162421294056 0 0.015841954176374063 -0.0030048856234782982 0 0.016128026778368176 -0.0035009637999258779 0 0.02334686048281354 -0.0025344977121891732 0 0.018084161300852497 -0.00078122853353117857 0 0.011236018961828652 -0.0027984143823163651 0 0.012488948241849818 -0.0041037344656260728 0 0.0039326928220107674 -0.0050647506645758143 0 0.0039086591607013742 -0.0051021362675645592 0 0.003944679800132446 -0.0051602445967276183 0 0.012488948241849818 -0.0041037344656260728 0 0.02334686048281354 -0.0025344977121891732 0 0.032708497513781506 0.0014876700134089827 0 0.032536847711618813 0.0014810906708474817 0 0.03269408103872444 0.0012365964261224819 0 0.021085851976871718 6.3227798163432397e-05 0 0.024887189360077853 0.00031699710998531688 0 0.022304967247333166 -0.0020345969156820663 0 0.02334686048281354 -0.0025344977121891732 0 0.028299874287752557 0.0014154867252812767 0 0.023276962710820928 0.0033575013277510812 0 0.023253007625056443 0.0014504218303050453 0 0.02739568014847401 0.0036200191967184687 0 0.028299874287752557 0.0014154867252812767 0 0.030216954486619173 0.0025841812558903983 0 0.030216954486619173 0.0025841812558903983 0 0.019148630471646253 0.002449535903729011 0 0.023253007625056443 0.0014504218303050453 0 0.02739568014847401 0.0036200191967184687 0 0.023685181580907894 -0.0010099928664453058 0 0.021982399414954477 -0.00015323239194876291 0 0.023253007625056443 0.0014504218303050453 0 0.023685181580907894 -0.0010099928664453058 0 0.017933440067077755 -0.0014367259261819072 0 0.015118027397400598 -5.252518027655664e-06 0 0.016638824124579749 -0.0026224637910653645 0 0.021982399414954477 -0.00015323239194876291 0 0.021092864683915531 0.0013744738296103921 0 0.023253007625056443 0.0014504218303050453 0 0.011236018961828652 -0.0027984143823163651 0 0.015684755900439683 0.00017084443106788795 0 0.015684755900439683 0.00017084443106788795 0 0.018084161300852497 -0.00078122853353117857 0 0.028299874287752557 0.0014154867252812767 0 0.018084161300852497 -0.00078122853353117857 0 0.023276962710820928 0.0033575013277510812 0 0.021092864683915531 0.0013744738296103921 0 0.023253007625056443 0.0014504218303050453 0 0.031186889269214917 0.0020544647933194984 0 0.030710466992497187 0.0020311245682740533 0 0.030522132016551008 0.0016719010438308009 0 0.029635520103416024 0.0021898869675948908 0 0.029735397276853395 0.0021005457045182316 0 0.029773614328406021 0.0021308914307644976 0 0.030216954486619173 0.0025841812558903983 0 0.030247579625838468 0.0020943251639777821 0 0.029635520103416024 0.0021898869675948908 0 0.029648441654790508 0.0021143925506259434 0 0.029483909203549354 0.0020921122263508887 0 0.029635520103416024 0.0021898869675948908 0 0.029648441654790508 0.0021143925506259434 0 0.029735397276853395 0.0021005457045182316 0 0.017807475122648998 0.0066771853826003286 0 0.012615339519657067 0.0091433632710120893 0 0.014264542317987728 0.0045682542414122703 0 0.023911886798920375 0.0045845824236975538 0 0.019148630471646253 0.002449535903729011 0 0.029648441654790508 0.0021143925506259434 0 0.029711420637791357 0.0020917765100277983 0 0.029483909203549354 0.0020921122263508887 0 0.029648441654790508 0.0021143925506259434 0 0.029711420637791357 0.0020917765100277983 0 0.029735397276853395 0.0021005457045182316 0 0.01206280033789052 0.0084435451354061344 0 0.012615339519657067 0.0091433632710120893 0 0.014264542317987728 0.0045682542414122703 0 0.0059089037945467011 -0.0013542917910950333 0 0.0064634894561909706 -0.0015713803566518199 0 0.0061576904812989568 -0.0021215383852777742 0 0.0064634894561909706 -0.0015713803566518199 0 0.0068195031963665222 -0.0020729559213099576 0 0.0061576904812989568 -0.0021215383852777742 0 0.015684755900439683 0.00017084443106788795 0 0.019148630471646253 0.002449535903729011 0 0.015931656103075401 0.00060811221747384086 0 0.01507158919082943 0.0020922982439930691 0 0.014484743601625598 0.0013464015361284699 0 0.015684755900439683 0.00017084443106788795 0 0.014371947728696958 0.0029385336051499207 0 0.014371947728696958 0.0029385336051499207 0 0.019148630471646253 0.002449535903729011 0 0.014371947728696958 0.0029385336051499207 0 0.013046150432479198 0.0065361189974948216 0 0.011948498718843141 0.0079651488887639062 0 0.012141907849418801 0.0053557531691023411 0 0.014264542317987728 0.0045682542414122703 0 0.0056470552543986937 -0.0032649877409806185 0 0.0068195031963665222 -0.0020729559213099576 0 0.0061576904812989568 -0.0021215383852777742 0 0.0051899654698342795 -0.0011057891612963314 0 0.014371947728696958 0.0029385336051499207 0 0.0095835140763392106 0.0050281472079385121 0 0.011948498718843141 0.0079651488887639062 0 0.012141907849418801 0.0053557531691023411 0 0.0031647696495632331 -0.0052296818927000423 0 0.0031498101065322512 -0.0045533411336181953 0 0.0026291114157962511 -0.0047281010124979508 0 0.0095835140763392106 0.0050281472079385121 0 0.012141907849418801 0.0053557531691023411 0 0.013650004341748871 0.0016908341739496936 0 0.0051899654698342795 -0.0011057891612963314 0 0.0081394593998414221 -0.0014333488826630183 0 0.012141907849418801 0.0053557531691023411 0 0.013650004341748871 0.0016908341739496936 0 0.014264542317987728 0.0045682542414122703 0 0.017807475122648998 0.0066771853826003286 0 0.017208324313474164 0.0025512359614525541 0 0.020434648949706452 0.0021346368015382868 0 0.017807475122648998 0.0066771853826003286 0 0.014264542317987728 0.0045682542414122703 0 0.017208324313474164 0.0025512359614525541 0 0.013650004341748871 0.0016908341739496936 0 0.014264542317987728 0.0045682542414122703 0 0.017208324313474164 0.0025512359614525541 0 0.0026291114157962511 -0.0047281010124979508 0 0.0021443041169536691 -0.0042675272903084727 0 0.0027416972779155096 -0.0042348555653845005 0 0.013650004341748871 0.0016908341739496936 0 0.017208324313474164 0.0025512359614525541 0 0.017865600714781847 -0.0019728553725730301 0 0.017208324313474164 0.0025512359614525541 0 0.017865600714781847 -0.0019728553725730301 0 0.020434648949706452 0.0021346368015382868 0 0.0081394593998414221 -0.0014333488826630183 0 0.01048167252272802 -0.003417864870662468 0 0.0031498101065322512 -0.0045533411336181953 0 0.0026291114157962511 -0.0047281010124979508 0 0.0027416972779155096 -0.0042348555653845005 0 0.025582431909570179 0.0011090459454596139 0 0.025537627621402301 -0.0010393263112640156 0 0.023089363141240292 -0.00012386009026484245 0 0.025582431909570179 0.0011090459454596139 0 0.027042147216636305 0.00093612005055279841 0 0.027757098332024301 0.0021730432549649224 0 0.02775184695971528 9.8471909770720089e-05 0 0.027757098332024301 0.0021730432549649224 0 0.029227069926079808 -0.0012138988996052511 0 0.025582431909570179 0.0011090459454596139 0 0.027042147216636305 0.00093612005055279841 0 0.026636387765430983 0.00012088293166070649 0 0.027042147216636305 0.00093612005055279841 0 0.02775184695971528 9.8471909770720089e-05 0 0.027757098332024301 0.0021730432549649224 0 0.027042147216636305 0.00093612005055279841 0 0.02775184695971528 9.8471909770720089e-05 0 0.026636387765430983 0.00012088293166070649 0 0.02775184695971528 9.8471909770720089e-05 0 0.027033562780046115 -0.00062074095981530628 0 0.027833852328013678 -0.00088200783465592085 0 0.02775184695971528 9.8471909770720089e-05 0 0.026636387765430983 0.00012088293166070649 0 0.027033562780046115 -0.00062074095981530628 0 0.026636387765430983 0.00012088293166070649 0 0.027033562780046115 -0.00062074095981530628 0 0.025537627621402301 -0.0010393263112640156 0 0.025582431909570179 0.0011090459454596139 0 0.026636387765430983 0.00012088293166070649 0 0.025537627621402301 -0.0010393263112640156 0 0.027033562780046115 -0.00062074095981530628 0 0.027210899493785575 -0.0011619034826041816 0 0.025537627621402301 -0.0010393263112640156 0 0.027210899493785575 -0.0011619034826041816 0 0.028091557320653646 -0.0019502803598976104 0 0.025537627621402301 -0.0010393263112640156 0 0.027033562780046115 -0.00062074095981530628 0 0.027833852328013678 -0.00088200783465592085 0 0.027210899493785575 -0.0011619034826041816 0 0.027833852328013678 -0.00088200783465592085 0 0.028209456666233482 -0.0013873751785835088 0 0.028091557320653646 -0.0019502803598976104 0 0.027833852328013678 -0.00088200783465592085 0 0.027210899493785575 -0.0011619034826041816 0 0.028091557320653646 -0.0019502803598976104 0 0.028091557320653646 -0.0019502803598976104 0 0.025537627621402301 -0.0010393263112640156 0 0.023473964589053944 -0.0032063322350693881 0 0.025537627621402301 -0.0010393263112640156 0 0.023089363141240292 -0.00012386009026484245 0 0.023473964589053944 -0.0032063322350693881 0 0.017865600714781847 -0.0019728553725730301 0 0.023089363141240292 -0.00012386009026484245 0 0.023473964589053944 -0.0032063322350693881 0 0.017865600714781847 -0.0019728553725730301 0 0.023089363141240292 -0.00012386009026484245 0 0.020434648949706452 0.0021346368015382868 0 0.017807475122648998 0.0066771853826003286 0 0.020434648949706452 0.0021346368015382868 0 0.023259588893386307 0.0043204157375347219 0 0.023089363141240292 -0.00012386009026484245 0 0.020434648949706452 0.0021346368015382868 0 0.023259588893386307 0.0043204157375347219 0 0.023911886798920375 0.0045845824236975538 0 0.02649431127706971 0.0032458379477655016 0 0.023259588893386307 0.0043204157375347219 0 0.027757098332024301 0.0021730432549649224 0 0.029003056545281038 0.0021888634947093786 0 0.029625747113606181 0.0022733777165573855 0 0.029343932633828475 0.002246412974648108 0 0.029589501108514219 0.002150531444623557 0 0.02649431127706971 0.0032458379477655016 0 0.028846932067981355 0.0022246767485429582 0 0.025582431909570179 0.0011090459454596139 0 0.023089363141240292 -0.00012386009026484245 0 0.023259588893386307 0.0043204157375347219 0 0.029625747113606181 0.0022733777165573855 0 0.029343932633828475 0.002246412974648108 0 0.029003056545281038 0.0021888634947093786 0 0.025582431909570179 0.0011090459454596139 0 0.023259588893386307 0.0043204157375347219 0 0.027757098332024301 0.0021730432549649224 0 0.029625747113606181 0.0022733777165573855 0 0.029589501108514219 0.002150531444623557 0 0.029765324352848014 0.0020761259800562704 0 0.029343932633828475 0.002246412974648108 0 0.029589501108514219 0.002150531444623557 0 0.029445840188351152 0.0021961859313527786 0 0.029589501108514219 0.002150531444623557 0 0.029765324352848014 0.0020761259800562704 0 0.029740666502407746 0.0020585347770950991 0 0.029589501108514219 0.002150531444623557 0 0.029740666502407746 0.0020585347770950991 0 0.029445840188351152 0.0021961859313527786 0 0.029711420637791357 0.0020917765100277983 0 0.029625747113606181 0.0022733777165573855 0 0.029765324352848014 0.0020761259800562704 0 0.029711420637791357 0.0020917765100277983 0 0.029765324352848014 0.0020761259800562704 0 0.029735397276853395 0.0021005457045182316 0 0.029765324352848014 0.0020761259800562704 0 0.029773614328406021 0.0021308914307644976 0 0.030026631959279196 0.001987603391771287 0 0.029765324352848014 0.0020761259800562704 0 0.029735397276853395 0.0021005457045182316 0 0.029773614328406021 0.0021308914307644976 0 0.030247579625838468 0.0020943251639777821 0 0.030036607869762373 0.002020717866625576 0 0.029765324352848014 0.0020761259800562704 0 0.029740666502407746 0.0020585347770950991 0 0.030026631959279196 0.001987603391771287 0 0.029740666502407746 0.0020585347770950991 0 0.030026631959279196 0.001987603391771287 0 0.029880395487988654 0.0018530125693404155 0 0.029740666502407746 0.0020585347770950991 0 0.029506797727039895 0.0019364430490181981 0 0.029880395487988654 0.0018530125693404155 0 0.029740666502407746 0.0020585347770950991 0 0.029506797727039895 0.0019364430490181981 0 0.029445840188351152 0.0021961859313527786 0 0.029506797727039895 0.0019364430490181981 0 0.028994419168550174 0.0019664551757308437 0 0.02907626849536692 0.0022410733185006062 0 0.029506797727039895 0.0019364430490181981 0 0.028994419168550174 0.0019664551757308437 0 0.029194868339332592 0.0016958987043451963 0 0.028994419168550174 0.0019664551757308437 0 0.028812367468888083 0.0017283926609247798 0 0.029194868339332592 0.0016958987043451963 0 0.028994419168550174 0.0019664551757308437 0 0.02907626849536692 0.0022410733185006062 0 0.028629155410438083 0.002167691935415922 0 0.02907626849536692 0.0022410733185006062 0 0.028215086832736769 0.0025448150676138713 0 0.029204619536969845 0.0025366779004018063 0 0.02907626849536692 0.0022410733185006062 0 0.029445840188351152 0.0021961859313527786 0 0.029233085532409414 0.0023662394742758361 0 0.029506797727039895 0.0019364430490181981 0 0.02907626849536692 0.0022410733185006062 0 0.029445840188351152 0.0021961859313527786 0 0.029343932633828475 0.002246412974648108 0 0.029445840188351152 0.0021961859313527786 0 0.029233085532409414 0.0023662394742758361 0 0.028014304496242405 0.0019562374831645097 0 0.028389401136029804 0.0018373967829668025 0 0.028305033603939073 0.0016093761146923904 0 0.028014304496242405 0.0019562374831645097 0 0.028389401136029804 0.0018373967829668025 0 0.028278117691221256 0.0021831753729765336 0 0.028389401136029804 0.0018373967829668025 0 0.028278117691221256 0.0021831753729765336 0 0.028604113494015111 0.0019845035545931287 0 0.028278117691221256 0.0021831753729765336 0 0.028604113494015111 0.0019845035545931287 0 0.028629155410438083 0.002167691935415922 0 0.028389401136029804 0.0018373967829668025 0 0.028604113494015111 0.0019845035545931287 0 0.028812367468888083 0.0017283926609247798 0 0.028994419168550174 0.0019664551757308437 0 0.028604113494015111 0.0019845035545931287 0 0.028812367468888083 0.0017283926609247798 0 0.028994419168550174 0.0019664551757308437 0 0.028604113494015111 0.0019845035545931287 0 0.028629155410438083 0.002167691935415922 0 0.02907626849536692 0.0022410733185006062 0 0.028629155410438083 0.002167691935415922 0 0.028215086832736769 0.0025448150676138713 0 0.028278117691221256 0.0021831753729765336 0 0.028629155410438083 0.002167691935415922 0 0.028215086832736769 0.0025448150676138713 0 0.028014304496242405 0.0019562374831645097 0 0.028278117691221256 0.0021831753729765336 0 0.027955021150162521 0.0024644408601408388 0 0.027962943912429584 0.0012771110913996149 0 0.025166785125901842 -0.00033736424476026706 0 0.028278117691221256 0.0021831753729765336 0 0.028215086832736769 0.0025448150676138713 0 0.027955021150162521 0.0024644408601408388 0 0.025166785125901842 -0.00033736424476026706 0 0.02626863313621438 0.0019320250647915436 0 0.025166785125901842 -0.00033736424476026706 0 0.022154967247121009 0.00091422477422050308 0 0.022691985398336539 -0.002332925573734458 0 0.024634721364327358 0.00072109647692297448 0 0.022866267056538776 0.0017947434562375008 0 0.028215086832736769 0.0025448150676138713 0 0.027955021150162521 0.0024644408601408388 0 0.027796780833851235 0.002811898754304537 0 0.027744599829114001 0.0022667021200749003 0 0.029580084260443219 0.0031837630580809624 0 0.028215086832736769 0.0025448150676138713 0 0.027796780833851235 0.002811898754304537 0 0.027748083567565775 0.0028680524300114486 0 0.027796780833851235 0.002811898754304537 0 0.027543815493531576 0.0030373803158140035 0 0.026877929376637168 0.0036015542443658343 0 0.024807554795777533 0.0027407111562026912 0 0.024634721364327358 0.00072109647692297448 0 0.026877929376637168 0.0036015542443658343 0 0.027796780833851235 0.002811898754304537 0 0.027748083567565775 0.0028680524300114486 0 0.027543815493531576 0.0030373803158140035 0 0.02626863313621438 0.0019320250647915436 0 0.026919459731650427 0.0034929900257496889 0 0.022866267056538776 0.0017947434562375008 0 0.023308506543448269 0.0030169536621122098 0 0.021000123779533832 0.0021019370389519254 0 0.024807554795777533 0.0027407111562026912 0 0.024634721364327358 0.00072109647692297448 0 0.022866267056538776 0.0017947434562375008 0 0.024807554795777533 0.0027407111562026912 0 0.022866267056538776 0.0017947434562375008 0 0.023308506543448269 0.0030169536621122098 0 0.029003056545281038 0.0021888634947093786 0 0.029233085532409414 0.0023662394742758361 0 0.029204619536969845 0.0025366779004018063 0 0.029343932633828475 0.002246412974648108 0 0.029003056545281038 0.0021888634947093786 0 0.029233085532409414 0.0023662394742758361 0 0.02907626849536692 0.0022410733185006062 0 0.029233085532409414 0.0023662394742758361 0 0.029204619536969845 0.0025366779004018063 0 0.027748083567565775 0.0028680524300114486 0 0.027543815493531576 0.0030373803158140035 0 0.027780932803617191 0.003137256113799823 0 0.027543815493531576 0.0030373803158140035 0 0.027571946528626819 0.0032843768173125487 0 0.027780932803617191 0.003137256113799823 0 0.027543815493531576 0.0030373803158140035 0 0.027571946528626819 0.0032843768173125487 0 0.026877929376637168 0.0036015542443658343 0 0.027571946528626819 0.0032843768173125487 0 0.027780932803617191 0.003137256113799823 0 0.027750726129010552 0.0033301439748144278 0 0.027780932803617191 0.003137256113799823 0 0.027750726129010552 0.0033301439748144278 0 0.027857240326901903 0.0032675181555787852 0 0.029003056545281038 0.0021888634947093786 0 0.029204619536969845 0.0025366779004018063 0 0.029090497737509036 0.0015888984098520039 0 0.027857240326901903 0.0032675181555787852 0 0.028022557174515891 0.0031281421929873704 0 0.027975015627151208 0.0031918876351184891 0 0.027748083567565775 0.0028680524300114486 0 0.027780932803617191 0.003137256113799823 0 0.028022557174515891 0.0031281421929873704 0 0.029580084260443219 0.0031837630580809624 0 0.022735149574337515 0.00086021408250103073 0 0.027780932803617191 0.003137256113799823 0 0.027857240326901903 0.0032675181555787852 0 0.028022557174515891 0.0031281421929873704 0 0.027757098332024301 0.0021730432549649224 0 0.029003056545281038 0.0021888634947093786 0 0.029090497737509036 0.0015888984098520039 0 0.026916330049553461 0.00067608326203155733 0 0.022735149574337515 0.00086021408250103073 0 0.02775184695971528 9.8471909770720089e-05 0 0.027833852328013678 -0.00088200783465592085 0 0.029227069926079808 -0.0012138988996052511 0 0.027833852328013678 -0.00088200783465592085 0 0.028209456666233482 -0.0013873751785835088 0 0.029227069926079808 -0.0012138988996052511 0 0.015599900602842467 -0.0023803753792713883 0 0.022735149574337515 0.00086021408250103073 0 0.028209456666233482 -0.0013873751785835088 0 0.028091557320653646 -0.0019502803598976104 0 0.029227069926079808 -0.0012138988996052511 0 0.022735149574337515 0.00086021408250103073 0 0.0130360063499474 -0.0018199197488926611 0 0.019034245831819056 -0.0025124665316466227 0 0.017411191297295299 -0.0036443758157361488 0 0.016257579940063216 -0.0013257062388009257 0 0.015599900602842467 -0.0023803753792713883 0 0.0130360063499474 -0.0018199197488926611 0 0.0009349094247594669 -0.0040900937145924438 0 0.00231235478373553 -0.0044738601953360846 0 0.0021956523872000418 -0.0050444170447408194 0 0.0017842336276423507 -0.0056131543940823349 0 0.0009349094247594669 -0.0040900937145924438 0 0.0021956523872000418 -0.0050444170447408194 0 0.0130360063499474 -0.0018199197488926611 0 0.00035248382117626279 -0.0037680666069791354 0 0.002259846531201802 -0.0058097231841652743 0 0.0017842336276423507 -0.0056131543940823349 0 0.0021956523872000418 -0.0050444170447408194 0 0.027857240326901903 0.0032675181555787852 0 0.027975015627151208 0.0031918876351184891 0 0.027738899036476191 0.0036858023418771591 0 0.0023400224808282368 -0.0045557511483753617 0 0.0010387847521538659 -0.0040276047283385775 0 0.0015484551912174288 -0.0033827411440441367 0 0.0130360063499474 -0.0018199197488926611 0 0.014646311814252478 -0.00015576398685208828 0 0.027750726129010552 0.0033301439748144278 0 0.027857240326901903 0.0032675181555787852 0 0.027738899036476191 0.0036858023418771591 0 0.027571946528626819 0.0032843768173125487 0 0.027750726129010552 0.0033301439748144278 0 0.027738899036476191 0.0036858023418771591 0 0.027571946528626819 0.0032843768173125487 0 0.027738899036476191 0.0036858023418771591 0 0.026877929376637168 0.0036015542443658343 0 0.0009349094247594669 -0.0040900937145924438 0 0.0010715811813560882 -0.0029645821854185259 0 0.00043138190168431022 -0.0029241339622882267 0 0.00035248382117626279 -0.0037680666069791354 0 0.00068575841285658959 -0.0028040596174783248 0 0.0015484551912174288 -0.0033827411440441367 0 0.00060457616368463053 -0.0031459115009210281 0 0.00075277573780801056 -0.002528575329796215 0 0.0010387847521538659 -0.0040276047283385775 0 0.0015484551912174288 -0.0033827411440441367 0 0.00060457616368463053 -0.0031459115009210281 0 0.0009349094247594669 -0.0040900937145924438 0 0.00231235478373553 -0.0044738601953360846 0 0.0024183329632217771 -0.0037591873848634629 0 0.0009349094247594669 -0.0040900937145924438 0 0.0010715811813560882 -0.0029645821854185259 0 0.0024183329632217771 -0.0037591873848634629 0 0.0014467354057919469 -0.0032303531463098883 0 0.0010392042252511426 -0.0030895017227709535 0 0.024882478978629528 0.0051574970887245221 0 0.022117176906314189 0.0039353552788182512 0 0.021853602515962845 0.0063367789337646311 0 0.023308506543448269 0.0030169536621122098 0 0.024882478978629528 0.0051574970887245221 0 0.022117176906314189 0.0039353552788182512 0 0.024807554795777533 0.0027407111562026912 0 0.023308506543448269 0.0030169536621122098 0 0.024882478978629528 0.0051574970887245221 0 0.023308506543448269 0.0030169536621122098 0 0.022117176906314189 0.0039353552788182512 0 0.021000123779533832 0.0021019370389519254 0 0.024807554795777533 0.0027407111562026912 0 0.024882478978629528 0.0051574970887245221 0 0.026877929376637168 0.0036015542443658343 0 0.027738899036476191 0.0036858023418771591 0 0.024882478978629528 0.0051574970887245221 0 0.026877929376637168 0.0036015542443658343 0 0.0010387847521538659 -0.0040276047283385775 0 5.6958978009809192e-05 -0.0034894503853833037 0 0.00060457616368463053 -0.0031459115009210281 0 0.014646311814252478 -0.00015576398685208828 0 0.012420612060041778 0.00087051826596739289 0 0.00060457616368463053 -0.0031459115009210281 0 -3.3990344870456457e-05 -0.002863103876642752 0 0.00034669983894854996 -0.0027467627885688602 0 5.6958978009809192e-05 -0.0034894503853833037 0 0.00060457616368463053 -0.0031459115009210281 0 -3.3990344870456457e-05 -0.002863103876642752 0 -3.3990344870456457e-05 -0.002863103876642752 0 -0.00046103546041652602 -0.0026712054883612293 0 -0.00068767333993047513 -0.003046714692731281 0 0.012420612060041778 0.00087051826596739289 0 0.01042436176055124 0.00096544821505474435 0 5.6958978009809192e-05 -0.0034894503853833037 0 -3.3990344870456457e-05 -0.002863103876642752 0 -0.00068767333993047513 -0.003046714692731281 0 -0.00046103546041652602 -0.0026712054883612293 0 -0.00061952621452310123 -0.002583313230288107 0 -0.00058570522500483026 -0.0027871623695393823 0 -1.8135655245106815e-05 -0.005203835514960003 0 0.01042436176055124 0.00096544821505474435 0 -0.00057388550008161717 -0.0024284360528976923 0 -0.00046103546041652602 -0.0026712054883612293 0 -0.00061952621452310123 -0.002583313230288107 0 -0.00057388550008161717 -0.0024284360528976923 0 -0.00046103546041652602 -0.0026712054883612293 0 -0.0002609873607339739 -0.0025399403528981982 0 -3.3990344870456457e-05 -0.002863103876642752 0 -0.00046103546041652602 -0.0026712054883612293 0 -0.0002609873607339739 -0.0025399403528981982 0 -0.00057388550008161717 -0.0024284360528976923 0 -0.0002609873607339739 -0.0025399403528981982 0 -0.00036719115935332351 -0.0021926413249434775 0 9.4443951172681393e-05 -0.0024629334149750552 0 8.3485987012259092e-05 -0.0021131065728231574 0 0.00075277573780801056 -0.002528575329796215 0 -0.0002609873607339739 -0.0025399403528981982 0 9.4443951172681393e-05 -0.0024629334149750552 0 -0.00036719115935332351 -0.0021926413249434775 0 -3.3990344870456457e-05 -0.002863103876642752 0 -0.0002609873607339739 -0.0025399403528981982 0 9.4443951172681393e-05 -0.0024629334149750552 0 -3.3990344870456457e-05 -0.002863103876642752 0 9.4443951172681393e-05 -0.0024629334149750552 0 0.00034669983894854996 -0.0027467627885688602 0 9.4443951172681393e-05 -0.0024629334149750552 0 0.00034669983894854996 -0.0027467627885688602 0 0.00075277573780801056 -0.002528575329796215 0 9.4443951172681393e-05 -0.0024629334149750552 0 8.3485987012259092e-05 -0.0021131065728231574 0 -0.00036719115935332351 -0.0021926413249434775 0 -0.00049791346298422334 -0.0017955274895368265 0 8.3485987012259092e-05 -0.0021131065728231574 0 -0.00036719115935332351 -0.0021926413249434775 0 -0.00049791346298422334 -0.0017955274895368265 0 -0.00036719115935332351 -0.0021926413249434775 0 -0.00062296723719129979 -0.0019571959900210206 0 -0.00057388550008161717 -0.0024284360528976923 0 -0.00036719115935332351 -0.0021926413249434775 0 -0.00072973519820609088 -0.0021494203404644908 0 -0.00036719115935332351 -0.0021926413249434775 0 -0.00062296723719129979 -0.0019571959900210206 0 -0.00072973519820609088 -0.0021494203404644908 0 0.0010715811813560882 -0.0029645821854185259 0 0.00086619668765790811 -0.0024328968503410735 0 0.0012611427576268699 -0.0026294273607908986 0 0.0010715811813560882 -0.0029645821854185259 0 0.0012611427576268699 -0.0026294273607908986 0 0.0013691199588400811 -0.0029689723046511327 0 0.0010715811813560882 -0.0029645821854185259 0 0.0013691199588400811 -0.0029689723046511327 0 0.0013123933689767301 -0.0033102935012519026 0 0.0010715811813560882 -0.0029645821854185259 0 0.00043138190168431022 -0.0029241339622882267 0 0.00086619668765790811 -0.0024328968503410735 0 0.00060457616368463053 -0.0031459115009210281 0 0.00034669983894854996 -0.0027467627885688602 0 0.00075277573780801056 -0.002528575329796215 0 0.00063542539118274875 -0.0019291426127034555 0 8.3485987012259092e-05 -0.0021131065728231574 0 0.00086619668765790811 -0.0024328968503410735 0 8.3485987012259092e-05 -0.0021131065728231574 0 0.00043138190168431022 -0.0029241339622882267 0 0.00086619668765790811 -0.0024328968503410735 0 0.0001383744850908615 -0.0021410374137381745 0 0.00068575841285658959 -0.0028040596174783248 0 0.0013327162097962735 -0.0022411558626493507 0 0.00086619668765790811 -0.0024328968503410735 0 0.0012611427576268699 -0.0026294273607908986 0 0.00063542539118274875 -0.0019291426127034555 0 0.0013327162097962735 -0.0022411558626493507 0 0.00086619668765790811 -0.0024328968503410735 0 0.0013327162097962735 -0.0022411558626493507 0 0.0012611427576268699 -0.0026294273607908986 0 0.001599393341434722 -0.0027416636269303671 0 0.0012611427576268699 -0.0026294273607908986 0 0.0013691199588400811 -0.0029689723046511327 0 0.001599393341434722 -0.0027416636269303671 0 0.0013691199588400811 -0.0029689723046511327 0 0.001599393341434722 -0.0027416636269303671 0 0.0016521001896095135 -0.0032244789013360169 0 0.001599393341434722 -0.0027416636269303671 0 0.002011582214311124 -0.00312662017041583 0 0.0016521001896095135 -0.0032244789013360169 0 0.0016131599547968194 -0.0023567696284087177 0 0.0013327162097962735 -0.0022411558626493507 0 0.001599393341434722 -0.0027416636269303671 0 0.0016131599547968194 -0.0023567696284087177 0 0.001599393341434722 -0.0027416636269303671 0 0.0022581302927244559 -0.0027982647632274656 0 0.0028555224541527376 -0.0025428815773684346 0 0.0030625671085983686 -0.0031364975254325579 0 0.0022581302927244559 -0.0027982647632274656 0 0.0023110521172186919 -0.0021205281177996732 0 0.0028555224541527376 -0.0025428815773684346 0 0.0022581302927244559 -0.0027982647632274656 0 0.0030625671085983686 -0.0031364975254325579 0 0.0022581302927244559 -0.0027982647632274656 0 0.0025198048484549869 -0.0033775074718162884 0 0.001599393341434722 -0.0027416636269303671 0 0.0022581302927244559 -0.0027982647632274656 0 0.002011582214311124 -0.00312662017041583 0 0.0022581302927244559 -0.0027982647632274656 0 0.002011582214311124 -0.00312662017041583 0 0.0025198048484549869 -0.0033775074718162884 0 0.002011582214311124 -0.00312662017041583 0 0.0020511607366223007 -0.0035301708418204215 0 0.0025198048484549869 -0.0033775074718162884 0 0.0020511607366223007 -0.0035301708418204215 0 0.0025198048484549869 -0.0033775074718162884 0 0.0024490433327001072 -0.0038575627516839123 0 0.0029834451895769717 -0.0035192084056102093 0 0.0025198048484549869 -0.0033775074718162884 0 0.0028800247958280676 -0.0038659916374404303 0 0.0025198048484549869 -0.0033775074718162884 0 0.0028800247958280676 -0.0038659916374404303 0 0.0024490433327001072 -0.0038575627516839123 0 0.0033357843656910587 -0.0041263038237159197 0 0.0027416972779155096 -0.0042348555653845005 0 0.0028800247958280676 -0.0038659916374404303 0 0.0027416972779155096 -0.0042348555653845005 0 0.0028800247958280676 -0.0038659916374404303 0 0.0024490433327001072 -0.0038575627516839123 0 0.0021443041169536691 -0.0042675272903084727 0 0.0020511607366223007 -0.0035301708418204215 0 0.0024490433327001072 -0.0038575627516839123 0 0.0021443041169536691 -0.0042675272903084727 0 0.0027416972779155096 -0.0042348555653845005 0 0.0024490433327001072 -0.0038575627516839123 0 0.0021443041169536691 -0.0042675272903084727 0 0.0020511607366223007 -0.0035301708418204215 0 0.0017051221659294912 -0.003841813309087084 0 0.017865600714781847 -0.0019728553725730301 0 0.022233652482709358 -0.0058896694293317136 0 0.023473964589053944 -0.0032063322350693881 0 0.01048167252272802 -0.003417864870662468 0 0.0085902709333448117 -0.0044460248132021946 0 0.00064330654071255737 -0.004593848246108422 0 0.0085902709333448117 -0.0044460248132021946 0 0.002259846531201802 -0.0058097231841652743 0 0.0037490282538024883 -0.0047704060587535528 0 0.0021956523872000418 -0.0050444170447408194 0 0.015599900602842467 -0.0023803753792713883 0 0.0085902709333448117 -0.0044460248132021946 0 0.028091557320653646 -0.0019502803598976104 0 0.022233652482709358 -0.0058896694293317136 0 0.023473964589053944 -0.0032063322350693881 0 0.0037490282538024883 -0.0047704060587535528 0 0.00231235478373553 -0.0044738601953360846 0 0.0021956523872000418 -0.0050444170447408194 0 0.0037490282538024883 -0.0047704060587535528 0 0.00231235478373553 -0.0044738601953360846 0 0.0024183329632217771 -0.0037591873848634629 0 0.0017086736518035967 -0.0037290100997805459 0 0.0013123933689767301 -0.0033102935012519026 0 0.0016521001896095135 -0.0032244789013360169 0 0.0085902709333448117 -0.0044460248132021946 0 0.0010392042252511426 -0.0030895017227709535 0 0.0013691199588400811 -0.0029689723046511327 0 0.0013123933689767301 -0.0033102935012519026 0 0.0016521001896095135 -0.0032244789013360169 0 0.0020511607366223007 -0.0035301708418204215 0 0.0017086736518035967 -0.0037290100997805459 0 0.0016521001896095135 -0.0032244789013360169 0 0.002011582214311124 -0.00312662017041583 0 0.0020511607366223007 -0.0035301708418204215 0 0.0016521001896095135 -0.0032244789013360169 0 0.0068157583618804847 0.00015226828667805545 0 0.0063300793566603694 -0.00029403588145966914 0 0.005675954195746024 0.00036507508923647479 0 0.0068157583618804847 0.00015226828667805545 0 0.005675954195746024 0.00036507508923647479 0 0.0063681955738986501 5.4125762245642912e-07 0 0.0068157583618804847 0.00015226828667805545 0 0.0082509916864220972 2.8286025916372937e-07 0 0.0063681955738986501 5.4125762245642912e-07 0 0.0068157583618804847 0.00015226828667805545 0 0.0076423628204972376 -0.00012746877167631445 0 0.0082509916864220972 2.8286025916372937e-07 0 0.0068157583618804847 0.00015226828667805545 0 0.0076423628204972376 -0.00012746877167631445 0 0.0063300793566603694 -0.00029403588145966914 0 0.012781684623508675 -0.0021474599023733249 0 0.012047696129824221 -0.0015742932133855753 0 0.011845780664834169 -0.0023413206547347291 0 0.0096344047205719104 -0.0012507045877422911 0 0.0086575603025611965 -0.0006074642371919339 0 0.0063300793566603694 -0.00029403588145966914 0 0.0052271597068625948 0.00028358488531872033 0 0.005675954195746024 0.00036507508923647479 0 0.0052271597068625948 0.00028358488531872033 0 0.0051214602095991544 0.0004127787288416584 0 0.005675954195746024 0.00036507508923647479 0 0.0051214602095991544 0.0004127787288416584 0 0.0047147088399625151 0.00033872942023058602 0 0.005675954195746024 0.00036507508923647479 0 0.0052271597068625948 0.00028358488531872033 0 0.0051214602095991544 0.0004127787288416584 0 0.0053425230585566622 0.00044540998577255551 0 0.0051214602095991544 0.0004127787288416584 0 0.0053425230585566622 0.00044540998577255551 0 0.0053414669425686087 -0.0001028122341858165 0 0.0051214602095991544 0.0004127787288416584 0 0.0049216406233348478 0.00019722051103151028 0 0.0053414669425686087 -0.0001028122341858165 0 0.0051214602095991544 0.0004127787288416584 0 0.0049216406233348478 0.00019722051103151028 0 0.0047147088399625151 0.00033872942023058602 0 0.0047147088399625151 0.00033872942023058602 0 0.0050630533133675173 0.00027080038649133511 0 0.005675954195746024 0.00036507508923647479 0 0.0047147088399625151 0.00033872942023058602 0 0.0050630533133675173 0.00027080038649133511 0 0.0040146552012093077 0.00024273105569252212 0 0.0050630533133675173 0.00027080038649133511 0 0.005675954195746024 0.00036507508923647479 0 0.0063681955738986501 5.4125762245642912e-07 0 0.0050630533133675173 0.00027080038649133511 0 0.0063681955738986501 5.4125762245642912e-07 0 0.0044854110803230511 5.8226140377781308e-07 0 0.0050630533133675173 0.00027080038649133511 0 0.0044854110803230511 5.8226140377781308e-07 0 0.0040146552012093077 0.00024273105569252212 0 0.0044854110803230511 5.8226140377781308e-07 0 0.0040146552012093077 0.00024273105569252212 0 0.0026028939020855766 1.5666035862551994e-07 0 0.0047147088399625151 0.00033872942023058602 0 0.0040146552012093077 0.00024273105569252212 0 0.003926187948021828 0.00026465140256486108 0 0.0040146552012093077 0.00024273105569252212 0 0.0028563340730956548 0.00015193152749266739 0 0.003926187948021828 0.00026465140256486108 0 0.0040146552012093077 0.00024273105569252212 0 0.0028563340730956548 0.00015193152749266739 0 0.0026028939020855766 1.5666035862551994e-07 0 0.0028563340730956548 0.00015193152749266739 0 0.0026028939020855766 1.5666035862551994e-07 0 0.00071932819736317711 1.1974356658113956e-06 0 0.0028563340730956548 0.00015193152749266739 0 0.0026938436065470613 3.0268728237001669e-05 0 0.00071932819736317711 1.1974356658113956e-06 0 0.0028563340730956548 0.00015193152749266739 0 0.0026938436065470613 3.0268728237001669e-05 0 0.003926187948021828 0.00026465140256486108 0 0.0030405452798813936 -0.00063833155545641883 0 0.0013344316751938612 -0.00030111951963825926 0 0.0026938436065470613 3.0268728237001669e-05 0 0.0013344316751938612 -0.00030111951963825926 0 0.0026938436065470613 3.0268728237001669e-05 0 0.00071932819736317711 1.1974356658113956e-06 0 0.0039493911465465926 -0.00051885023035682396 0 0.0037372977134268047 -4.9124848881647971e-05 0 0.0045068413147137882 -0.00012352557029602038 0 0.0030405452798813936 -0.00063833155545641883 0 0.0026938436065470613 3.0268728237001669e-05 0 0.0037372977134268047 -4.9124848881647971e-05 0 0.0030405452798813936 -0.00063833155545641883 0 0.0039493911465465926 -0.00051885023035682396 0 0.0037372977134268047 -4.9124848881647971e-05 0 0.0026938436065470613 3.0268728237001669e-05 0 0.0037372977134268047 -4.9124848881647971e-05 0 0.003926187948021828 0.00026465140256486108 0 0.0037372977134268047 -4.9124848881647971e-05 0 0.0043039871554419566 0.00014566138191413329 0 0.0045068413147137882 -0.00012352557029602038 0 0.0043039871554419566 0.00014566138191413329 0 0.0045320718597776141 0.00025830267019100791 0 0.0046822505002646177 0.00015908946921777475 0 0.0043039871554419566 0.00014566138191413329 0 0.0046822505002646177 0.00015908946921777475 0 0.0045068413147137882 -0.00012352557029602038 0 0.0043039871554419566 0.00014566138191413329 0 0.003926187948021828 0.00026465140256486108 0 0.0045320718597776141 0.00025830267019100791 0 0.0037372977134268047 -4.9124848881647971e-05 0 0.0043039871554419566 0.00014566138191413329 0 0.003926187948021828 0.00026465140256486108 0 0.0049216406233348478 0.00019722051103151028 0 0.0047147088399625151 0.00033872942023058602 0 0.0045320718597776141 0.00025830267019100791 0 0.0047147088399625151 0.00033872942023058602 0 0.003926187948021828 0.00026465140256486108 0 0.0045320718597776141 0.00025830267019100791 0 0.0045320718597776141 0.00025830267019100791 0 0.004918612367798593 0.00020296809759661778 0 0.0046822505002646177 0.00015908946921777475 0 0.0049216406233348478 0.00019722051103151028 0 0.0045320718597776141 0.00025830267019100791 0 0.004918612367798593 0.00020296809759661778 0 0.004918612367798593 0.00020296809759661778 0 0.0050152241705394042 0.0001843246705953489 0 0.0053414669425686087 -0.0001028122341858165 0 0.004918612367798593 0.00020296809759661778 0 0.0048832503797675581 0.00019603468169236959 0 0.0046822505002646177 0.00015908946921777475 0 0.004918612367798593 0.00020296809759661778 0 0.0050152241705394042 0.0001843246705953489 0 0.0048832503797675581 0.00019603468169236959 0 0.0050152241705394042 0.0001843246705953489 0 0.0049003280018214716 0.00029448372172441608 0 0.0053414669425686087 -0.0001028122341858165 0 0.0050152241705394042 0.0001843246705953489 0 0.0049003280018214716 0.00029448372172441608 0 0.0048832503797675581 0.00019603468169236959 0 0.0049003280018214716 0.00029448372172441608 0 0.0048832503797675581 0.00019603468169236959 0 0.0050084224370177816 3.0015762284102763e-05 0 0.0048832503797675581 0.00019603468169236959 0 0.0048129945171596199 2.1145682965075964e-05 0 0.0050084224370177816 3.0015762284102763e-05 0 0.0048832503797675581 0.00019603468169236959 0 0.0048129945171596199 2.1145682965075964e-05 0 0.0046822505002646177 0.00015908946921777475 0 0.0048129945171596199 2.1145682965075964e-05 0 0.0046822505002646177 0.00015908946921777475 0 0.0045068413147137882 -0.00012352557029602038 0 0.0048129945171596199 2.1145682965075964e-05 0 0.0045068413147137882 -0.00012352557029602038 0 0.0049378587550439933 -0.00027331982587056302 0 0.0048129945171596199 2.1145682965075964e-05 0 0.0050084224370177816 3.0015762284102763e-05 0 0.0049378587550439933 -0.00027331982587056302 0 0.0050084224370177816 3.0015762284102763e-05 0 0.0049378587550439933 -0.00027331982587056302 0 0.0050768210682445121 -0.00041998890227094507 0 0.0049378587550439933 -0.00027331982587056302 0 0.0049532972076228431 -0.0003335606855660745 0 0.0050768210682445121 -0.00041998890227094507 0 0.0045068413147137882 -0.00012352557029602038 0 0.0049378587550439933 -0.00027331982587056302 0 0.0049527471818882713 -0.00040040551924887247 0 0.0050530332115449389 -5.9690083292553003e-05 0 0.0049527471818882713 -0.00040040551924887247 0 0.0049532972076228431 -0.0003335606855660745 0 0.0049378587550439933 -0.00027331982587056302 0 0.0049527471818882713 -0.00040040551924887247 0 0.0049532972076228431 -0.0003335606855660745 0 0.0045058679130561509 -0.00085877058767767445 0 0.0045068413147137882 -0.00012352557029602038 0 0.0049527471818882713 -0.00040040551924887247 0 0.0045058679130561509 -0.00085877058767767445 0 0.0039493911465465926 -0.00051885023035682396 0 0.0045068413147137882 -0.00012352557029602038 0 0.0043977554085329416 -0.00050641809658232625 0 0.0044874586472643963 -0.00023059255661138202 0 0.0042003761741674916 -0.00027102312446117505 0 0.0041712642664979774 -2.1390677601274119e-05 0 0.0044874586472643963 -0.00023059255661138202 0 0.0042003761741674916 -0.00027102312446117505 0 0.0043977554085329416 -0.00050641809658232625 0 0.0044874586472643963 -0.00023059255661138202 0 0.0047780601448286514 -0.00031700232422807623 0 0.0046161872864080378 -3.2657849573719964e-05 0 0.0044874586472643963 -0.00023059255661138202 0 0.0047780601448286514 -0.00031700232422807623 0 0.0043977554085329416 -0.00050641809658232625 0 0.0047780601448286514 -0.00031700232422807623 0 0.0050768210682445121 -0.00041998890227094507 0 0.0047780601448286514 -0.00031700232422807623 0 0.0049532972076228431 -0.0003335606855660745 0 0.0050768210682445121 -0.00041998890227094507 0 0.0048515294913791312 -8.4520634117933209e-05 0 0.0047780601448286514 -0.00031700232422807623 0 0.0049532972076228431 -0.0003335606855660745 0 0.0066987018219300089 -0.00069142839054328023 0 0.0068042133756262653 -0.0008168477991823041 0 0.0063869935757966175 -0.00097200097655656 0 0.0056959398467294354 0.00011524859126133085 0 0.0067987542904109537 -0.00083791139663269467 0 0.0063869935757966175 -0.00097200097655656 0 0.0050768210682445121 -0.00041998890227094507 0 0.0056959398467294354 0.00011524859126133085 0 0.0053622567971967159 -0.00067737728480977901 0 0.0050807360093333169 -0.0004706228386493742 0 0.0076935368271574397 -0.001409359535740158 0 0.0073212273574813028 -0.0017775786614947281 0 0.0070534947332359932 -0.0015684729353756784 0 0.0050084224370177816 3.0015762284102763e-05 0 0.0050768210682445121 -0.00041998890227094507 0 0.0056959398467294354 0.00011524859126133085 0 0.0064530686816660198 -0.00079526114511444402 0 0.0066987018219300089 -0.00069142839054328023 0 0.0049003280018214716 0.00029448372172441608 0 0.0050084224370177816 3.0015762284102763e-05 0 0.0056959398467294354 0.00011524859126133085 0 0.008083478109813436 -0.001963160498673385 0 0.0076935368271574397 -0.001409359535740158 0 0.0079270822869949211 -0.001739519654788425 0 0.008083478109813436 -0.001963160498673385 0 0.0079270822869949211 -0.001739519654788425 0 0.0081329209147973213 -0.0014202366272524683 0 0.0076935368271574397 -0.001409359535740158 0 0.0076327693059196292 -0.0017860654700015456 0 0.0073212273574813028 -0.0017775786614947281 0 0.0076935368271574397 -0.001409359535740158 0 0.0079270822869949211 -0.001739519654788425 0 0.0076327693059196292 -0.0017860654700015456 0 0.0076327693059196292 -0.0017860654700015456 0 0.0073987751411185229 -0.0019254188863724959 0 0.0073212273574813028 -0.0017775786614947281 0 0.0076327693059196292 -0.0017860654700015456 0 0.0073987751411185229 -0.0019254188863724959 0 0.00756669072737044 -0.0020837342444570547 0 0.0079270822869949211 -0.001739519654788425 0 0.0076327693059196292 -0.0017860654700015456 0 0.00756669072737044 -0.0020837342444570547 0 0.0073987751411185229 -0.0019254188863724959 0 0.00756669072737044 -0.0020837342444570547 0 0.0073281808137278595 -0.0019929143036268538 0 0.010052854670393 -0.00075313859206622383 0 0.0099999539492015357 -0.0011847448061812263 0 0.0093645543780958313 -0.0010824787540052664 0 0.0097915932412994625 -0.00095627776697685177 0 0.0099999539492015357 -0.0011847448061812263 0 0.010255784600736778 -0.0013055431032750592 0 0.010052854670393 -0.00075313859206622383 0 0.0097915932412994625 -0.00095627776697685177 0 0.0099999539492015357 -0.0011847448061812263 0 0.010052854670393 -0.00075313859206622383 0 0.0097915932412994625 -0.00095627776697685177 0 0.0090033635147925475 -0.00090215344492980073 0 0.0087589186022147825 -0.0013830844084922443 0 0.0082151055903200067 -0.0014551092158450502 0 0.0079270822869949211 -0.001739519654788425 0 0.00756669072737044 -0.0020837342444570547 0 0.0081329209147973213 -0.0014202366272524683 0 0.010052854670393 -0.00075313859206622383 0 0.0090033635147925475 -0.00090215344492980073 0 0.0081329209147973213 -0.0014202366272524683 0 0.0090033635147925475 -0.00090215344492980073 0 0.0081329209147973213 -0.0014202366272524683 0 0.0058951672739948986 0.00087074288574385693 0 0.0064530686816660198 -0.00079526114511444402 0 0.0054057496356830197 -0.00011328448174855462 0 0.0081329209147973213 -0.0014202366272524683 0 0.0053414669425686087 -0.0001028122341858165 0 0.0058951672739948986 0.00087074288574385693 0 0.008083478109813436 -0.001963160498673385 0 0.0081329209147973213 -0.0014202366272524683 0 0.0053414669425686087 -0.0001028122341858165 0 0.0049216406233348478 0.00019722051103151028 0 0.004918612367798593 0.00020296809759661778 0 0.0053414669425686087 -0.0001028122341858165 0 0.0052271597068625948 0.00028358488531872033 0 0.0053425230585566622 0.00044540998577255551 0 0.0058951672739948986 0.00087074288574385693 0 0.0053425230585566622 0.00044540998577255551 0 0.0053414669425686087 -0.0001028122341858165 0 0.0058951672739948986 0.00087074288574385693 0 0.0090556943687104055 -0.00084457860718499967 0 0.0084930461626297176 -0.00015358287824183021 0 0.0097915932412994625 -0.00095627776697685177 0 0.0090033635147925475 -0.00090215344492980073 0 0.011000963364880621 -0.00092771451262007275 0 0.0097915932412994625 -0.00095627776697685177 0 0.011000963364880621 -0.00092771451262007275 0 0.010255784600736778 -0.0013055431032750592 0 0.011022518141288249 -0.0017127450893272961 0 0.010381484564062207 -0.0017470643344904941 0 0.010255784600736778 -0.0013055431032750592 0 0.011000963364880621 -0.00092771451262007275 0 0.011022518141288249 -0.0017127450893272961 0 0.010255784600736778 -0.0013055431032750592 0 0.012047696129824221 -0.0015742932133855753 0 0.011000963364880621 -0.00092771451262007275 0 0.011022518141288249 -0.0017127450893272961 0 0.0086575603025611965 -0.0006074642371919339 0 0.0084930461626297176 -0.00015358287824183021 0 0.012047696129824221 -0.0015742932133855753 0 0.011022518141288249 -0.0017127450893272961 0 0.011845780664834169 -0.0023413206547347291 0 0.011022518141288249 -0.0017127450893272961 0 0.010894084137568975 -0.0022711273568803963 0 0.011845780664834169 -0.0023413206547347291 0 0.011022518141288249 -0.0017127450893272961 0 0.010381484564062207 -0.0017470643344904941 0 0.010894084137568975 -0.0022711273568803963 0 0.010381484564062207 -0.0017470643344904941 0 0.010300052140307566 -0.0022003614574219728 0 0.010894084137568975 -0.0022711273568803963 0 0.010381484564062207 -0.0017470643344904941 0 0.0098272446400217619 -0.0017224758078956516 0 0.010300052140307566 -0.0022003614574219728 0 0.0098272446400217619 -0.0017224758078956516 0 0.0097126435691705544 -0.002395208079355329 0 0.010300052140307566 -0.0022003614574219728 0 0.010381484564062207 -0.0017470643344904941 0 0.0098272446400217619 -0.0017224758078956516 0 0.0099999539492015357 -0.0011847448061812263 0 0.0098272446400217619 -0.0017224758078956516 0 0.0099999539492015357 -0.0011847448061812263 0 0.0093645543780958313 -0.0010824787540052664 0 0.010381484564062207 -0.0017470643344904941 0 0.0099999539492015357 -0.0011847448061812263 0 0.010255784600736778 -0.0013055431032750592 0 0.0080985558377194861 -0.0017612538190503182 0 0.008345139696570119 -0.0015495483466528904 0 0.0076496611241066497 -0.0019126248562071557 0 0.0079311765703743379 -0.0018698606638215332 0 0.0072824625384657884 -0.0019656878925776071 0 0.0079311765703743379 -0.0018698606638215332 0 0.0081222947964869115 -0.0017763524348270152 0 0.0072824625384657884 -0.0019656878925776071 0 0.0091093904662290538 -0.0017575019171558253 0 0.0081222947964869115 -0.0017763524348270152 0 0.0093645543780958313 -0.0010824787540052664 0 0.0098272446400217619 -0.0017224758078956516 0 0.0091093904662290538 -0.0017575019171558253 0 0.0093645543780958313 -0.0010824787540052664 0 0.0098272446400217619 -0.0017224758078956516 0 0.0091093904662290538 -0.0017575019171558253 0 0.0097126435691705544 -0.002395208079355329 0 0.0091093904662290538 -0.0017575019171558253 0 0.009006397418131442 -0.0023052122863070693 0 0.0097126435691705544 -0.002395208079355329 0 0.0091093904662290538 -0.0017575019171558253 0 0.0086830640842644174 -0.0019974322926703328 0 0.009006397418131442 -0.0023052122863070693 0 0.0091093904662290538 -0.0017575019171558253 0 0.0086830640842644174 -0.0019974322926703328 0 0.0081222947964869115 -0.0017763524348270152 0 0.0086830640842644174 -0.0019974322926703328 0 0.0084930192458949373 -0.002156916222552208 0 0.009006397418131442 -0.0023052122863070693 0 0.0086830640842644174 -0.0019974322926703328 0 0.0084930192458949373 -0.002156916222552208 0 0.0082891448870146198 -0.001939303334689831 0 0.0084930192458949373 -0.002156916222552208 0 0.0082891448870146198 -0.001939303334689831 0 0.0081046654252531838 -0.0020066509901497244 0 0.0082891448870146198 -0.001939303334689831 0 0.008150255960027282 -0.0018430475497565313 0 0.0081222947964869115 -0.0017763524348270152 0 0.0082891448870146198 -0.001939303334689831 0 0.008150255960027282 -0.0018430475497565313 0 0.0081046654252531838 -0.0020066509901497244 0 0.0086830640842644174 -0.0019974322926703328 0 0.0082891448870146198 -0.001939303334689831 0 0.0081222947964869115 -0.0017763524348270152 0 0.0083986899655394028 -0.002226247961799935 0 0.0082024454410883473 -0.0017690726237999106 0 0.0079274016673858468 -0.0022077640846394275 0 0.008150255960027282 -0.0018430475497565313 0 0.0081046654252531838 -0.0020066509901497244 0 0.0082372080792066406 -0.0018891959347354136 0 0.0082970743025913077 -0.0021586233125819496 0 0.0078002998647878638 -0.0018595757485792791 0 0.0073400113887815682 -0.0020296493633844984 0 0.0076499054498498599 -0.0018711138785060958 0 0.0074402553299976991 -0.0018503112186766116 0 0.0078002998647878638 -0.0018595757485792791 0 0.0079134241441887725 -0.0019073397126886354 0 0.0073400113887815682 -0.0020296493633844984 0 0.0079311765703743379 -0.0018698606638215332 0 0.0076499054498498599 -0.0018711138785060958 0 0.008150255960027282 -0.0018430475497565313 0 0.0082372080792066406 -0.0018891959347354136 0 0.0079311765703743379 -0.0018698606638215332 0 0.008150255960027282 -0.0018430475497565313 0 0.0079311765703743379 -0.0018698606638215332 0 0.0081222947964869115 -0.0017763524348270152 0 0.0076496611241066497 -0.0019126248562071557 0 0.0079311765703743379 -0.0018698606638215332 0 0.0076499054498498599 -0.0018711138785060958 0 0.0076496611241066497 -0.0019126248562071557 0 0.0076499054498498599 -0.0018711138785060958 0 0.0075202323229730658 -0.0019280051907761084 0 0.0076499054498498599 -0.0018711138785060958 0 0.0075202323229730658 -0.0019280051907761084 0 0.0074402553299976991 -0.0018503112186766116 0 0.0075202323229730658 -0.0019280051907761084 0 0.0074402553299976991 -0.0018503112186766116 0 0.0072710775167638391 -0.0018933277602404259 0 0.0073400113887815682 -0.0020296493633844984 0 0.0074402553299976991 -0.0018503112186766116 0 0.0072619486489176859 -0.0018337456224160481 0 0.0074402553299976991 -0.0018503112186766116 0 0.0072994950061743211 -0.0018511862315763327 0 0.0072619486489176859 -0.0018337456224160481 0 0.0072994950061743211 -0.0018511862315763327 0 0.0072325147451088572 -0.0018649075325951083 0 0.0072619486489176859 -0.0018337456224160481 0 0.0072994950061743211 -0.0018511862315763327 0 0.0070797678050707642 -0.0018620192306792345 0 0.0072325147451088572 -0.0018649075325951083 0 0.0074402553299976991 -0.0018503112186766116 0 0.0072994950061743211 -0.0018511862315763327 0 0.0072710775167638391 -0.0018933277602404259 0 0.0072994950061743211 -0.0018511862315763327 0 0.0072710775167638391 -0.0018933277602404259 0 0.0070797678050707642 -0.0018620192306792345 0 0.0072710775167638391 -0.0018933277602404259 0 0.0070037309674643097 -0.0019119974413097432 0 0.0070797678050707642 -0.0018620192306792345 0 0.0072639956105074377 -0.0019769510766093285 0 0.007212883356755833 -0.0019380361039198369 0 0.0070037309674643097 -0.0019119974413097432 0 0.0072710775167638391 -0.0018933277602404259 0 0.0072639956105074377 -0.0019769510766093285 0 0.0070037309674643097 -0.0019119974413097432 0 0.0076496611241066497 -0.0019126248562071557 0 0.0075202323229730658 -0.0019280051907761084 0 0.0072824625384657884 -0.0019656878925776071 0 0.0075202323229730658 -0.0019280051907761084 0 0.0072710775167638391 -0.0018933277602404259 0 0.0072639956105074377 -0.0019769510766093285 0 0.0075202323229730658 -0.0019280051907761084 0 0.0072639956105074377 -0.0019769510766093285 0 0.0072824625384657884 -0.0019656878925776071 0 0.00756669072737044 -0.0020837342444570547 0 0.0072824625384657884 -0.0019656878925776071 0 0.0073281808137278595 -0.0019929143036268538 0 0.0087589186022147825 -0.0013830844084922443 0 0.008345139696570119 -0.0015495483466528904 0 0.0072639956105074377 -0.0019769510766093285 0 0.0072824625384657884 -0.0019656878925776071 0 0.0073281808137278595 -0.0019929143036268538 0 0.0072639956105074377 -0.0019769510766093285 0 0.0073281808137278595 -0.0019929143036268538 0 0.007212883356755833 -0.0019380361039198369 0 0.0073987751411185229 -0.0019254188863724959 0 0.0073281808137278595 -0.0019929143036268538 0 0.007212883356755833 -0.0019380361039198369 0 0.0073987751411185229 -0.0019254188863724959 0 0.007212883356755833 -0.0019380361039198369 0 0.0073212273574813028 -0.0017775786614947281 0 0.007212883356755833 -0.0019380361039198369 0 0.0070176319072558389 -0.0018571695113202634 0 0.0073212273574813028 -0.0017775786614947281 0 0.0070176319072558389 -0.0018571695113202634 0 0.0073212273574813028 -0.0017775786614947281 0 0.0070534947332359932 -0.0015684729353756784 0 0.007212883356755833 -0.0019380361039198369 0 0.0070176319072558389 -0.0018571695113202634 0 0.0070037309674643097 -0.0019119974413097432 0 0.0070176319072558389 -0.0018571695113202634 0 0.0070037309674643097 -0.0019119974413097432 0 0.0066150713273095147 -0.0019850917316938843 0 0.0066150713273095147 -0.0019850917316938843 0 0.0070534947332359932 -0.0015684729353756784 0 0.0064269117919909385 -0.0014377330694472922 0 0.0070534947332359932 -0.0015684729353756784 0 0.0067839801504706648 -0.001240828298074204 0 0.0064269117919909385 -0.0014377330694472922 0 0.0070176319072558389 -0.0018571695113202634 0 0.0066150713273095147 -0.0019850917316938843 0 0.0070534947332359932 -0.0015684729353756784 0 0.0076935368271574397 -0.001409359535740158 0 0.0070534947332359932 -0.0015684729353756784 0 0.0067987542904109537 -0.00083791139663269467 0 0.0070534947332359932 -0.0015684729353756784 0 0.0067987542904109537 -0.00083791139663269467 0 0.0067839801504706648 -0.001240828298074204 0 0.0067987542904109537 -0.00083791139663269467 0 0.0067839801504706648 -0.001240828298074204 0 0.0067495964793466579 -0.00075742283514349082 0 0.0067839801504706648 -0.001240828298074204 0 0.0064269117919909385 -0.0014377330694472922 0 0.0065086611670583877 -0.0010155146981038999 0 0.0064269117919909385 -0.0014377330694472922 0 0.0065086611670583877 -0.0010155146981038999 0 0.0061386448541473487 -0.00090446435322349365 0 0.0067839801504706648 -0.001240828298074204 0 0.0065086611670583877 -0.0010155146981038999 0 0.0067495964793466579 -0.00075742283514349082 0 0.0065086611670583877 -0.0010155146981038999 0 0.0064400068443295991 -0.00075798222076397615 0 0.0067495964793466579 -0.00075742283514349082 0 0.0064400068443295991 -0.00075798222076397615 0 0.0067417697358194721 -0.00056775733732045326 0 0.0067495964793466579 -0.00075742283514349082 0 0.0054019193528631699 0.00012847327511730078 0 0.0067417697358194721 -0.00056775733732045326 0 0.0059650464369758287 -0.00054044977119864198 0 0.0064400068443295991 -0.00075798222076397615 0 0.0061386448541473487 -0.00090446435322349365 0 0.0059650464369758287 -0.00054044977119864198 0 0.0065086611670583877 -0.0010155146981038999 0 0.0064400068443295991 -0.00075798222076397615 0 0.0061386448541473487 -0.00090446435322349365 0 0.0064400068443295991 -0.00075798222076397615 0 0.0067417697358194721 -0.00056775733732045326 0 0.0059650464369758287 -0.00054044977119864198 0 0.003939252496024971 -0.0001699715397546071 0 0.0036504379750935995 -0.00028624272285968002 0 0.0042003761741674916 -0.00027102312446117505 0 0.0043977554085329416 -0.00050641809658232625 0 0.0036504379750935995 -0.00028624272285968002 0 0.0042003761741674916 -0.00027102312446117505 0 0.0053622567971967159 -0.00067737728480977901 0 0.0051522846571206262 -0.00041779355363923116 0 0.0063869935757966175 -0.00097200097655656 0 0.0067417697358194721 -0.00056775733732045326 0 0.0067495964793466579 -0.00075742283514349082 0 0.0063869935757966175 -0.00097200097655656 0 0.0067987542904109537 -0.00083791139663269467 0 0.0067495964793466579 -0.00075742283514349082 0 0.003939252496024971 -0.0001699715397546071 0 0.0036571876314480251 -7.3108629360343251e-05 0 0.0036504379750935995 -0.00028624272285968002 0 0.0042693663993860556 -0.00063214398561460018 0 0.004717216341282025 -0.0010580107573541881 0 0.0038432576485700819 -0.0010375174701545882 0 0.0042693663993860556 -0.00063214398561460018 0 0.0050904033567451563 -0.00059539118569507435 0 0.004717216341282025 -0.0010580107573541881 0 0.0036157809188420973 -0.00035724920360551257 0 0.0042870158084377776 -0.00024144620649620726 0 0.0042693663993860556 -0.00063214398561460018 0 0.0042870158084377776 -0.00024144620649620726 0 0.0042693663993860556 -0.00063214398561460018 0 0.0050904033567451563 -0.00059539118569507435 0 0.0050904033567451563 -0.00059539118569507435 0 0.005755561755056619 -0.0010663508227296526 0 0.004717216341282025 -0.0010580107573541881 0 0.0054019193528631699 0.00012847327511730078 0 0.0050904033567451563 -0.00059539118569507435 0 0.0059650464369758287 -0.00054044977119864198 0 0.0050904033567451563 -0.00059539118569507435 0 0.0059650464369758287 -0.00054044977119864198 0 0.005755561755056619 -0.0010663508227296526 0 0.0061386448541473487 -0.00090446435322349365 0 0.0059650464369758287 -0.00054044977119864198 0 0.005755561755056619 -0.0010663508227296526 0 0.0064269117919909385 -0.0014377330694472922 0 0.005755561755056619 -0.0010663508227296526 0 0.0048645942013552925 -0.0020128425442363035 0 0.0064269117919909385 -0.0014377330694472922 0 0.0061386448541473487 -0.00090446435322349365 0 0.005755561755056619 -0.0010663508227296526 0 0.004717216341282025 -0.0010580107573541881 0 0.0048645942013552925 -0.0020128425442363035 0 0.0038432576485700819 -0.0010375174701545882 0 0.005755561755056619 -0.0010663508227296526 0 0.004717216341282025 -0.0010580107573541881 0 0.0048645942013552925 -0.0020128425442363035 0 0.006535433715070608 -0.0020118055706087722 0 0.006007474818998047 -0.0019908088065786391 0 0.0066150713273095147 -0.0019850917316938843 0 0.0064269117919909385 -0.0014377330694472922 0 0.0048645942013552925 -0.0020128425442363035 0 0.0066150713273095147 -0.0019850917316938843 0 0.0071717522778796516 -0.0020370944367938361 0 0.0070797678050707642 -0.0018620192306792345 0 0.0070037309674643097 -0.0019119974413097432 0 0.0066150713273095147 -0.0019850917316938843 0 0.0070797678050707642 -0.0018620192306792345 0 0.0071717522778796516 -0.0020370944367938361 0 0.0072325147451088572 -0.0018649075325951083 0 0.0072514047379307178 -0.0019176482934466273 0 0.0071717522778796516 -0.0020370944367938361 0 0.0070797678050707642 -0.0018620192306792345 0 0.0072325147451088572 -0.0018649075325951083 0 0.0072514047379307178 -0.0019176482934466273 0 0.0072747006199176964 -0.0019221810414469425 0 0.0072619486489176859 -0.0018337456224160481 0 0.0074068058917458549 -0.001253526898614429 0 0.0049675751064199771 -0.0013495441505614438 0 0.0072747006199176964 -0.0019221810414469425 0 0.0072463260484327639 -0.0019706937555448393 0 0.0072407349077468382 -0.0019559399249299688 0 0.0072514047379307178 -0.0019176482934466273 0 0.0072747006199176964 -0.0019221810414469425 0 0.0072463260484327639 -0.0019706937555448393 0 0.006007474818998047 -0.0019908088065786391 0 0.0054342490801303784 -0.0018592633400683423 0 0.0071717522778796516 -0.0020370944367938361 0 0.0072514047379307178 -0.0019176482934466273 0 0.0072463260484327639 -0.0019706937555448393 0 0.0048645942013552925 -0.0020128425442363035 0 0.0035715381753729548 -0.0016862734756128862 0 0.0038432576485700819 -0.0010375174701545882 0 0.0035715381753729548 -0.0016862734756128862 0 0.0038432576485700819 -0.0010375174701545882 0 0.0032552756311812997 -0.001109916643237804 0 0.0054342490801303784 -0.0018592633400683423 0 0.0049675751064199771 -0.0013495441505614438 0 0.0035715381753729548 -0.0016862734756128862 0 0.0032552756311812997 -0.001109916643237804 0 0.0027560325042873305 -0.0013325078274183508 0 0.0032552756311812997 -0.001109916643237804 0 0.0029465862273773558 -0.00085700930046297323 0 0.0027560325042873305 -0.0013325078274183508 0 0.0038432576485700819 -0.0010375174701545882 0 0.0032552756311812997 -0.001109916643237804 0 0.003255955694417066 -0.00066591817553793991 0 0.0032552756311812997 -0.001109916643237804 0 0.0029465862273773558 -0.00085700930046297323 0 0.003255955694417066 -0.00066591817553793991 0 0.0029337652729064553 -0.00045938964611547594 0 0.0029465862273773558 -0.00085700930046297323 0 0.003255955694417066 -0.00066591817553793991 0 0.0036157809188420973 -0.00035724920360551257 0 0.0038432576485700819 -0.0010375174701545882 0 0.003255955694417066 -0.00066591817553793991 0 0.0036157809188420973 -0.00035724920360551257 0 0.0042693663993860556 -0.00063214398561460018 0 0.0038432576485700819 -0.0010375174701545882 0 7.5422676647510697e-05 -0.0034612025289111172 0 -0.00022588191271252349 -0.0040913954086944674 0 0.0005045252086207766 -0.0043458869999760119 0 4.8217310253848169e-05 -0.0046128451525422704 0 -0.00022588191271252349 -0.0040913954086944674 0 0.0005045252086207766 -0.0043458869999760119 0 4.8217310253848169e-05 -0.0046128451525422704 0 0.0005045252086207766 -0.0043458869999760119 0 0.00038831133048572387 -0.0050170745454847067 0 -0.00050901838134640354 -0.0044154052709693328 0 4.8217310253848169e-05 -0.0046128451525422704 0 -0.00022588191271252349 -0.0040913954086944674 0 -0.00044371072730090574 -0.0048132251863474132 0 -0.00050901838134640354 -0.0044154052709693328 0 4.8217310253848169e-05 -0.0046128451525422704 0 0.0029337652729064553 -0.00045938964611547594 0 0.0029465862273773558 -0.00085700930046297323 0 0.0025657674894538213 -0.00073865484977468871 0 0.0019667628705880061 -0.0032241395446216494 0 0.0049675751064199771 -0.0013495441505614438 0 0.0034731695349007009 -0.0025029088603574705 0 0.0033426489299052944 -0.0022005656389729612 0 0.0035268775210333496 -0.002253264541799976 0 0.0029465862273773558 -0.00085700930046297323 0 0.0025657674894538213 -0.00073865484977468871 0 0.0027560325042873305 -0.0013325078274183508 0 0.0019667628705880061 -0.0032241395446216494 0 0.0033686981882800372 -0.0022854982987171348 0 0.0049675751064199771 -0.0013495441505614438 0 0.0033686981882800372 -0.0022854982987171348 0 0.0065898694037427033 3.3406059557907859e-05 0 0.0064077414821789667 -8.4707012848542286e-05 0 0.0063021520005659346 0.00011198354290045463 0 0.0064077414821789667 -8.4707012848542286e-05 0 0.0062922344714387837 4.3352069303585719e-05 0 0.0063021520005659346 0.00011198354290045463 0 0.0058255229967990466 0.00027114798241133459 0 0.0063055100858421904 0.00011925896890989474 0 0.0060716831636820501 -4.9717241706781392e-06 0 0.0027375953292739742 -0.0022795199450881807 0 0.0033686981882800372 -0.0022854982987171348 0 0.0062922344714387837 4.3352069303585719e-05 0 0.0063055100858421904 0.00011925896890989474 0 0.0060716831636820501 -4.9717241706781392e-06 0 0.0062922344714387837 4.3352069303585719e-05 0 0.0060716831636820501 -4.9717241706781392e-06 0 0.0061785055482265977 -0.00025693327110365226 0 -0.00044371072730090574 -0.0048132251863474132 0 4.8217310253848169e-05 -0.0046128451525422704 0 0.00038831133048572387 -0.0050170745454847067 0 0.0036953583962037401 -0.0015674955995786427 0 0.0033686981882800372 -0.0022854982987171348 0 0.0057395976386320404 -0.00019805077703832671 0 0.0060716831636820501 -4.9717241706781392e-06 0 0.0061785055482265977 -0.00025693327110365226 0 0.0057395976386320404 -0.00019805077703832671 0 0.0061785055482265977 -0.00025693327110365226 0 0.0059480830545947114 -0.00059312164109714505 0 0.0064077414821789667 -8.4707012848542286e-05 0 0.0062922344714387837 4.3352069303585719e-05 0 0.0061785055482265977 -0.00025693327110365226 0 0.0069363439148999312 -0.00061486527832404602 0 0.0065898694037427033 3.3406059557907859e-05 0 0.0064875766837312922 -0.00031958553156867324 0 0.0061785055482265977 -0.00025693327110365226 0 0.0064875766837312922 -0.00031958553156867324 0 0.0063504078329001037 -0.00067628509296809264 0 0.0064077414821789667 -8.4707012848542286e-05 0 0.0061785055482265977 -0.00025693327110365226 0 0.0064875766837312922 -0.00031958553156867324 0 0.0065898694037427033 3.3406059557907859e-05 0 0.0064077414821789667 -8.4707012848542286e-05 0 0.0064875766837312922 -0.00031958553156867324 0 0.0069363439148999312 -0.00061486527832404602 0 0.0063504078329001037 -0.00067628509296809264 0 0.0066551461209164 -0.0010612378464799727 0 0.0069363439148999312 -0.00061486527832404602 0 0.0064875766837312922 -0.00031958553156867324 0 0.0063504078329001037 -0.00067628509296809264 0 0.0061785055482265977 -0.00025693327110365226 0 0.0063504078329001037 -0.00067628509296809264 0 0.0059480830545947114 -0.00059312164109714505 0 0.0063504078329001037 -0.00067628509296809264 0 0.0059480830545947114 -0.00059312164109714505 0 0.006123007770221664 -0.0011924100663632529 0 0.006123007770221664 -0.0011924100663632529 0 0.0066547699754034148 -0.0014959619433494186 0 0.0064054798033433644 -0.0019308252176568465 0 0.006123007770221664 -0.0011924100663632529 0 0.0066547699754034148 -0.0014959619433494186 0 0.0066551461209164 -0.0010612378464799727 0 0.0063504078329001037 -0.00067628509296809264 0 0.006123007770221664 -0.0011924100663632529 0 0.0066551461209164 -0.0010612378464799727 0 0.0069363439148999312 -0.00061486527832404602 0 0.0066551461209164 -0.0010612378464799727 0 0.0072469502938313623 -0.0012302303694851841 0 0.0074068058917458549 -0.001253526898614429 0 0.0071541276793850566 -0.0015294266661600583 0 0.0072325147451088572 -0.0018649075325951083 0 0.0072514047379307178 -0.0019176482934466273 0 0.0072619486489176859 -0.0018337456224160481 0 0.0078002998647878638 -0.0018595757485792791 0 0.0071541276793850566 -0.0015294266661600583 0 0.0066547699754034148 -0.0014959619433494186 0 0.0072469502938313623 -0.0012302303694851841 0 0.0069315381242038825 -0.0018620370774665026 0 0.0066547699754034148 -0.0014959619433494186 0 0.0066551461209164 -0.0010612378464799727 0 0.0072469502938313623 -0.0012302303694851841 0 0.007536289616753916 -0.0018105218794937409 0 0.0072469502938313623 -0.0012302303694851841 0 0.0069315381242038825 -0.0018620370774665026 0 0.0078002998647878638 -0.0018595757485792791 0 0.0071619937599263451 -0.0018325859194444818 0 0.0082024454410883473 -0.0017690726237999106 0 0.007378390115389921 -0.0018122624196353159 0 0.0079274016673858468 -0.0022077640846394275 0 0.007378390115389921 -0.0018122624196353159 0 0.0068831138912128333 -0.0025846292231496647 0 0.0075371641005458944 -0.0025183814590437077 0 0.007378390115389921 -0.0018122624196353159 0 0.0079274016673858468 -0.0022077640846394275 0 0.0075371641005458944 -0.0025183814590437077 0 0.007378390115389921 -0.0018122624196353159 0 0.0064054798033433644 -0.0019308252176568465 0 0.0068831138912128333 -0.0025846292231496647 0 0.0060082536525514962 -0.0024344147947946201 0 0.0064054798033433644 -0.0019308252176568465 0 0.0068831138912128333 -0.0025846292231496647 0 0.0066547699754034148 -0.0014959619433494186 0 0.0069315381242038825 -0.0018620370774665026 0 0.0064054798033433644 -0.0019308252176568465 0 0.0071619937599263451 -0.0018325859194444818 0 0.0064383973136299165 -0.0019244445438085784 0 0.0069343666736502137 -0.0031658964109111429 0 0.0068831138912128333 -0.0025846292231496647 0 0.0076199270002992921 -0.0031114387893018186 0 0.0069343666736502137 -0.0031658964109111429 0 0.0063312584831452072 -0.003058243776031682 0 0.0068831138912128333 -0.0025846292231496647 0 0.0069343666736502137 -0.0031658964109111429 0 0.0063312584831452072 -0.003058243776031682 0 0.0067081582453830451 -0.0037188248153643684 0 0.0060082536525514962 -0.0024344147947946201 0 0.0063312584831452072 -0.003058243776031682 0 0.0068831138912128333 -0.0025846292231496647 0 0.0068831138912128333 -0.0025846292231496647 0 0.0075371641005458944 -0.0025183814590437077 0 0.0076199270002992921 -0.0031114387893018186 0 0.0075371641005458944 -0.0025183814590437077 0 0.0080979399577866783 -0.0026729839499887885 0 0.0076199270002992921 -0.0031114387893018186 0 0.0079274016673858468 -0.0022077640846394275 0 0.0075371641005458944 -0.0025183814590437077 0 0.0080979399577866783 -0.0026729839499887885 0 0.0080979399577866783 -0.0026729839499887885 0 0.0076199270002992921 -0.0031114387893018186 0 0.0082685014610945785 -0.0031814339390213464 0 0.0069343666736502137 -0.0031658964109111429 0 0.0076199270002992921 -0.0031114387893018186 0 0.0075220433076123088 -0.0039116150677903447 0 0.0076199270002992921 -0.0031114387893018186 0 0.0080917073166302707 -0.0036296741302972481 0 0.0082685014610945785 -0.0031814339390213464 0 0.0076199270002992921 -0.0031114387893018186 0 0.0080917073166302707 -0.0036296741302972481 0 0.0075220433076123088 -0.0039116150677903447 0 0.0080917073166302707 -0.0036296741302972481 0 0.0075220433076123088 -0.0039116150677903447 0 0.0084426721138931033 -0.0041888647626576623 0 0.0075220433076123088 -0.0039116150677903447 0 0.0081861181815060559 -0.004791200886074605 0 0.0084426721138931033 -0.0041888647626576623 0 0.0075220433076123088 -0.0039116150677903447 0 0.0067081582453830451 -0.0037188248153643684 0 0.0069896150583945446 -0.0043155775280695301 0 0.0069343666736502137 -0.0031658964109111429 0 0.0075220433076123088 -0.0039116150677903447 0 0.0067081582453830451 -0.0037188248153643684 0 0.0061052173692562901 -0.0035996292147692081 0 0.0063312584831452072 -0.003058243776031682 0 0.0067081582453830451 -0.0037188248153643684 0 0.0067081582453830451 -0.0037188248153643684 0 0.0064083513334888239 -0.0043348483796476775 0 0.0069896150583945446 -0.0043155775280695301 0 0.0061052173692562901 -0.0035996292147692081 0 0.0067081582453830451 -0.0037188248153643684 0 0.0064083513334888239 -0.0043348483796476775 0 0.0064083513334888239 -0.0043348483796476775 0 0.0069896150583945446 -0.0043155775280695301 0 0.0066965348873896692 -0.0050542582142608008 0 0.0069896150583945446 -0.0043155775280695301 0 0.0066965348873896692 -0.0050542582142608008 0 0.0074134479793601504 -0.0049046313955380038 0 0.0066965348873896692 -0.0050542582142608008 0 0.0071744831343714607 -0.0058851369566782748 0 0.0074134479793601504 -0.0049046313955380038 0 0.0063739572443147503 -0.005705042792276559 0 0.0066965348873896692 -0.0050542582142608008 0 0.0071744831343714607 -0.0058851369566782748 0 0.01401697411228996 -0.0066513000907705644 0 0.013522691305387217 -0.0056699763371874587 0 0.014812896315701681 -0.0053633219577520026 0 0.015674935135631177 -0.0065043507078262315 0 0.01401697411228996 -0.0066513000907705644 0 0.014812896315701681 -0.0053633219577520026 0 0.011029759217482648 -0.0061025880156466384 0 0.010608830391825308 -0.0062711165090605621 0 0.012381184432937417 -0.0067309890252929853 0 0.013522691305387217 -0.0056699763371874587 0 0.012486266680546832 -0.0055275789684178303 0 0.012381184432937417 -0.0067309890252929853 0 0.011558992227317395 -0.0059531985982391412 0 0.012486266680546832 -0.0055275789684178303 0 0.01401697411228996 -0.0066513000907705644 0 0.012381184432937417 -0.0067309890252929853 0 0.013522691305387217 -0.0056699763371874587 0 0.010608830391825308 -0.0062711165090605621 0 0.010288736227848446 -0.0064150423733225388 0 0.0071744831343714607 -0.0058851369566782748 0 0.0079150193572771286 -0.0054236992441918808 0 0.0074134479793601504 -0.0049046313955380038 0 0.0071744831343714607 -0.0058851369566782748 0 0.0081473156396051297 -0.0061429824449739882 0 0.0079150193572771286 -0.0054236992441918808 0 0.0081473156396051297 -0.0061429824449739882 0 0.0079150193572771286 -0.0054236992441918808 0 0.0087762109561163818 -0.0053318828952335206 0 0.0079150193572771286 -0.0054236992441918808 0 0.0081861181815060559 -0.004791200886074605 0 0.0087762109561163818 -0.0053318828952335206 0 0.0079150193572771286 -0.0054236992441918808 0 0.0074134479793601504 -0.0049046313955380038 0 0.0081861181815060559 -0.004791200886074605 0 0.0075220433076123088 -0.0039116150677903447 0 0.0069896150583945446 -0.0043155775280695301 0 0.0074134479793601504 -0.0049046313955380038 0 0.0075220433076123088 -0.0039116150677903447 0 0.0074134479793601504 -0.0049046313955380038 0 0.0081861181815060559 -0.004791200886074605 0 0.0087935477785217372 -0.0047213368716001285 0 0.0092671971118605308 -0.0043027845890268451 0 0.0084426721138931033 -0.0041888647626576623 0 0.0081861181815060559 -0.004791200886074605 0 0.0087935477785217372 -0.0047213368716001285 0 0.0084426721138931033 -0.0041888647626576623 0 0.0087935477785217372 -0.0047213368716001285 0 0.0093486238492742797 -0.0050619264717525741 0 0.0092671971118605308 -0.0043027845890268451 0 0.0093486238492742797 -0.0050619264717525741 0 0.0098160964398819259 -0.005047696464629786 0 0.0092671971118605308 -0.0043027845890268451 0 0.0093486238492742797 -0.0050619264717525741 0 0.0099266924802639493 -0.0057451951560562728 0 0.0098160964398819259 -0.005047696464629786 0 0.0093486238492742797 -0.0050619264717525741 0 0.0094995325781851696 -0.0056155972403596688 0 0.0099266924802639493 -0.0057451951560562728 0 0.0093486238492742797 -0.0050619264717525741 0 0.0094995325781851696 -0.0056155972403596688 0 0.0087762109561163818 -0.0053318828952335206 0 0.0081861181815060559 -0.004791200886074605 0 0.0087935477785217372 -0.0047213368716001285 0 0.0087762109561163818 -0.0053318828952335206 0 0.0087935477785217372 -0.0047213368716001285 0 0.0093486238492742797 -0.0050619264717525741 0 0.0087762109561163818 -0.0053318828952335206 0 0.0094995325781851696 -0.0056155972403596688 0 0.0087762109561163818 -0.0053318828952335206 0 0.0092378813755466301 -0.0058522047330522966 0 0.012381184432937417 -0.0067309890252929853 0 0.010440314218413177 -0.0062805760396894127 0 0.0099970646981414786 -0.0063862540989078316 0 0.0081473156396051297 -0.0061429824449739882 0 0.0092378813755466301 -0.0058522047330522966 0 0.0099970646981414786 -0.0063862540989078316 0 0.010288736227848446 -0.0064150423733225388 0 0.010055008179215463 -0.0063989240570263874 0 0.0081473156396051297 -0.0061429824449739882 0 0.0087762109561163818 -0.0053318828952335206 0 0.0092378813755466301 -0.0058522047330522966 0 0.0094995325781851696 -0.0056155972403596688 0 0.0092378813755466301 -0.0058522047330522966 0 0.0096578405761797298 -0.0059481469977720001 0 0.0094995325781851696 -0.0056155972403596688 0 0.0098112392180945036 -0.0059976399463245247 0 0.0096578405761797298 -0.0059481469977720001 0 0.0094995325781851696 -0.0056155972403596688 0 0.0098112392180945036 -0.0059976399463245247 0 0.0099266924802639493 -0.0057451951560562728 0 0.0098112392180945036 -0.0059976399463245247 0 0.0099576945348671137 -0.0062212784732283309 0 0.0099266924802639493 -0.0057451951560562728 0 0.0099576945348671137 -0.0062212784732283309 0 0.0099970646981414786 -0.0063862540989078316 0 0.010002022968342369 -0.006358831197319414 0 0.0099576945348671137 -0.0062212784732283309 0 0.010002022968342369 -0.006358831197319414 0 0.0101026395144067 -0.0062830959311893945 0 0.010440314218413177 -0.0062805760396894127 0 0.0099970646981414786 -0.0063862540989078316 0 0.010002022968342369 -0.006358831197319414 0 0.0098112392180945036 -0.0059976399463245247 0 0.0099576945348671137 -0.0062212784732283309 0 0.0099970646981414786 -0.0063862540989078316 0 0.0092378813755466301 -0.0058522047330522966 0 0.0096578405761797298 -0.0059481469977720001 0 0.0099970646981414786 -0.0063862540989078316 0 0.0098112392180945036 -0.0059976399463245247 0 0.0096578405761797298 -0.0059481469977720001 0 0.0099970646981414786 -0.0063862540989078316 0 0.01073561919579032 -0.0065526189454783203 0 0.0095856472035743996 -0.0058764737287632183 0 0.010440314218413177 -0.0062805760396894127 0 0.010002022968342369 -0.006358831197319414 0 0.0099326988955458061 -0.0065224048843170943 0 0.010002022968342369 -0.006358831197319414 0 0.0099326988955458061 -0.0065224048843170943 0 0.0101026395144067 -0.0062830959311893945 0 0.010440314218413177 -0.0062805760396894127 0 0.010960912133317744 -0.0059027928588700233 0 0.01113398872372556 -0.0057988280347861963 0 0.012381184432937417 -0.0067309890252929853 0 0.010440314218413177 -0.0062805760396894127 0 0.011558992227317395 -0.0059531985982391412 0 0.01113398872372556 -0.0057988280347861963 0 0.011558992227317395 -0.0059531985982391412 0 0.011695991434442292 -0.0054587677411685447 0 0.010440314218413177 -0.0062805760396894127 0 0.01113398872372556 -0.0057988280347861963 0 0.011558992227317395 -0.0059531985982391412 0 0.010346212256235299 -0.0066195771061466711 0 0.010420525179524522 -0.0061522683937084936 0 0.010934663866040594 -0.0069164108286619832 0 0.010420525179524522 -0.0061522683937084936 0 0.011082758034921052 -0.0062107645605913543 0 0.010934663866040594 -0.0069164108286619832 0 0.0099326988955458061 -0.0065224048843170943 0 0.010346212256235299 -0.0066195771061466711 0 0.0101026395144067 -0.0062830959311893945 0 0.010346212256235299 -0.0066195771061466711 0 0.0101026395144067 -0.0062830959311893945 0 0.010420525179524522 -0.0061522683937084936 0 0.0099266924802639493 -0.0057451951560562728 0 0.010420525179524522 -0.0061522683937084936 0 0.010323070518755443 -0.0053870794776277901 0 0.0101026395144067 -0.0062830959311893945 0 0.0099266924802639493 -0.0057451951560562728 0 0.010420525179524522 -0.0061522683937084936 0 0.0099576945348671137 -0.0062212784732283309 0 0.0101026395144067 -0.0062830959311893945 0 0.0099266924802639493 -0.0057451951560562728 0 0.010420525179524522 -0.0061522683937084936 0 0.010323070518755443 -0.0053870794776277901 0 0.011082758034921052 -0.0062107645605913543 0 0.010323070518755443 -0.0053870794776277901 0 0.010134465003336429 -0.0046345888981290401 0 0.010924157484177261 -0.0050581635903173107 0 0.010323070518755443 -0.0053870794776277901 0 0.0098160964398819259 -0.005047696464629786 0 0.010134465003336429 -0.0046345888981290401 0 0.0099266924802639493 -0.0057451951560562728 0 0.010323070518755443 -0.0053870794776277901 0 0.0098160964398819259 -0.005047696464629786 0 0.0098160964398819259 -0.005047696464629786 0 0.010134465003336429 -0.0046345888981290401 0 0.0092671971118605308 -0.0043027845890268451 0 0.010134465003336429 -0.0046345888981290401 0 0.010713927324516622 -0.0041620253734255784 0 0.010924157484177261 -0.0050581635903173107 0 0.010134465003336429 -0.0046345888981290401 0 0.0099351597733042252 -0.0038361666227439387 0 0.010713927324516622 -0.0041620253734255784 0 0.0099351597733042252 -0.0038361666227439387 0 0.010393874387937648 -0.0034815043465530118 0 0.010713927324516622 -0.0041620253734255784 0 0.0099351597733042252 -0.0038361666227439387 0 0.0098520038320167209 -0.0030225727775915119 0 0.010393874387937648 -0.0034815043465530118 0 0.0099351597733042252 -0.0038361666227439387 0 0.0092620488125282185 -0.0035158519523298148 0 0.0098520038320167209 -0.0030225727775915119 0 0.010134465003336429 -0.0046345888981290401 0 0.0099351597733042252 -0.0038361666227439387 0 0.0092671971118605308 -0.0043027845890268451 0 0.0099351597733042252 -0.0038361666227439387 0 0.0092671971118605308 -0.0043027845890268451 0 0.0092620488125282185 -0.0035158519523298148 0 0.0092671971118605308 -0.0043027845890268451 0 0.0087256297421761768 -0.0036849195385223071 0 0.0092620488125282185 -0.0035158519523298148 0 0.0092671971118605308 -0.0043027845890268451 0 0.0084426721138931033 -0.0041888647626576623 0 0.0087256297421761768 -0.0036849195385223071 0 0.0080917073166302707 -0.0036296741302972481 0 0.0084426721138931033 -0.0041888647626576623 0 0.0087256297421761768 -0.0036849195385223071 0 0.0087256297421761768 -0.0036849195385223071 0 0.0087319717153815299 -0.003124475124389551 0 0.0082685014610945785 -0.0031814339390213464 0 0.0080917073166302707 -0.0036296741302972481 0 0.0087256297421761768 -0.0036849195385223071 0 0.0082685014610945785 -0.0031814339390213464 0 0.0087256297421761768 -0.0036849195385223071 0 0.0092620488125282185 -0.0035158519523298148 0 0.0087319717153815299 -0.003124475124389551 0 0.0092620488125282185 -0.0035158519523298148 0 0.0087319717153815299 -0.003124475124389551 0 0.0091842845297793307 -0.002895851441081411 0 0.0087319717153815299 -0.003124475124389551 0 0.0085394331491404074 -0.0026025382720547209 0 0.0091842845297793307 -0.002895851441081411 0 0.0080979399577866783 -0.0026729839499887885 0 0.0083959351661336244 -0.0028874429728361225 0 0.0082685014610945785 -0.0031814339390213464 0 0.0087319717153815299 -0.003124475124389551 0 0.0083959351661336244 -0.0028874429728361225 0 0.0085394331491404074 -0.0026025382720547209 0 0.0087319717153815299 -0.003124475124389551 0 0.0083959351661336244 -0.0028874429728361225 0 0.0082685014610945785 -0.0031814339390213464 0 0.0080979399577866783 -0.0026729839499887885 0 0.0083959351661336244 -0.0028874429728361225 0 0.0085394331491404074 -0.0026025382720547209 0 0.0083986899655394028 -0.002226247961799935 0 0.0079274016673858468 -0.0022077640846394275 0 0.0080979399577866783 -0.0026729839499887885 0 0.0083986899655394028 -0.002226247961799935 0 0.0080979399577866783 -0.0026729839499887885 0 0.0085394331491404074 -0.0026025382720547209 0 0.0082970743025913077 -0.0021586233125819496 0 0.0084823943144485964 -0.0025196928897058711 0 0.0084930192458949373 -0.002156916222552208 0 0.0085394331491404074 -0.0026025382720547209 0 0.009006397418131442 -0.0023052122863070693 0 0.0085394331491404074 -0.0026025382720547209 0 0.009006397418131442 -0.0023052122863070693 0 0.0091842845297793307 -0.002895851441081411 0 0.0084930192458949373 -0.002156916222552208 0 0.0081046654252531838 -0.0020066509901497244 0 0.0085394331491404074 -0.0026025382720547209 0 0.009006397418131442 -0.0023052122863070693 0 0.0097126435691705544 -0.002395208079355329 0 0.0091842845297793307 -0.002895851441081411 0 0.0097126435691705544 -0.002395208079355329 0 0.0098520038320167209 -0.0030225727775915119 0 0.0091842845297793307 -0.002895851441081411 0 0.0092620488125282185 -0.0035158519523298148 0 0.0098520038320167209 -0.0030225727775915119 0 0.0091842845297793307 -0.002895851441081411 0 0.0097126435691705544 -0.002395208079355329 0 0.0098520038320167209 -0.0030225727775915119 0 0.010655752709651165 -0.0029024760342891429 0 0.0098520038320167209 -0.0030225727775915119 0 0.010655752709651165 -0.0029024760342891429 0 0.010393874387937648 -0.0034815043465530118 0 0.0097126435691705544 -0.002395208079355329 0 0.010655752709651165 -0.0029024760342891429 0 0.010300052140307566 -0.0022003614574219728 0 0.010655752709651165 -0.0029024760342891429 0 0.010300052140307566 -0.0022003614574219728 0 0.010894084137568975 -0.0022711273568803963 0 0.010655752709651165 -0.0029024760342891429 0 0.010894084137568975 -0.0022711273568803963 0 0.011531588450405745 -0.0028603271317265738 0 0.010655752709651165 -0.0029024760342891429 0 0.011531588450405745 -0.0028603271317265738 0 0.011439324220275366 -0.0034342427017377834 0 0.010894084137568975 -0.0022711273568803963 0 0.011531588450405745 -0.0028603271317265738 0 0.011845780664834169 -0.0023413206547347291 0 0.011531588450405745 -0.0028603271317265738 0 0.011828733960718419 -0.0033549639588116636 0 0.012067989309593644 -0.0029283220665237988 0 0.011531588450405745 -0.0028603271317265738 0 0.012067989309593644 -0.0029283220665237988 0 0.011845780664834169 -0.0023413206547347291 0 0.011531588450405745 -0.0028603271317265738 0 0.011439324220275366 -0.0034342427017377834 0 0.011828733960718419 -0.0033549639588116636 0 0.011828733960718419 -0.0033549639588116636 0 0.011916962590163024 -0.0038483503990632433 0 0.012215687731681007 -0.0033259292362943786 0 0.011439324220275366 -0.0034342427017377834 0 0.011828733960718419 -0.0033549639588116636 0 0.011916962590163024 -0.0038483503990632433 0 0.011439324220275366 -0.0034342427017377834 0 0.011916962590163024 -0.0038483503990632433 0 0.011893264883168069 -0.0040988424281848054 0 0.011439324220275366 -0.0034342427017377834 0 0.011131292915605308 -0.0036841097309358306 0 0.011893264883168069 -0.0040988424281848054 0 0.011131292915605308 -0.0036841097309358306 0 0.010713927324516622 -0.0041620253734255784 0 0.011893264883168069 -0.0040988424281848054 0 0.010655752709651165 -0.0029024760342891429 0 0.011439324220275366 -0.0034342427017377834 0 0.011131292915605308 -0.0036841097309358306 0 0.010655752709651165 -0.0029024760342891429 0 0.011131292915605308 -0.0036841097309358306 0 0.010393874387937648 -0.0034815043465530118 0 0.011131292915605308 -0.0036841097309358306 0 0.010393874387937648 -0.0034815043465530118 0 0.010713927324516622 -0.0041620253734255784 0 0.010713927324516622 -0.0041620253734255784 0 0.011893264883168069 -0.0040988424281848054 0 0.010924157484177261 -0.0050581635903173107 0 0.011893264883168069 -0.0040988424281848054 0 0.011984477827404286 -0.005899714755706561 0 0.010924157484177261 -0.0050581635903173107 0 0.010323070518755443 -0.0053870794776277901 0 0.010924157484177261 -0.0050581635903173107 0 0.011082758034921052 -0.0062107645605913543 0 0.011984477827404286 -0.005899714755706561 0 0.010924157484177261 -0.0050581635903173107 0 0.011082758034921052 -0.0062107645605913543 0 0.011984477827404286 -0.005899714755706561 0 0.01183228739887034 -0.0069256970028368156 0 0.01360573237486176 -0.0069186012188937225 0 0.011984477827404286 -0.005899714755706561 0 0.011082758034921052 -0.0062107645605913543 0 0.01183228739887034 -0.0069256970028368156 0 0.01886839300113622 -0.0054713483908331792 0 0.018938774790437499 -0.0052382901749378 0 0.011082758034921052 -0.0062107645605913543 0 0.01183228739887034 -0.0069256970028368156 0 0.010934663866040594 -0.0069164108286619832 0 0.024129701655662927 -0.0048998846594102124 0 0.02270777867543038 -0.0042626953989788573 0 0.024227281970499486 -0.0031250499194101235 0 0.025780499942992832 -0.0040861803809390217 0 0.024129701655662927 -0.0048998846594102124 0 0.024227281970499486 -0.0031250499194101235 0 0.01886839300113622 -0.0054713483908331792 0 0.018915047646313212 -0.0058772572964104217 0 0.024129701655662927 -0.0048998846594102124 0 0.022139441714025872 -0.0054577182315228637 0 0.02270777867543038 -0.0042626953989788573 0 0.018915047646313212 -0.0058772572964104217 0 0.019420060719520592 -0.005815852009682698 0 0.014213947322366338 -0.0051581272034690951 0 0.017629047180073201 -0.0037927402002169331 0 0.016527309065680226 -0.0064249957740900943 0 0.01360573237486176 -0.0069186012188937225 0 0.014213947322366338 -0.0051581272034690951 0 0.016527309065680226 -0.0064249957740900943 0 0.011893264883168069 -0.0040988424281848054 0 0.011984477827404286 -0.005899714755706561 0 0.014213947322366338 -0.0051581272034690951 0 0.011984477827404286 -0.005899714755706561 0 0.01360573237486176 -0.0069186012188937225 0 0.014213947322366338 -0.0051581272034690951 0 0.013495324241611463 -0.0032960335876667198 0 0.012028339380782006 -0.0039893898172898958 0 0.015291406206829653 -0.0026220624589275237 0 0.011893264883168069 -0.0040988424281848054 0 0.014213947322366338 -0.0051581272034690951 0 0.015291406206829653 -0.0026220624589275237 0 0.014213947322366338 -0.0051581272034690951 0 0.017629047180073201 -0.0037927402002169331 0 0.017629047180073201 -0.0037927402002169331 0 0.020139349667608591 -0.0032604300357952387 0 0.020424719822273327 -0.0049142333110217531 0 0.017629047180073201 -0.0037927402002169331 0 0.020139349667608591 -0.0032604300357952387 0 0.019120359674847435 -0.0017677634284124194 0 0.020139349667608591 -0.0032604300357952387 0 0.020424719822273327 -0.0049142333110217531 0 0.021345890263157807 -0.0041907106567200267 0 0.020424719822273327 -0.0049142333110217531 0 0.020651625984850333 -0.0051755751004089329 0 0.021345890263157807 -0.0041907106567200267 0 0.020424719822273327 -0.0049142333110217531 0 0.022139441714025872 -0.0054577182315228637 0 0.020651625984850333 -0.0051755751004089329 0 0.020461452162741471 -0.0049890050927000138 0 0.019420060719520592 -0.005815852009682698 0 0.017629047180073201 -0.0037927402002169331 0 0.020424719822273327 -0.0049142333110217531 0 0.016527309065680226 -0.0064249957740900943 0 0.022139441714025872 -0.0054577182315228637 0 0.021718402219591117 -0.0046909743039374556 0 0.020651625984850333 -0.0051755751004089329 0 0.022139441714025872 -0.0054577182315228637 0 0.021718402219591117 -0.0046909743039374556 0 0.02270777867543038 -0.0042626953989788573 0 0.021718402219591117 -0.0046909743039374556 0 0.020651625984850333 -0.0051755751004089329 0 0.02140022039683433 -0.0038002753409377148 0 0.016993717808551832 -0.00025673951490652017 0 0.01895238215675428 -0.00035250645325190805 0 0.017534100829942105 -0.00015269068945955697 0 0.018845093033980964 -0.002666294020477408 0 0.020204199345555129 -0.0019997581591716137 0 0.02140022039683433 -0.0038002753409377148 0 0.02270777867543038 -0.0042626953989788573 0 0.02224795185597352 -0.0023268622414476053 0 0.021718402219591117 -0.0046909743039374556 0 0.02140022039683433 -0.0038002753409377148 0 0.02270777867543038 -0.0042626953989788573 0 0.017534100829942105 -0.00015269068945955697 0 0.015939703651762907 -2.1027352134434457e-07 0 0.017874477148437477 -2.1422613011842248e-07 0 0.01895238215675428 -0.00035250645325190805 0 0.017534100829942105 -0.00015269068945955697 0 0.019301674353815183 -0.00019446913639837744 0 0.016993717808551832 -0.00025673951490652017 0 0.017534100829942105 -0.00015269068945955697 0 0.015578826327423653 -9.0961610123147925e-05 0 0.017534100829942105 -0.00015269068945955697 0 0.015939703651762907 -2.1027352134434457e-07 0 0.015578826327423653 -9.0961610123147925e-05 0 0.015939703651762907 -2.1027352134434457e-07 0 0.015578826327423653 -9.0961610123147925e-05 0 0.014005318335070325 3.7269789793845238e-08 0 0.016993717808551832 -0.00025673951490652017 0 0.015578826327423653 -9.0961610123147925e-05 0 0.015105467701788444 -0.00015207949345307281 0 0.018845093033980964 -0.002666294020477408 0 0.018607320361844606 -0.00180492200925604 0 0.015578826327423653 -9.0961610123147925e-05 0 0.015105467701788444 -0.00015207949345307281 0 0.013815453827386172 -7.5415244481944708e-05 0 0.015578826327423653 -9.0961610123147925e-05 0 0.014005318335070325 3.7269789793845238e-08 0 0.013815453827386172 -7.5415244481944708e-05 0 0.014005318335070325 3.7269789793845238e-08 0 0.013815453827386172 -7.5415244481944708e-05 0 0.012069939493989195 -7.8192183486794184e-07 0 0.013815453827386172 -7.5415244481944708e-05 0 0.012903972620316942 -0.00016850543347019615 0 0.013576894217216563 -0.00045255986305135711 0 0.013815453827386172 -7.5415244481944708e-05 0 0.012903972620316942 -0.00016850543347019615 0 0.012069939493989195 -7.8192183486794184e-07 0 0.012903972620316942 -0.00016850543347019615 0 0.012069939493989195 -7.8192183486794184e-07 0 0.011861165934174482 -7.028222157179134e-05 0 0.011861165934174482 -7.028222157179134e-05 0 0.011283179743930491 -0.00029289996520295467 0 0.011224891003891064 0.00012357227669616537 0 0.015441795648130498 -0.0015099570415029596 0 0.012170574473020234 -0.0016478109245382049 0 0.012069939493989195 -7.8192183486794184e-07 0 0.011861165934174482 -7.028222157179134e-05 0 0.010136629601336126 -9.1049673078274225e-08 0 0.012903972620316942 -0.00016850543347019615 0 0.011861165934174482 -7.028222157179134e-05 0 0.013576894217216563 -0.00045255986305135711 0 0.011468838005321016 -0.00064437685223798515 0 0.015441795648130498 -0.0015099570415029596 0 0.01285709316306596 -0.003219030261333875 0 0.013134119803088411 -0.0034630536490177937 0 0.01326296216565008 -0.0030543249773585896 0 0.01285709316306596 -0.003219030261333875 0 0.013134119803088411 -0.0034630536490177937 0 0.012467854321425959 -0.0036635689498002353 0 0.015441795648130498 -0.0015099570415029596 0 0.01626884261657496 -0.0027427240742842552 0 0.020139349667608591 -0.0032604300357952387 0 0.021345890263157807 -0.0041907106567200267 0 0.022459709349512833 -0.0009740415801824684 0 0.015105467701788444 -0.00015207949345307281 0 0.013815453827386172 -7.5415244481944708e-05 0 0.013576894217216563 -0.00045255986305135711 0 0.018607320361844606 -0.00180492200925604 0 0.015441795648130498 -0.0015099570415029596 0 0.020139349667608591 -0.0032604300357952387 0 0.022459709349512833 -0.0009740415801824684 0 0.019120359674847435 -0.0017677634284124194 0 0.011916962590163024 -0.0038483503990632433 0 0.012467854321425959 -0.0036635689498002353 0 0.012215687731681007 -0.0033259292362943786 0 0.013495324241611463 -0.0032960335876667198 0 0.01626884261657496 -0.0027427240742842552 0 0.015291406206829653 -0.0026220624589275237 0 0.017629047180073201 -0.0037927402002169331 0 0.019120359674847435 -0.0017677634284124194 0 0.011828733960718419 -0.0033549639588116636 0 0.012215687731681007 -0.0033259292362943786 0 0.012067989309593644 -0.0029283220665237988 0 0.012215687731681007 -0.0033259292362943786 0 0.012525410329785531 -0.0030878751148891367 0 0.012067989309593644 -0.0029283220665237988 0 0.012467854321425959 -0.0036635689498002353 0 0.012215687731681007 -0.0033259292362943786 0 0.012525410329785531 -0.0030878751148891367 0 0.01285709316306596 -0.003219030261333875 0 0.012467854321425959 -0.0036635689498002353 0 0.012525410329785531 -0.0030878751148891367 0 0.012781684623508675 -0.0021474599023733249 0 0.012429462887237668 -0.0026719572904107579 0 0.011845780664834169 -0.0023413206547347291 0 0.012429462887237668 -0.0026719572904107579 0 0.012525410329785531 -0.0030878751148891367 0 0.012067989309593644 -0.0029283220665237988 0 0.012429462887237668 -0.0026719572904107579 0 0.012525410329785531 -0.0030878751148891367 0 0.012904328186555188 -0.0028022182733181732 0 0.012429462887237668 -0.0026719572904107579 0 0.012067989309593644 -0.0029283220665237988 0 0.011845780664834169 -0.0023413206547347291 0 0.012781684623508675 -0.0021474599023733249 0 0.012429462887237668 -0.0026719572904107579 0 0.012904328186555188 -0.0028022182733181732 0 0.012781684623508675 -0.0021474599023733249 0 0.013398868953642675 -0.0026287510457423274 0 0.012904328186555188 -0.0028022182733181732 0 0.0096344047205719104 -0.0012507045877422911 0 0.010722945552557138 -0.0011791066111272231 0 0.0076423628204972376 -0.00012746877167631445 0 0.0063300793566603694 -0.00029403588145966914 0 0.0088065126741891601 -0.00053301435175958517 0 0.0076423628204972376 -0.00012746877167631445 0 0.009021552437350042 -0.00018490376717325113 0 0.0088065126741891601 -0.00053301435175958517 0 0.0076423628204972376 -0.00012746877167631445 0 0.0082509916864220972 2.8286025916372937e-07 0 0.009021552437350042 -0.00018490376717325113 0 0.0082509916864220972 2.8286025916372937e-07 0 0.009021552437350042 -0.00018490376717325113 0 0.010132799192249138 -1.8601510460326534e-06 0 0.009021552437350042 -0.00018490376717325113 0 0.0092772023363319606 -0.0001806666313543662 0 0.010132799192249138 -1.8601510460326534e-06 0 0.01045961622028971 -0.00084524502204002259 0 0.010722945552557138 -0.0011791066111272231 0 0.011861165934174482 -7.028222157179134e-05 0 0.011224891003891064 0.00012357227669616537 0 0.010136629601336126 -9.1049673078274225e-08 0 0.010499419254172825 -0.00027983608696843478 0 0.011224891003891064 0.00012357227669616537 0 0.010136629601336126 -9.1049673078274225e-08 0 0.013398868953642675 -0.0026287510457423274 0 0.01326296216565008 -0.0030543249773585896 0 0.012904328186555188 -0.0028022182733181732 0 0.010722945552557138 -0.0011791066111272231 0 0.012170574473020234 -0.0016478109245382049 0 0.010722945552557138 -0.0011791066111272231 0 0.010134430546807186 -5.9006552717736919e-07 0 0.01285709316306596 -0.003219030261333875 0 0.01326296216565008 -0.0030543249773585896 0 0.012904328186555188 -0.0028022182733181732 0 0.01285709316306596 -0.003219030261333875 0 0.012525410329785531 -0.0030878751148891367 0 0.012904328186555188 -0.0028022182733181732 0 0.024369265243786017 0.00020414436443896535 0 0.024866120588566375 -5.5141192263025039e-05 0 0.024052798976955191 0.0005483684272926761 0 0.025493492905272686 0.00056307504684394757 0 0.024284163124540157 0.00052048891567901877 0 0.026153618661893172 0.0011659676551514151 0 0.025037922268327809 0.00095565083833195632 0 0.024052798976955191 0.0005483684272926761 0 0.024369265243786017 0.00020414436443896535 0 0.025612345779314306 3.1634611574893884e-07 0 0.023677937122123762 6.7934042171847461e-07 0 0.024369265243786017 0.00020414436443896535 0 0.024866120588566375 -5.5141192263025039e-05 0 0.025612345779314306 3.1634611574893884e-07 0 0.026153618661893172 0.0011659676551514151 0 0.025822282294447208 0.00092638409759411447 0 0.025037922268327809 0.00095565083833195632 0 0.025822282294447208 0.00092638409759411447 0 0.025445191369946281 0.00099045189351014938 0 0.025037922268327809 0.00095565083833195632 0 0.025445191369946281 0.00099045189351014938 0 0.025037922268327809 0.00095565083833195632 0 0.025275812780511209 0.00091340260104939483 0 0.025445191369946281 0.00099045189351014938 0 0.025471840009682303 0.00098961471332533672 0 0.025580999207961717 0.0010188486374766808 0 0.025445191369946281 0.00099045189351014938 0 0.025471840009682303 0.00098961471332533672 0 0.025275812780511209 0.00091340260104939483 0 0.025633797566376307 0.0010199350606149092 0 0.025471840009682303 0.00098961471332533672 0 0.025275812780511209 0.00091340260104939483 0 0.025633797566376307 0.0010199350606149092 0 0.025471840009682303 0.00098961471332533672 0 0.025580999207961717 0.0010188486374766808 0 0.025633797566376307 0.0010199350606149092 0 0.025275812780511209 0.00091340260104939483 0 0.025652161232377502 0.00079568980993782853 0 0.025275812780511209 0.00091340260104939483 0 0.024619556318290093 0.00055516953339077588 0 0.025652161232377502 0.00079568980993782853 0 0.025037922268327809 0.00095565083833195632 0 0.024619556318290093 0.00055516953339077588 0 0.024052798976955191 0.0005483684272926761 0 0.025037922268327809 0.00095565083833195632 0 0.025275812780511209 0.00091340260104939483 0 0.024619556318290093 0.00055516953339077588 0 0.024619556318290093 0.00055516953339077588 0 0.024052798976955191 0.0005483684272926761 0 0.022520216467293165 6.3371587068220765e-05 0 0.024619556318290093 0.00055516953339077588 0 0.023853889170267258 -1.0182636694670397e-05 0 0.02522202565087139 0.00017112864133363967 0 0.024619556318290093 0.00055516953339077588 0 0.023853889170267258 -1.0182636694670397e-05 0 0.022520216467293165 6.3371587068220765e-05 0 0.024052798976955191 0.0005483684272926761 0 0.022899025113660584 0.00018708488156485951 0 0.022520216467293165 6.3371587068220765e-05 0 0.024369265243786017 0.00020414436443896535 0 0.024052798976955191 0.0005483684272926761 0 0.022899025113660584 0.00018708488156485951 0 0.024369265243786017 0.00020414436443896535 0 0.023677937122123762 6.7934042171847461e-07 0 0.022899025113660584 0.00018708488156485951 0 0.023677937122123762 6.7934042171847461e-07 0 0.022899025113660584 0.00018708488156485951 0 0.021743551453032101 1.8381239677716256e-07 0 0.021743551453032101 1.8381239677716256e-07 0 0.021358518015583618 -1.2033360926392648e-05 0 0.019808962279354643 -1.4303701297453465e-07 0 0.022899025113660584 0.00018708488156485951 0 0.021743551453032101 1.8381239677716256e-07 0 0.021358518015583618 -1.2033360926392648e-05 0 0.021358518015583618 -1.2033360926392648e-05 0 0.020914322925862722 -0.00024480560042908678 0 0.022520216467293165 6.3371587068220765e-05 0 0.022899025113660584 0.00018708488156485951 0 0.021358518015583618 -1.2033360926392648e-05 0 0.022520216467293165 6.3371587068220765e-05 0 0.021358518015583618 -1.2033360926392648e-05 0 0.020914322925862722 -0.00024480560042908678 0 0.019808962279354643 -1.4303701297453465e-07 0 0.019808962279354643 -1.4303701297453465e-07 0 0.019301674353815183 -0.00019446913639837744 0 0.017874477148437477 -2.1422613011842248e-07 0 0.020914322925862722 -0.00024480560042908678 0 0.019808962279354643 -1.4303701297453465e-07 0 0.019301674353815183 -0.00019446913639837744 0 0.017534100829942105 -0.00015269068945955697 0 0.019301674353815183 -0.00019446913639837744 0 0.017874477148437477 -2.1422613011842248e-07 0 0.020204199345555129 -0.0019997581591716137 0 0.021649092775094851 -0.0013169536495556235 0 0.01895238215675428 -0.00035250645325190805 0 0.019301674353815183 -0.00019446913639837744 0 0.020936266063466328 -0.00048198670174138305 0 0.020914322925862722 -0.00024480560042908678 0 0.019301674353815183 -0.00019446913639837744 0 0.020936266063466328 -0.00048198670174138305 0 0.020914322925862722 -0.00024480560042908678 0 0.020936266063466328 -0.00048198670174138305 0 0.023052821724875005 -0.00065425939230997685 0 0.02224795185597352 -0.0023268622414476053 0 0.023052821724875005 -0.00065425939230997685 0 0.024035723394104262 -0.0017036064573822467 0 0.021649092775094851 -0.0013169536495556235 0 0.022851412771628873 -0.00056226239567749837 0 0.020914322925862722 -0.00024480560042908678 0 0.023052821724875005 -0.00065425939230997685 0 0.022520216467293165 6.3371587068220765e-05 0 0.023853889170267258 -1.0182636694670397e-05 0 0.023052821724875005 -0.00065425939230997685 0 0.022520216467293165 6.3371587068220765e-05 0 0.023853889170267258 -1.0182636694670397e-05 0 0.023052821724875005 -0.00065425939230997685 0 0.025152439716932928 -0.00059775648986684789 0 0.025152439716932928 -0.00059775648986684789 0 0.024035723394104262 -0.0017036064573822467 0 0.025299129084996121 -0.0018858187118913671 0 0.025152439716932928 -0.00059775648986684789 0 0.025299129084996121 -0.0018858187118913671 0 0.026418268574270532 -0.0012999781727631205 0 0.023052821724875005 -0.00065425939230997685 0 0.025152439716932928 -0.00059775648986684789 0 0.024035723394104262 -0.0017036064573822467 0 0.02224795185597352 -0.0023268622414476053 0 0.024035723394104262 -0.0017036064573822467 0 0.024227281970499486 -0.0031250499194101235 0 0.024035723394104262 -0.0017036064573822467 0 0.025299129084996121 -0.0018858187118913671 0 0.024227281970499486 -0.0031250499194101235 0 0.025299129084996121 -0.0018858187118913671 0 0.024227281970499486 -0.0031250499194101235 0 0.026084636235617523 -0.0027190453775673726 0 0.02270777867543038 -0.0042626953989788573 0 0.02224795185597352 -0.0023268622414476053 0 0.024227281970499486 -0.0031250499194101235 0 0.026084636235617523 -0.0027190453775673726 0 0.027019079880608986 -0.002194729269452576 0 0.027095443509138142 -0.0032416740822810539 0 0.025780499942992832 -0.0040861803809390217 0 0.026084636235617523 -0.0027190453775673726 0 0.027095443509138142 -0.0032416740822810539 0 0.025780499942992832 -0.0040861803809390217 0 0.024227281970499486 -0.0031250499194101235 0 0.026084636235617523 -0.0027190453775673726 0 0.025299129084996121 -0.0018858187118913671 0 0.026084636235617523 -0.0027190453775673726 0 0.026418268574270532 -0.0012999781727631205 0 0.026084636235617523 -0.0027190453775673726 0 0.027019079880608986 -0.002194729269452576 0 0.026418268574270532 -0.0012999781727631205 0 0.026418268574270532 -0.0012999781727631205 0 0.026908584795842468 -0.00030135864655120428 0 0.027306802575886663 -0.001367518807063921 0 0.027019079880608986 -0.002194729269452576 0 0.026418268574270532 -0.0012999781727631205 0 0.027306802575886663 -0.001367518807063921 0 0.025152439716932928 -0.00059775648986684789 0 0.026418268574270532 -0.0012999781727631205 0 0.026908584795842468 -0.00030135864655120428 0 0.026908584795842468 -0.00030135864655120428 0 0.027805001114875761 -0.00016496943225597155 0 0.027632698686565399 -0.00020826525861353444 0 0.026419162106347323 -0.0002234678974855896 0 0.028893042758786364 -0.00061938100671408882 0 0.026908584795842468 -0.00030135864655120428 0 0.027756285981239092 7.0874041230095861e-05 0 0.026621054122686262 0.00024007937298316584 0 0.025152439716932928 -0.00059775648986684789 0 0.026908584795842468 -0.00030135864655120428 0 0.026621054122686262 0.00024007937298316584 0 0.026908584795842468 -0.00030135864655120428 0 0.027756285981239092 7.0874041230095861e-05 0 0.027805001114875761 -0.00016496943225597155 0 0.027756285981239092 7.0874041230095861e-05 0 0.026621054122686262 0.00024007937298316584 0 0.027560724397456219 0.00047413843180524031 0 0.025152439716932928 -0.00059775648986684789 0 0.026621054122686262 0.00024007937298316584 0 0.02522202565087139 0.00017112864133363967 0 0.023853889170267258 -1.0182636694670397e-05 0 0.025152439716932928 -0.00059775648986684789 0 0.02522202565087139 0.00017112864133363967 0 0.024619556318290093 0.00055516953339077588 0 0.02522202565087139 0.00017112864133363967 0 0.025719106936974861 0.00050133071452695694 0 0.026621054122686262 0.00024007937298316584 0 0.02522202565087139 0.00017112864133363967 0 0.025719106936974861 0.00050133071452695694 0 0.026621054122686262 0.00024007937298316584 0 0.025719106936974861 0.00050133071452695694 0 0.02678159494875958 0.00073381152776090031 0 0.025719106936974861 0.00050133071452695694 0 0.02678159494875958 0.00073381152776090031 0 0.025652161232377502 0.00079568980993782853 0 0.024619556318290093 0.00055516953339077588 0 0.025719106936974861 0.00050133071452695694 0 0.025652161232377502 0.00079568980993782853 0 0.02678159494875958 0.00073381152776090031 0 0.025652161232377502 0.00079568980993782853 0 0.026180505343038885 0.0009974832505625004 0 0.025633797566376307 0.0010199350606149092 0 0.026180505343038885 0.0009974832505625004 0 0.025841595675520974 0.0011403316524919479 0 0.025633797566376307 0.0010199350606149092 0 0.025652161232377502 0.00079568980993782853 0 0.026180505343038885 0.0009974832505625004 0 0.02678159494875958 0.00073381152776090031 0 0.026180505343038885 0.0009974832505625004 0 0.027340293032750516 0.0011967117733626092 0 0.02678159494875958 0.00073381152776090031 0 0.027933442317047353 0.00091699372888640128 0 0.027340293032750516 0.0011967117733626092 0 0.02678159494875958 0.00073381152776090031 0 0.027933442317047353 0.00091699372888640128 0 0.027560724397456219 0.00047413843180524031 0 0.027933442317047353 0.00091699372888640128 0 0.027560724397456219 0.00047413843180524031 0 0.028426854274090953 0.00044751879178499845 0 0.027933442317047353 0.00091699372888640128 0 0.028426854274090953 0.00044751879178499845 0 0.028829149435644682 0.00088670266996724873 0 0.027756285981239092 7.0874041230095861e-05 0 0.027560724397456219 0.00047413843180524031 0 0.028426854274090953 0.00044751879178499845 0 0.026621054122686262 0.00024007937298316584 0 0.02678159494875958 0.00073381152776090031 0 0.027560724397456219 0.00047413843180524031 0 0.028426854274090953 0.00044751879178499845 0 0.029692506051234857 0.0006653730039725929 0 0.028443500185821903 -0.00021160300677274053 0 0.027756285981239092 7.0874041230095861e-05 0 0.028426854274090953 0.00044751879178499845 0 0.028443500185821903 -0.00021160300677274053 0 0.028426854274090953 0.00044751879178499845 0 0.029692506051234857 0.0006653730039725929 0 0.028829149435644682 0.00088670266996724873 0 0.029692506051234857 0.0006653730039725929 0 0.030100276619670997 -0.00023625175271102213 0 0.028443500185821903 -0.00021160300677274053 0 0.029692506051234857 0.0006653730039725929 0 0.030100276619670997 -0.00023625175271102213 0 0.030567412174548263 0.00048632066990792307 0 0.029692506051234857 0.0006653730039725929 0 0.030567412174548263 0.00048632066990792307 0 0.030812259168505843 0.00089775616483948797 0 0.028624806107642231 -0.00028548156605079426 0 0.028430909070367019 -0.00023668537885628804 0 0.027167881922156949 -0.00041593128047721114 0 0.027424520948733235 -0.00013306628472606463 0 0.028443500185821903 -0.00021160300677274053 0 0.027167881922156949 -0.00041593128047721114 0 0.027424520948733235 -0.00013306628472606463 0 0.026956724251452912 -4.0082523424189578e-05 0 0.027424520948733235 -0.00013306628472606463 0 0.027744999195300182 -8.0536578178994728e-05 0 0.028443500185821903 -0.00021160300677274053 0 0.027424520948733235 -0.00013306628472606463 0 0.027744999195300182 -8.0536578178994728e-05 0 0.02736092720416463 1.5336832790981422e-05 0 0.027744999195300182 -8.0536578178994728e-05 0 0.028443500185821903 -0.00021160300677274053 0 0.027805001114875761 -0.00016496943225597155 0 0.027756285981239092 7.0874041230095861e-05 0 0.028443500185821903 -0.00021160300677274053 0 0.027805001114875761 -0.00016496943225597155 0 0.027805001114875761 -0.00016496943225597155 0 0.02767096592200986 -8.667031045776164e-05 0 0.027632698686565399 -0.00020826525861353444 0 0.027744999195300182 -8.0536578178994728e-05 0 0.027805001114875761 -0.00016496943225597155 0 0.02767096592200986 -8.667031045776164e-05 0 0.027744999195300182 -8.0536578178994728e-05 0 0.02767096592200986 -8.667031045776164e-05 0 0.027534208068672867 3.114852668839653e-05 0 0.027551337554245318 2.6807631836154854e-05 0 0.027427536118976512 0.00013985169840039958 0 0.027534208068672867 3.114852668839653e-05 0 0.02767096592200986 -8.667031045776164e-05 0 0.027551337554245318 2.6807631836154854e-05 0 0.027534208068672867 3.114852668839653e-05 0 0.027551337554245318 2.6807631836154854e-05 0 0.027463108042741987 0.00015284910103077762 0 0.027427536118976512 0.00013985169840039958 0 0.02767096592200986 -8.667031045776164e-05 0 0.027551337554245318 2.6807631836154854e-05 0 0.027632698686565399 -0.00020826525861353444 0 0.027019079880608986 -0.002194729269452576 0 0.027306802575886663 -0.001367518807063921 0 0.028143140181054918 -0.0025582910264549483 0 0.028893042758786364 -0.00061938100671408882 0 0.019428190188718539 -0.0037652019105632014 0 0.027551337554245318 2.6807631836154854e-05 0 0.027463108042741987 0.00015284910103077762 0 0.027505230913022191 0.00020946788536460663 0 0.027551337554245318 2.6807631836154854e-05 0 0.027632698686565399 -0.00020826525861353444 0 0.027505230913022191 0.00020946788536460663 0 0.027463108042741987 0.00015284910103077762 0 0.027505230913022191 0.00020946788536460663 0 0.027339374599253154 0.0002316384534121813 0 0.0099326988955458061 -0.0065224048843170943 0 0.010346212256235299 -0.0066195771061466711 0 0.010316518336379796 -0.0070684194377642201 0 0.0095856472035743996 -0.0058764737287632183 0 0.019428190188718539 -0.0037652019105632014 0 0.010346212256235299 -0.0066195771061466711 0 0.010316518336379796 -0.0070684194377642201 0 0.010934663866040594 -0.0069164108286619832 0 0.027019079880608986 -0.002194729269452576 0 0.028143140181054918 -0.0025582910264549483 0 0.027095443509138142 -0.0032416740822810539 0 0.019428190188718539 -0.0037652019105632014 0 0.018938774790437499 -0.0052382901749378 0 0.011421810186154457 -0.0053755625621215424 0 0.011695991434442292 -0.0054587677411685447 0 0.011770258510076865 -0.0049462427068397135 0 0.011421810186154457 -0.0053755625621215424 0 0.011688003613289998 -0.0049463970192877068 0 0.011770258510076865 -0.0049462427068397135 0 0.011695991434442292 -0.0054587677411685447 0 0.011770258510076865 -0.0049462427068397135 0 0.012164652957443237 -0.0050042133109870239 0 0.01113398872372556 -0.0057988280347861963 0 0.011421810186154457 -0.0053755625621215424 0 0.011695991434442292 -0.0054587677411685447 0 0.010960912133317744 -0.0059027928588700233 0 0.0098533510103785311 -0.0053182360043293438 0 0.011567562000296216 -0.0051835809366330985 0 0.010960912133317744 -0.0059027928588700233 0 0.011421810186154457 -0.0053755625621215424 0 0.011567562000296216 -0.0051835809366330985 0 0.010960912133317744 -0.0059027928588700233 0 0.01113398872372556 -0.0057988280347861963 0 0.011421810186154457 -0.0053755625621215424 0 0.011421810186154457 -0.0053755625621215424 0 0.011567562000296216 -0.0051835809366330985 0 0.011688003613289998 -0.0049463970192877068 0 0.019428190188718539 -0.0037652019105632014 0 0.019826369322038895 -0.0016336514581641536 0 0.0098533510103785311 -0.0053182360043293438 0 0.011567562000296216 -0.0051835809366330985 0 0.012273907729651609 -0.0034927528909244557 0 0.027463108042741987 0.00015284910103077762 0 0.027339374599253154 0.0002316384534121813 0 0.027427536118976512 0.00013985169840039958 0 0.011567562000296216 -0.0051835809366330985 0 0.012273907729651609 -0.0034927528909244557 0 0.019871712733733567 -0.0034633457293316555 0 0.012028881289739011 -0.0051445816666330357 0 0.015918338240240804 -0.0037798004618982174 0 0.012273907729651609 -0.0034927528909244557 0 0.019871712733733567 -0.0034633457293316555 0 0.019251919328339438 -0.0015377821941691882 0 0.011567562000296216 -0.0051835809366330985 0 0.011688003613289998 -0.0049463970192877068 0 0.011927408586609459 -0.0042751901999349149 0 0.019826369322038895 -0.0016336514581641536 0 0.023006014455696184 -0.00064107900957092339 0 0.011688003613289998 -0.0049463970192877068 0 0.011770258510076865 -0.0049462427068397135 0 0.011927408586609459 -0.0042751901999349149 0 0.011770258510076865 -0.0049462427068397135 0 0.012045926976359055 -0.0047191235873967662 0 0.012164652957443237 -0.0050042133109870239 0 0.011770258510076865 -0.0049462427068397135 0 0.011927408586609459 -0.0042751901999349149 0 0.012045926976359055 -0.0047191235873967662 0 0.027339374599253154 0.0002316384534121813 0 0.026961617261361263 0.00042532919520594457 0 0.027170636080138019 0.00026998313971225767 0 0.027170636080138019 0.00026998313971225767 0 0.027325477499525047 0.00014509880096071453 0 0.027078123845773964 0.00011653361998129485 0 0.026961617261361263 0.00042532919520594457 0 0.027170636080138019 0.00026998313971225767 0 0.026858991668502759 0.00021062267428434718 0 0.027170636080138019 0.00026998313971225767 0 0.026858991668502759 0.00021062267428434718 0 0.027078123845773964 0.00011653361998129485 0 0.027170636080138019 0.00026998313971225767 0 0.027318998839794273 0.00020499963729307598 0 0.027325477499525047 0.00014509880096071453 0 0.027339374599253154 0.0002316384534121813 0 0.027427536118976512 0.00013985169840039958 0 0.027318998839794273 0.00020499963729307598 0 0.027427536118976512 0.00013985169840039958 0 0.027318998839794273 0.00020499963729307598 0 0.027325477499525047 0.00014509880096071453 0 0.027339374599253154 0.0002316384534121813 0 0.027170636080138019 0.00026998313971225767 0 0.027318998839794273 0.00020499963729307598 0 0.027427536118976512 0.00013985169840039958 0 0.027325477499525047 0.00014509880096071453 0 0.027534208068672867 3.114852668839653e-05 0 0.027744999195300182 -8.0536578178994728e-05 0 0.027534208068672867 3.114852668839653e-05 0 0.02736092720416463 1.5336832790981422e-05 0 0.027325477499525047 0.00014509880096071453 0 0.027534208068672867 3.114852668839653e-05 0 0.02736092720416463 1.5336832790981422e-05 0 0.027424520948733235 -0.00013306628472606463 0 0.02736092720416463 1.5336832790981422e-05 0 0.026956724251452912 -4.0082523424189578e-05 0 0.027078123845773964 0.00011653361998129485 0 0.026956724251452912 -4.0082523424189578e-05 0 0.026719686216033548 6.1502348559065517e-05 0 0.026858991668502759 0.00021062267428434718 0 0.027078123845773964 0.00011653361998129485 0 0.026719686216033548 6.1502348559065517e-05 0 0.027325477499525047 0.00014509880096071453 0 0.02736092720416463 1.5336832790981422e-05 0 0.027078123845773964 0.00011653361998129485 0 0.02736092720416463 1.5336832790981422e-05 0 0.027078123845773964 0.00011653361998129485 0 0.026956724251452912 -4.0082523424189578e-05 0 0.026956724251452912 -4.0082523424189578e-05 0 0.026469636871012298 -4.6725756518903028e-05 0 0.026642869922982114 -2.6653989596613368e-05 0 0.026956724251452912 -4.0082523424189578e-05 0 0.026469636871012298 -4.6725756518903028e-05 0 0.026719686216033548 6.1502348559065517e-05 0 0.026858991668502759 0.00021062267428434718 0 0.026719686216033548 6.1502348559065517e-05 0 0.025899585192870406 0.000116095130150242 0 0.026469636871012298 -4.6725756518903028e-05 0 0.026719686216033548 6.1502348559065517e-05 0 0.025899585192870406 0.000116095130150242 0 0.026715860276860875 -0.00011329277151172556 0 0.026994118879710576 -0.00071379244130587139 0 0.027556517707076639 -0.00047953378953648126 0 0.026954824816826234 -0.00011585069668284838 0 0.026715860276860875 -0.00011329277151172556 0 0.026642869922982114 -2.6653989596613368e-05 0 0.026469636871012298 -4.6725756518903028e-05 0 0.026715860276860875 -0.00011329277151172556 0 0.026642869922982114 -2.6653989596613368e-05 0 0.025899585192870406 0.000116095130150242 0 0.026715860276860875 -0.00011329277151172556 0 0.026994118879710576 -0.00071379244130587139 0 0.026469636871012298 -4.6725756518903028e-05 0 0.025899585192870406 0.000116095130150242 0 0.026715860276860875 -0.00011329277151172556 0 0.013318269317564352 -0.0032361398498374867 0 0.013788892925637014 -0.0039994917170443544 0 0.014340496893011792 -0.0033808552434251241 0 0.013318269317564352 -0.0032361398498374867 0 0.012904824661256288 -0.0042602906068448512 0 0.013788892925637014 -0.0039994917170443544 0 0.011927408586609459 -0.0042751901999349149 0 0.013318269317564352 -0.0032361398498374867 0 0.012904824661256288 -0.0042602906068448512 0 0.019871712733733567 -0.0034633457293316555 0 0.019251919328339438 -0.0015377821941691882 0 0.025899585192870406 0.000116095130150242 0 0.023006014455696184 -0.00064107900957092339 0 0.025528837778735148 0.00012767897773725788 0 0.019871712733733567 -0.0034633457293316555 0 0.025899585192870406 0.000116095130150242 0 0.026994118879710576 -0.00071379244130587139 0 0.015918338240240804 -0.0037798004618982174 0 0.020189577386082042 -0.0019333540327389348 0 0.026961617261361263 0.00042532919520594457 0 0.026858991668502759 0.00021062267428434718 0 0.025899585192870406 0.000116095130150242 0 0.011927408586609459 -0.0042751901999349149 0 0.012341328948040218 -0.0046153157873789173 0 0.012904824661256288 -0.0042602906068448512 0 0.011927408586609459 -0.0042751901999349149 0 0.012045926976359055 -0.0047191235873967662 0 0.012341328948040218 -0.0046153157873789173 0 0.012045926976359055 -0.0047191235873967662 0 0.012341328948040218 -0.0046153157873789173 0 0.012164652957443237 -0.0050042133109870239 0 0.012341328948040218 -0.0046153157873789173 0 0.012684450677858798 -0.0048619933817096806 0 0.012164652957443237 -0.0050042133109870239 0 0.012341328948040218 -0.0046153157873789173 0 0.012684450677858798 -0.0048619933817096806 0 0.012904824661256288 -0.0042602906068448512 0 0.012904824661256288 -0.0042602906068448512 0 0.013788892925637014 -0.0039994917170443544 0 0.013355413307982017 -0.0050014803200318014 0 0.013788892925637014 -0.0039994917170443544 0 0.013355413307982017 -0.0050014803200318014 0 0.014121563228482674 -0.0047348333129049389 0 0.012684450677858798 -0.0048619933817096806 0 0.012904824661256288 -0.0042602906068448512 0 0.013355413307982017 -0.0050014803200318014 0 0.012684450677858798 -0.0048619933817096806 0 0.013355413307982017 -0.0050014803200318014 0 0.012486266680546832 -0.0055275789684178303 0 0.013522691305387217 -0.0056699763371874587 0 0.013355413307982017 -0.0050014803200318014 0 0.012486266680546832 -0.0055275789684178303 0 0.013522691305387217 -0.0056699763371874587 0 0.013355413307982017 -0.0050014803200318014 0 0.014121563228482674 -0.0047348333129049389 0 0.011558992227317395 -0.0059531985982391412 0 0.011695991434442292 -0.0054587677411685447 0 0.012486266680546832 -0.0055275789684178303 0 0.011695991434442292 -0.0054587677411685447 0 0.012486266680546832 -0.0055275789684178303 0 0.012164652957443237 -0.0050042133109870239 0 0.012684450677858798 -0.0048619933817096806 0 0.012486266680546832 -0.0055275789684178303 0 0.012164652957443237 -0.0050042133109870239 0 0.014812896315701681 -0.0053633219577520026 0 0.015688753123022744 -0.0042253565135811563 0 0.016338721298335673 -0.0052708512076964538 0 0.015674935135631177 -0.0065043507078262315 0 0.014812896315701681 -0.0053633219577520026 0 0.016338721298335673 -0.0052708512076964538 0 0.013522691305387217 -0.0056699763371874587 0 0.014812896315701681 -0.0053633219577520026 0 0.014121563228482674 -0.0047348333129049389 0 0.014812896315701681 -0.0053633219577520026 0 0.014121563228482674 -0.0047348333129049389 0 0.014679332944683009 -0.0040462641950586645 0 0.013788892925637014 -0.0039994917170443544 0 0.014121563228482674 -0.0047348333129049389 0 0.014679332944683009 -0.0040462641950586645 0 0.014812896315701681 -0.0053633219577520026 0 0.014679332944683009 -0.0040462641950586645 0 0.015688753123022744 -0.0042253565135811563 0 0.014679332944683009 -0.0040462641950586645 0 0.015688753123022744 -0.0042253565135811563 0 0.015247039592739509 -0.0032859848090261629 0 0.015688753123022744 -0.0042253565135811563 0 0.015247039592739509 -0.0032859848090261629 0 0.016250843030761762 -0.0032080592316176856 0 0.013318269317564352 -0.0032361398498374867 0 0.014340496893011792 -0.0033808552434251241 0 0.014741878017660769 -0.0023943451321599991 0 0.013788892925637014 -0.0039994917170443544 0 0.014679332944683009 -0.0040462641950586645 0 0.014340496893011792 -0.0033808552434251241 0 0.014679332944683009 -0.0040462641950586645 0 0.015247039592739509 -0.0032859848090261629 0 0.014340496893011792 -0.0033808552434251241 0 0.015247039592739509 -0.0032859848090261629 0 0.014340496893011792 -0.0033808552434251241 0 0.014741878017660769 -0.0023943451321599991 0 0.020189577386082042 -0.0019333540327389348 0 0.020674237751211886 -0.0016006377915102029 0 0.026954824816826234 -0.00011585069668284838 0 0.026715860276860875 -0.00011329277151172556 0 0.027556517707076639 -0.00047953378953648126 0 0.026954824816826234 -0.00011585069668284838 0 0.027556517707076639 -0.00047953378953648126 0 0.027479318571451264 -7.8500521168260062e-06 0 0.020674237751211886 -0.0016006377915102029 0 0.025127742565498264 -0.00057425827108844674 0 0.015247039592739509 -0.0032859848090261629 0 0.014741878017660769 -0.0023943451321599991 0 0.015816304095588311 -0.0025568754906440936 0 0.014741878017660769 -0.0023943451321599991 0 0.015816304095588311 -0.0025568754906440936 0 0.016158943040783611 -0.0015792096210854607 0 0.02844043603985685 -9.13367177265541e-05 0 0.027617091766342049 0.00072325306758220327 0 0.03070536197912923 0.00064025907062205856 0 0.027556517707076639 -0.00047953378953648126 0 0.02844043603985685 -9.13367177265541e-05 0 0.027479318571451264 -7.8500521168260062e-06 0 0.027556517707076639 -0.00047953378953648126 0 0.02844043603985685 -9.13367177265541e-05 0 0.028913076219874774 -0.00026045059058620734 0 0.02844043603985685 -9.13367177265541e-05 0 0.027617091766342049 0.00072325306758220327 0 0.027479318571451264 -7.8500521168260062e-06 0 0.031142936559609695 0.00049692741189344869 0 0.031044236938727706 0.00051954843626801151 0 0.030906501633140626 0.00056089501029558259 0 0.031142936559609695 0.00049692741189344869 0 0.031044236938727706 0.00051954843626801151 0 0.031098312015294699 0.00050149893011663352 0 0.031044236938727706 0.00051954843626801151 0 0.031098312015294699 0.00050149893011663352 0 0.031027032694795811 0.00055147222041428969 0 0.029416577515878353 0.00057287218569865544 0 0.028814963695201399 8.0458154312966886e-05 0 0.027617091766342049 0.00072325306758220327 0 0.027000705853021032 8.4132574633527461e-05 0 0.026713399890788421 5.6656658323422219e-05 0 0.031142936559609695 0.00049692741189344869 0 0.030887365592265667 8.144246520360426e-05 0 0.031070362963197075 0.00040954467095441298 0 0.031142936559609695 0.00049692741189344869 0 0.031098312015294699 0.00050149893011663352 0 0.031070362963197075 0.00040954467095441298 0 0.027617091766342049 0.00072325306758220327 0 0.027000705853021032 8.4132574633527461e-05 0 0.027479318571451264 -7.8500521168260062e-06 0 0.026954824816826234 -0.00011585069668284838 0 0.027000705853021032 8.4132574633527461e-05 0 0.027479318571451264 -7.8500521168260062e-06 0 0.027000705853021032 8.4132574633527461e-05 0 0.026642869922982114 -2.6653989596613368e-05 0 0.026713399890788421 5.6656658323422219e-05 0 0.026954824816826234 -0.00011585069668284838 0 0.027000705853021032 8.4132574633527461e-05 0 0.026642869922982114 -2.6653989596613368e-05 0 0.027167881922156949 -0.00041593128047721114 0 0.026956724251452912 -4.0082523424189578e-05 0 0.026642869922982114 -2.6653989596613368e-05 0 0.028624806107642231 -0.00028548156605079426 0 0.028814963695201399 8.0458154312966886e-05 0 0.027167881922156949 -0.00041593128047721114 0 0.026642869922982114 -2.6653989596613368e-05 0 0.026713399890788421 5.6656658323422219e-05 0 0.030887365592265667 8.144246520360426e-05 0 0.03098082203887376 0.00049502369990943415 0 0.031070362963197075 0.00040954467095441298 0 0.030100276619670997 -0.00023625175271102213 0 0.030887365592265667 8.144246520360426e-05 0 0.030567412174548263 0.00048632066990792307 0 0.030887365592265667 8.144246520360426e-05 0 0.03098082203887376 0.00049502369990943415 0 0.030567412174548263 0.00048632066990792307 0 0.03098082203887376 0.00049502369990943415 0 0.031120083325077871 0.00069444702537625074 0 0.031075724797562002 0.00082213129781461263 0 0.03098082203887376 0.00049502369990943415 0 0.030567412174548263 0.00048632066990792307 0 0.031075724797562002 0.00082213129781461263 0 0.03098082203887376 0.00049502369990943415 0 0.031120083325077871 0.00069444702537625074 0 0.031108476330672003 0.00055260015646957101 0 0.031120083325077871 0.00069444702537625074 0 0.031169543395642981 0.00072892065217571619 0 0.031108476330672003 0.00055260015646957101 0 0.031169543395642981 0.00072892065217571619 0 0.03111047271329781 0.00058689333122035779 0 0.031139529094443289 0.00069141355122446797 0 0.031169543395642981 0.00072892065217571619 0 0.03111047271329781 0.00058689333122035779 0 0.031108476330672003 0.00055260015646957101 0 0.031169543395642981 0.00072892065217571619 0 0.031139529094443289 0.00069141355122446797 0 0.031192689868553884 0.00078862839786730213 0 0.03111047271329781 0.00058689333122035779 0 0.031098312015294699 0.00050149893011663352 0 0.031108476330672003 0.00055260015646957101 0 0.03111047271329781 0.00058689333122035779 0 0.031098312015294699 0.00050149893011663352 0 0.031027032694795811 0.00055147222041428969 0 0.03111047271329781 0.00058689333122035779 0 0.031079617630847656 0.00062376900461547807 0 0.031027032694795811 0.00055147222041428969 0 0.03098082203887376 0.00049502369990943415 0 0.031070362963197075 0.00040954467095441298 0 0.031108476330672003 0.00055260015646957101 0 0.031098312015294699 0.00050149893011663352 0 0.031070362963197075 0.00040954467095441298 0 0.031108476330672003 0.00055260015646957101 0 0.031252735980186373 0.00099109083539903058 0 0.031258150354774653 0.0009528828828939454 0 0.031201593168733301 0.00085075624869890027 0 0.031252735980186373 0.00099109083539903058 0 0.031258150354774653 0.0009528828828939454 0 0.031303071717736379 0.0010479947562446652 0 0.031258150354774653 0.0009528828828939454 0 0.031276222418927947 0.00099249620817431659 0 0.031252762362686912 0.00091152298903068862 0 0.031258150354774653 0.0009528828828939454 0 0.031227428447944221 0.00086425164542463585 0 0.031252762362686912 0.00091152298903068862 0 0.031169543395642981 0.00072892065217571619 0 0.031227428447944221 0.00086425164542463585 0 0.031201593168733301 0.00085075624869890027 0 0.031258150354774653 0.0009528828828939454 0 0.031227428447944221 0.00086425164542463585 0 0.031201593168733301 0.00085075624869890027 0 0.031169543395642981 0.00072892065217571619 0 0.031227428447944221 0.00086425164542463585 0 0.031192689868553884 0.00078862839786730213 0 0.031252735980186373 0.00099109083539903058 0 0.031201593168733301 0.00085075624869890027 0 0.031075724797562002 0.00082213129781461263 0 0.031120083325077871 0.00069444702537625074 0 0.031201593168733301 0.00085075624869890027 0 0.031075724797562002 0.00082213129781461263 0 0.031120083325077871 0.00069444702537625074 0 0.031169543395642981 0.00072892065217571619 0 0.031201593168733301 0.00085075624869890027 0 0.031075724797562002 0.00082213129781461263 0 0.030812259168505843 0.00089775616483948797 0 0.031196884438021603 0.0010250078944752377 0 0.030567412174548263 0.00048632066990792307 0 0.031075724797562002 0.00082213129781461263 0 0.030812259168505843 0.00089775616483948797 0 0.030812259168505843 0.00089775616483948797 0 0.031196884438021603 0.0010250078944752377 0 0.031300357487348725 0.0011552230853218192 0 0.031252735980186373 0.00099109083539903058 0 0.031075724797562002 0.00082213129781461263 0 0.031196884438021603 0.0010250078944752377 0 0.031252735980186373 0.00099109083539903058 0 0.031196884438021603 0.0010250078944752377 0 0.031364006668058116 0.0011315018063399972 0 0.031364006668058116 0.0011315018063399972 0 0.031300357487348725 0.0011552230853218192 0 0.031598916311885744 0.0012327846739386751 0 0.031364006668058116 0.0011315018063399972 0 0.031598916311885744 0.0012327846739386751 0 0.031375666311919327 0.0011129137260704302 0 0.031196884438021603 0.0010250078944752377 0 0.031364006668058116 0.0011315018063399972 0 0.031300357487348725 0.0011552230853218192 0 0.031300357487348725 0.0011552230853218192 0 0.031598916311885744 0.0012327846739386751 0 0.031584672160261999 0.0013317096549421107 0 0.031598916311885744 0.0012327846739386751 0 0.032088816157470675 0.0013028774584768535 0 0.031584672160261999 0.0013317096549421107 0 0.031858143426543285 0.0011107232646628119 0 0.032018993930138025 0.0012794194916091693 0 0.031598916311885744 0.0012327846739386751 0 0.031375666311919327 0.0011129137260704302 0 0.032088816157470675 0.0013028774584768535 0 0.03226951809752044 0.0010922633839034867 0 0.032239086939628424 0.0012445047401361215 0 0.032088816157470675 0.0013028774584768535 0 0.032362417715853888 0.0011201635783369521 0 0.03226951809752044 0.0010922633839034867 0 0.032279487037180837 0.0012019163812751806 0 0.03226951809752044 0.0010922633839034867 0 0.032279487037180837 0.0012019163812751806 0 0.032239086939628424 0.0012445047401361215 0 0.032362417715853888 0.0011201635783369521 0 0.032477342924145038 0.001075031833153017 0 0.032270800309827291 0.0012664309879383503 0 0.032362417715853888 0.0011201635783369521 0 0.03226951809752044 0.0010922633839034867 0 0.032500676616060452 0.00092529553946282676 0 0.031364006668058116 0.0011315018063399972 0 0.031375666311919327 0.0011129137260704302 0 0.031303071717736379 0.0010479947562446652 0 0.031375666311919327 0.0011129137260704302 0 0.031303071717736379 0.0010479947562446652 0 0.031276222418927947 0.00099249620817431659 0 0.031858143426543285 0.0011107232646628119 0 0.031772978402946593 0.0010303124588863272 0 0.031252735980186373 0.00099109083539903058 0 0.031364006668058116 0.0011315018063399972 0 0.031303071717736379 0.0010479947562446652 0 0.032500676616060452 0.00092529553946282676 0 0.032477342924145038 0.001075031833153017 0 0.032657631994722235 0.00082123690705786072 0 0.031258150354774653 0.0009528828828939454 0 0.031303071717736379 0.0010479947562446652 0 0.031276222418927947 0.00099249620817431659 0 0.032362417715853888 0.0011201635783369521 0 0.032500676616060452 0.00092529553946282676 0 0.032477342924145038 0.001075031833153017 0 0.03386032314132037 -0.00027533473929846388 0 0.033874449386598372 -0.00016218383884304677 0 0.033957892430526528 -0.00020500163753265076 0 0.03363503265171304 0.00046998073891273362 0 0.034629655405998494 -0.00011091168166785292 0 0.03386032314132037 -0.00027533473929846388 0 0.033874449386598372 -0.00016218383884304677 0 0.033709924980987148 -7.6755678724529887e-05 0 0.034976865206307481 1.3357907887830733e-05 0 0.034976452167276441 3.5387414624581262e-06 0 0.034965042692683808 1.3114795307627714e-05 0 0.033874449386598372 -0.00016218383884304677 0 0.033709924980987148 -7.6755678724529887e-05 0 0.033968925046165367 -9.1173109723659306e-05 0 0.032362417715853888 0.0011201635783369521 0 0.032279487037180837 0.0012019163812751806 0 0.032270800309827291 0.0012664309879383503 0 0.033160129435402363 0.00039743040223608504 0 0.03363503265171304 0.00046998073891273362 0 0.032279487037180837 0.0012019163812751806 0 0.03224455942067328 0.0012624580697205561 0 0.032239086939628424 0.0012445047401361215 0 0.032279487037180837 0.0012019163812751806 0 0.03224455942067328 0.0012624580697205561 0 0.032270800309827291 0.0012664309879383503 0 0.03349579855668184 0.00049202072018179237 0 0.03363503265171304 0.00046998073891273362 0 0.034976865206307481 1.3357907887830733e-05 0 0.034982401035976871 4.284630259839138e-06 0 0.034976452167276441 3.5387414624581262e-06 0 0.034976865206307481 1.3357907887830733e-05 0 0.034982401035976871 4.284630259839138e-06 0 0.034984000671111931 8.413905005977284e-06 0 0.03224455942067328 0.0012624580697205561 0 0.032230690372023182 0.0012645677825173034 0 0.032296913642904275 0.0010229391887977839 0 0.034976452167276441 3.5387414624581262e-06 0 0.034983064326411774 -4.524508685175687e-06 0 0.034960003399744963 -2.291782666049677e-05 0 0.034982401035976871 4.284630259839138e-06 0 0.034976452167276441 3.5387414624581262e-06 0 0.034983064326411774 -4.524508685175687e-06 0 0.034982401035976871 4.284630259839138e-06 0 0.034989646167216941 4.8916132835881715e-07 0 0.034984000671111931 8.413905005977284e-06 0 0.034982401035976871 4.284630259839138e-06 0 0.034983064326411774 -4.524508685175687e-06 0 0.034989646167216941 4.8916132835881715e-07 0 0.034989646167216941 4.8916132835881715e-07 0 0.034999978683270233 -2.7409778176755869e-09 0 0.034999982876449835 7.9290033804848198e-10 0 0.034983064326411774 -4.524508685175687e-06 0 0.034999978683270233 -2.7409778176755869e-09 0 0.034982626270763061 -8.4998292898097721e-06 0 0.034983064326411774 -4.524508685175687e-06 0 0.034989646167216941 4.8916132835881715e-07 0 0.034999978683270233 -2.7409778176755869e-09 0 0.034093872788703017 0.00028564391726025346 0 0.034999518848406387 1.4769038890723168e-07 0 0.034999982876449835 7.9290033804848198e-10 0 0.034993485461060472 3.6960517765092879e-06 0 0.034999998416102761 3.3763506588299583e-09 0 0.034989646167216941 4.8916132835881715e-07 0 0.034999982876449835 7.9290033804848198e-10 0 0.034993485461060472 3.6960517765092879e-06 0 0.034989646167216941 4.8916132835881715e-07 0 0.034993485461060472 3.6960517765092879e-06 0 0.034984000671111931 8.413905005977284e-06 0 0.034093872788703017 0.00028564391726025346 0 0.033653918934287617 0.0005447082968310828 0 0.033176356583428102 0.00042754192619161996 0 0.032702064732074168 0.0011261332928824662 0 0.033745492805705615 0.00061962094848716531 0 0.033176356583428102 0.00042754192619161996 0 0.032702064732074168 0.0011261332928824662 0 0.032296913642904275 0.0010229391887977839 0 0.032702064732074168 0.0011261332928824662 0 0.032296913642904275 0.0010229391887977839 0 0.032276433476466485 0.0012455773189153157 0 0.03363503265171304 0.00046998073891273362 0 0.033653918934287617 0.0005447082968310828 0 0.03224455942067328 0.0012624580697205561 0 0.032296913642904275 0.0010229391887977839 0 0.032276433476466485 0.0012455773189153157 0 0.032276433476466485 0.0012455773189153157 0 0.032239086939628424 0.0012445047401361215 0 0.032088816157470675 0.0013028774584768535 0 0.03224455942067328 0.0012624580697205561 0 0.032276433476466485 0.0012455773189153157 0 0.032239086939628424 0.0012445047401361215 0 0.032702064732074168 0.0011261332928824662 0 0.032088816157470675 0.0013028774584768535 0 0.032590845629361626 0.0015272213080252425 0 0.032702064732074168 0.0011261332928824662 0 0.032276433476466485 0.0012455773189153157 0 0.032088816157470675 0.0013028774584768535 0 0.032088816157470675 0.0013028774584768535 0 0.032590845629361626 0.0015272213080252425 0 0.031584672160261999 0.0013317096549421107 0 0.034994117253191404 -2.5696674521884176e-07 0 0.034486297103716423 0.00032919318311739986 0 0.035000004210771644 6.6341271825176545e-07 0 0.032590845629361626 0.0015272213080252425 0 0.034017200047906468 0.0007838926664521528 0 0.034097611447227803 0.0012036816516158833 0 0.032590845629361626 0.0015272213080252425 0 0.030532926081864396 0.0019308035355952474 0 0.030679688592714555 0.0013003261489747287 0 0.032463809809939514 0.0015208827497470315 0 0.032257458346946065 0.0015150967756174529 0 0.032590845629361626 0.0015272213080252425 0 0.034017200047906468 0.0007838926664521528 0 0.033745492805705615 0.00061962094848716531 0 0.032702064732074168 0.0011261332928824662 0 0.032590845629361626 0.0015272213080252425 0 0.033745492805705615 0.00061962094848716531 0 0.033745492805705615 0.00061962094848716531 0 0.034994117253191404 -2.5696674521884176e-07 0 0.034486297103716423 0.00032919318311739986 0 0.034017200047906468 0.0007838926664521528 0 0.033745492805705615 0.00061962094848716531 0 0.034486297103716423 0.00032919318311739986 0 0.033176356583428102 0.00042754192619161996 0 0.033745492805705615 0.00061962094848716531 0 0.034994117253191404 -2.5696674521884176e-07 0 0.034486297103716423 0.00032919318311739986 0 0.034348234299664604 0.00074242825501707262 0 0.035000004210771644 6.6341271825176545e-07 0 0.034017200047906468 0.0007838926664521528 0 0.034486297103716423 0.00032919318311739986 0 0.034348234299664604 0.00074242825501707262 0 0.034017200047906468 0.0007838926664521528 0 0.034348234299664604 0.00074242825501707262 0 0.034097611447227803 0.0012036816516158833 0 0.032257458346946065 0.0015150967756174529 0 0.031738099379944061 0.0011863242935784019 0 0.034348234299664604 0.00074242825501707262 0 0.034097611447227803 0.0012036816516158833 0 0.034167114144338248 0.00079312904433520332 0 0.034348234299664604 0.00074242825501707262 0 0.034167114144338248 0.00079312904433520332 0 0.033775112402882265 0.00096253509059317862 0 0.02933141355434038 0.0016381124819890196 0 0.029703781654453122 0.0010662716330572866 0 0.028908863558808801 0.0011071083217756659 0 0.030532926081864396 0.0019308035355952474 0 0.02933141355434038 0.0016381124819890196 0 0.030679688592714555 0.0013003261489747287 0 0.02933141355434038 0.0016381124819890196 0 0.029703781654453122 0.0010662716330572866 0 0.030679688592714555 0.0013003261489747287 0 0.032590845629361626 0.0015272213080252425 0 0.030679688592714555 0.0013003261489747287 0 0.031584672160261999 0.0013317096549421107 0 0.031300357487348725 0.0011552230853218192 0 0.031584672160261999 0.0013317096549421107 0 0.030599215774324038 0.0010512195371098606 0 0.029703781654453122 0.0010662716330572866 0 0.030679688592714555 0.0013003261489747287 0 0.030599215774324038 0.0010512195371098606 0 0.030679688592714555 0.0013003261489747287 0 0.031584672160261999 0.0013317096549421107 0 0.030599215774324038 0.0010512195371098606 0 0.029692506051234857 0.0006653730039725929 0 0.030812259168505843 0.00089775616483948797 0 0.030599215774324038 0.0010512195371098606 0 0.029692506051234857 0.0006653730039725929 0 0.030599215774324038 0.0010512195371098606 0 0.029696775300830008 0.00091921354139894401 0 0.030812259168505843 0.00089775616483948797 0 0.031300357487348725 0.0011552230853218192 0 0.030599215774324038 0.0010512195371098606 0 0.029692506051234857 0.0006653730039725929 0 0.028829149435644682 0.00088670266996724873 0 0.029696775300830008 0.00091921354139894401 0 0.029703781654453122 0.0010662716330572866 0 0.028829149435644682 0.00088670266996724873 0 0.028908863558808801 0.0011071083217756659 0 0.029703781654453122 0.0010662716330572866 0 0.030599215774324038 0.0010512195371098606 0 0.029696775300830008 0.00091921354139894401 0 0.029703781654453122 0.0010662716330572866 0 0.028829149435644682 0.00088670266996724873 0 0.029696775300830008 0.00091921354139894401 0 0.028399541438217529 0.0010936030807520054 0 0.027964266934362755 0.0010999157249271261 0 0.028250768434635764 0.0010115330220271165 0 0.028399541438217529 0.0010936030807520054 0 0.028862892471316941 0.00097307144031336037 0 0.02873518265213024 0.001057130993645603 0 0.028829149435644682 0.00088670266996724873 0 0.028399541438217529 0.0010936030807520054 0 0.028908863558808801 0.0011071083217756659 0 0.027933442317047353 0.00091699372888640128 0 0.028829149435644682 0.00088670266996724873 0 0.028399541438217529 0.0010936030807520054 0 0.027933442317047353 0.00091699372888640128 0 0.028399541438217529 0.0010936030807520054 0 0.027964266934362755 0.0010999157249271261 0 0.027933442317047353 0.00091699372888640128 0 0.027964266934362755 0.0010999157249271261 0 0.027340293032750516 0.0011967117733626092 0 0.027964266934362755 0.0010999157249271261 0 0.027340293032750516 0.0011967117733626092 0 0.028250768434635764 0.0010115330220271165 0 0.027340293032750516 0.0011967117733626092 0 0.028290588994085673 0.0011037777284916594 0 0.028250768434635764 0.0010115330220271165 0 0.026180505343038885 0.0009974832505625004 0 0.025841595675520974 0.0011403316524919479 0 0.025873425095618002 0.0013684977027441912 0 0.025841595675520974 0.0011403316524919479 0 0.025873425095618002 0.0013684977027441912 0 0.025731024026102462 0.0011487014378851713 0 0.026180505343038885 0.0009974832505625004 0 0.027340293032750516 0.0011967117733626092 0 0.025873425095618002 0.0013684977027441912 0 0.026737275592639876 0.0016142684447146085 0 0.029655853505551021 0.00065065636259781332 0 0.027340293032750516 0.0011967117733626092 0 0.025873425095618002 0.0013684977027441912 0 0.025930856454785284 0.0015147497807432879 0 0.025873425095618002 0.0013684977027441912 0 0.025847070683532678 0.001350545720008802 0 0.025731024026102462 0.0011487014378851713 0 0.029492168865753801 0.00061414289796444263 0 0.029655853505551021 0.00065065636259781332 0 0.03437750261953694 -0.0016596725994040037 0 0.034300857389068552 -0.0013305044071003243 0 0.034642182214083439 -0.001135208144022456 0 0.029655853505551021 0.00065065636259781332 0 0.031960003357576379 -0.00040225400296798789 0 0.028290588994085673 0.0011037777284916594 0 0.028250768434635764 0.0010115330220271165 0 0.028926106365987789 0.00069823221827696965 0 0.028399541438217529 0.0010936030807520054 0 0.028250768434635764 0.0010115330220271165 0 0.028862892471316941 0.00097307144031336037 0 0.028250768434635764 0.0010115330220271165 0 0.028862892471316941 0.00097307144031336037 0 0.028926106365987789 0.00069823221827696965 0 0.031960003357576379 -0.00040225400296798789 0 0.032744781115678245 -6.921510267314958e-06 0 0.028926106365987789 0.00069823221827696965 0 0.029927830603841965 0.000518229063521422 0 0.030680749969504109 0.00066970096192084762 0 0.028862892471316941 0.00097307144031336037 0 0.028926106365987789 0.00069823221827696965 0 0.029927830603841965 0.000518229063521422 0 0.034642182214083439 -0.001135208144022456 0 0.034392642713657127 -0.00074817696623585904 0 0.034615939720129642 -0.00070843821728431905 0 0.034300857389068552 -0.0013305044071003243 0 0.034642182214083439 -0.001135208144022456 0 0.034222469062544704 -0.0010698950815422627 0 0.034642182214083439 -0.001135208144022456 0 0.034392642713657127 -0.00074817696623585904 0 0.034222469062544704 -0.0010698950815422627 0 0.034392642713657127 -0.00074817696623585904 0 0.034563885565237221 -0.00044322832908417028 0 0.034209899455142412 -0.00051918979800092476 0 0.034392642713657127 -0.00074817696623585904 0 0.034615939720129642 -0.00070843821728431905 0 0.034563885565237221 -0.00044322832908417028 0 0.034615939720129642 -0.00070843821728431905 0 0.034563885565237221 -0.00044322832908417028 0 0.034864266389035031 -0.00051240099194977675 0 0.034642182214083439 -0.001135208144022456 0 0.034615939720129642 -0.00070843821728431905 0 0.034864266389035031 -0.00051240099194977675 0 0.029927830603841965 0.000518229063521422 0 0.030680749969504109 0.00066970096192084762 0 0.033180328174868857 0.00015530253545572139 0 0.030680749969504109 0.00066970096192084762 0 0.033180328174868857 0.00015530253545572139 0 0.032805014999672394 0.00084218815708008278 0 0.030153210773036117 0.00052093876505642943 0 0.030991081493422147 0.00068015536325123399 0 0.028862892471316941 0.00097307144031336037 0 0.029927830603841965 0.000518229063521422 0 0.02873518265213024 0.001057130993645603 0 0.029927830603841965 0.000518229063521422 0 0.028762229387756886 0.0010384947591598969 0 0.02873518265213024 0.001057130993645603 0 0.028762229387756886 0.0010384947591598969 0 0.02873518265213024 0.001057130993645603 0 0.028908863558808801 0.0011071083217756659 0 0.028399541438217529 0.0010936030807520054 0 0.02873518265213024 0.001057130993645603 0 0.028908863558808801 0.0011071083217756659 0 0.02933141355434038 0.0016381124819890196 0 0.028762229387756886 0.0010384947591598969 0 0.028908863558808801 0.0011071083217756659 0 0.031738099379944061 0.0011863242935784019 0 0.030991081493422147 0.00068015536325123399 0 0.034167114144338248 0.00079312904433520332 0 0.033180328174868857 0.00015530253545572139 0 0.033775112402882265 0.00096253509059317862 0 0.033775112402882265 0.00096253509059317862 0 0.032805014999672394 0.00084218815708008278 0 0.033314761113338059 0.0010773343962810951 0 0.033180328174868857 0.00015530253545572139 0 0.033775112402882265 0.00096253509059317862 0 0.032805014999672394 0.00084218815708008278 0 0.033775112402882265 0.00096253509059317862 0 0.033314761113338059 0.0010773343962810951 0 0.034682581318541204 0.00039161605782084779 0 0.034002456925101968 0.00042510967296319018 0 0.034547009811820857 0.00036386093383128284 0 0.034348234299664604 0.00074242825501707262 0 0.033775112402882265 0.00096253509059317862 0 0.034682581318541204 0.00039161605782084779 0 0.035000004210771644 6.6341271825176545e-07 0 0.034682581318541204 0.00039161605782084779 0 0.034999111036042779 3.8815194015417603e-07 0 0.034348234299664604 0.00074242825501707262 0 0.035000004210771644 6.6341271825176545e-07 0 0.034682581318541204 0.00039161605782084779 0 0.034999111036042779 3.8815194015417603e-07 0 0.034703661089951598 0.00013543771590575842 0 0.034322152590037611 0.00012474297905382551 0 0.034682581318541204 0.00039161605782084779 0 0.034999111036042779 3.8815194015417603e-07 0 0.034703661089951598 0.00013543771590575842 0 0.034703661089951598 0.00013543771590575842 0 0.034709612879662122 -0.00015835570842743794 0 0.034429063152840389 -0.00014031462210678611 0 0.034858572284663415 2.4554983003760164e-05 0 0.034703661089951598 0.00013543771590575842 0 0.034709612879662122 -0.00015835570842743794 0 0.034858572284663415 2.4554983003760164e-05 0 0.034682581318541204 0.00039161605782084779 0 0.034703661089951598 0.00013543771590575842 0 0.030680749969504109 0.00066970096192084762 0 0.032805014999672394 0.00084218815708008278 0 0.033314761113338059 0.0010773343962810951 0 0.034864266389035031 -0.00051240099194977675 0 0.034858572284663415 2.4554983003760164e-05 0 0.034709612879662122 -0.00015835570842743794 0 0.032744781115678245 -6.921510267314958e-06 0 0.034002456925101968 0.00042510967296319018 0 0.034563885565237221 -0.00044322832908417028 0 0.034864266389035031 -0.00051240099194977675 0 0.034709612879662122 -0.00015835570842743794 0 0.034563885565237221 -0.00044322832908417028 0 0.034709612879662122 -0.00015835570842743794 0 0.034429063152840389 -0.00014031462210678611 0 0.034563885565237221 -0.00044322832908417028 0 0.034429063152840389 -0.00014031462210678611 0 0.034209899455142412 -0.00051918979800092476 0 0.034999111036042779 3.8815194015417603e-07 0 0.034997738486460074 1.497759002227295e-07 0 0.034177383392739888 0.00022150311679859771 0 0.034429063152840389 -0.00014031462210678611 0 0.033778228358752403 -0.0003295032748855389 0 0.034209899455142412 -0.00051918979800092476 0 0.034429063152840389 -0.00014031462210678611 0 0.033778228358752403 -0.0003295032748855389 0 0.034322152590037611 0.00012474297905382551 0 0.033778228358752403 -0.0003295032748855389 0 0.034322152590037611 0.00012474297905382551 0 0.033103864295052549 1.7153192033059681e-05 0 0.034322152590037611 0.00012474297905382551 0 0.034177383392739888 0.00022150311679859771 0 0.033103864295052549 1.7153192033059681e-05 0 0.034703661089951598 0.00013543771590575842 0 0.034429063152840389 -0.00014031462210678611 0 0.034322152590037611 0.00012474297905382551 0 0.034999111036042779 3.8815194015417603e-07 0 0.034322152590037611 0.00012474297905382551 0 0.034177383392739888 0.00022150311679859771 0 0.034997738486460074 1.497759002227295e-07 0 0.034177383392739888 0.00022150311679859771 0 0.032351053110613426 1.1914817233500165e-06 0 0.034177383392739888 0.00022150311679859771 0 0.032351053110613426 1.1914817233500165e-06 0 0.033103864295052549 1.7153192033059681e-05 0 0.033778228358752403 -0.0003295032748855389 0 0.033103864295052549 1.7153192033059681e-05 0 0.032533394399199216 -0.00050216789583954857 0 0.033103864295052549 1.7153192033059681e-05 0 0.030353834272003073 -2.8129368681114464e-06 0 0.032533394399199216 -0.00050216789583954857 0 0.032351053110613426 1.1914817233500165e-06 0 0.033103864295052549 1.7153192033059681e-05 0 0.030353834272003073 -2.8129368681114464e-06 0 0.030353834272003073 -2.8129368681114464e-06 0 0.031387441123609749 -0.00098570230637317876 0 0.032533394399199216 -0.00050216789583954857 0 0.030348868996093643 1.6485451866586488e-08 0 0.030037751452564931 -1.8227084343964071e-08 0 0.030002287859663152 -2.1708124376025421e-06 0 0.030350656333444515 -2.6096506553184365e-07 0 0.030839897627081579 -0.00039088339991077785 0 0.030034536964567891 -1.8655179596902186e-06 0 0.028806993623621314 -0.00056706302734669026 0 0.02889330834215879 -9.6154757916686701e-05 0 0.030035767310867371 -3.8766492310191017e-07 0 0.030839897627081579 -0.00039088339991077785 0 0.030034536964567891 -1.8655179596902186e-06 0 0.02889330834215879 -9.6154757916686701e-05 0 0.028790902254268568 1.1740750918509516e-07 0 0.02889330834215879 -9.6154757916686701e-05 0 0.028110944449272948 -0.00012054752198090766 0 0.028790902254268568 1.1740750918509516e-07 0 0.028806993623621314 -0.00056706302734669026 0 0.02889330834215879 -9.6154757916686701e-05 0 0.028110944449272948 -0.00012054752198090766 0 0.028110944449272948 -0.00012054752198090766 0 0.028790902254268568 1.1740750918509516e-07 0 0.027486518499892042 0.00020114513332825153 0 0.030839897627081579 -0.00039088339991077785 0 0.030015144366956861 -0.00062663433030140877 0 0.028806993623621314 -0.00056706302734669026 0 0.028110944449272948 -0.00012054752198090766 0 0.026777984299078409 -0.00028628718235242795 0 0.028110944449272948 -0.00012054752198090766 0 0.026777984299078409 -0.00028628718235242795 0 0.027486518499892042 0.00020114513332825153 0 0.032580184657331875 -0.0006407984151496134 0 0.033358132309551702 -0.0010984945275549207 0 0.033318371369653321 -0.00070295303799679633 0 0.031387441123609749 -0.00098570230637317876 0 0.033187606860252482 -0.0010623587697488794 0 0.032533394399199216 -0.00050216789583954857 0 0.030839897627081579 -0.00039088339991077785 0 0.033451284948546357 -0.00090290411018189394 0 0.033778228358752403 -0.0003295032748855389 0 0.033187606860252482 -0.0010623587697488794 0 0.032533394399199216 -0.00050216789583954857 0 0.033778228358752403 -0.0003295032748855389 0 0.033943154311990992 -0.0008408893288499728 0 0.034209899455142412 -0.00051918979800092476 0 0.033451284948546357 -0.00090290411018189394 0 0.033774653114936888 -0.00085491913788186661 0 0.033778228358752403 -0.0003295032748855389 0 0.033187606860252482 -0.0010623587697488794 0 0.033943154311990992 -0.0008408893288499728 0 0.033358132309551702 -0.0010984945275549207 0 0.033318371369653321 -0.00070295303799679633 0 0.033943154311990992 -0.0008408893288499728 0 0.034392642713657127 -0.00074817696623585904 0 0.033943154311990992 -0.0008408893288499728 0 0.034209899455142412 -0.00051918979800092476 0 0.034392642713657127 -0.00074817696623585904 0 0.033943154311990992 -0.0008408893288499728 0 0.034222469062544704 -0.0010698950815422627 0 0.033943154311990992 -0.0008408893288499728 0 0.034222469062544704 -0.0010698950815422627 0 0.03392933271991224 -0.0013794849663615199 0 0.033358132309551702 -0.0010984945275549207 0 0.033943154311990992 -0.0008408893288499728 0 0.03392933271991224 -0.0013794849663615199 0 0.030015144366956861 -0.00062663433030140877 0 0.029980341010321314 -0.00056382505538438827 0 0.025665007602689333 0.00052234604637397847 0 0.025870251124785151 0.00079020167954658581 0 0.026398133324337554 0.00039884434161857412 0 0.026777984299078409 -0.00028628718235242795 0 0.025665007602689333 0.00052234604637397847 0 0.026398133324337554 0.00039884434161857412 0 0.025665007602689333 0.00052234604637397847 0 0.025675603998578763 0.00097753127892585725 0 0.025870251124785151 0.00079020167954658581 0 0.025870251124785151 0.00079020167954658581 0 0.026419738543602942 0.00059658453341689588 0 0.026398133324337554 0.00039884434161857412 0 0.03437750261953694 -0.0016596725994040037 0 0.034300857389068552 -0.0013305044071003243 0 0.03392933271991224 -0.0013794849663615199 0 0.025847070683532678 0.001350545720008802 0 0.025665007602689333 0.00052234604637397847 0 0.025675603998578763 0.00097753127892585725 0 0.029655853505551021 0.00065065636259781332 0 0.029980341010321314 -0.00056382505538438827 0 0.034300857389068552 -0.0013305044071003243 0 0.034222469062544704 -0.0010698950815422627 0 0.03392933271991224 -0.0013794849663615199 0 0.025847070683532678 0.001350545720008802 0 0.025675603998578763 0.00097753127892585725 0 0.025731024026102462 0.0011487014378851713 0 0.025675603998578763 0.00097753127892585725 0 0.025580999207961717 0.0010188486374766808 0 0.025731024026102462 0.0011487014378851713 0 0.025675603998578763 0.00097753127892585725 0 0.025580999207961717 0.0010188486374766808 0 0.025870251124785151 0.00079020167954658581 0 0.025633797566376307 0.0010199350606149092 0 0.025841595675520974 0.0011403316524919479 0 0.025731024026102462 0.0011487014378851713 0 0.025633797566376307 0.0010199350606149092 0 0.025580999207961717 0.0010188486374766808 0 0.025731024026102462 0.0011487014378851713 0 0.025870251124785151 0.00079020167954658581 0 0.025756292738661327 0.00090042262309253981 0 0.026419738543602942 0.00059658453341689588 0 0.025580999207961717 0.0010188486374766808 0 0.025870251124785151 0.00079020167954658581 0 0.025756292738661327 0.00090042262309253981 0 0.025445191369946281 0.00099045189351014938 0 0.025580999207961717 0.0010188486374766808 0 0.025756292738661327 0.00090042262309253981 0 0.025822282294447208 0.00092638409759411447 0 0.025445191369946281 0.00099045189351014938 0 0.025756292738661327 0.00090042262309253981 0 0.026153618661893172 0.0011659676551514151 0 0.025822282294447208 0.00092638409759411447 0 0.026604219704758573 0.00060572457578764193 0 0.025822282294447208 0.00092638409759411447 0 0.025756292738661327 0.00090042262309253981 0 0.026419738543602942 0.00059658453341689588 0 0.026419738543602942 0.00059658453341689588 0 0.026604219704758573 0.00060572457578764193 0 0.027030553226375962 0.00034444759222340883 0 0.025822282294447208 0.00092638409759411447 0 0.026419738543602942 0.00059658453341689588 0 0.026604219704758573 0.00060572457578764193 0 0.026604219704758573 0.00060572457578764193 0 0.027030553226375962 0.00034444759222340883 0 0.027548996402893086 1.7632605747427249e-06 0 0.025493492905272686 0.00056307504684394757 0 0.027546775815038026 3.2192947747739061e-07 0 0.026153618661893172 0.0011659676551514151 0 0.026604219704758573 0.00060572457578764193 0 0.027548996402893086 1.7632605747427249e-06 0 0.024866120588566375 -5.5141192263025039e-05 0 0.025612345779314306 3.1634611574893884e-07 0 0.027546098957974982 -8.2582474130796272e-07 0 0.028790902254268568 1.1740750918509516e-07 0 0.027548996402893086 1.7632605747427249e-06 0 0.027486518499892042 0.00020114513332825153 0 0.027030553226375962 0.00034444759222340883 0 0.027548996402893086 1.7632605747427249e-06 0 0.027486518499892042 0.00020114513332825153 0 0.026419738543602942 0.00059658453341689588 0 0.027486518499892042 0.00020114513332825153 0 0.026398133324337554 0.00039884434161857412 0 0.026777984299078409 -0.00028628718235242795 0 0.027486518499892042 0.00020114513332825153 0 0.026398133324337554 0.00039884434161857412 0 0.026419738543602942 0.00059658453341689588 0 0.027030553226375962 0.00034444759222340883 0 0.027486518499892042 0.00020114513332825153 0 0.032261202681520218 -0.00060679912930808506 0 0.033068863617728074 -7.1092244874307439e-05 0 0.03191033131568629 3.4479746560716045e-05 0 0.032261202681520218 -0.00060679912930808506 0 0.032985206660723458 -0.00062932258429637309 0 0.032687157404992069 -0.00059240014068660297 0 0.032261202681520218 -0.00060679912930808506 0 0.032530916135096725 -0.00057440151909657052 0 0.032687157404992069 -0.00059240014068660297 0 0.032261202681520218 -0.00060679912930808506 0 0.032530916135096725 -0.00057440151909657052 0 0.032597843300589228 -0.00074221125992479404 0 0.032261202681520218 -0.00060679912930808506 0 0.030522669175829825 -0.00069799912543723529 0 0.03191033131568629 3.4479746560716045e-05 0 0.0321783632126122 -0.00064858649412652544 0 0.031559872382300923 -0.00068996140855635759 0 0.032261202681520218 -0.00060679912930808506 0 0.033068863617728074 -7.1092244874307439e-05 0 0.032985206660723458 -0.00062932258429637309 0 0.033068863617728074 -7.1092244874307439e-05 0 0.032880062430914014 0.00015922799328229085 0 0.032877662737902422 7.2410650291155986e-05 0 0.033068863617728074 -7.1092244874307439e-05 0 0.03345783756932319 -0.0005394628696564779 0 0.033883369643111783 -0.00029351389157515194 0 0.033068863617728074 -7.1092244874307439e-05 0 0.032985206660723458 -0.00062932258429637309 0 0.03345783756932319 -0.0005394628696564779 0 0.032985206660723458 -0.00062932258429637309 0 0.03345783756932319 -0.0005394628696564779 0 0.033455014455258697 -0.00073459487889946501 0 0.03345783756932319 -0.0005394628696564779 0 0.033699461284731794 -0.0006478003991147711 0 0.033806323988691815 -0.00055968834776798631 0 0.033699461284731794 -0.0006478003991147711 0 0.033916619606273818 -0.000615960491746988 0 0.033900048017428602 -0.00065133467509815028 0 0.03345783756932319 -0.0005394628696564779 0 0.033699461284731794 -0.0006478003991147711 0 0.033455014455258697 -0.00073459487889946501 0 0.033699461284731794 -0.0006478003991147711 0 0.033455014455258697 -0.00073459487889946501 0 0.033900048017428602 -0.00065133467509815028 0 0.033455014455258697 -0.00073459487889946501 0 0.033218104225493081 -0.00082674772295245882 0 0.033655168336276957 -0.00071519814934643973 0 0.032985206660723458 -0.00062932258429637309 0 0.033218104225493081 -0.00082674772295245882 0 0.032687157404992069 -0.00059240014068660297 0 0.032985206660723458 -0.00062932258429637309 0 0.033455014455258697 -0.00073459487889946501 0 0.033218104225493081 -0.00082674772295245882 0 0.032530916135096725 -0.00057440151909657052 0 0.032687157404992069 -0.00059240014068660297 0 0.032528705834153453 -0.00060008471511506479 0 0.033218104225493081 -0.00082674772295245882 0 0.032687157404992069 -0.00059240014068660297 0 0.032657529840078983 -0.0008575570309524729 0 0.032687157404992069 -0.00059240014068660297 0 0.032657529840078983 -0.0008575570309524729 0 0.032528705834153453 -0.00060008471511506479 0 0.033218104225493081 -0.00082674772295245882 0 0.03385138329706408 -0.00095490455711974543 0 0.033655168336276957 -0.00071519814934643973 0 0.033256940741132682 -0.00084982719975716854 0 0.033264885518782095 -0.00087891594369129966 0 0.03385138329706408 -0.00095490455711974543 0 0.033999782216148307 -0.00078366594741872617 0 0.033655168336276957 -0.00071519814934643973 0 0.03385138329706408 -0.00095490455711974543 0 0.033999782216148307 -0.00078366594741872617 0 0.034189388662308584 -0.00092811460193948031 0 0.032657529840078983 -0.0008575570309524729 0 0.032367729953367078 -0.00090666655207695466 0 0.032528705834153453 -0.00060008471511506479 0 0.033264885518782095 -0.00087891594369129966 0 0.033201673469769988 -0.00055702919053607716 0 0.033201673469769988 -0.00055702919053607716 0 0.033180350788693636 -0.00029754190448063542 0 0.033537046592666833 -0.00027156359462760557 0 0.033622473669608723 -0.00021967892908829711 0 0.033652371310876804 -0.00024382253182563736 0 0.032596526228659245 -0.00040495858169800966 0 0.032777707482027262 -0.00035150336136218385 0 0.032691397327450772 -0.00049455990239623108 0 0.033537046592666833 -0.00027156359462760557 0 0.033622473669608723 -0.00021967892908829711 0 0.033616363043443433 -0.00018150467117469173 0 0.033622473669608723 -0.00021967892908829711 0 0.033652371310876804 -0.00024382253182563736 0 0.033681589909197257 -0.00019323832003592773 0 0.032777707482027262 -0.00035150336136218385 0 0.032691397327450772 -0.00049455990239623108 0 0.032795304217284167 -0.00046276808799289196 0 0.032691397327450772 -0.00049455990239623108 0 0.032607497916681639 -0.00059763652686849525 0 0.032761563120633309 -0.00059536712313306372 0 0.032691397327450772 -0.00049455990239623108 0 0.032795304217284167 -0.00046276808799289196 0 0.032761563120633309 -0.00059536712313306372 0 0.032596526228659245 -0.00040495858169800966 0 0.032691397327450772 -0.00049455990239623108 0 0.032528705834153453 -0.00060008471511506479 0 0.032691397327450772 -0.00049455990239623108 0 0.032528705834153453 -0.00060008471511506479 0 0.032607497916681639 -0.00059763652686849525 0 0.032530916135096725 -0.00057440151909657052 0 0.032528705834153453 -0.00060008471511506479 0 0.032607497916681639 -0.00059763652686849525 0 0.033201673469769988 -0.00055702919053607716 0 0.032480250497923281 -0.00073051432505043354 0 0.032945701681949831 -0.00031285531094078209 0 0.032889293614095969 -0.00046347425258332601 0 0.033052557101027211 -0.00048888052670470136 0 0.033447234660222203 -0.00022901024950329823 0 0.033331086186786901 -0.00057453761481182132 0 0.033723829617577125 -0.00040201597181094463 0 0.033479767276216009 -0.00026820447939542946 0 0.033865675496257804 -0.00020317155130525837 0 0.033723829617577125 -0.00040201597181094463 0 0.033479767276216009 -0.00026820447939542946 0 0.033667786560798559 -0.00065063598973955539 0 0.033180350788693636 -0.00029754190448063542 0 0.033447234660222203 -0.00022901024950329823 0 0.033652371310876804 -0.00024382253182563736 0 0.033760464548752242 -0.00021557901841164653 0 0.033681589909197257 -0.00019323832003592773 0 0.032945701681949831 -0.00031285531094078209 0 0.032854068443214701 -0.00039216234995528745 0 0.032889293614095969 -0.00046347425258332601 0 0.032777707482027262 -0.00035150336136218385 0 0.032945701681949831 -0.00031285531094078209 0 0.032854068443214701 -0.00039216234995528745 0 0.032795304217284167 -0.00046276808799289196 0 0.032854068443214701 -0.00039216234995528745 0 0.032889293614095969 -0.00046347425258332601 0 0.032777707482027262 -0.00035150336136218385 0 0.032795304217284167 -0.00046276808799289196 0 0.032854068443214701 -0.00039216234995528745 0 0.032795304217284167 -0.00046276808799289196 0 0.032889293614095969 -0.00046347425258332601 0 0.032761563120633309 -0.00059536712313306372 0 0.032889293614095969 -0.00046347425258332601 0 0.033052557101027211 -0.00048888052670470136 0 0.032956570951258278 -0.00065578404102249516 0 0.033052557101027211 -0.00048888052670470136 0 0.0330791564717446 -0.0006314451671077389 0 0.032956570951258278 -0.00065578404102249516 0 0.0330791564717446 -0.0006314451671077389 0 0.032956570951258278 -0.00065578404102249516 0 0.033068947506847558 -0.00072659608179619604 0 0.0330791564717446 -0.0006314451671077389 0 0.033068947506847558 -0.00072659608179619604 0 0.033124835630666156 -0.00067599547834064344 0 0.032956570951258278 -0.00065578404102249516 0 0.032784085605457952 -0.00079814232296403296 0 0.032761563120633309 -0.00059536712313306372 0 0.032889293614095969 -0.00046347425258332601 0 0.032956570951258278 -0.00065578404102249516 0 0.032761563120633309 -0.00059536712313306372 0 0.032956570951258278 -0.00065578404102249516 0 0.032784085605457952 -0.00079814232296403296 0 0.033022901834972557 -0.00086832659791996115 0 0.031010819734890508 -0.00062241096917194745 0 0.030600001392650362 -0.00048979149703444035 0 0.032956570951258278 -0.00065578404102249516 0 0.033068947506847558 -0.00072659608179619604 0 0.033022901834972557 -0.00086832659791996115 0 0.033068947506847558 -0.00072659608179619604 0 0.033022901834972557 -0.00086832659791996115 0 0.033224353217918862 -0.00079530428971615595 0 0.032530916135096725 -0.00057440151909657052 0 0.032607497916681639 -0.00059763652686849525 0 0.032597843300589228 -0.00074221125992479404 0 0.032607497916681639 -0.00059763652686849525 0 0.032761563120633309 -0.00059536712313306372 0 0.032597843300589228 -0.00074221125992479404 0 0.031010819734890508 -0.00062241096917194745 0 0.031559872382300923 -0.00068996140855635759 0 0.032784085605457952 -0.00079814232296403296 0 0.032761563120633309 -0.00059536712313306372 0 0.032597843300589228 -0.00074221125992479404 0 0.029211485748728179 -0.00044894776485707193 0 0.030522669175829825 -0.00069799912543723529 0 0.03026670502982266 0.00019030668336966292 0 0.029211485748728179 -0.00044894776485707193 0 0.03026670502982266 0.00019030668336966292 0 0.029308275140893795 0.00053836548904814504 0 0.03026670502982266 0.00019030668336966292 0 0.029308275140893795 0.00053836548904814504 0 0.029903904843270272 0.00089249568945352009 0 0.029308275140893795 0.00053836548904814504 0 0.029903904843270272 0.00089249568945352009 0 0.029297778704543677 0.0010486161084359603 0 0.029903904843270272 0.00089249568945352009 0 0.03030164084743418 0.0012349095878987615 0 0.030960234771706608 0.00066639767575764764 0 0.03026670502982266 0.00019030668336966292 0 0.029903904843270272 0.00089249568945352009 0 0.030960234771706608 0.00066639767575764764 0 0.028249842554082468 -0.00012985330313097671 0 0.028652658364278778 0.00034056175932131207 0 0.028105773362839002 0.00035200053136780744 0 0.028249842554082468 -0.00012985330313097671 0 0.028105773362839002 0.00035200053136780744 0 0.027912349970988817 0.00023823704978746346 0 0.029211485748728179 -0.00044894776485707193 0 0.029308275140893795 0.00053836548904814504 0 0.028652658364278778 0.00034056175932131207 0 0.029211485748728179 -0.00044894776485707193 0 0.028249842554082468 -0.00012985330313097671 0 0.028652658364278778 0.00034056175932131207 0 0.029308275140893795 0.00053836548904814504 0 0.028652658364278778 0.00034056175932131207 0 0.028764213692645334 0.00094058935731094757 0 0.028652658364278778 0.00034056175932131207 0 0.02836776268508065 0.00064164896721405275 0 0.028764213692645334 0.00094058935731094757 0 0.029308275140893795 0.00053836548904814504 0 0.028764213692645334 0.00094058935731094757 0 0.029297778704543677 0.0010486161084359603 0 0.028652658364278778 0.00034056175932131207 0 0.02836776268508065 0.00064164896721405275 0 0.028105773362839002 0.00035200053136780744 0 0.02836776268508065 0.00064164896721405275 0 0.027983870394022406 0.00063341620381805719 0 0.028105773362839002 0.00035200053136780744 0 0.02836776268508065 0.00064164896721405275 0 0.027983870394022406 0.00063341620381805719 0 0.028345864959257058 0.00098110946009499398 0 0.027983870394022406 0.00063341620381805719 0 0.028345864959257058 0.00098110946009499398 0 0.028024590934597863 0.00139272186602165 0 0.027955087554190201 0.0006685173850483943 0 0.027880445030281437 0.00082215514069949348 0 0.02836776268508065 0.00064164896721405275 0 0.028345864959257058 0.00098110946009499398 0 0.028764213692645334 0.00094058935731094757 0 0.028345864959257058 0.00098110946009499398 0 0.028520269833800998 0.0012885232274772083 0 0.028024590934597863 0.00139272186602165 0 0.028520269833800998 0.0012885232274772083 0 0.028764213692645334 0.00094058935731094757 0 0.028954385598965779 0.0014010169021846674 0 0.028345864959257058 0.00098110946009499398 0 0.028520269833800998 0.0012885232274772083 0 0.028764213692645334 0.00094058935731094757 0 0.028764213692645334 0.00094058935731094757 0 0.028954385598965779 0.0014010169021846674 0 0.029297778704543677 0.0010486161084359603 0 0.028954385598965779 0.0014010169021846674 0 0.028812367468888083 0.0017283926609247798 0 0.028567911626929923 0.0015612339774916609 0 0.028389401136029804 0.0018373967829668025 0 0.028812367468888083 0.0017283926609247798 0 0.028567911626929923 0.0015612339774916609 0 0.028520269833800998 0.0012885232274772083 0 0.028954385598965779 0.0014010169021846674 0 0.028567911626929923 0.0015612339774916609 0 0.027962943912429584 0.0012771110913996149 0 0.027880445030281437 0.00082215514069949348 0 0.028014304496242405 0.0019562374831645097 0 0.028305033603939073 0.0016093761146923904 0 0.028024590934597863 0.00139272186602165 0 0.028520269833800998 0.0012885232274772083 0 0.028305033603939073 0.0016093761146923904 0 0.028024590934597863 0.00139272186602165 0 0.028520269833800998 0.0012885232274772083 0 0.028567911626929923 0.0015612339774916609 0 0.028305033603939073 0.0016093761146923904 0 0.028389401136029804 0.0018373967829668025 0 0.028567911626929923 0.0015612339774916609 0 0.028305033603939073 0.0016093761146923904 0 0.029572377425426 0.0014026730016531584 0 0.029907854994780141 0.0015807818984369087 0 0.03030164084743418 0.0012349095878987615 0 0.029903904843270272 0.00089249568945352009 0 0.029572377425426 0.0014026730016531584 0 0.03030164084743418 0.0012349095878987615 0 0.028954385598965779 0.0014010169021846674 0 0.029572377425426 0.0014026730016531584 0 0.029297778704543677 0.0010486161084359603 0 0.029903904843270272 0.00089249568945352009 0 0.029572377425426 0.0014026730016531584 0 0.029297778704543677 0.0010486161084359603 0 0.028954385598965779 0.0014010169021846674 0 0.029572377425426 0.0014026730016531584 0 0.029194868339332592 0.0016958987043451963 0 0.029506797727039895 0.0019364430490181981 0 0.029572377425426 0.0014026730016531584 0 0.029194868339332592 0.0016958987043451963 0 0.028954385598965779 0.0014010169021846674 0 0.028812367468888083 0.0017283926609247798 0 0.029194868339332592 0.0016958987043451963 0 0.029506797727039895 0.0019364430490181981 0 0.029572377425426 0.0014026730016531584 0 0.029907854994780141 0.0015807818984369087 0 0.029506797727039895 0.0019364430490181981 0 0.029907854994780141 0.0015807818984369087 0 0.029880395487988654 0.0018530125693404155 0 0.029907854994780141 0.0015807818984369087 0 0.029880395487988654 0.0018530125693404155 0 0.03023960057047155 0.0015570615360536325 0 0.030026631959279196 0.001987603391771287 0 0.03023960057047155 0.0015570615360536325 0 0.030522132016551008 0.0016719010438308009 0 0.030026631959279196 0.001987603391771287 0 0.029880395487988654 0.0018530125693404155 0 0.03023960057047155 0.0015570615360536325 0 0.029907854994780141 0.0015807818984369087 0 0.03023960057047155 0.0015570615360536325 0 0.03030164084743418 0.0012349095878987615 0 0.031186889269214917 0.0020544647933194984 0 0.030522132016551008 0.0016719010438308009 0 0.030656721892582815 0.0013354673275230648 0 0.030710466992497187 0.0020311245682740533 0 0.030026631959279196 0.001987603391771287 0 0.030522132016551008 0.0016719010438308009 0 0.03023960057047155 0.0015570615360536325 0 0.030522132016551008 0.0016719010438308009 0 0.030656721892582815 0.0013354673275230648 0 0.031509935925891762 0.0011306037471002501 0 0.030855667495255621 0.00067835608797175344 0 0.031905666755573756 0.0011852348120182531 0 0.030960234771706608 0.00066639767575764764 0 0.032191162774953791 0.00085088870803926259 0 0.030656721892582815 0.0013354673275230648 0 0.03030164084743418 0.0012349095878987615 0 0.030960234771706608 0.00066639767575764764 0 0.03023960057047155 0.0015570615360536325 0 0.030656721892582815 0.0013354673275230648 0 0.03030164084743418 0.0012349095878987615 0 0.030960234771706608 0.00066639767575764764 0 0.032390357802572545 0.00032856314066089502 0 0.032191162774953791 0.00085088870803926259 0 0.030960234771706608 0.00066639767575764764 0 0.03191033131568629 3.4479746560716045e-05 0 0.032390357802572545 0.00032856314066089502 0 0.030522669175829825 -0.00069799912543723529 0 0.03026670502982266 0.00019030668336966292 0 0.03191033131568629 3.4479746560716045e-05 0 0.03026670502982266 0.00019030668336966292 0 0.030960234771706608 0.00066639767575764764 0 0.03191033131568629 3.4479746560716045e-05 0 0.033068863617728074 -7.1092244874307439e-05 0 0.03191033131568629 3.4479746560716045e-05 0 0.032390357802572545 0.00032856314066089502 0 0.033068863617728074 -7.1092244874307439e-05 0 0.032880062430914014 0.00015922799328229085 0 0.032390357802572545 0.00032856314066089502 0 0.032880062430914014 0.00015922799328229085 0 0.032390357802572545 0.00032856314066089502 0 0.032595537426135635 0.00056995522224245634 0 0.032390357802572545 0.00032856314066089502 0 0.032595537426135635 0.00056995522224245634 0 0.032191162774953791 0.00085088870803926259 0 0.032595537426135635 0.00056995522224245634 0 0.032473075519419185 0.00089297781359434271 0 0.032191162774953791 0.00085088870803926259 0 0.032880062430914014 0.00015922799328229085 0 0.032595537426135635 0.00056995522224245634 0 0.032814957332722293 0.00054682661583788019 0 0.032595537426135635 0.00056995522224245634 0 0.032708272013286917 0.00082393256599468372 0 0.032814957332722293 0.00054682661583788019 0 0.032473075519419185 0.00089297781359434271 0 0.032677853183470051 0.0010561793220931035 0 0.032500132358556998 0.0012279374677835464 0 0.032595537426135635 0.00056995522224245634 0 0.032708272013286917 0.00082393256599468372 0 0.032473075519419185 0.00089297781359434271 0 0.032708272013286917 0.00082393256599468372 0 0.032473075519419185 0.00089297781359434271 0 0.032677853183470051 0.0010561793220931035 0 0.032473075519419185 0.00089297781359434271 0 0.032191162774953791 0.00085088870803926259 0 0.032219326058333296 0.0012701429835373713 0 0.031905666755573756 0.0011852348120182531 0 0.032191162774953791 0.00085088870803926259 0 0.032219326058333296 0.0012701429835373713 0 0.032416078643023385 0.0014851004608464292 0 0.032282591545495683 0.0014723047796828613 0 0.032219326058333296 0.0012701429835373713 0 0.032282591545495683 0.0014723047796828613 0 0.031905666755573756 0.0011852348120182531 0 0.032219326058333296 0.0012701429835373713 0 0.030216954486619173 0.0025841812558903983 0 0.031509935925891762 0.0011306037471002501 0 0.032536847711618813 0.0014810906708474817 0 0.032219326058333296 0.0012701429835373713 0 0.032500132358556998 0.0012279374677835464 0 0.028299874287752557 0.0014154867252812767 0 0.033397014977117181 0.0018171230832323448 0 0.032473075519419185 0.00089297781359434271 0 0.032219326058333296 0.0012701429835373713 0 0.032500132358556998 0.0012279374677835464 0 0.032677853183470051 0.0010561793220931035 0 0.032500132358556998 0.0012279374677835464 0 0.03269408103872444 0.0012365964261224819 0 0.032536847711618813 0.0014810906708474817 0 0.032500132358556998 0.0012279374677835464 0 0.03269408103872444 0.0012365964261224819 0 0.032708497513781506 0.0014876700134089827 0 0.03269408103872444 0.0012365964261224819 0 0.033046392919891289 0.00091529995371714449 0 0.02334686048281354 -0.0025344977121891732 0 0.027239828518597901 -0.0020200255424039442 0 0.020981486470581272 -0.0057255622001484985 0 0.021499235876079683 -0.0056745934130755828 0 0.020934720010725036 -0.0046101758575088506 0 0.032677853183470051 0.0010561793220931035 0 0.03269408103872444 0.0012365964261224819 0 0.033046392919891289 0.00091529995371714449 0 0.032708272013286917 0.00082393256599468372 0 0.033046392919891289 0.00091529995371714449 0 0.032814957332722293 0.00054682661583788019 0 0.032708272013286917 0.00082393256599468372 0 0.032677853183470051 0.0010561793220931035 0 0.033046392919891289 0.00091529995371714449 0 0.020934720010725036 -0.0046101758575088506 0 0.020265377801099063 -0.0043597819860409174 0 0.020359105481087356 -0.0034779725091632174 0 0.020934720010725036 -0.0046101758575088506 0 0.02027012856595066 -0.0051169808449361221 0 0.020265377801099063 -0.0043597819860409174 0 0.020981486470581272 -0.0057255622001484985 0 0.020934720010725036 -0.0046101758575088506 0 0.02027012856595066 -0.0051169808449361221 0 0.019790294028118213 -0.0058649509918442125 0 0.02027012856595066 -0.0051169808449361221 0 0.019459612792535746 -0.0052056212061896293 0 0.02027012856595066 -0.0051169808449361221 0 0.019459612792535746 -0.0052056212061896293 0 0.01974679492579394 -0.0046220672990274951 0 0.019459612792535746 -0.0052056212061896293 0 0.01974679492579394 -0.0046220672990274951 0 0.018821201156803202 -0.0046818760165547564 0 0.018586126779223475 -0.006039783939335657 0 0.019459612792535746 -0.0052056212061896293 0 0.018821201156803202 -0.0046818760165547564 0 0.01974679492579394 -0.0046220672990274951 0 0.019494803244486308 -0.0040820363956662279 0 0.018821201156803202 -0.0046818760165547564 0 0.019494803244486308 -0.0040820363956662279 0 0.018821201156803202 -0.0046818760165547564 0 0.018884120535044853 -0.0037419964848786689 0 0.02027012856595066 -0.0051169808449361221 0 0.01974679492579394 -0.0046220672990274951 0 0.020265377801099063 -0.0043597819860409174 0 0.01974679492579394 -0.0046220672990274951 0 0.020018989972491259 -0.0039596271936643314 0 0.019494803244486308 -0.0040820363956662279 0 0.01974679492579394 -0.0046220672990274951 0 0.020265377801099063 -0.0043597819860409174 0 0.020018989972491259 -0.0039596271936643314 0 0.020265377801099063 -0.0043597819860409174 0 0.020018989972491259 -0.0039596271936643314 0 0.020359105481087356 -0.0034779725091632174 0 0.020018989972491259 -0.0039596271936643314 0 0.019494803244486308 -0.0040820363956662279 0 0.020017685041572197 -0.0033846167315220339 0 0.0291012658643129 -0.00043256975588893369 0 0.025131734818930496 -0.0017490314695199525 0 0.020018989972491259 -0.0039596271936643314 0 0.020359105481087356 -0.0034779725091632174 0 0.020017685041572197 -0.0033846167315220339 0 0.019494803244486308 -0.0040820363956662279 0 0.020017685041572197 -0.0033846167315220339 0 0.018884120535044853 -0.0037419964848786689 0 0.025131734818930496 -0.0017490314695199525 0 0.018528124128347163 -0.0039500035827390312 0 0.031341343308286446 0.00033808349335498966 0 0.031301545010826375 0.00030921275435315395 0 0.031346787837109209 0.00035531642759536563 0 0.02237427574380731 -0.0028554025165776144 0 0.020023265713378174 -0.003575149552536279 0 0.019870539597372294 -0.0022646459353683349 0 0.031341343308286446 0.00033808349335498966 0 0.03133074976900721 0.00032983177627256391 0 0.031301545010826375 0.00030921275435315395 0 0.025131734818930496 -0.0017490314695199525 0 0.026031793143035969 -0.0009769942050361761 0 0.031341343308286446 0.00033808349335498966 0 0.031374982231776746 0.00036321062090362185 0 0.031346787837109209 0.00035531642759536563 0 0.031341343308286446 0.00033808349335498966 0 0.031333659095700996 0.00032881812119459785 0 0.031374982231776746 0.00036321062090362185 0 0.03074743899622507 -0.00013824960418086084 0 0.031911078459579606 0.00016588520527774028 0 0.032506070291698129 -0.0002125472351557457 0 0.032621018880756518 3.991015307783951e-05 0 0.032271177548758183 2.7200717911596094e-05 0 0.0291012658643129 -0.00043256975588893369 0 0.03074743899622507 -0.00013824960418086084 0 0.03074743899622507 -0.00013824960418086084 0 0.025131734818930496 -0.0017490314695199525 0 0.029125245843070934 -0.0015956280104983511 0 0.028655789590218157 -0.00079523377403946144 0 0.02748642761622451 -0.0011664382010590953 0 0.031341343308286446 0.00033808349335498966 0 0.031333659095700996 0.00032881812119459785 0 0.03133074976900721 0.00032983177627256391 0 0.03074743899622507 -0.00013824960418086084 0 0.033686279561997566 0.0002225697321537091 0 0.033236838527959285 0.00026152292644583648 0 0.033272722297677179 0.00019381696458342957 0 0.032905329642929311 6.6601053059293878e-05 0 0.033236838527959285 0.00026152292644583648 0 0.032905329642929311 6.6601053059293878e-05 0 0.033005660250806132 0.00033839957536772192 0 0.032506070291698129 -0.0002125472351557457 0 0.032905329642929311 6.6601053059293878e-05 0 0.032621018880756518 3.991015307783951e-05 0 0.032880062430914014 0.00015922799328229085 0 0.032905329642929311 6.6601053059293878e-05 0 0.032877662737902422 7.2410650291155986e-05 0 0.032880062430914014 0.00015922799328229085 0 0.032905329642929311 6.6601053059293878e-05 0 0.032898539414052831 0.00026621290087096847 0 0.032905329642929311 6.6601053059293878e-05 0 0.032898539414052831 0.00026621290087096847 0 0.033005660250806132 0.00033839957536772192 0 0.032898539414052831 0.00026621290087096847 0 0.032814957332722293 0.00054682661583788019 0 0.033005660250806132 0.00033839957536772192 0 0.032880062430914014 0.00015922799328229085 0 0.032898539414052831 0.00026621290087096847 0 0.032814957332722293 0.00054682661583788019 0 0.033046392919891289 0.00091529995371714449 0 0.032814957332722293 0.00054682661583788019 0 0.033024352850702085 0.00052118717645288041 0 0.032638784108409452 0.00056827374290909644 0 0.033586303641232093 0.0002318767870727279 0 0.027239828518597901 -0.0020200255424039442 0 0.0291012658643129 -0.00043256975588893369 0 0.033046392919891289 0.00091529995371714449 0 0.033239467943629614 0.00043975640743507669 0 0.033024352850702085 0.00052118717645288041 0 0.0291012658643129 -0.00043256975588893369 0 0.033586303641232093 0.0002318767870727279 0 0.015688753123022744 -0.0042253565135811563 0 0.016338721298335673 -0.0052708512076964538 0 0.016783570956521127 -0.0040947253726751186 0 0.017248660706936328 -0.0062794134378520317 0 0.016338721298335673 -0.0052708512076964538 0 0.017667071462867379 -0.0050765406683917508 0 0.016338721298335673 -0.0052708512076964538 0 0.016783570956521127 -0.0040947253726751186 0 0.017667071462867379 -0.0050765406683917508 0 0.016783570956521127 -0.0040947253726751186 0 0.017667071462867379 -0.0050765406683917508 0 0.017861254886592674 -0.0040175378315477437 0 0.017667071462867379 -0.0050765406683917508 0 0.018821201156803202 -0.0046818760165547564 0 0.017861254886592674 -0.0040175378315477437 0 0.018586126779223475 -0.006039783939335657 0 0.017667071462867379 -0.0050765406683917508 0 0.018821201156803202 -0.0046818760165547564 0 0.018821201156803202 -0.0046818760165547564 0 0.018884120535044853 -0.0037419964848786689 0 0.017861254886592674 -0.0040175378315477437 0 0.018528124128347163 -0.0039500035827390312 0 0.018352146408222438 -0.0038890140164310784 0 0.020023265713378174 -0.003575149552536279 0 0.019870539597372294 -0.0022646459353683349 0 0.018569522727158783 -0.0029419410238996028 0 0.031301545010826375 0.00030921275435315395 0 0.031115814738575373 0.00028869855526522371 0 0.031233027512794893 0.00036340485690240006 0 0.017785802694943332 -0.0019234208364082455 0 0.018569522727158783 -0.0029419410238996028 0 0.017364382880319496 -0.0030830627462989416 0 0.019870539597372294 -0.0022646459353683349 0 0.017785802694943332 -0.0019234208364082455 0 0.018569522727158783 -0.0029419410238996028 0 0.026031793143035969 -0.0009769942050361761 0 0.024022482770953459 -0.00077538594668618058 0 0.018569522727158783 -0.0029419410238996028 0 0.017861254886592674 -0.0040175378315477437 0 0.017364382880319496 -0.0030830627462989416 0 0.020023265713378174 -0.003575149552536279 0 0.018569522727158783 -0.0029419410238996028 0 0.017861254886592674 -0.0040175378315477437 0 0.016783570956521127 -0.0040947253726751186 0 0.017364382880319496 -0.0030830627462989416 0 0.016250843030761762 -0.0032080592316176856 0 0.016783570956521127 -0.0040947253726751186 0 0.017861254886592674 -0.0040175378315477437 0 0.017364382880319496 -0.0030830627462989416 0 0.017785802694943332 -0.0019234208364082455 0 0.016769114590887549 -0.0023856919126872206 0 0.016158943040783611 -0.0015792096210854607 0 0.017785802694943332 -0.0019234208364082455 0 0.017364382880319496 -0.0030830627462989416 0 0.016769114590887549 -0.0023856919126872206 0 0.017364382880319496 -0.0030830627462989416 0 0.016769114590887549 -0.0023856919126872206 0 0.016250843030761762 -0.0032080592316176856 0 0.016769114590887549 -0.0023856919126872206 0 0.015816304095588311 -0.0025568754906440936 0 0.016250843030761762 -0.0032080592316176856 0 0.016769114590887549 -0.0023856919126872206 0 0.015816304095588311 -0.0025568754906440936 0 0.016158943040783611 -0.0015792096210854607 0 0.015688753123022744 -0.0042253565135811563 0 0.016783570956521127 -0.0040947253726751186 0 0.016250843030761762 -0.0032080592316176856 0 0.015247039592739509 -0.0032859848090261629 0 0.015816304095588311 -0.0025568754906440936 0 0.016250843030761762 -0.0032080592316176856 0 0.031142936559609695 0.00049692741189344869 0 0.03070536197912923 0.00064025907062205856 0 0.030906501633140626 0.00056089501029558259 0 0.029416577515878353 0.00057287218569865544 0 0.030634210807973922 0.00063574046459839327 0 0.031044236938727706 0.00051954843626801151 0 0.030906501633140626 0.00056089501029558259 0 0.031027032694795811 0.00055147222041428969 0 0.030906501633140626 0.00056089501029558259 0 0.030982906756097019 0.00060459656149565097 0 0.031027032694795811 0.00055147222041428969 0 0.030906501633140626 0.00056089501029558259 0 0.030888938790236319 0.00059986806300980011 0 0.030982906756097019 0.00060459656149565097 0 0.03070536197912923 0.00064025907062205856 0 0.030906501633140626 0.00056089501029558259 0 0.030888938790236319 0.00059986806300980011 0 0.02844043603985685 -9.13367177265541e-05 0 0.03070536197912923 0.00064025907062205856 0 0.029647262726508635 -0.00046235325938937547 0 0.029024711599015922 -0.00073896381898214407 0 0.025127742565498264 -0.00057425827108844674 0 0.03070536197912923 0.00064025907062205856 0 0.029647262726508635 -0.00046235325938937547 0 0.031021465390149921 0.00042919302370484686 0 0.025127742565498264 -0.00057425827108844674 0 0.032240559924651156 0.0011339447635267338 0 0.031115814738575373 0.00028869855526522371 0 0.030770300238965417 0.00031289658914480364 0 0.031074213668561699 0.00038069015513048717 0 0.024022482770953459 -0.00077538594668618058 0 0.025127742565498264 -0.00057425827108844674 0 0.030770300238965417 0.00031289658914480364 0 0.031021465390149921 0.00042919302370484686 0 0.031074213668561699 0.00038069015513048717 0 0.031021465390149921 0.00042919302370484686 0 0.031074213668561699 0.00038069015513048717 0 0.031137160826098655 0.00047967787347102567 0 0.030982332066093021 0.00057677882668392901 0 0.031054302577202226 0.00060611505803768952 0 0.031137160826098655 0.00047967787347102567 0 0.031021465390149921 0.00042919302370484686 0 0.030982332066093021 0.00057677882668392901 0 0.031137160826098655 0.00047967787347102567 0 0.03070536197912923 0.00064025907062205856 0 0.031021465390149921 0.00042919302370484686 0 0.030982332066093021 0.00057677882668392901 0 0.03070536197912923 0.00064025907062205856 0 0.030982332066093021 0.00057677882668392901 0 0.030888938790236319 0.00059986806300980011 0 0.030982332066093021 0.00057677882668392901 0 0.030888938790236319 0.00059986806300980011 0 0.031054302577202226 0.00060611505803768952 0 0.030888938790236319 0.00059986806300980011 0 0.031054302577202226 0.00060611505803768952 0 0.030982906756097019 0.00060459656149565097 0 0.031054302577202226 0.00060611505803768952 0 0.031219943959188052 0.00056748626254383408 0 0.031137160826098655 0.00047967787347102567 0 0.031219943959188052 0.00056748626254383408 0 0.03126591991704776 0.00046420513125970149 0 0.0313725194390162 0.0005254768916778239 0 0.031219943959188052 0.00056748626254383408 0 0.03126591991704776 0.00046420513125970149 0 0.031137160826098655 0.00047967787347102567 0 0.031074213668561699 0.00038069015513048717 0 0.031137160826098655 0.00047967787347102567 0 0.031233027512794893 0.00036340485690240006 0 0.031115814738575373 0.00028869855526522371 0 0.031074213668561699 0.00038069015513048717 0 0.031233027512794893 0.00036340485690240006 0 0.03126591991704776 0.00046420513125970149 0 0.031137160826098655 0.00047967787347102567 0 0.031233027512794893 0.00036340485690240006 0 0.031301545010826375 0.00030921275435315395 0 0.031233027512794893 0.00036340485690240006 0 0.031332823766931091 0.00040340431376429845 0 0.031301545010826375 0.00030921275435315395 0 0.031332823766931091 0.00040340431376429845 0 0.031346787837109209 0.00035531642759536563 0 0.03126591991704776 0.00046420513125970149 0 0.031233027512794893 0.00036340485690240006 0 0.031332823766931091 0.00040340431376429845 0 0.031332823766931091 0.00040340431376429845 0 0.0313725194390162 0.0005254768916778239 0 0.031429983855928746 0.00046930355366791676 0 0.03126591991704776 0.00046420513125970149 0 0.031332823766931091 0.00040340431376429845 0 0.0313725194390162 0.0005254768916778239 0 0.0313725194390162 0.0005254768916778239 0 0.031527535658823318 0.0006422827373811417 0 0.031429983855928746 0.00046930355366791676 0 0.0313725194390162 0.0005254768916778239 0 0.031527535658823318 0.0006422827373811417 0 0.031310594016955705 0.00065179430128524515 0 0.031527535658823318 0.0006422827373811417 0 0.031378894643606672 0.00078367696409430599 0 0.031310594016955705 0.00065179430128524515 0 0.031378894643606672 0.00078367696409430599 0 0.03167163584468588 0.00091530329741274245 0 0.031312548699576406 0.00090535777767450636 0 0.031527535658823318 0.0006422827373811417 0 0.031378894643606672 0.00078367696409430599 0 0.03167163584468588 0.00091530329741274245 0 0.031378894643606672 0.00078367696409430599 0 0.031250471483189005 0.00075486608952016058 0 0.031312548699576406 0.00090535777767450636 0 0.031250471483189005 0.00075486608952016058 0 0.031202964220239871 0.00077520289636753966 0 0.031312548699576406 0.00090535777767450636 0 0.031250471483189005 0.00075486608952016058 0 0.031310594016955705 0.00065179430128524515 0 0.031170753831321698 0.00065643311705107792 0 0.031378894643606672 0.00078367696409430599 0 0.031250471483189005 0.00075486608952016058 0 0.031310594016955705 0.00065179430128524515 0 0.031219943959188052 0.00056748626254383408 0 0.0313725194390162 0.0005254768916778239 0 0.031310594016955705 0.00065179430128524515 0 0.031219943959188052 0.00056748626254383408 0 0.031310594016955705 0.00065179430128524515 0 0.031170753831321698 0.00065643311705107792 0 0.031054302577202226 0.00060611505803768952 0 0.031219943959188052 0.00056748626254383408 0 0.031170753831321698 0.00065643311705107792 0 0.031054302577202226 0.00060611505803768952 0 0.031170753831321698 0.00065643311705107792 0 0.031090429076398619 0.00064638294684648775 0 0.031090429076398619 0.00064638294684648775 0 0.031077951574394403 0.0006571140127468912 0 0.030982906756097019 0.00060459656149565097 0 0.031054302577202226 0.00060611505803768952 0 0.031090429076398619 0.00064638294684648775 0 0.030982906756097019 0.00060459656149565097 0 0.031148352266662023 0.00070422474243654295 0 0.031145982643602129 0.00072336790638442426 0 0.031077951574394403 0.0006571140127468912 0 0.031090429076398619 0.00064638294684648775 0 0.031148352266662023 0.00070422474243654295 0 0.031077951574394403 0.0006571140127468912 0 0.031250471483189005 0.00075486608952016058 0 0.031170753831321698 0.00065643311705107792 0 0.031148352266662023 0.00070422474243654295 0 0.031170753831321698 0.00065643311705107792 0 0.031090429076398619 0.00064638294684648775 0 0.031148352266662023 0.00070422474243654295 0 0.031250471483189005 0.00075486608952016058 0 0.031148352266662023 0.00070422474243654295 0 0.031202964220239871 0.00077520289636753966 0 0.031202964220239871 0.00077520289636753966 0 0.031145982643602129 0.00072336790638442426 0 0.031215881079119868 0.00081890085411785133 0 0.031148352266662023 0.00070422474243654295 0 0.031202964220239871 0.00077520289636753966 0 0.031145982643602129 0.00072336790638442426 0 0.031145982643602129 0.00072336790638442426 0 0.031180354401933407 0.00076963458209147869 0 0.031139529094443289 0.00069141355122446797 0 0.031145982643602129 0.00072336790638442426 0 0.031180354401933407 0.00076963458209147869 0 0.031215881079119868 0.00081890085411785133 0 0.031180354401933407 0.00076963458209147869 0 0.031139529094443289 0.00069141355122446797 0 0.031192689868553884 0.00078862839786730213 0 0.031145982643602129 0.00072336790638442426 0 0.031139529094443289 0.00069141355122446797 0 0.031079617630847656 0.00062376900461547807 0 0.03111047271329781 0.00058689333122035779 0 0.031139529094443289 0.00069141355122446797 0 0.031079617630847656 0.00062376900461547807 0 0.031145982643602129 0.00072336790638442426 0 0.031079617630847656 0.00062376900461547807 0 0.031077951574394403 0.0006571140127468912 0 0.031079617630847656 0.00062376900461547807 0 0.031077951574394403 0.0006571140127468912 0 0.030982906756097019 0.00060459656149565097 0 0.031079617630847656 0.00062376900461547807 0 0.030982906756097019 0.00060459656149565097 0 0.031027032694795811 0.00055147222041428969 0 0.032863109210363457 0.00032820201361567124 0 0.032877662737902422 7.2410650291155986e-05 0 0.03244782104527881 0.00027699778683215273 0 0.032863109210363457 0.00032820201361567124 0 0.03244782104527881 0.00027699778683215273 0 0.032366657157137019 0.00066883664557296023 0 0.033105587020794344 -4.2238142816819356e-05 0 0.033353849896686043 4.8636343498987319e-06 0 0.033068863617728074 -7.1092244874307439e-05 0 0.032863109210363457 0.00032820201361567124 0 0.032877662737902422 7.2410650291155986e-05 0 0.032905329642929311 6.6601053059293878e-05 0 0.032877662737902422 7.2410650291155986e-05 0 0.032621018880756518 3.991015307783951e-05 0 0.032877662737902422 7.2410650291155986e-05 0 0.032621018880756518 3.991015307783951e-05 0 0.03244782104527881 0.00027699778683215273 0 0.032621018880756518 3.991015307783951e-05 0 0.032271177548758183 2.7200717911596094e-05 0 0.03244782104527881 0.00027699778683215273 0 0.031332823766931091 0.00040340431376429845 0 0.031346787837109209 0.00035531642759536563 0 0.031429983855928746 0.00046930355366791676 0 0.031374982231776746 0.00036321062090362185 0 0.031346787837109209 0.00035531642759536563 0 0.031429983855928746 0.00046930355366791676 0 0.031911078459579606 0.00016588520527774028 0 0.031662637786788871 0.00041315254931765589 0 0.031939688975854516 0.00028052455139575261 0 0.03244782104527881 0.00027699778683215273 0 0.031976699026044095 0.00057962654415312335 0 0.032271177548758183 2.7200717911596094e-05 0 0.031939688975854516 0.00028052455139575261 0 0.03244782104527881 0.00027699778683215273 0 0.03244782104527881 0.00027699778683215273 0 0.032366657157137019 0.00066883664557296023 0 0.031976699026044095 0.00057962654415312335 0 0.032366657157137019 0.00066883664557296023 0 0.031976699026044095 0.00057962654415312335 0 0.03167163584468588 0.00091530329741274245 0 0.031534331459276019 0.00063130082261047182 0 0.031662637786788871 0.00041315254931765589 0 0.031527535658823318 0.0006422827373811417 0 0.031976699026044095 0.00057962654415312335 0 0.03167163584468588 0.00091530329741274245 0 0.031527535658823318 0.0006422827373811417 0 0.031939688975854516 0.00028052455139575261 0 0.031976699026044095 0.00057962654415312335 0 0.034297366042958403 -0.00051923756762935756 0 0.034234494998804363 -0.00052871480294014971 0 0.034296124476736765 -0.00053021592262359753 0 0.03327958205221284 0.00011245677478927802 0 0.032992871037353273 0.00019060881441970582 0 0.034234494998804363 -0.00052871480294014971 0 0.034076736758592956 -0.00055693427193777929 0 0.034231845265712525 -0.00055202570360633199 0 0.034198014665053761 -0.00042889644550533722 0 0.034234494998804363 -0.00052871480294014971 0 0.034076736758592956 -0.00055693427193777929 0 0.034198014665053761 -0.00042889644550533722 0 0.034297366042958403 -0.00051923756762935756 0 0.034234494998804363 -0.00052871480294014971 0 0.033883369643111783 -0.00029351389157515194 0 0.034198014665053761 -0.00042889644550533722 0 0.034076736758592956 -0.00055693427193777929 0 0.033353849896686043 4.8636343498987319e-06 0 0.03327958205221284 0.00011245677478927802 0 0.033883369643111783 -0.00029351389157515194 0 0.034076736758592956 -0.00055693427193777929 0 0.033806323988691815 -0.00055968834776798631 0 0.03345783756932319 -0.0005394628696564779 0 0.033883369643111783 -0.00029351389157515194 0 0.033806323988691815 -0.00055968834776798631 0 0.034076736758592956 -0.00055693427193777929 0 0.033806323988691815 -0.00055968834776798631 0 0.033916619606273818 -0.000615960491746988 0 0.033699461284731794 -0.0006478003991147711 0 0.033806323988691815 -0.00055968834776798631 0 0.033916619606273818 -0.000615960491746988 0 0.033916619606273818 -0.000615960491746988 0 0.034142170285944358 -0.00059371928377801393 0 0.033900048017428602 -0.00065133467509815028 0 0.034076736758592956 -0.00055693427193777929 0 0.033916619606273818 -0.000615960491746988 0 0.034142170285944358 -0.00059371928377801393 0 0.034142170285944358 -0.00059371928377801393 0 0.034300517884122445 -0.0005071607921742524 0 0.034153105525596417 -0.00057826424478804074 0 0.034142170285944358 -0.00059371928377801393 0 0.034300517884122445 -0.0005071607921742524 0 0.034338743071588095 -0.0004921538886163778 0 0.034142170285944358 -0.00059371928377801393 0 0.034260381784874394 -0.00054369256798242121 0 0.034338743071588095 -0.0004921538886163778 0 0.034260381784874394 -0.00054369256798242121 0 0.034318580231181881 -0.00051403619424998735 0 0.034338743071588095 -0.0004921538886163778 0 0.034142170285944358 -0.00059371928377801393 0 0.034260381784874394 -0.00054369256798242121 0 0.034231845265712525 -0.00055202570360633199 0 0.034076736758592956 -0.00055693427193777929 0 0.034142170285944358 -0.00059371928377801393 0 0.034231845265712525 -0.00055202570360633199 0 0.034231845265712525 -0.00055202570360633199 0 0.034296124476736765 -0.00053021592262359753 0 0.034318580231181881 -0.00051403619424998735 0 0.034234494998804363 -0.00052871480294014971 0 0.034231845265712525 -0.00055202570360633199 0 0.034296124476736765 -0.00053021592262359753 0 0.034297366042958403 -0.00051923756762935756 0 0.034296124476736765 -0.00053021592262359753 0 0.03429609316094874 -0.00051761075953897842 0 0.034296124476736765 -0.00053021592262359753 0 0.034343977088492246 -0.00047607766098024438 0 0.03429609316094874 -0.00051761075953897842 0 0.034296124476736765 -0.00053021592262359753 0 0.034343977088492246 -0.00047607766098024438 0 0.034318580231181881 -0.00051403619424998735 0 0.034343977088492246 -0.00047607766098024438 0 0.034318580231181881 -0.00051403619424998735 0 0.034418212495520704 -0.00042135625153645048 0 0.034260381784874394 -0.00054369256798242121 0 0.034231845265712525 -0.00055202570360633199 0 0.034318580231181881 -0.00051403619424998735 0 0.034318580231181881 -0.00051403619424998735 0 0.034418212495520704 -0.00042135625153645048 0 0.034338743071588095 -0.0004921538886163778 0 0.034343977088492246 -0.00047607766098024438 0 0.034418212495520704 -0.00042135625153645048 0 0.034396608231269707 -0.00034402720687575102 0 0.034524274657477191 -0.00028282196840391613 0 0.034396608231269707 -0.00034402720687575102 0 0.034599540067834965 -0.00012175775569428674 0 0.034418212495520704 -0.00042135625153645048 0 0.034524274657477191 -0.00028282196840391613 0 0.034396608231269707 -0.00034402720687575102 0 0.034418212495520704 -0.00042135625153645048 0 0.034524274657477191 -0.00028282196840391613 0 0.034501592972601171 -0.00034242718564563436 0 0.034501592972601171 -0.00034242718564563436 0 0.034422933546537512 -0.00041918932415848785 0 0.034338743071588095 -0.0004921538886163778 0 0.034501592972601171 -0.00034242718564563436 0 0.034422933546537512 -0.00041918932415848785 0 0.03454512888057331 -0.00031937640340006727 0 0.034422933546537512 -0.00041918932415848785 0 0.034437028641155991 -0.00041407703430590013 0 0.03454512888057331 -0.00031937640340006727 0 0.034437028641155991 -0.00041407703430590013 0 0.034300517884122445 -0.0005071607921742524 0 0.034333002214177205 -0.00048502425315191997 0 0.034422933546537512 -0.00041918932415848785 0 0.034437028641155991 -0.00041407703430590013 0 0.034300517884122445 -0.0005071607921742524 0 0.034422933546537512 -0.00041918932415848785 0 0.034300517884122445 -0.0005071607921742524 0 0.034338743071588095 -0.0004921538886163778 0 0.034418212495520704 -0.00042135625153645048 0 0.034501592972601171 -0.00034242718564563436 0 0.034338743071588095 -0.0004921538886163778 0 0.03126163422011926 0.00091287164008738706 0 0.031252762362686912 0.00091152298903068862 0 0.031247842529845353 0.00088580108125982501 0 0.031252762362686912 0.00091152298903068862 0 0.031233382445653025 0.00086706098141815389 0 0.031247842529845353 0.00088580108125982501 0 0.031276222418927947 0.00099249620817431659 0 0.03126163422011926 0.00091287164008738706 0 0.031252762362686912 0.00091152298903068862 0 0.032727828905241216 0.0003285203149659844 0 0.032677133877859449 0.00022179054768086629 0 0.031233382445653025 0.00086706098141815389 0 0.031235924775996442 0.00086120577858312091 0 0.031247842529845353 0.00088580108125982501 0 0.031227428447944221 0.00086425164542463585 0 0.031252762362686912 0.00091152298903068862 0 0.031233382445653025 0.00086706098141815389 0 0.031227428447944221 0.00086425164542463585 0 0.031192689868553884 0.00078862839786730213 0 0.031233382445653025 0.00086706098141815389 0 0.031192689868553884 0.00078862839786730213 0 0.031211735873518637 0.00082396089634864927 0 0.031233382445653025 0.00086706098141815389 0 0.031180354401933407 0.00076963458209147869 0 0.031192689868553884 0.00078862839786730213 0 0.031211735873518637 0.00082396089634864927 0 0.031180354401933407 0.00076963458209147869 0 0.031211735873518637 0.00082396089634864927 0 0.031215881079119868 0.00081890085411785133 0 0.031211735873518637 0.00082396089634864927 0 0.031233382445653025 0.00086706098141815389 0 0.031235924775996442 0.00086120577858312091 0 0.031235924775996442 0.00086120577858312091 0 0.031247842529845353 0.00088580108125982501 0 0.031312548699576406 0.00090535777767450636 0 0.032677133877859449 0.00022179054768086629 0 0.03278423906204829 0.00018292277970374709 0 0.031235924775996442 0.00086120577858312091 0 0.031215881079119868 0.00081890085411785133 0 0.031312548699576406 0.00090535777767450636 0 0.031202964220239871 0.00077520289636753966 0 0.031215881079119868 0.00081890085411785133 0 0.031312548699576406 0.00090535777767450636 0 0.031211735873518637 0.00082396089634864927 0 0.031235924775996442 0.00086120577858312091 0 0.031215881079119868 0.00081890085411785133 0 0.034086299941323249 -0.00049083398809681203 0 0.034240943331287597 -0.00045680883498208907 0 0.034105912872832884 -0.00040223454672574124 0 0.034007216401442858 -0.00045430125123614273 0 0.034086299941323249 -0.00049083398809681203 0 0.034105912872832884 -0.00040223454672574124 0 0.034086299941323249 -0.00049083398809681203 0 0.034240943331287597 -0.00045680883498208907 0 0.034243598286397205 -0.00053890889077540716 0 0.034240943331287597 -0.00045680883498208907 0 0.034243598286397205 -0.00053890889077540716 0 0.03429609316094874 -0.00051761075953897842 0 0.034297366042958403 -0.00051923756762935756 0 0.034243598286397205 -0.00053890889077540716 0 0.03429609316094874 -0.00051761075953897842 0 0.032992871037353273 0.00019060881441970582 0 0.03278423906204829 0.00018292277970374709 0 0.034343977088492246 -0.00047607766098024438 0 0.034240943331287597 -0.00045680883498208907 0 0.03429609316094874 -0.00051761075953897842 0 0.034343977088492246 -0.00047607766098024438 0 0.034240943331287597 -0.00045680883498208907 0 0.034396608231269707 -0.00034402720687575102 0 0.034396608231269707 -0.00034402720687575102 0 0.034175544012050356 -0.00031350289204066861 0 0.034215395301554284 -0.00010604807364833543 0 0.034240943331287597 -0.00045680883498208907 0 0.034396608231269707 -0.00034402720687575102 0 0.034175544012050356 -0.00031350289204066861 0 0.034240943331287597 -0.00045680883498208907 0 0.034105912872832884 -0.00040223454672574124 0 0.034175544012050356 -0.00031350289204066861 0 0.034105912872832884 -0.00040223454672574124 0 0.034175544012050356 -0.00031350289204066861 0 0.034030531410568471 -0.0003091209255683756 0 0.034175544012050356 -0.00031350289204066861 0 0.034087633258263167 -0.00019941078979450683 0 0.034030531410568471 -0.0003091209255683756 0 0.034175544012050356 -0.00031350289204066861 0 0.034087633258263167 -0.00019941078979450683 0 0.034215395301554284 -0.00010604807364833543 0 0.03386032314132037 -0.00027533473929846388 0 0.034030531410568471 -0.0003091209255683756 0 0.033957892430526528 -0.00020500163753265076 0 0.034087633258263167 -0.00019941078979450683 0 0.034030531410568471 -0.0003091209255683756 0 0.033957892430526528 -0.00020500163753265076 0 0.03386032314132037 -0.00027533473929846388 0 0.034007216401442858 -0.00045430125123614273 0 0.034030531410568471 -0.0003091209255683756 0 0.033160129435402363 0.00039743040223608504 0 0.032727828905241216 0.0003285203149659844 0 0.034007216401442858 -0.00045430125123614273 0 0.034105912872832884 -0.00040223454672574124 0 0.034030531410568471 -0.0003091209255683756 0 0.031772978402946593 0.0010303124588863272 0 0.032727828905241216 0.0003285203149659844 0 0.034976452167276441 3.5387414624581262e-06 0 0.034965042692683808 1.3114795307627714e-05 0 0.034960003399744963 -2.291782666049677e-05 0 0.033874449386598372 -0.00016218383884304677 0 0.033957892430526528 -0.00020500163753265076 0 0.033968925046165367 -9.1173109723659306e-05 0 0.034087633258263167 -0.00019941078979450683 0 0.033957892430526528 -0.00020500163753265076 0 0.033968925046165367 -9.1173109723659306e-05 0 0.034087633258263167 -0.00019941078979450683 0 0.033968925046165367 -9.1173109723659306e-05 0 0.034215395301554284 -0.00010604807364833543 0 0.034629655405998494 -0.00011091168166785292 0 0.034513042941600687 -4.6997822624084551e-05 0 0.034886016682627786 2.6219277052986213e-06 0 0.034894403583252076 -6.3189970314058452e-05 0 0.034960003399744963 -2.291782666049677e-05 0 0.034965042692683808 1.3114795307627714e-05 0 0.034886016682627786 2.6219277052986213e-06 0 0.034960003399744963 -2.291782666049677e-05 0 0.034894403583252076 -6.3189970314058452e-05 0 0.034599540067834965 -0.00012175775569428674 0 0.034875489381170147 -5.9965572724513329e-05 0 0.034886016682627786 2.6219277052986213e-06 0 0.034894403583252076 -6.3189970314058452e-05 0 0.034599540067834965 -0.00012175775569428674 0 0.034396608231269707 -0.00034402720687575102 0 0.034215395301554284 -0.00010604807364833543 0 0.034599540067834965 -0.00012175775569428674 0 0.034513042941600687 -4.6997822624084551e-05 0 0.034621199318575678 -0.00011299219561847422 0 0.034999830547680556 -6.5924404236356959e-08 0 0.034894403583252076 -6.3189970314058452e-05 0 0.034875489381170147 -5.9965572724513329e-05 0 0.034999830547680556 -6.5924404236356959e-08 0 0.034894403583252076 -6.3189970314058452e-05 0 0.034999933183384069 -4.2145907660487281e-08 0 0.034894403583252076 -6.3189970314058452e-05 0 0.034999933183384069 -4.2145907660487281e-08 0 0.034960003399744963 -2.291782666049677e-05 0 0.034999978683270233 -2.7409778176755869e-09 0 0.034999933183384069 -4.2145907660487281e-08 0 0.034982626270763061 -8.4998292898097721e-06 0 0.034999933183384069 -4.2145907660487281e-08 0 0.034982626270763061 -8.4998292898097721e-06 0 0.034960003399744963 -2.291782666049677e-05 0 0.034983064326411774 -4.524508685175687e-06 0 0.034982626270763061 -8.4998292898097721e-06 0 0.034960003399744963 -2.291782666049677e-05 0 0.034649424088373376 -0.00021595996569861905 0 0.034756544092932599 -0.00011413099038452571 0 0.034802156021041669 -0.00011045722547337901 0 0.034649424088373376 -0.00021595996569861905 0 0.034672727131999599 -0.00021779852748435763 0 0.034802156021041669 -0.00011045722547337901 0 0.034672727131999599 -0.00021779852748435763 0 0.034802156021041669 -0.00011045722547337901 0 0.034771379501492929 -0.00015664322769748905 0 0.034437028641155991 -0.00041407703430590013 0 0.03454512888057331 -0.00031937640340006727 0 0.034597923342242286 -0.00030137719268026836 0 0.034649424088373376 -0.00021595996569861905 0 0.034672727131999599 -0.00021779852748435763 0 0.03454512888057331 -0.00031937640340006727 0 0.034672727131999599 -0.00021779852748435763 0 0.03454512888057331 -0.00031937640340006727 0 0.034597923342242286 -0.00030137719268026836 0 0.034501592972601171 -0.00034242718564563436 0 0.034649424088373376 -0.00021595996569861905 0 0.03454512888057331 -0.00031937640340006727 0 0.034501592972601171 -0.00034242718564563436 0 0.034649424088373376 -0.00021595996569861905 0 0.03462083562901775 -0.00020678489925953861 0 0.034599540067834965 -0.00012175775569428674 0 0.034756544092932599 -0.00011413099038452571 0 0.034875489381170147 -5.9965572724513329e-05 0 0.034524274657477191 -0.00028282196840391613 0 0.034501592972601171 -0.00034242718564563436 0 0.03462083562901775 -0.00020678489925953861 0 0.034524274657477191 -0.00028282196840391613 0 0.03462083562901775 -0.00020678489925953861 0 0.034599540067834965 -0.00012175775569428674 0 0.034649424088373376 -0.00021595996569861905 0 0.03462083562901775 -0.00020678489925953861 0 0.034756544092932599 -0.00011413099038452571 0 0.03462083562901775 -0.00020678489925953861 0 0.034599540067834965 -0.00012175775569428674 0 0.034756544092932599 -0.00011413099038452571 0 0.034756544092932599 -0.00011413099038452571 0 0.034875489381170147 -5.9965572724513329e-05 0 0.034881635598194773 -5.8466674564287199e-05 0 0.034999830547680556 -6.5924404236356959e-08 0 0.034875489381170147 -5.9965572724513329e-05 0 0.034999765381595167 -5.4376784401592775e-08 0 0.034875489381170147 -5.9965572724513329e-05 0 0.034999765381595167 -5.4376784401592775e-08 0 0.034881635598194773 -5.8466674564287199e-05 0 0.034881635598194773 -5.8466674564287199e-05 0 0.034999784445985956 -4.9725824192605851e-08 0 0.034802156021041669 -0.00011045722547337901 0 0.034999765381595167 -5.4376784401592775e-08 0 0.034881635598194773 -5.8466674564287199e-05 0 0.034999784445985956 -4.9725824192605851e-08 0 0.034756544092932599 -0.00011413099038452571 0 0.034881635598194773 -5.8466674564287199e-05 0 0.034802156021041669 -0.00011045722547337901 0 0.034999784445985956 -4.9725824192605851e-08 0 0.034802156021041669 -0.00011045722547337901 0 0.034885367153850849 -6.3687982657257921e-05 0 0.034999784445985956 -4.9725824192605851e-08 0 0.034999795910548658 -5.0353142554911738e-08 0 0.034885367153850849 -6.3687982657257921e-05 0 0.034999795910548658 -5.0353142554911738e-08 0 0.034911551602299799 -5.8951435443943678e-05 0 0.034885367153850849 -6.3687982657257921e-05 0 0.034999795910548658 -5.0353142554911738e-08 0 0.034911551602299799 -5.8951435443943678e-05 0 0.035000041619113714 -2.2477395552626519e-09 0 0.034911551602299799 -5.8951435443943678e-05 0 0.034771379501492929 -0.00015664322769748905 0 0.034827573883498997 -0.00015919733611233051 0 0.034911551602299799 -5.8951435443943678e-05 0 0.034948456417498212 -8.6364764428368778e-05 0 0.034827573883498997 -0.00015919733611233051 0 0.034802156021041669 -0.00011045722547337901 0 0.034885367153850849 -6.3687982657257921e-05 0 0.034771379501492929 -0.00015664322769748905 0 0.034911551602299799 -5.8951435443943678e-05 0 0.034885367153850849 -6.3687982657257921e-05 0 0.034771379501492929 -0.00015664322769748905 0 0.034995128499907741 7.3862640260062863e-06 0 0.035000098154597467 -1.7168065021236489e-08 0 0.034999789340947017 5.8817715564136499e-08 0 0.034995128499907741 7.3862640260062863e-06 0 0.035001992373783326 4.130887016762162e-06 0 0.034970793632078889 1.6710258945568802e-05 0 0.034747503619741479 2.654111325879309e-05 0 0.03493037243707818 4.1476054833354416e-06 0 0.034995128499907741 7.3862640260062863e-06 0 0.035000098154597467 -1.7168065021236489e-08 0 0.034992686040071989 4.7360140822486644e-06 0 0.034999975130053616 -3.0991822606956943e-08 0 0.034999227561435142 -2.1192660607217349e-05 0 0.034911551602299799 -5.8951435443943678e-05 0 0.035000041619113714 -2.2477395552626519e-09 0 0.034948456417498212 -8.6364764428368778e-05 0 0.034995128499907741 7.3862640260062863e-06 0 0.034992686040071989 4.7360140822486644e-06 0 0.035001992373783326 4.130887016762162e-06 0 0.034500923486533781 3.628041638969397e-05 0 0.034761743113965765 2.0697029996873636e-05 0 0.034638386502241401 3.7997676224359112e-06 0 0.034500923486533781 3.628041638969397e-05 0 0.034561805159634099 -6.012767260590221e-05 0 0.034638386502241401 3.7997676224359112e-06 0 0.034500923486533781 3.628041638969397e-05 0 0.034169917435861369 -0.00013758443091793006 0 0.034358538729795607 -0.00015163735135642029 0 0.034500923486533781 3.628041638969397e-05 0 0.034358538729795607 -0.00015163735135642029 0 0.034561805159634099 -6.012767260590221e-05 0 0.034358538729795607 -0.00015163735135642029 0 0.034513734336785479 -0.00013320503509412548 0 0.034561805159634099 -6.012767260590221e-05 0 0.034948456417498212 -8.6364764428368778e-05 0 0.034848465859101195 -0.00026644932707426213 0 0.034827573883498997 -0.00015919733611233051 0 0.034992686040071989 4.7360140822486644e-06 0 0.035001992373783326 4.130887016762162e-06 0 0.034983018787777355 -2.5172799862202275e-05 0 0.034999227561435142 -2.1192660607217349e-05 0 0.034642984763170598 -0.0002160643935800815 0 0.034747503619741479 2.654111325879309e-05 0 0.034642984763170598 -0.0002160643935800815 0 0.034169917435861369 -0.00013758443091793006 0 0.03418654026896225 -0.00024760454087717785 0 0.034052018334883589 -0.00031670006380238547 0 0.034642984763170598 -0.0002160643935800815 0 0.034240945432475849 -0.00039162582472361741 0 0.034169917435861369 -0.00013758443091793006 0 0.034358538729795607 -0.00015163735135642029 0 0.03418654026896225 -0.00024760454087717785 0 0.034358538729795607 -0.00015163735135642029 0 0.03418654026896225 -0.00024760454087717785 0 0.03426321317871403 -0.00026075623620566663 0 0.034358538729795607 -0.00015163735135642029 0 0.03426321317871403 -0.00026075623620566663 0 0.034423014782280117 -0.00022277808952555128 0 0.034358538729795607 -0.00015163735135642029 0 0.034513734336785479 -0.00013320503509412548 0 0.034423014782280117 -0.00022277808952555128 0 0.034672727131999599 -0.00021779852748435763 0 0.034771379501492929 -0.00015664322769748905 0 0.034597923342242286 -0.00030137719268026836 0 0.034771379501492929 -0.00015664322769748905 0 0.034827573883498997 -0.00015919733611233051 0 0.03467500546024526 -0.0002871475651555038 0 0.034848465859101195 -0.00026644932707426213 0 0.034827573883498997 -0.00015919733611233051 0 0.03467500546024526 -0.0002871475651555038 0 0.034848465859101195 -0.00026644932707426213 0 0.03467500546024526 -0.0002871475651555038 0 0.034548955883924842 -0.00041004701732338868 0 0.034642984763170598 -0.0002160643935800815 0 0.03456728825950936 -0.00043981188337889756 0 0.034771379501492929 -0.00015664322769748905 0 0.03467500546024526 -0.0002871475651555038 0 0.034597923342242286 -0.00030137719268026836 0 0.03467500546024526 -0.0002871475651555038 0 0.034597923342242286 -0.00030137719268026836 0 0.034472812038280662 -0.00041290981970435901 0 0.034437028641155991 -0.00041407703430590013 0 0.034597923342242286 -0.00030137719268026836 0 0.034472812038280662 -0.00041290981970435901 0 0.034437028641155991 -0.00041407703430590013 0 0.034472812038280662 -0.00041290981970435901 0 0.034333002214177205 -0.00048502425315191997 0 0.034300517884122445 -0.0005071607921742524 0 0.034333002214177205 -0.00048502425315191997 0 0.034153105525596417 -0.00057826424478804074 0 0.034333002214177205 -0.00048502425315191997 0 0.034317430207049367 -0.00049735403538461059 0 0.034153105525596417 -0.00057826424478804074 0 0.034472812038280662 -0.00041290981970435901 0 0.034333002214177205 -0.00048502425315191997 0 0.034317430207049367 -0.00049735403538461059 0 0.034317430207049367 -0.00049735403538461059 0 0.034153105525596417 -0.00057826424478804074 0 0.034147100869975952 -0.00058423334739687199 0 0.034390320727660247 -0.0004677482459217595 0 0.034254730070129261 -0.0005580687024809174 0 0.034147100869975952 -0.00058423334739687199 0 0.034317430207049367 -0.00049735403538461059 0 0.034390320727660247 -0.0004677482459217595 0 0.034147100869975952 -0.00058423334739687199 0 0.034390320727660247 -0.0004677482459217595 0 0.034501915543281893 -0.00041428226775106728 0 0.034254730070129261 -0.0005580687024809174 0 0.03467500546024526 -0.0002871475651555038 0 0.034472812038280662 -0.00041290981970435901 0 0.034548955883924842 -0.00041004701732338868 0 0.034390320727660247 -0.0004677482459217595 0 0.034548955883924842 -0.00041004701732338868 0 0.034501915543281893 -0.00041428226775106728 0 0.034472812038280662 -0.00041290981970435901 0 0.034390320727660247 -0.0004677482459217595 0 0.034548955883924842 -0.00041004701732338868 0 0.034472812038280662 -0.00041290981970435901 0 0.034317430207049367 -0.00049735403538461059 0 0.034390320727660247 -0.0004677482459217595 0 0.034507869572385039 -0.00046666847219367777 0 0.034548955883924842 -0.00041004701732338868 0 0.034501915543281893 -0.00041428226775106728 0 0.03418654026896225 -0.00024760454087717785 0 0.03414997945160738 -0.00033258756326111648 0 0.034052018334883589 -0.00031670006380238547 0 0.03418654026896225 -0.00024760454087717785 0 0.03414997945160738 -0.00033258756326111648 0 0.03426321317871403 -0.00026075623620566663 0 0.03414997945160738 -0.00033258756326111648 0 0.034052018334883589 -0.00031670006380238547 0 0.03406169455819115 -0.00040539944040083681 0 0.03426321317871403 -0.00026075623620566663 0 0.034289096709188144 -0.00031849417508770828 0 0.034423014782280117 -0.00022277808952555128 0 0.03414997945160738 -0.00033258756326111648 0 0.03426321317871403 -0.00026075623620566663 0 0.034289096709188144 -0.00031849417508770828 0 0.03414997945160738 -0.00033258756326111648 0 0.034289096709188144 -0.00031849417508770828 0 0.034151371722729681 -0.00040266979108582887 0 0.034289096709188144 -0.00031849417508770828 0 0.034151371722729681 -0.00040266979108582887 0 0.034333261228486962 -0.00039643451522767197 0 0.034151371722729681 -0.00040266979108582887 0 0.034149023912228488 -0.00048175431661228786 0 0.034333261228486962 -0.00039643451522767197 0 0.034151371722729681 -0.00040266979108582887 0 0.034149023912228488 -0.00048175431661228786 0 0.034043391977655428 -0.00046979075979221486 0 0.034052018334883589 -0.00031670006380238547 0 0.03406169455819115 -0.00040539944040083681 0 0.033906990588439816 -0.0004927292632093944 0 0.034240945432475849 -0.00039162582472361741 0 0.034069348024166488 -0.00050532265857870687 0 0.034151371722729681 -0.00040266979108582887 0 0.03406169455819115 -0.00040539944040083681 0 0.034043391977655428 -0.00046979075979221486 0 0.03414997945160738 -0.00033258756326111648 0 0.034151371722729681 -0.00040266979108582887 0 0.03406169455819115 -0.00040539944040083681 0 0.03406169455819115 -0.00040539944040083681 0 0.034043391977655428 -0.00046979075979221486 0 0.033906990588439816 -0.0004927292632093944 0 0.033906990588439816 -0.0004927292632093944 0 0.033959978806153243 -0.00055605517491515415 0 0.033796369257188395 -0.00065429769469163709 0 0.033959978806153243 -0.00055605517491515415 0 0.033867385136749757 -0.0006297718690917145 0 0.033796369257188395 -0.00065429769469163709 0 0.034043391977655428 -0.00046979075979221486 0 0.033906990588439816 -0.0004927292632093944 0 0.033959978806153243 -0.00055605517491515415 0 0.034149023912228488 -0.00048175431661228786 0 0.033959978806153243 -0.00055605517491515415 0 0.034115981600145701 -0.00057291613303992394 0 0.034149023912228488 -0.00048175431661228786 0 0.034115981600145701 -0.00057291613303992394 0 0.034273046956196956 -0.00049693073403906708 0 0.034149023912228488 -0.00048175431661228786 0 0.034043391977655428 -0.00046979075979221486 0 0.033959978806153243 -0.00055605517491515415 0 0.033959978806153243 -0.00055605517491515415 0 0.034115981600145701 -0.00057291613303992394 0 0.033867385136749757 -0.0006297718690917145 0 0.034115981600145701 -0.00057291613303992394 0 0.034034441418987357 -0.00066155219974589868 0 0.033867385136749757 -0.0006297718690917145 0 0.034034441418987357 -0.00066155219974589868 0 0.033867385136749757 -0.0006297718690917145 0 0.033655168336276957 -0.00071519814934643973 0 0.033999782216148307 -0.00078366594741872617 0 0.034034441418987357 -0.00066155219974589868 0 0.033655168336276957 -0.00071519814934643973 0 0.033455014455258697 -0.00073459487889946501 0 0.033655168336276957 -0.00071519814934643973 0 0.033796369257188395 -0.00065429769469163709 0 0.033867385136749757 -0.0006297718690917145 0 0.033655168336276957 -0.00071519814934643973 0 0.033796369257188395 -0.00065429769469163709 0 0.033455014455258697 -0.00073459487889946501 0 0.033796369257188395 -0.00065429769469163709 0 0.033900048017428602 -0.00065133467509815028 0 0.033900048017428602 -0.00065133467509815028 0 0.034153105525596417 -0.00057826424478804074 0 0.034147100869975952 -0.00058423334739687199 0 0.034142170285944358 -0.00059371928377801393 0 0.033900048017428602 -0.00065133467509815028 0 0.034153105525596417 -0.00057826424478804074 0 0.034069348024166488 -0.00050532265857870687 0 0.033868271914545563 -0.00062824653639155504 0 0.033796369257188395 -0.00065429769469163709 0 0.033900048017428602 -0.00065133467509815028 0 0.034147100869975952 -0.00058423334739687199 0 0.034254730070129261 -0.0005580687024809174 0 0.033796369257188395 -0.00065429769469163709 0 0.034147100869975952 -0.00058423334739687199 0 0.033750236811363604 -9.3146778832219968e-05 0 0.033718077391547079 -8.3174636558646858e-05 0 0.033729072929651174 -0.00013088524358809055 0 0.033702092694880385 -0.0001108796115327359 0 0.033718077391547079 -8.3174636558646858e-05 0 0.033729072929651174 -0.00013088524358809055 0 0.033702092694880385 -0.0001108796115327359 0 0.033682067320896243 -0.00011145006124103131 0 0.033696774060768452 -8.7463884512006023e-05 0 0.033702092694880385 -0.0001108796115327359 0 0.033682067320896243 -0.00011145006124103131 0 0.03368168314729153 -0.00013189872361612189 0 0.033682067320896243 -0.00011145006124103131 0 0.033680091193271783 -9.3323989486115603e-05 0 0.033696774060768452 -8.7463884512006023e-05 0 0.033680091193271783 -9.3323989486115603e-05 0 0.033680529372281748 -7.7766101634526913e-05 0 0.033696774060768452 -8.7463884512006023e-05 0 0.033680529372281748 -7.7766101634526913e-05 0 0.033696774060768452 -8.7463884512006023e-05 0 0.033698931723382446 -6.732311264104877e-05 0 0.033702092694880385 -0.0001108796115327359 0 0.033696774060768452 -8.7463884512006023e-05 0 0.033718077391547079 -8.3174636558646858e-05 0 0.033696774060768452 -8.7463884512006023e-05 0 0.033718077391547079 -8.3174636558646858e-05 0 0.033698931723382446 -6.732311264104877e-05 0 0.033730813866193879 -4.4997460098837064e-05 0 0.033670188481586059 -5.1329690532962628e-05 0 0.033738107624513257 -8.2341576648116918e-06 0 0.033698931723382446 -6.732311264104877e-05 0 0.033730813866193879 -4.4997460098837064e-05 0 0.033670188481586059 -5.1329690532962628e-05 0 0.033718077391547079 -8.3174636558646858e-05 0 0.033698931723382446 -6.732311264104877e-05 0 0.033730813866193879 -4.4997460098837064e-05 0 0.033680091193271783 -9.3323989486115603e-05 0 0.033680529372281748 -7.7766101634526913e-05 0 0.033670188481586059 -5.1329690532962628e-05 0 0.033680529372281748 -7.7766101634526913e-05 0 0.033698931723382446 -6.732311264104877e-05 0 0.033670188481586059 -5.1329690532962628e-05 0 0.033730813866193879 -4.4997460098837064e-05 0 0.033775881839078432 -5.2503362758740854e-05 0 0.033738107624513257 -8.2341576648116918e-06 0 0.033750236811363604 -9.3146778832219968e-05 0 0.033718077391547079 -8.3174636558646858e-05 0 0.033730813866193879 -4.4997460098837064e-05 0 0.033750236811363604 -9.3146778832219968e-05 0 0.033730813866193879 -4.4997460098837064e-05 0 0.033775881839078432 -5.2503362758740854e-05 0 0.033775881839078432 -5.2503362758740854e-05 0 0.033838759061420781 -5.5123950760228624e-05 0 0.033799599391983952 1.1591977669092705e-05 0 0.033775881839078432 -5.2503362758740854e-05 0 0.033838759061420781 -5.5123950760228624e-05 0 0.033785080183158837 -0.00010066688245002175 0 0.033838759061420781 -5.5123950760228624e-05 0 0.033785080183158837 -0.00010066688245002175 0 0.033818688985483132 -0.00013218755948321494 0 0.033750236811363604 -9.3146778832219968e-05 0 0.033785080183158837 -0.00010066688245002175 0 0.033767622375633015 -0.00014310397046023179 0 0.033750236811363604 -9.3146778832219968e-05 0 0.033775881839078432 -5.2503362758740854e-05 0 0.033785080183158837 -0.00010066688245002175 0 0.033785080183158837 -0.00010066688245002175 0 0.033767622375633015 -0.00014310397046023179 0 0.033818688985483132 -0.00013218755948321494 0 0.033767622375633015 -0.00014310397046023179 0 0.033818688985483132 -0.00013218755948321494 0 0.03378914975226905 -0.00017299834402564882 0 0.033767622375633015 -0.00014310397046023179 0 0.03378914975226905 -0.00017299834402564882 0 0.03374126498181166 -0.00017792254993576387 0 0.033447234660222203 -0.00022901024950329823 0 0.033908005256749196 -0.0001952923293029143 0 0.033757578846788566 -0.00021005023970733816 0 0.03378914975226905 -0.00017299834402564882 0 0.033865675496257804 -0.00020317155130525837 0 0.033818688985483132 -0.00013218755948321494 0 0.03378914975226905 -0.00017299834402564882 0 0.033865675496257804 -0.00020317155130525837 0 0.033757578846788566 -0.00021005023970733816 0 0.03378914975226905 -0.00017299834402564882 0 0.03374126498181166 -0.00017792254993576387 0 0.033760464548752242 -0.00021557901841164653 0 0.03374126498181166 -0.00017792254993576387 0 0.033681589909197257 -0.00019323832003592773 0 0.033447234660222203 -0.00022901024950329823 0 0.033590825874858593 -0.00025970755458936697 0 0.03374126498181166 -0.00017792254993576387 0 0.033729072929651174 -0.00013088524358809055 0 0.033706747723070682 -0.00015906522184732695 0 0.033767622375633015 -0.00014310397046023179 0 0.03374126498181166 -0.00017792254993576387 0 0.033729072929651174 -0.00013088524358809055 0 0.033750236811363604 -9.3146778832219968e-05 0 0.033767622375633015 -0.00014310397046023179 0 0.033729072929651174 -0.00013088524358809055 0 0.03368168314729153 -0.00013189872361612189 0 0.033703865454297828 -0.00013464740672031755 0 0.033675953717173523 -0.00015862651912226734 0 0.03368168314729153 -0.00013189872361612189 0 0.033675953717173523 -0.00015862651912226734 0 0.033664858103501075 -0.00014292120590536937 0 0.033702092694880385 -0.0001108796115327359 0 0.033729072929651174 -0.00013088524358809055 0 0.033703865454297828 -0.00013464740672031755 0 0.033702092694880385 -0.0001108796115327359 0 0.03368168314729153 -0.00013189872361612189 0 0.033703865454297828 -0.00013464740672031755 0 0.033729072929651174 -0.00013088524358809055 0 0.033703865454297828 -0.00013464740672031755 0 0.033706747723070682 -0.00015906522184732695 0 0.033703865454297828 -0.00013464740672031755 0 0.033706747723070682 -0.00015906522184732695 0 0.033675953717173523 -0.00015862651912226734 0 0.033706747723070682 -0.00015906522184732695 0 0.033675953717173523 -0.00015862651912226734 0 0.033681589909197257 -0.00019323832003592773 0 0.03374126498181166 -0.00017792254993576387 0 0.033706747723070682 -0.00015906522184732695 0 0.033681589909197257 -0.00019323832003592773 0 0.033616363043443433 -0.00018150467117469173 0 0.033604244575083181 -0.00015629014744488034 0 0.03369842620863378 -6.2321730970659546e-05 0 0.033622473669608723 -0.00021967892908829711 0 0.033681589909197257 -0.00019323832003592773 0 0.033644821102948155 -0.00018410256381800103 0 0.033537046592666833 -0.00027156359462760557 0 0.033616363043443433 -0.00018150467117469173 0 0.033604244575083181 -0.00015629014744488034 0 0.033675953717173523 -0.00015862651912226734 0 0.033681589909197257 -0.00019323832003592773 0 0.033644821102948155 -0.00018410256381800103 0 0.033622473669608723 -0.00021967892908829711 0 0.033644821102948155 -0.00018410256381800103 0 0.033616363043443433 -0.00018150467117469173 0 0.033644821102948155 -0.00018410256381800103 0 0.033616363043443433 -0.00018150467117469173 0 0.033649981248145007 -0.00015795347859575795 0 0.034385172824286846 -0.00067587480811784871 0 0.034309888467832929 -0.00064194367578585345 0 0.03435769402269951 -0.00061810595986821256 0 0.033616363043443433 -0.00018150467117469173 0 0.033649981248145007 -0.00015795347859575795 0 0.033651712855466323 -0.0001231585225583629 0 0.03368168314729153 -0.00013189872361612189 0 0.033664858103501075 -0.00014292120590536937 0 0.033651712855466323 -0.0001231585225583629 0 0.033664858103501075 -0.00014292120590536937 0 0.033649981248145007 -0.00015795347859575795 0 0.033651712855466323 -0.0001231585225583629 0 0.033675953717173523 -0.00015862651912226734 0 0.033664858103501075 -0.00014292120590536937 0 0.033649981248145007 -0.00015795347859575795 0 0.033675953717173523 -0.00015862651912226734 0 0.033644821102948155 -0.00018410256381800103 0 0.033649981248145007 -0.00015795347859575795 0 0.033201673469769988 -0.00055702919053607716 0 0.034059320131591984 -0.00038582082756281069 0 0.033999782216148307 -0.00078366594741872617 0 0.034189388662308584 -0.00092811460193948031 0 0.034212268783057775 -0.00068621553745265487 0 0.034189388662308584 -0.00092811460193948031 0 0.034385172824286846 -0.00067587480811784871 0 0.034212268783057775 -0.00068621553745265487 0 0.033999782216148307 -0.00078366594741872617 0 0.034034441418987357 -0.00066155219974589868 0 0.034212268783057775 -0.00068621553745265487 0 0.034212268783057775 -0.00068621553745265487 0 0.034309888467832929 -0.00064194367578585345 0 0.034285952801874187 -0.00058990597385372037 0 0.034385172824286846 -0.00067587480811784871 0 0.034212268783057775 -0.00068621553745265487 0 0.034309888467832929 -0.00064194367578585345 0 0.034115981600145701 -0.00057291613303992394 0 0.034034441418987357 -0.00066155219974589868 0 0.034212268783057775 -0.00068621553745265487 0 0.034115981600145701 -0.00057291613303992394 0 0.034212268783057775 -0.00068621553745265487 0 0.034285952801874187 -0.00058990597385372037 0 0.034115981600145701 -0.00057291613303992394 0 0.034285952801874187 -0.00058990597385372037 0 0.034273046956196956 -0.00049693073403906708 0 0.034309888467832929 -0.00064194367578585345 0 0.034285952801874187 -0.00058990597385372037 0 0.03435769402269951 -0.00061810595986821256 0 0.034285952801874187 -0.00058990597385372037 0 0.03436768181332682 -0.00057224475405267844 0 0.03435769402269951 -0.00061810595986821256 0 0.034285952801874187 -0.00058990597385372037 0 0.03436768181332682 -0.00057224475405267844 0 0.034346315796573983 -0.00052892364993665641 0 0.034346315796573983 -0.00052892364993665641 0 0.034273046956196956 -0.00049693073403906708 0 0.034379115345882331 -0.00044915936568419899 0 0.034346315796573983 -0.00052892364993665641 0 0.034424240605565634 -0.00049920808078113233 0 0.034379115345882331 -0.00044915936568419899 0 0.034285952801874187 -0.00058990597385372037 0 0.034346315796573983 -0.00052892364993665641 0 0.034273046956196956 -0.00049693073403906708 0 0.03436768181332682 -0.00057224475405267844 0 0.034346315796573983 -0.00052892364993665641 0 0.034409535159081517 -0.00054203596088091461 0 0.034385172824286846 -0.00067587480811784871 0 0.034438189277638774 -0.00058507751247063151 0 0.034573719502114027 -0.0005071250312240433 0 0.033604244575083181 -0.00015629014744488034 0 0.033692684390358704 -4.9313895066377407e-05 0 0.03369842620863378 -6.2321730970659546e-05 0 0.033631681818249735 -0.00017279582330552337 0 0.033641670618727006 -4.5304015537676755e-05 0 0.033616363043443433 -0.00018150467117469173 0 0.033651712855466323 -0.0001231585225583629 0 0.033670188481586059 -5.1329690532962628e-05 0 0.034059320131591984 -0.00038582082756281069 0 0.034127188162903964 -0.00028674823005699789 0 0.033680091193271783 -9.3323989486115603e-05 0 0.033651712855466323 -0.0001231585225583629 0 0.033670188481586059 -5.1329690532962628e-05 0 0.033682067320896243 -0.00011145006124103131 0 0.033680091193271783 -9.3323989486115603e-05 0 0.033651712855466323 -0.0001231585225583629 0 0.033682067320896243 -0.00011145006124103131 0 0.03368168314729153 -0.00013189872361612189 0 0.033651712855466323 -0.0001231585225583629 0 0.034385172824286846 -0.00067587480811784871 0 0.03435769402269951 -0.00061810595986821256 0 0.034438189277638774 -0.00058507751247063151 0 0.03436768181332682 -0.00057224475405267844 0 0.03435769402269951 -0.00061810595986821256 0 0.034438189277638774 -0.00058507751247063151 0 0.03436768181332682 -0.00057224475405267844 0 0.034438189277638774 -0.00058507751247063151 0 0.034409535159081517 -0.00054203596088091461 0 0.034438189277638774 -0.00058507751247063151 0 0.034409535159081517 -0.00054203596088091461 0 0.034469381343407622 -0.00051888182134607103 0 0.034438189277638774 -0.00058507751247063151 0 0.034469381343407622 -0.00051888182134607103 0 0.034499097245626595 -0.00052638242417195769 0 0.034346315796573983 -0.00052892364993665641 0 0.034409535159081517 -0.00054203596088091461 0 0.034424240605565634 -0.00049920808078113233 0 0.034409535159081517 -0.00054203596088091461 0 0.034424240605565634 -0.00049920808078113233 0 0.034469381343407622 -0.00051888182134607103 0 0.034424240605565634 -0.00049920808078113233 0 0.034469381343407622 -0.00051888182134607103 0 0.034477764407355609 -0.00047895431790907631 0 0.034469381343407622 -0.00051888182134607103 0 0.034515110967119636 -0.00049485339537934814 0 0.034477764407355609 -0.00047895431790907631 0 0.034469381343407622 -0.00051888182134607103 0 0.034515110967119636 -0.00049485339537934814 0 0.034499097245626595 -0.00052638242417195769 0 0.034438189277638774 -0.00058507751247063151 0 0.034499097245626595 -0.00052638242417195769 0 0.034573719502114027 -0.0005071250312240433 0 0.034515110967119636 -0.00049485339537934814 0 0.034499097245626595 -0.00052638242417195769 0 0.034573719502114027 -0.0005071250312240433 0 0.034573719502114027 -0.0005071250312240433 0 0.03452316839998399 -0.00045114574889914199 0 0.034617832584581995 -0.00036320751468675453 0 0.034515110967119636 -0.00049485339537934814 0 0.034573719502114027 -0.0005071250312240433 0 0.03452316839998399 -0.00045114574889914199 0 0.034477764407355609 -0.00047895431790907631 0 0.034452887272157076 -0.00045018413265982866 0 0.03452316839998399 -0.00045114574889914199 0 0.034515110967119636 -0.00049485339537934814 0 0.034477764407355609 -0.00047895431790907631 0 0.03452316839998399 -0.00045114574889914199 0 0.034424240605565634 -0.00049920808078113233 0 0.034477764407355609 -0.00047895431790907631 0 0.034452887272157076 -0.00045018413265982866 0 0.034452887272157076 -0.00045018413265982866 0 0.03452316839998399 -0.00045114574889914199 0 0.034479555073121691 -0.00039773467419464733 0 0.03452316839998399 -0.00045114574889914199 0 0.034479555073121691 -0.00039773467419464733 0 0.034617832584581995 -0.00036320751468675453 0 0.034273046956196956 -0.00049693073403906708 0 0.034379115345882331 -0.00044915936568419899 0 0.034333261228486962 -0.00039643451522767197 0 0.034149023912228488 -0.00048175431661228786 0 0.034273046956196956 -0.00049693073403906708 0 0.034333261228486962 -0.00039643451522767197 0 0.034424240605565634 -0.00049920808078113233 0 0.034452887272157076 -0.00045018413265982866 0 0.034379115345882331 -0.00044915936568419899 0 0.034452887272157076 -0.00045018413265982866 0 0.034479555073121691 -0.00039773467419464733 0 0.034379115345882331 -0.00044915936568419899 0 0.034479555073121691 -0.00039773467419464733 0 0.034333261228486962 -0.00039643451522767197 0 0.034448602461600433 -0.00034538474861535017 0 0.034479555073121691 -0.00039773467419464733 0 0.034379115345882331 -0.00044915936568419899 0 0.034333261228486962 -0.00039643451522767197 0 0.034333261228486962 -0.00039643451522767197 0 0.034416434971742016 -0.00030201166560301138 0 0.034448602461600433 -0.00034538474861535017 0 0.034289096709188144 -0.00031849417508770828 0 0.034333261228486962 -0.00039643451522767197 0 0.034416434971742016 -0.00030201166560301138 0 0.034416434971742016 -0.00030201166560301138 0 0.034448602461600433 -0.00034538474861535017 0 0.034541941467043126 -0.00030162920857554782 0 0.034416434971742016 -0.00030201166560301138 0 0.034541941467043126 -0.00030162920857554782 0 0.034563298319727119 -0.00022885376737994325 0 0.034416434971742016 -0.00030201166560301138 0 0.034423014782280117 -0.00022277808952555128 0 0.034563298319727119 -0.00022885376737994325 0 0.034289096709188144 -0.00031849417508770828 0 0.034416434971742016 -0.00030201166560301138 0 0.034423014782280117 -0.00022277808952555128 0 0.034479555073121691 -0.00039773467419464733 0 0.034448602461600433 -0.00034538474861535017 0 0.034541941467043126 -0.00030162920857554782 0 0.034617832584581995 -0.00036320751468675453 0 0.034541941467043126 -0.00030162920857554782 0 0.034624991203776517 -0.00026675876500081912 0 0.034479555073121691 -0.00039773467419464733 0 0.034617832584581995 -0.00036320751468675453 0 0.034541941467043126 -0.00030162920857554782 0 0.034541941467043126 -0.00030162920857554782 0 0.034624991203776517 -0.00026675876500081912 0 0.034563298319727119 -0.00022885376737994325 0 0.034624991203776517 -0.00026675876500081912 0 0.034563298319727119 -0.00022885376737994325 0 0.034663853626253092 -0.0002083883329242868 0 0.034624991203776517 -0.00026675876500081912 0 0.034716867734996437 -0.00024527521920450566 0 0.034663853626253092 -0.0002083883329242868 0 0.034617832584581995 -0.00036320751468675453 0 0.034624991203776517 -0.00026675876500081912 0 0.034716867734996437 -0.00024527521920450566 0 0.034751763278867281 -0.00034463742722055588 0 0.034870782479141084 -0.00019459187973320047 0 0.034790041822797373 -0.00022102523123524947 0 0.034716867734996437 -0.00024527521920450566 0 0.034751763278867281 -0.00034463742722055588 0 0.034790041822797373 -0.00022102523123524947 0 0.034264060974517993 -0.00011666823245939921 0 0.034340220996506493 1.6160545798619216e-05 0 0.034807269573546941 -0.00026080582205784949 0 0.034902823180813732 -0.00015535452374517198 0 0.034879091085829185 -0.00016756144270072134 0 0.034264060974517993 -0.00011666823245939921 0 0.034895736931931848 -0.00018321982160119713 0 0.034617832584581995 -0.00036320751468675453 0 0.034716867734996437 -0.00024527521920450566 0 0.034751763278867281 -0.00034463742722055588 0 0.033692684390358704 -4.9313895066377407e-05 0 0.03369842620863378 -6.2321730970659546e-05 0 0.033793277445870441 6.0696541963791251e-05 0 0.033641670618727006 -4.5304015537676755e-05 0 0.034264060974517993 -0.00011666823245939921 0 0.034127188162903964 -0.00028674823005699789 0 0.034264060974517993 -0.00011666823245939921 0 0.034573719502114027 -0.0005071250312240433 0 0.034617832584581995 -0.00036320751468675453 0 0.034751763278867281 -0.00034463742722055588 0 0.033670188481586059 -5.1329690532962628e-05 0 0.033734111887560009 6.1478567120164344e-05 0 0.033738107624513257 -8.2341576648116918e-06 0 0.033734111887560009 6.1478567120164344e-05 0 0.033738107624513257 -8.2341576648116918e-06 0 0.033799599391983952 1.1591977669092705e-05 0 0.033799599391983952 1.1591977669092705e-05 0 0.033819486643859455 8.1499932803136694e-05 0 0.033885935141825155 3.7641015924304058e-05 0 0.033838759061420781 -5.5123950760228624e-05 0 0.033799599391983952 1.1591977669092705e-05 0 0.033885935141825155 3.7641015924304058e-05 0 0.033775881839078432 -5.2503362758740854e-05 0 0.033738107624513257 -8.2341576648116918e-06 0 0.033799599391983952 1.1591977669092705e-05 0 0.033734111887560009 6.1478567120164344e-05 0 0.033799599391983952 1.1591977669092705e-05 0 0.033819486643859455 8.1499932803136694e-05 0 0.033734111887560009 6.1478567120164344e-05 0 0.033819486643859455 8.1499932803136694e-05 0 0.033800037819946706 0.00015489345041648468 0 0.034870782479141084 -0.00019459187973320047 0 0.034879739563373681 -0.00012387704913191571 0 0.034940904557251164 -7.8557064992642954e-05 0 0.033800037819946706 0.00015489345041648468 0 0.033856221268577957 0.00023891927299322203 0 0.033866712279986021 0.00014352607197696347 0 0.034895736931931848 -0.00018321982160119713 0 0.034928678574326216 -8.7513722811984203e-05 0 0.034902823180813732 -0.00015535452374517198 0 0.034879091085829185 -0.00016756144270072134 0 0.034940904557251164 -7.8557064992642954e-05 0 0.033819486643859455 8.1499932803136694e-05 0 0.033800037819946706 0.00015489345041648468 0 0.033866712279986021 0.00014352607197696347 0 0.034870782479141084 -0.00019459187973320047 0 0.034790041822797373 -0.00022102523123524947 0 0.034832327020387674 -0.00015650203307890928 0 0.034716867734996437 -0.00024527521920450566 0 0.034777594656251333 -0.00017671912440403358 0 0.034726689193664242 -0.00016726193574161829 0 0.034716867734996437 -0.00024527521920450566 0 0.034790041822797373 -0.00022102523123524947 0 0.034777594656251333 -0.00017671912440403358 0 0.034790041822797373 -0.00022102523123524947 0 0.034777594656251333 -0.00017671912440403358 0 0.034832327020387674 -0.00015650203307890928 0 0.034777594656251333 -0.00017671912440403358 0 0.034794505742649549 -0.00013004887057799282 0 0.034726689193664242 -0.00016726193574161829 0 0.034777594656251333 -0.00017671912440403358 0 0.034794505742649549 -0.00013004887057799282 0 0.034832327020387674 -0.00015650203307890928 0 0.034794505742649549 -0.00013004887057799282 0 0.034832327020387674 -0.00015650203307890928 0 0.034849178610041921 -0.0001173271175349874 0 0.034870782479141084 -0.00019459187973320047 0 0.034832327020387674 -0.00015650203307890928 0 0.034879739563373681 -0.00012387704913191571 0 0.034832327020387674 -0.00015650203307890928 0 0.034879739563373681 -0.00012387704913191571 0 0.034849178610041921 -0.0001173271175349874 0 0.034879739563373681 -0.00012387704913191571 0 0.034849178610041921 -0.0001173271175349874 0 0.034893709593762111 -7.3883571805029348e-05 0 0.034836395464603445 -9.6477262443329104e-05 0 0.034859443968072439 -6.5314272218689896e-05 0 0.034893709593762111 -7.3883571805029348e-05 0 0.034849178610041921 -0.0001173271175349874 0 0.034836395464603445 -9.6477262443329104e-05 0 0.034893709593762111 -7.3883571805029348e-05 0 0.034794505742649549 -0.00013004887057799282 0 0.034836395464603445 -9.6477262443329104e-05 0 0.034800555550628609 -8.5221189130630634e-05 0 0.034794505742649549 -0.00013004887057799282 0 0.034849178610041921 -0.0001173271175349874 0 0.034836395464603445 -9.6477262443329104e-05 0 0.034836395464603445 -9.6477262443329104e-05 0 0.034859443968072439 -6.5314272218689896e-05 0 0.034800555550628609 -8.5221189130630634e-05 0 0.034842215902930178 -4.4516640171614922e-05 0 0.034859443968072439 -6.5314272218689896e-05 0 0.034890324940799522 -4.0668828828163997e-05 0 0.034842215902930178 -4.4516640171614922e-05 0 0.034859443968072439 -6.5314272218689896e-05 0 0.034800555550628609 -8.5221189130630634e-05 0 0.034893709593762111 -7.3883571805029348e-05 0 0.034935856363323491 -2.2510327995207251e-05 0 0.034890324940799522 -4.0668828828163997e-05 0 0.034859443968072439 -6.5314272218689896e-05 0 0.034893709593762111 -7.3883571805029348e-05 0 0.034890324940799522 -4.0668828828163997e-05 0 0.034340220996506493 1.6160545798619216e-05 0 0.034566317222119294 -1.3370529676878668e-05 0 0.034893709593762111 -7.3883571805029348e-05 0 0.034948621336795035 -4.1754354688934534e-05 0 0.034935856363323491 -2.2510327995207251e-05 0 0.034893709593762111 -7.3883571805029348e-05 0 0.034940904557251164 -7.8557064992642954e-05 0 0.034948621336795035 -4.1754354688934534e-05 0 0.034902823180813732 -0.00015535452374517198 0 0.034976836991654985 -5.4060866590066099e-05 0 0.034940904557251164 -7.8557064992642954e-05 0 0.034976836991654985 -5.4060866590066099e-05 0 0.034940904557251164 -7.8557064992642954e-05 0 0.034948621336795035 -4.1754354688934534e-05 0 0.034879739563373681 -0.00012387704913191571 0 0.034893709593762111 -7.3883571805029348e-05 0 0.034940904557251164 -7.8557064992642954e-05 0 0.034513734336785479 -0.00013320503509412548 0 0.034423014782280117 -0.00022277808952555128 0 0.034584262296655809 -0.00015418973223895797 0 0.034423014782280117 -0.00022277808952555128 0 0.034563298319727119 -0.00022885376737994325 0 0.034584262296655809 -0.00015418973223895797 0 0.034584262296655809 -0.00015418973223895797 0 0.034660810634865508 -0.00016370244670654691 0 0.034683792111166935 -0.00011331983293435759 0 0.034660810634865508 -0.00016370244670654691 0 0.034736245807458044 -0.00011893763781661921 0 0.034683792111166935 -0.00011331983293435759 0 0.034563298319727119 -0.00022885376737994325 0 0.034660810634865508 -0.00016370244670654691 0 0.034663853626253092 -0.0002083883329242868 0 0.034563298319727119 -0.00022885376737994325 0 0.034584262296655809 -0.00015418973223895797 0 0.034660810634865508 -0.00016370244670654691 0 0.034660810634865508 -0.00016370244670654691 0 0.034663853626253092 -0.0002083883329242868 0 0.034726689193664242 -0.00016726193574161829 0 0.034716867734996437 -0.00024527521920450566 0 0.034663853626253092 -0.0002083883329242868 0 0.034726689193664242 -0.00016726193574161829 0 0.034794505742649549 -0.00013004887057799282 0 0.034726689193664242 -0.00016726193574161829 0 0.034736245807458044 -0.00011893763781661921 0 0.034660810634865508 -0.00016370244670654691 0 0.034726689193664242 -0.00016726193574161829 0 0.034736245807458044 -0.00011893763781661921 0 0.034794505742649549 -0.00013004887057799282 0 0.034736245807458044 -0.00011893763781661921 0 0.034800555550628609 -8.5221189130630634e-05 0 0.034736245807458044 -0.00011893763781661921 0 0.034800555550628609 -8.5221189130630634e-05 0 0.034755250324250975 -6.8599468216526584e-05 0 0.034842215902930178 -4.4516640171614922e-05 0 0.034755250324250975 -6.8599468216526584e-05 0 0.034826614947534563 -1.8914253276413604e-05 0 0.034842215902930178 -4.4516640171614922e-05 0 0.034800555550628609 -8.5221189130630634e-05 0 0.034755250324250975 -6.8599468216526584e-05 0 0.034755250324250975 -6.8599468216526584e-05 0 0.03474013485813942 -4.1727015714911322e-05 0 0.034826614947534563 -1.8914253276413604e-05 0 0.034755250324250975 -6.8599468216526584e-05 0 0.03474013485813942 -4.1727015714911322e-05 0 0.034652877987466191 -8.2131617040304719e-05 0 0.034755250324250975 -6.8599468216526584e-05 0 0.034683792111166935 -0.00011331983293435759 0 0.034652877987466191 -8.2131617040304719e-05 0 0.034736245807458044 -0.00011893763781661921 0 0.034755250324250975 -6.8599468216526584e-05 0 0.034683792111166935 -0.00011331983293435759 0 0.034584262296655809 -0.00015418973223895797 0 0.034683792111166935 -0.00011331983293435759 0 0.034652877987466191 -8.2131617040304719e-05 0 0.034513734336785479 -0.00013320503509412548 0 0.034584262296655809 -0.00015418973223895797 0 0.034652877987466191 -8.2131617040304719e-05 0 0.03474013485813942 -4.1727015714911322e-05 0 0.034652877987466191 -8.2131617040304719e-05 0 0.034698878723210369 -2.6003925188958321e-05 0 0.034561805159634099 -6.012767260590221e-05 0 0.034638386502241401 3.7997676224359112e-06 0 0.034698878723210369 -2.6003925188958321e-05 0 0.034652877987466191 -8.2131617040304719e-05 0 0.034561805159634099 -6.012767260590221e-05 0 0.034698878723210369 -2.6003925188958321e-05 0 0.034513734336785479 -0.00013320503509412548 0 0.034652877987466191 -8.2131617040304719e-05 0 0.034561805159634099 -6.012767260590221e-05 0 0.034761743113965765 2.0697029996873636e-05 0 0.034638386502241401 3.7997676224359112e-06 0 0.034773367275060162 5.8452114627879412e-06 0 0.034638386502241401 3.7997676224359112e-06 0 0.034698878723210369 -2.6003925188958321e-05 0 0.034773367275060162 5.8452114627879412e-06 0 0.034698878723210369 -2.6003925188958321e-05 0 0.034773367275060162 5.8452114627879412e-06 0 0.034788037082913281 -1.2269066431848013e-05 0 0.03474013485813942 -4.1727015714911322e-05 0 0.034698878723210369 -2.6003925188958321e-05 0 0.034788037082913281 -1.2269066431848013e-05 0 0.034773367275060162 5.8452114627879412e-06 0 0.034854314248120806 8.9923143593672552e-06 0 0.034788037082913281 -1.2269066431848013e-05 0 0.034761743113965765 2.0697029996873636e-05 0 0.034773367275060162 5.8452114627879412e-06 0 0.034868180293250096 2.1054128012748322e-05 0 0.034773367275060162 5.8452114627879412e-06 0 0.034854314248120806 8.9923143593672552e-06 0 0.034868180293250096 2.1054128012748322e-05 0 0.034854314248120806 8.9923143593672552e-06 0 0.034788037082913281 -1.2269066431848013e-05 0 0.034826614947534563 -1.8914253276413604e-05 0 0.03474013485813942 -4.1727015714911322e-05 0 0.034788037082913281 -1.2269066431848013e-05 0 0.034826614947534563 -1.8914253276413604e-05 0 0.034842215902930178 -4.4516640171614922e-05 0 0.034826614947534563 -1.8914253276413604e-05 0 0.034903047647684413 -1.2339191035158217e-05 0 0.034826614947534563 -1.8914253276413604e-05 0 0.034915031524495869 8.3254958814187612e-06 0 0.034903047647684413 -1.2339191035158217e-05 0 0.034854314248120806 8.9923143593672552e-06 0 0.034826614947534563 -1.8914253276413604e-05 0 0.034915031524495869 8.3254958814187612e-06 0 0.034999828795802171 3.0250757565106974e-08 0 0.034924650451520683 1.7229327265692428e-05 0 0.034970793632078889 1.6710258945568802e-05 0 0.034915031524495869 8.3254958814187612e-06 0 0.034999828795802171 3.0250757565106974e-08 0 0.034924650451520683 1.7229327265692428e-05 0 0.034854314248120806 8.9923143593672552e-06 0 0.034924650451520683 1.7229327265692428e-05 0 0.034868180293250096 2.1054128012748322e-05 0 0.034854314248120806 8.9923143593672552e-06 0 0.034915031524495869 8.3254958814187612e-06 0 0.034924650451520683 1.7229327265692428e-05 0 0.034999828795802171 3.0250757565106974e-08 0 0.034970793632078889 1.6710258945568802e-05 0 0.034999789340947017 5.8817715564136499e-08 0 0.034500923486533781 3.628041638969397e-05 0 0.034761743113965765 2.0697029996873636e-05 0 0.034970793632078889 1.6710258945568802e-05 0 0.034924650451520683 1.7229327265692428e-05 0 0.034868180293250096 2.1054128012748322e-05 0 0.034970793632078889 1.6710258945568802e-05 0 0.034995128499907741 7.3862640260062863e-06 0 0.034970793632078889 1.6710258945568802e-05 0 0.034999789340947017 5.8817715564136499e-08 0 0.034761743113965765 2.0697029996873636e-05 0 0.034868180293250096 2.1054128012748322e-05 0 0.034970793632078889 1.6710258945568802e-05 0 0.034979245683216052 -1.8467009579363528e-05 0 0.034980290560414108 -1.8549307406095337e-06 0 0.034990721441461266 -1.7675365127636704e-06 0 0.034566317222119294 -1.3370529676878668e-05 0 0.034999661176180065 -3.6200467804106737e-05 0 0.034976836991654985 -5.4060866590066099e-05 0 0.034980290560414108 -1.8549307406095337e-06 0 0.034948621336795035 -4.1754354688934534e-05 0 0.034980290560414108 -1.8549307406095337e-06 0 0.034935856363323491 -2.2510327995207251e-05 0 0.034951748679525885 5.1796118834984344e-06 0 0.034980290560414108 -1.8549307406095337e-06 0 0.034948621336795035 -4.1754354688934534e-05 0 0.034935856363323491 -2.2510327995207251e-05 0 0.034935856363323491 -2.2510327995207251e-05 0 0.034890324940799522 -4.0668828828163997e-05 0 0.034903047647684413 -1.2339191035158217e-05 0 0.034842215902930178 -4.4516640171614922e-05 0 0.034890324940799522 -4.0668828828163997e-05 0 0.034903047647684413 -1.2339191035158217e-05 0 0.034915031524495869 8.3254958814187612e-06 0 0.034903047647684413 -1.2339191035158217e-05 0 0.034951748679525885 5.1796118834984344e-06 0 0.034935856363323491 -2.2510327995207251e-05 0 0.034903047647684413 -1.2339191035158217e-05 0 0.034951748679525885 5.1796118834984344e-06 0 0.034999828795802171 3.0250757565106974e-08 0 0.034951748679525885 5.1796118834984344e-06 0 0.034999968418248116 1.2678605150629289e-08 0 0.034915031524495869 8.3254958814187612e-06 0 0.034999828795802171 3.0250757565106974e-08 0 0.034951748679525885 5.1796118834984344e-06 0 0.034980290560414108 -1.8549307406095337e-06 0 0.034951748679525885 5.1796118834984344e-06 0 0.034999968418248116 1.2678605150629289e-08 0 0.034980290560414108 -1.8549307406095337e-06 0 0.034999968418248116 1.2678605150629289e-08 0 0.034990721441461266 -1.7675365127636704e-06 0 0.034999968418248116 1.2678605150629289e-08 0 0.034990721441461266 -1.7675365127636704e-06 0 0.035000003875171215 -7.7940929568974596e-09 0 0.034871413950979244 -8.1672859937030384e-05 0 0.034999915127362197 -4.420213331850027e-08 0 0.034711728939030892 -0.00013651111340530673 0 0.034999327443014448 1.7270891222029733e-08 0 0.034906607759477348 -7.8014240734844835e-05 0 0.034566317222119294 -1.3370529676878668e-05 0 0.034871413950979244 -8.1672859937030384e-05 0 0.034711728939030892 -0.00013651111340530673 0 0.034698407343581518 -0.00023794628920732112 0 0.034906607759477348 -7.8014240734844835e-05 0 0.034711728939030892 -0.00013651111340530673 0 0.034698407343581518 -0.00023794628920732112 0 0.034669568341754435 -0.00022768515230475039 0 0.034657667012049725 -0.00022648037001905529 0 0.034711728939030892 -0.00013651111340530673 0 0.034669568341754435 -0.00022768515230475039 0 0.034691849025303471 -0.00024113095436256127 0 0.034715897740366243 -0.00023914947711115692 0 0.034698407343581518 -0.00023794628920732112 0 0.034906607759477348 -7.8014240734844835e-05 0 0.035029664174638195 -0.00015684925659675508 0 0.034698407343581518 -0.00023794628920732112 0 0.034395516597224743 -0.00033075274343089922 0 0.03456665175499065 -0.00020503044841791278 0 0.034999327443014448 1.7270891222029733e-08 0 0.034906607759477348 -7.8014240734844835e-05 0 0.035000358404441594 -6.6555854033224686e-08 0 0.034906607759477348 -7.8014240734844835e-05 0 0.035000358404441594 -6.6555854033224686e-08 0 0.035029664174638195 -0.00015684925659675508 0 0.035000358404441594 -6.6555854033224686e-08 0 0.03506235098441602 -7.8897123790948358e-05 0 0.035029664174638195 -0.00015684925659675508 0 0.035000002891795813 1.0158900009089088e-09 0 0.034999996047987751 -2.0957934662301932e-09 0 0.035000770898220457 1.2599384021033036e-07 0 0.035000358404441594 -6.6555854033224686e-08 0 0.03506235098441602 -7.8897123790948358e-05 0 0.035128767822929931 -7.6796587435747345e-05 0 0.034999889937325862 1.2564614364167242e-08 0 0.035132558421885327 -3.3303161590451817e-05 0 0.034715897740366243 -0.00023914947711115692 0 0.034637171511746001 -0.00024963418902484671 0 0.034395516597224743 -0.00033075274343089922 0 0.034283404161981071 -0.00026558490852451698 0 0.034212967378362241 -0.00035137216459755262 0 0.03506235098441602 -7.8897123790948358e-05 0 0.035029664174638195 -0.00015684925659675508 0 0.035127339808737786 -0.00011090478744130568 0 0.034395516597224743 -0.00033075274343089922 0 0.034388771008342534 -0.00018562125679034058 0 0.03456665175499065 -0.00020503044841791278 0 0.034395516597224743 -0.00033075274343089922 0 0.034388771008342534 -0.00018562125679034058 0 0.034283404161981071 -0.00026558490852451698 0 0.034388771008342534 -0.00018562125679034058 0 0.034283404161981071 -0.00026558490852451698 0 0.03426690908094579 -0.00019300850167694496 0 0.034388771008342534 -0.00018562125679034058 0 0.03426690908094579 -0.00019300850167694496 0 0.034320831860730948 -0.00012830047227811801 0 0.03426690908094579 -0.00019300850167694496 0 0.034320831860730948 -0.00012830047227811801 0 0.034188705465427092 -0.00013249386473918666 0 0.034320831860730948 -0.00012830047227811801 0 0.034188705465427092 -0.00013249386473918666 0 0.034275409466256901 -8.0233127029250877e-05 0 0.034388771008342534 -0.00018562125679034058 0 0.034504830218996307 -0.00014215399050456073 0 0.034386336639070321 -8.6463801597102838e-05 0 0.034388771008342534 -0.00018562125679034058 0 0.034320831860730948 -0.00012830047227811801 0 0.034386336639070321 -8.6463801597102838e-05 0 0.034504830218996307 -0.00014215399050456073 0 0.034473032368666806 -8.0411549926684295e-05 0 0.034386336639070321 -8.6463801597102838e-05 0 0.034504830218996307 -0.00014215399050456073 0 0.034548462987287719 -0.00013400747204455352 0 0.034473032368666806 -8.0411549926684295e-05 0 0.034586038005498747 -0.00011641861162912542 0 0.034548462987287719 -0.00013400747204455352 0 0.034473032368666806 -8.0411549926684295e-05 0 0.034504830218996307 -0.00014215399050456073 0 0.034548462987287719 -0.00013400747204455352 0 0.03461470633344596 -0.00019061131825220029 0 0.034586038005498747 -0.00011641861162912542 0 0.034548462987287719 -0.00013400747204455352 0 0.03461470633344596 -0.00019061131825220029 0 0.034657667012049725 -0.00022648037001905529 0 0.034586038005498747 -0.00011641861162912542 0 0.03461470633344596 -0.00019061131825220029 0 0.034566317222119294 -1.3370529676878668e-05 0 0.034193002035153228 1.8810097945052047e-05 0 0.034657667012049725 -0.00022648037001905529 0 0.03461470633344596 -0.00019061131825220029 0 0.034669568341754435 -0.00022768515230475039 0 0.03461470633344596 -0.00019061131825220029 0 0.034669568341754435 -0.00022768515230475039 0 0.03456665175499065 -0.00020503044841791278 0 0.034698407343581518 -0.00023794628920732112 0 0.034669568341754435 -0.00022768515230475039 0 0.03456665175499065 -0.00020503044841791278 0 0.034388771008342534 -0.00018562125679034058 0 0.034504830218996307 -0.00014215399050456073 0 0.03456665175499065 -0.00020503044841791278 0 0.034504830218996307 -0.00014215399050456073 0 0.03461470633344596 -0.00019061131825220029 0 0.03456665175499065 -0.00020503044841791278 0 0.034501258003008003 -4.2927983882007798e-05 0 0.034743478999522161 -0.00012190421771073353 0 0.034501258003008003 -4.2927983882007798e-05 0 0.034934710798689546 3.3694756744690518e-05 0 0.034959209468178404 3.3875694645082785e-05 0 0.034958206501692402 1.4045833189380467e-05 0 0.034989703380467613 1.2895140199239672e-05 0 0.034999864049231721 -1.6141855604563513e-08 0 0.034996956217006339 4.4910570695296523e-06 0 0.034989703380467613 1.2895140199239672e-05 0 0.034958206501692402 1.4045833189380467e-05 0 0.034999864049231721 -1.6141855604563513e-08 0 0.034989703380467613 1.2895140199239672e-05 0 0.034999864049231721 -1.6141855604563513e-08 0 0.03500002650490297 1.2117788197403133e-08 0 0.034996956217006339 4.4910570695296523e-06 0 0.03500002650490297 1.2117788197403133e-08 0 0.034996956217006339 4.4910570695296523e-06 0 0.034999809333370803 2.09288459599722e-06 0 0.034996956217006339 4.4910570695296523e-06 0 0.034997962835683155 7.9590706490931358e-06 0 0.034989703380467613 1.2895140199239672e-05 0 0.034996956217006339 4.4910570695296523e-06 0 0.034997962835683155 7.9590706490931358e-06 0 0.034999809333370803 2.09288459599722e-06 0 0.034743478999522161 -0.00012190421771073353 0 0.035025700751722157 -2.2648273115717759e-05 0 0.034959209468178404 3.3875694645082785e-05 0 0.035006027047364337 1.3367520582124481e-05 0 0.034989703380467613 1.2895140199239672e-05 0 0.03387844823795861 -0.00031737473893545106 0 0.034044756278519051 -0.0003724823088845457 0 0.033966821419746121 -0.00030172407897089592 0 0.034044756278519051 -0.0003724823088845457 0 0.034029177429011508 -0.0003052409836956851 0 0.034068234154302046 -0.00032160294832417563 0 0.034044756278519051 -0.0003724823088845457 0 0.033966821419746121 -0.00030172407897089592 0 0.034029177429011508 -0.0003052409836956851 0 0.034044756278519051 -0.0003724823088845457 0 0.03411466542250096 -0.0003202396686939502 0 0.034212967378362241 -0.00035137216459755262 0 0.034743478999522161 -0.00012190421771073353 0 0.034637171511746001 -0.00024963418902484671 0 0.034029177429011508 -0.0003052409836956851 0 0.034068234154302046 -0.00032160294832417563 0 0.03408440552387814 -0.00028844069217201561 0 0.034044756278519051 -0.0003724823088845457 0 0.034068234154302046 -0.00032160294832417563 0 0.03411466542250096 -0.0003202396686939502 0 0.034068234154302046 -0.00032160294832417563 0 0.03411466542250096 -0.0003202396686939502 0 0.03408440552387814 -0.00028844069217201561 0 0.03500002650490297 1.2117788197403133e-08 0 0.034999809333370803 2.09288459599722e-06 0 0.034999996047987751 -2.0957934662301932e-09 0 0.034997962835683155 7.9590706490931358e-06 0 0.034999809333370803 2.09288459599722e-06 0 0.035000770898220457 1.2599384021033036e-07 0 0.034743478999522161 -0.00012190421771073353 0 0.035132558421885327 -3.3303161590451817e-05 0 0.03506235098441602 -7.8897123790948358e-05 0 0.035128767822929931 -7.6796587435747345e-05 0 0.035127339808737786 -0.00011090478744130568 0 0.034999809333370803 2.09288459599722e-06 0 0.034999996047987751 -2.0957934662301932e-09 0 0.035000770898220457 1.2599384021033036e-07 0 0.03411466542250096 -0.0003202396686939502 0 0.034212967378362241 -0.00035137216459755262 0 0.034167116872393703 -0.00025707272610260188 0 0.035166262448412776 -0.00010177241762573349 0 0.035128767822929931 -7.6796587435747345e-05 0 0.035127339808737786 -0.00011090478744130568 0 0.034283404161981071 -0.00026558490852451698 0 0.034212967378362241 -0.00035137216459755262 0 0.034167116872393703 -0.00025707272610260188 0 0.03426690908094579 -0.00019300850167694496 0 0.034167116872393703 -0.00025707272610260188 0 0.034182760498092095 -0.00019210974666506874 0 0.034283404161981071 -0.00026558490852451698 0 0.03426690908094579 -0.00019300850167694496 0 0.034167116872393703 -0.00025707272610260188 0 0.034167116872393703 -0.00025707272610260188 0 0.034182760498092095 -0.00019210974666506874 0 0.0341068134669422 -0.00018697848302833418 0 0.03426690908094579 -0.00019300850167694496 0 0.034188705465427092 -0.00013249386473918666 0 0.034182760498092095 -0.00019210974666506874 0 0.034188705465427092 -0.00013249386473918666 0 0.034182760498092095 -0.00019210974666506874 0 0.0341068134669422 -0.00018697848302833418 0 0.034188705465427092 -0.00013249386473918666 0 0.0341068134669422 -0.00018697848302833418 0 0.034079772683180402 -0.00010097051067903094 0 0.0341068134669422 -0.00018697848302833418 0 0.034050828143942329 -0.00015311392119255206 0 0.034079772683180402 -0.00010097051067903094 0 0.034050828143942329 -0.00015311392119255206 0 0.034014734850439342 -9.4604913897656693e-05 0 0.034079772683180402 -0.00010097051067903094 0 0.0341068134669422 -0.00018697848302833418 0 0.034050828143942329 -0.00015311392119255206 0 0.034032255347755072 -0.00020732855366118594 0 0.0341068134669422 -0.00018697848302833418 0 0.034072225912365438 -0.00023619498825739251 0 0.034032255347755072 -0.00020732855366118594 0 0.034167116872393703 -0.00025707272610260188 0 0.0341068134669422 -0.00018697848302833418 0 0.034072225912365438 -0.00023619498825739251 0 0.034167116872393703 -0.00025707272610260188 0 0.034072225912365438 -0.00023619498825739251 0 0.03408440552387814 -0.00028844069217201561 0 0.03411466542250096 -0.0003202396686939502 0 0.034167116872393703 -0.00025707272610260188 0 0.03408440552387814 -0.00028844069217201561 0 0.034072225912365438 -0.00023619498825739251 0 0.03408440552387814 -0.00028844069217201561 0 0.034043644908094098 -0.00025935285826815459 0 0.034029177429011508 -0.0003052409836956851 0 0.03408440552387814 -0.00028844069217201561 0 0.034043644908094098 -0.00025935285826815459 0 0.034029177429011508 -0.0003052409836956851 0 0.034043644908094098 -0.00025935285826815459 0 0.034000163652699145 -0.00025952948768697526 0 0.033966821419746121 -0.00030172407897089592 0 0.034029177429011508 -0.0003052409836956851 0 0.034000163652699145 -0.00025952948768697526 0 0.033966821419746121 -0.00030172407897089592 0 0.034000163652699145 -0.00025952948768697526 0 0.033963113253761668 -0.00021516154928915781 0 0.034000163652699145 -0.00025952948768697526 0 0.033963113253761668 -0.00021516154928915781 0 0.034032255347755072 -0.00020732855366118594 0 0.034072225912365438 -0.00023619498825739251 0 0.034043644908094098 -0.00025935285826815459 0 0.034032255347755072 -0.00020732855366118594 0 0.034043644908094098 -0.00025935285826815459 0 0.034000163652699145 -0.00025952948768697526 0 0.034032255347755072 -0.00020732855366118594 0 0.034050828143942329 -0.00015311392119255206 0 0.034032255347755072 -0.00020732855366118594 0 0.033992519957376177 -0.00014619453203213348 0 0.034050828143942329 -0.00015311392119255206 0 0.033992519957376177 -0.00014619453203213348 0 0.034014734850439342 -9.4604913897656693e-05 0 0.033963113253761668 -0.00021516154928915781 0 0.034032255347755072 -0.00020732855366118594 0 0.033992519957376177 -0.00014619453203213348 0 0.033963113253761668 -0.00021516154928915781 0 0.033992519957376177 -0.00014619453203213348 0 0.033876904766396203 -0.00015132190236896375 0 0.033992519957376177 -0.00014619453203213348 0 0.033876904766396203 -0.00015132190236896375 0 0.033946137873157055 -5.1140769670233019e-05 0 0.03387844823795861 -0.00031737473893545106 0 0.033963113253761668 -0.00021516154928915781 0 0.033876904766396203 -0.00015132190236896375 0 0.03387844823795861 -0.00031737473893545106 0 0.033966821419746121 -0.00030172407897089592 0 0.033963113253761668 -0.00021516154928915781 0 0.034501258003008003 -4.2927983882007798e-05 0 0.034153177614488231 -9.9244056044111979e-05 0 0.033847141688955376 9.9834140399577493e-06 0 0.033907652661032711 8.3902921081688921e-06 0 0.033946544541238723 3.5802012921719115e-05 0 0.033847141688955376 9.9834140399577493e-06 0 0.033907652661032711 8.3902921081688921e-06 0 0.033884322213353649 4.6526181575848393e-05 0 0.033907652661032711 8.3902921081688921e-06 0 0.033884322213353649 4.6526181575848393e-05 0 0.033946137873157055 -5.1140769670233019e-05 0 0.034480513266319096 2.7841022916168403e-05 0 0.034159767879652345 -3.859670489684295e-05 0 0.034362961803742188 -5.8551589857943492e-06 0 0.033876904766396203 -0.00015132190236896375 0 0.033884322213353649 4.6526181575848393e-05 0 0.033946137873157055 -5.1140769670233019e-05 0 0.034153177614488231 -9.9244056044111979e-05 0 0.034013155043869668 -1.2628872876680365e-05 0 0.033946137873157055 -5.1140769670233019e-05 0 0.033999973645105264 -4.0934443766257429e-05 0 0.033949500166630397 -1.0414471050780486e-05 0 0.033946137873157055 -5.1140769670233019e-05 0 0.034014734850439342 -9.4604913897656693e-05 0 0.033999973645105264 -4.0934443766257429e-05 0 0.033907652661032711 8.3902921081688921e-06 0 0.033946137873157055 -5.1140769670233019e-05 0 0.033949500166630397 -1.0414471050780486e-05 0 0.033992519957376177 -0.00014619453203213348 0 0.033946137873157055 -5.1140769670233019e-05 0 0.034014734850439342 -9.4604913897656693e-05 0 0.034014734850439342 -9.4604913897656693e-05 0 0.033999973645105264 -4.0934443766257429e-05 0 0.034079772683180402 -0.00010097051067903094 0 0.033999973645105264 -4.0934443766257429e-05 0 0.033996838621533035 8.4383775407448603e-06 0 0.033949500166630397 -1.0414471050780486e-05 0 0.033999973645105264 -4.0934443766257429e-05 0 0.033996838621533035 8.4383775407448603e-06 0 0.034061205387049619 -5.559671746002758e-06 0 0.033907652661032711 8.3902921081688921e-06 0 0.033949500166630397 -1.0414471050780486e-05 0 0.033946544541238723 3.5802012921719115e-05 0 0.033996838621533035 8.4383775407448603e-06 0 0.033949500166630397 -1.0414471050780486e-05 0 0.033946544541238723 3.5802012921719115e-05 0 0.033996838621533035 8.4383775407448603e-06 0 0.033946544541238723 3.5802012921719115e-05 0 0.034035069906386176 6.9956803516599413e-05 0 0.033996838621533035 8.4383775407448603e-06 0 0.034061205387049619 -5.559671746002758e-06 0 0.034035069906386176 6.9956803516599413e-05 0 0.034119909272967361 6.0293306203494967e-05 0 0.034061205387049619 -5.559671746002758e-06 0 0.034035069906386176 6.9956803516599413e-05 0 0.034119909272967361 6.0293306203494967e-05 0 0.034061205387049619 -5.559671746002758e-06 0 0.034150159671983468 -2.5039858196747691e-05 0 0.034061205387049619 -5.559671746002758e-06 0 0.034079772683180402 -0.00010097051067903094 0 0.034150159671983468 -2.5039858196747691e-05 0 0.034188705465427092 -0.00013249386473918666 0 0.034079772683180402 -0.00010097051067903094 0 0.034150159671983468 -2.5039858196747691e-05 0 0.033999973645105264 -4.0934443766257429e-05 0 0.034061205387049619 -5.559671746002758e-06 0 0.034079772683180402 -0.00010097051067903094 0 0.034150159671983468 -2.5039858196747691e-05 0 0.034275409466256901 -8.0233127029250877e-05 0 0.034272866464503247 -2.1338762421521199e-05 0 0.034188705465427092 -0.00013249386473918666 0 0.034150159671983468 -2.5039858196747691e-05 0 0.034275409466256901 -8.0233127029250877e-05 0 0.034150159671983468 -2.5039858196747691e-05 0 0.034245895984724821 2.4970187237877946e-05 0 0.034272866464503247 -2.1338762421521199e-05 0 0.03413848884276352 -4.5802887235945973e-05 0 0.034263481099491851 0.00010310649449909149 0 0.034119909272967361 6.0293306203494967e-05 0 0.034150159671983468 -2.5039858196747691e-05 0 0.034192132908885363 6.4117712962725353e-05 0 0.034119909272967361 6.0293306203494967e-05 0 0.034192132908885363 6.4117712962725353e-05 0 0.034174979839388178 0.00013497014332115753 0 0.034119909272967361 6.0293306203494967e-05 0 0.034174979839388178 0.00013497014332115753 0 0.034098959707019968 0.00014484150384028855 0 0.034192132908885363 6.4117712962725353e-05 0 0.034174979839388178 0.00013497014332115753 0 0.034250364389264071 0.00014456820029233589 0 0.034174979839388178 0.00013497014332115753 0 0.034163576841487658 0.00022500825070260466 0 0.034098959707019968 0.00014484150384028855 0 0.034174979839388178 0.00013497014332115753 0 0.034163576841487658 0.00022500825070260466 0 0.034250364389264071 0.00014456820029233589 0 0.034082720177625557 0.00021375442097702996 0 0.033990689952132364 0.00018432809941049927 0 0.034076900781244805 0.00029772937723181593 0 0.034082720177625557 0.00021375442097702996 0 0.034098959707019968 0.00014484150384028855 0 0.033990689952132364 0.00018432809941049927 0 0.034163576841487658 0.00022500825070260466 0 0.034082720177625557 0.00021375442097702996 0 0.034098959707019968 0.00014484150384028855 0 0.034098959707019968 0.00014484150384028855 0 0.034035069906386176 6.9956803516599413e-05 0 0.033990689952132364 0.00018432809941049927 0 0.034119909272967361 6.0293306203494967e-05 0 0.034098959707019968 0.00014484150384028855 0 0.034035069906386176 6.9956803516599413e-05 0 0.033946544541238723 3.5802012921719115e-05 0 0.034035069906386176 6.9956803516599413e-05 0 0.033990689952132364 0.00018432809941049927 0 0.033803175272896391 -2.8092416596776419e-05 0 0.033810654159269996 3.4271051436815308e-05 0 0.033847141688955376 9.9834140399577493e-06 0 0.033946544541238723 3.5802012921719115e-05 0 0.033990689952132364 0.00018432809941049927 0 0.033784386281616785 -0.00036914641261110863 0 0.033772902827500527 -0.00022926020309825735 0 0.033560951884026059 -0.00045723599296046413 0 0.033491847884748085 -0.00024578640768440838 0 0.033772902827500527 -0.00022926020309825735 0 0.033560951884026059 -0.00045723599296046413 0 0.033784386281616785 -0.00036914641261110863 0 0.033772902827500527 -0.00022926020309825735 0 0.033953725431914002 -0.00022865753979966141 0 0.034013155043869668 -1.2628872876680365e-05 0 0.033811462600961927 -0.00023122520892608704 0 0.034159767879652345 -3.859670489684295e-05 0 0.033772902827500527 -0.00022926020309825735 0 0.034067252144474085 -0.00013085474112241462 0 0.033772902827500527 -0.00022926020309825735 0 0.034067252144474085 -0.00013085474112241462 0 0.033953725431914002 -0.00022865753979966141 0 0.033847141688955376 9.9834140399577493e-06 0 0.033491847884748085 -0.00024578640768440838 0 0.033772902827500527 -0.00022926020309825735 0 0.033847141688955376 9.9834140399577493e-06 0 0.033884322213353649 4.6526181575848393e-05 0 0.033772902827500527 -0.00022926020309825735 0 0.034381163117169662 -2.1725650289626861e-05 0 0.034428563536132079 -1.7364746084508947e-05 0 0.034322755674816179 -1.5764542354385059e-05 0 0.034160486938680915 -1.4685966616258545e-06 0 0.034083369198571654 -7.636937916123282e-05 0 0.033819486643859455 8.1499932803136694e-05 0 0.033866712279986021 0.00014352607197696347 0 0.033885935141825155 3.7641015924304058e-05 0 0.034586038005498747 -0.00011641861162912542 0 0.034428563536132079 -1.7364746084508947e-05 0 0.034473032368666806 -8.0411549926684295e-05 0 0.034193002035153228 1.8810097945052047e-05 0 0.034160486938680915 -1.4685966616258545e-06 0 0.034381163117169662 -2.1725650289626861e-05 0 0.034428563536132079 -1.7364746084508947e-05 0 0.034473032368666806 -8.0411549926684295e-05 0 0.034381163117169662 -2.1725650289626861e-05 0 0.034473032368666806 -8.0411549926684295e-05 0 0.034386336639070321 -8.6463801597102838e-05 0 0.034381163117169662 -2.1725650289626861e-05 0 0.034386336639070321 -8.6463801597102838e-05 0 0.03434318757502227 -3.4441642909015214e-05 0 0.034386336639070321 -8.6463801597102838e-05 0 0.034275409466256901 -8.0233127029250877e-05 0 0.03434318757502227 -3.4441642909015214e-05 0 0.034320831860730948 -0.00012830047227811801 0 0.034386336639070321 -8.6463801597102838e-05 0 0.034275409466256901 -8.0233127029250877e-05 0 0.034275409466256901 -8.0233127029250877e-05 0 0.034272866464503247 -2.1338762421521199e-05 0 0.03434318757502227 -3.4441642909015214e-05 0 0.034272866464503247 -2.1338762421521199e-05 0 0.03434318757502227 -3.4441642909015214e-05 0 0.034366594378432855 5.8480195490376526e-06 0 0.034245895984724821 2.4970187237877946e-05 0 0.034272866464503247 -2.1338762421521199e-05 0 0.034366594378432855 5.8480195490376526e-06 0 0.034381163117169662 -2.1725650289626861e-05 0 0.03434318757502227 -3.4441642909015214e-05 0 0.034366594378432855 5.8480195490376526e-06 0 0.034381163117169662 -2.1725650289626861e-05 0 0.034366594378432855 5.8480195490376526e-06 0 0.034322755674816179 -1.5764542354385059e-05 0 0.034366594378432855 5.8480195490376526e-06 0 0.034358313153975265 -8.6216061982434745e-05 0 0.034322755674816179 -1.5764542354385059e-05 0 0.034366594378432855 5.8480195490376526e-06 0 0.034496243076554134 -8.2871848132373672e-05 0 0.034358313153975265 -8.6216061982434745e-05 0 0.034245895984724821 2.4970187237877946e-05 0 0.034366594378432855 5.8480195490376526e-06 0 0.034305978482651607 7.3920979104358242e-05 0 0.034263481099491851 0.00010310649449909149 0 0.034026366881860871 -0.00020983289833512099 0 0.034391053006838514 -3.5449890508249374e-05 0 0.034026366881860871 -0.00020983289833512099 0 0.033431194387490364 -0.0011136155295655226 0 0.03342608861409295 -0.0010751884308159889 0 0.033473478974868409 -0.0010720920627541612 0 0.033380443860415832 -0.0010773502610640841 0 0.033431194387490364 -0.0011136155295655226 0 0.03342608861409295 -0.0010751884308159889 0 0.033812317504489355 -0.00047012456892182462 0 0.034026366881860871 -0.00020983289833512099 0 0.034496243076554134 -8.2871848132373672e-05 0 0.034358313153975265 -8.6216061982434745e-05 0 0.034388077266109117 -0.0002883850068150534 0 0.034026366881860871 -0.00020983289833512099 0 0.033897372065584602 -0.00075235188450124835 0 0.034358313153975265 -8.6216061982434745e-05 0 0.034259864906326327 -0.00011768501439597494 0 0.034388077266109117 -0.0002883850068150534 0 0.034259864906326327 -0.00011768501439597494 0 0.034040737432734391 -0.00028714914117329674 0 0.034388077266109117 -0.0002883850068150534 0 0.034259864906326327 -0.00011768501439597494 0 0.034243740380588458 -4.1972653384659607e-05 0 0.034040737432734391 -0.00028714914117329674 0 0.034358313153975265 -8.6216061982434745e-05 0 0.034259864906326327 -0.00011768501439597494 0 0.034322755674816179 -1.5764542354385059e-05 0 0.034259864906326327 -0.00011768501439597494 0 0.034322755674816179 -1.5764542354385059e-05 0 0.034243740380588458 -4.1972653384659607e-05 0 0.033838759061420781 -5.5123950760228624e-05 0 0.033885935141825155 3.7641015924304058e-05 0 0.033917021911513023 -6.6907466074896479e-05 0 0.034428563536132079 -1.7364746084508947e-05 0 0.034322755674816179 -1.5764542354385059e-05 0 0.034243740380588458 -4.1972653384659607e-05 0 0.033838759061420781 -5.5123950760228624e-05 0 0.033818688985483132 -0.00013218755948321494 0 0.033917021911513023 -6.6907466074896479e-05 0 0.034083369198571654 -7.636937916123282e-05 0 0.034058324702727412 -0.00028514803934843243 0 0.033917021911513023 -6.6907466074896479e-05 0 0.033865675496257804 -0.00020317155130525837 0 0.034040737432734391 -0.00028714914117329674 0 0.033818688985483132 -0.00013218755948321494 0 0.033917021911513023 -6.6907466074896479e-05 0 0.033865675496257804 -0.00020317155130525837 0 0.033723829617577125 -0.00040201597181094463 0 0.033865675496257804 -0.00020317155130525837 0 0.033868837313004288 -0.00048087814091938403 0 0.033865675496257804 -0.00020317155130525837 0 0.033868837313004288 -0.00048087814091938403 0 0.034040737432734391 -0.00028714914117329674 0 0.033723829617577125 -0.00040201597181094463 0 0.033667786560798559 -0.00065063598973955539 0 0.033868837313004288 -0.00048087814091938403 0 0.033868837313004288 -0.00048087814091938403 0 0.034040737432734391 -0.00028714914117329674 0 0.034143205191707313 -0.00061211101742142838 0 0.034040737432734391 -0.00028714914117329674 0 0.034143205191707313 -0.00061211101742142838 0 0.034388077266109117 -0.0002883850068150534 0 0.03384969110272542 -0.0008018081118522011 0 0.033741825754514114 -0.00090457152573930654 0 0.033542936144910732 -0.0010381818268466569 0 0.033530206504517567 -0.00095696863019360714 0 0.033471595392294641 -0.0010302433376757861 0 0.033667786560798559 -0.00065063598973955539 0 0.03384156471842803 -0.0006716565323613093 0 0.033724069495764057 -0.00091037411188922492 0 0.034143205191707313 -0.00061211101742142838 0 0.03384156471842803 -0.0006716565323613093 0 0.033724069495764057 -0.00091037411188922492 0 0.033868837313004288 -0.00048087814091938403 0 0.034143205191707313 -0.00061211101742142838 0 0.03384156471842803 -0.0006716565323613093 0 0.033667786560798559 -0.00065063598973955539 0 0.033868837313004288 -0.00048087814091938403 0 0.03384156471842803 -0.0006716565323613093 0 0.033667786560798559 -0.00065063598973955539 0 0.033700762191361464 -0.00093833892572004688 0 0.033724069495764057 -0.00091037411188922492 0 0.033052557101027211 -0.00048888052670470136 0 0.0330791564717446 -0.0006314451671077389 0 0.033196904183683637 -0.00065291374598768523 0 0.033331086186786901 -0.00057453761481182132 0 0.033454630226263486 -0.00080356724339623452 0 0.0330791564717446 -0.0006314451671077389 0 0.033124835630666156 -0.00067599547834064344 0 0.033196904183683637 -0.00065291374598768523 0 0.033700762191361464 -0.00093833892572004688 0 0.033636513975522371 -0.00091622097358697355 0 0.033577581756942351 -0.00090292974919593154 0 0.033700762191361464 -0.00093833892572004688 0 0.033724069495764057 -0.00091037411188922492 0 0.033636513975522371 -0.00091622097358697355 0 0.033724069495764057 -0.00091037411188922492 0 0.033530206504517567 -0.00095696863019360714 0 0.033636513975522371 -0.00091622097358697355 0 0.033542936144910732 -0.0010381818268466569 0 0.033724069495764057 -0.00091037411188922492 0 0.033530206504517567 -0.00095696863019360714 0 0.033530206504517567 -0.00095696863019360714 0 0.033577527238478892 -0.00091040414596097103 0 0.033517951396997932 -0.00090783644028013166 0 0.033530206504517567 -0.00095696863019360714 0 0.033517951396997932 -0.00090783644028013166 0 0.033483593103277726 -0.00092758187468255969 0 0.033530206504517567 -0.00095696863019360714 0 0.033577527238478892 -0.00091040414596097103 0 0.033636513975522371 -0.00091622097358697355 0 0.033700762191361464 -0.00093833892572004688 0 0.033577581756942351 -0.00090292974919593154 0 0.033436347044769478 -0.00085414549064331575 0 0.033577527238478892 -0.00091040414596097103 0 0.033636513975522371 -0.00091622097358697355 0 0.033577581756942351 -0.00090292974919593154 0 0.033577527238478892 -0.00091040414596097103 0 0.033540234680260177 -0.00089671494333868533 0 0.033577581756942351 -0.00090292974919593154 0 0.033540234680260177 -0.00089671494333868533 0 0.033577581756942351 -0.00090292974919593154 0 0.033513159925369657 -0.00088196748268538753 0 0.033540234680260177 -0.00089671494333868533 0 0.033517951396997932 -0.00090783644028013166 0 0.033486961229125804 -0.00087868760521534665 0 0.033517951396997932 -0.00090783644028013166 0 0.033486961229125804 -0.00087868760521534665 0 0.03346791357042065 -0.0008897205641054854 0 0.033577527238478892 -0.00091040414596097103 0 0.033540234680260177 -0.00089671494333868533 0 0.033517951396997932 -0.00090783644028013166 0 0.033486961229125804 -0.00087868760521534665 0 0.033463808092108076 -0.00087278286040006381 0 0.033454320717777784 -0.00086654285800218426 0 0.033486961229125804 -0.00087868760521534665 0 0.033465584472561587 -0.00086568638692072913 0 0.033454320717777784 -0.00086654285800218426 0 0.033540234680260177 -0.00089671494333868533 0 0.033486961229125804 -0.00087868760521534665 0 0.033513159925369657 -0.00088196748268538753 0 0.033486961229125804 -0.00087868760521534665 0 0.033513159925369657 -0.00088196748268538753 0 0.033465584472561587 -0.00086568638692072913 0 0.033577581756942351 -0.00090292974919593154 0 0.033513159925369657 -0.00088196748268538753 0 0.033436347044769478 -0.00085414549064331575 0 0.033513159925369657 -0.00088196748268538753 0 0.033436347044769478 -0.00085414549064331575 0 0.033465584472561587 -0.00086568638692072913 0 0.033196904183683637 -0.00065291374598768523 0 0.033224353217918862 -0.00079530428971615595 0 0.033436347044769478 -0.00085414549064331575 0 0.033454630226263486 -0.00080356724339623452 0 0.033449733457593195 -0.00086394643366215446 0 0.033196904183683637 -0.00065291374598768523 0 0.033224353217918862 -0.00079530428971615595 0 0.033153656976207292 -0.00070966065564002727 0 0.033068947506847558 -0.00072659608179619604 0 0.033224353217918862 -0.00079530428971615595 0 0.033153656976207292 -0.00070966065564002727 0 0.033068947506847558 -0.00072659608179619604 0 0.033124835630666156 -0.00067599547834064344 0 0.033153656976207292 -0.00070966065564002727 0 0.033124835630666156 -0.00067599547834064344 0 0.033196904183683637 -0.00065291374598768523 0 0.033153656976207292 -0.00070966065564002727 0 0.033404256633780556 -0.00088533359415273014 0 0.03344197014128044 -0.0008851212725090391 0 0.033449734269656452 -0.00091087645794848797 0 0.033404256633780556 -0.00088533359415273014 0 0.03344197014128044 -0.0008851212725090391 0 0.033438642437753123 -0.00087172412129059458 0 0.03344197014128044 -0.0008851212725090391 0 0.033451326363709934 -0.00087301635446032373 0 0.033438642437753123 -0.00087172412129059458 0 0.03344197014128044 -0.0008851212725090391 0 0.03346791357042065 -0.0008897205641054854 0 0.033451326363709934 -0.00087301635446032373 0 0.033486961229125804 -0.00087868760521534665 0 0.033463808092108076 -0.00087278286040006381 0 0.03346791357042065 -0.0008897205641054854 0 0.033463808092108076 -0.00087278286040006381 0 0.03346791357042065 -0.0008897205641054854 0 0.033451326363709934 -0.00087301635446032373 0 0.033517951396997932 -0.00090783644028013166 0 0.03346791357042065 -0.0008897205641054854 0 0.033483593103277726 -0.00092758187468255969 0 0.03346791357042065 -0.0008897205641054854 0 0.033449734269656452 -0.00091087645794848797 0 0.033483593103277726 -0.00092758187468255969 0 0.03344197014128044 -0.0008851212725090391 0 0.03346791357042065 -0.0008897205641054854 0 0.033449734269656452 -0.00091087645794848797 0 0.033449734269656452 -0.00091087645794848797 0 0.033483593103277726 -0.00092758187468255969 0 0.033444895667220149 -0.00096780666025574817 0 0.033530206504517567 -0.00095696863019360714 0 0.033483593103277726 -0.00092758187468255969 0 0.033444895667220149 -0.00096780666025574817 0 0.033404256633780556 -0.00088533359415273014 0 0.033449734269656452 -0.00091087645794848797 0 0.033444895667220149 -0.00096780666025574817 0 0.033404256633780556 -0.00088533359415273014 0 0.033444895667220149 -0.00096780666025574817 0 0.033362770091449501 -0.0009620603178571405 0 0.033444895667220149 -0.00096780666025574817 0 0.033471595392294641 -0.0010302433376757861 0 0.033418942331174741 -0.0010347690902881535 0 0.033444895667220149 -0.00096780666025574817 0 0.033418942331174741 -0.0010347690902881535 0 0.033362770091449501 -0.0009620603178571405 0 0.033530206504517567 -0.00095696863019360714 0 0.033444895667220149 -0.00096780666025574817 0 0.033471595392294641 -0.0010302433376757861 0 0.03384969110272542 -0.0008018081118522011 0 0.033897372065584602 -0.00075235188450124835 0 0.033542936144910732 -0.0010381818268466569 0 0.033471595392294641 -0.0010302433376757861 0 0.033473478974868409 -0.0010720920627541612 0 0.033471595392294641 -0.0010302433376757861 0 0.033473478974868409 -0.0010720920627541612 0 0.033418942331174741 -0.0010347690902881535 0 0.033380443860415832 -0.0010773502610640841 0 0.03342608861409295 -0.0010751884308159889 0 0.033418942331174741 -0.0010347690902881535 0 0.03342608861409295 -0.0010751884308159889 0 0.033473478974868409 -0.0010720920627541612 0 0.033418942331174741 -0.0010347690902881535 0 0.033380443860415832 -0.0010773502610640841 0 0.033418942331174741 -0.0010347690902881535 0 0.0333719522265798 -0.0010270732456843642 0 0.033380443860415832 -0.0010773502610640841 0 0.0333719522265798 -0.0010270732456843642 0 0.033325561961689627 -0.0010306120429645128 0 0.033812317504489355 -0.00047012456892182462 0 0.033334483646539542 -0.00037991887570906974 0 0.034163576841487658 0.00022500825070260466 0 0.034082720177625557 0.00021375442097702996 0 0.034076900781244805 0.00029772937723181593 0 0.033810654159269996 3.4271051436815308e-05 0 0.033334483646539542 -0.00037991887570906974 0 0.032448392297246775 0.00012184518671903243 0 0.032824004112381691 -0.00023945644861913181 0 0.032002668600937027 -0.00053201048243710477 0 0.033334483646539542 -0.00037991887570906974 0 0.033025450133638709 -0.00038299587289936706 0 0.0333719522265798 -0.0010270732456843642 0 0.033325561961689627 -0.0010306120429645128 0 0.033362770091449501 -0.0009620603178571405 0 0.033334483646539542 -0.00037991887570906974 0 0.032553625876088454 -0.00080374993906216557 0 0.033418942331174741 -0.0010347690902881535 0 0.0333719522265798 -0.0010270732456843642 0 0.033362770091449501 -0.0009620603178571405 0 0.033784386281616785 -0.00036914641261110863 0 0.033560951884026059 -0.00045723599296046413 0 0.033762444506308942 -0.00053216682772949621 0 0.033560951884026059 -0.00045723599296046413 0 0.033468553046466593 -0.00059277886096468352 0 0.033762444506308942 -0.00053216682772949621 0 0.033491847884748085 -0.00024578640768440838 0 0.033248786325722715 -0.00051600777013345253 0 0.033423190963911165 -0.0004996029855273156 0 0.033491847884748085 -0.00024578640768440838 0 0.033560951884026059 -0.00045723599296046413 0 0.033423190963911165 -0.0004996029855273156 0 0.033560951884026059 -0.00045723599296046413 0 0.033423190963911165 -0.0004996029855273156 0 0.033468553046466593 -0.00059277886096468352 0 0.033248786325722715 -0.00051600777013345253 0 0.033423190963911165 -0.0004996029855273156 0 0.033348123889067161 -0.0006153775969748186 0 0.033348123889067161 -0.0006153775969748186 0 0.033468553046466593 -0.00059277886096468352 0 0.033263029725931204 -0.00069077055384428711 0 0.033423190963911165 -0.0004996029855273156 0 0.033348123889067161 -0.0006153775969748186 0 0.033468553046466593 -0.00059277886096468352 0 0.033025450133638709 -0.00038299587289936706 0 0.033277276919220229 -0.0006721803954885464 0 0.033263029725931204 -0.00069077055384428711 0 0.033314049574956046 -0.0010349056132052457 0 0.033616152692969491 -0.00078824599305922982 0 0.033468553046466593 -0.00059277886096468352 0 0.033263029725931204 -0.00069077055384428711 0 0.033616152692969491 -0.00078824599305922982 0 0.033263029725931204 -0.00069077055384428711 0 0.03284920745182783 -0.0011921985551413305 0 0.03261214070057316 -0.00080434247535872384 0 0.032824004112381691 -0.00023945644861913181 0 0.033263029725931204 -0.00069077055384428711 0 0.03261214070057316 -0.00080434247535872384 0 0.033263029725931204 -0.00069077055384428711 0 0.03284920745182783 -0.0011921985551413305 0 0.033314049574956046 -0.0010349056132052457 0 0.03284920745182783 -0.0011921985551413305 0 0.033314049574956046 -0.0010349056132052457 0 0.033152950831124357 -0.0013552319549716685 0 0.033314049574956046 -0.0010349056132052457 0 0.033152950831124357 -0.0013552319549716685 0 0.033564088304779305 -0.0011723312841456757 0 0.032875987980387551 -0.00099140535736844072 0 0.032553625876088454 -0.00080374993906216557 0 0.032002668600937027 -0.00053201048243710477 0 0.03261214070057316 -0.00080434247535872384 0 0.032153399229455128 -0.0012940768426429525 0 0.032824004112381691 -0.00023945644861913181 0 0.032002668600937027 -0.00053201048243710477 0 0.03261214070057316 -0.00080434247535872384 0 0.03284920745182783 -0.0011921985551413305 0 0.03261214070057316 -0.00080434247535872384 0 0.032153399229455128 -0.0012940768426429525 0 0.031527268053802453 -0.0011471406945529909 0 0.032002668600937027 -0.00053201048243710477 0 0.032153399229455128 -0.0012940768426429525 0 0.032765411507259548 -0.00077573136891909979 0 0.026336299832554436 -0.002399491684217605 0 0.032153399229455128 -0.0012940768426429525 0 0.031956531837955021 -0.0019376538376627479 0 0.031559850822313058 -0.0016242115170143872 0 0.031527268053802453 -0.0011471406945529909 0 0.032153399229455128 -0.0012940768426429525 0 0.031559850822313058 -0.0016242115170143872 0 0.03284920745182783 -0.0011921985551413305 0 0.032153399229455128 -0.0012940768426429525 0 0.032663023366887325 -0.0017643349885151686 0 0.032153399229455128 -0.0012940768426429525 0 0.031977029155423858 -0.0017799528742671765 0 0.032663023366887325 -0.0017643349885151686 0 0.017301255527534153 -0.0024066134979545202 0 0.017144386765086478 -0.0020066763065510365 0 0.017611343179335309 -0.0021000937954653372 0 0.01794353815286167 -0.0024949877539023665 0 0.017301255527534153 -0.0024066134979545202 0 0.017611343179335309 -0.0021000937954653372 0 0.026336299832554436 -0.002399491684217605 0 0.024712579113695086 -0.0020426348434125787 0 0.024643920020134304 -0.001999449709313551 0 0.024915716717294922 -0.00076702063531818639 0 0.025302651813999377 -0.0014995006490203338 0 0.033152950831124357 -0.0013552319549716685 0 0.033230863218974331 -0.0016467108609153696 0 0.033564088304779305 -0.0011723312841456757 0 0.033152950831124357 -0.0013552319549716685 0 0.032663023366887325 -0.0017643349885151686 0 0.033230863218974331 -0.0016467108609153696 0 0.03284920745182783 -0.0011921985551413305 0 0.033152950831124357 -0.0013552319549716685 0 0.032663023366887325 -0.0017643349885151686 0 0.017301255527534153 -0.0024066134979545202 0 0.01677961077194888 -0.0022570409162147192 0 0.017144386765086478 -0.0020066763065510365 0 0.024712579113695086 -0.0020426348434125787 0 0.024925042996759853 -0.0019564568790901671 0 0.01677961077194888 -0.0022570409162147192 0 0.016752339246261887 -0.0017789563417140168 0 0.016526799810751468 -0.0019242037121156464 0 0.01677961077194888 -0.0022570409162147192 0 0.017144386765086478 -0.0020066763065510365 0 0.016752339246261887 -0.0017789563417140168 0 0.017144386765086478 -0.0020066763065510365 0 0.017076106683500996 -0.0016067596827767077 0 0.016752339246261887 -0.0017789563417140168 0 0.017144386765086478 -0.0020066763065510365 0 0.017076106683500996 -0.0016067596827767077 0 0.017460109307766088 -0.0017512286888433683 0 0.017076106683500996 -0.0016067596827767077 0 0.016752339246261887 -0.0017789563417140168 0 0.016585210995624551 -0.0013811063814896543 0 0.018075268786425475 -0.0018268179668505147 0 0.017611343179335309 -0.0021000937954653372 0 0.017460109307766088 -0.0017512286888433683 0 0.01794353815286167 -0.0024949877539023665 0 0.018075268786425475 -0.0018268179668505147 0 0.017611343179335309 -0.0021000937954653372 0 0.026336299832554436 -0.002399491684217605 0 0.020223712459364798 -0.0015074281412082425 0 0.017144386765086478 -0.0020066763065510365 0 0.017611343179335309 -0.0021000937954653372 0 0.017460109307766088 -0.0017512286888433683 0 0.017076106683500996 -0.0016067596827767077 0 0.017460109307766088 -0.0017512286888433683 0 0.017512145118426647 -0.0013812043133803456 0 0.017460109307766088 -0.0017512286888433683 0 0.017761721778433631 -0.001584795723438822 0 0.017512145118426647 -0.0013812043133803456 0 0.020223712459364798 -0.0015074281412082425 0 0.016694820458485228 -0.0016850243321066972 0 0.020223712459364798 -0.0015074281412082425 0 0.01929387801137997 -0.0012010608318820972 0 0.017954004225259997 -0.0018787774809591155 0 0.017761721778433631 -0.001584795723438822 0 0.018049959743502843 -0.0015127055187546719 0 0.017954004225259997 -0.0018787774809591155 0 0.017460109307766088 -0.0017512286888433683 0 0.017761721778433631 -0.001584795723438822 0 0.020295353148583533 -0.0020635959417782206 0 0.021358779957015014 -0.0014410827318227168 0 0.021472646124877391 -0.0023385522667040593 0 0.020295353148583533 -0.0020635959417782206 0 0.020547257033285426 -0.0010285587366228328 0 0.021358779957015014 -0.0014410827318227168 0 0.020223712459364798 -0.0015074281412082425 0 0.023826827903108437 -0.0017082936854482332 0 0.024915716717294922 -0.00076702063531818639 0 0.025753466837808398 -0.00095356216714211604 0 0.025302651813999377 -0.0014995006490203338 0 0.025753466837808398 -0.00095356216714211604 0 0.025302651813999377 -0.0014995006490203338 0 0.025890514038931965 -0.0015420374339224949 0 0.021472646124877391 -0.0023385522667040593 0 0.022173672913227343 -0.0017396369833298389 0 0.022656176747643697 -0.0026071676380914699 0 0.023826827903108437 -0.0017082936854482332 0 0.025942086098176425 -0.00065114981452757154 0 0.025753466837808398 -0.00095356216714211604 0 0.026576474326185828 -0.0011400190058315697 0 0.025890514038931965 -0.0015420374339224949 0 0.022173672913227343 -0.0017396369833298389 0 0.023326518894713124 -0.0015448688200348831 0 0.022055011664280297 -0.00076769026644299258 0 0.021358779957015014 -0.0014410827318227168 0 0.021472646124877391 -0.0023385522667040593 0 0.022173672913227343 -0.0017396369833298389 0 0.021358779957015014 -0.0014410827318227168 0 0.022173672913227343 -0.0017396369833298389 0 0.022055011664280297 -0.00076769026644299258 0 0.023901856606055056 -0.0016943066520277224 0 0.019331958931204669 -0.0028105095701517618 0 0.019488881836898987 -0.0061065456776777643 0 0.017009798712537116 -0.0045793678564615666 0 0.018990304484378752 -0.0041992475917307804 0 0.023901856606055056 -0.0016943066520277224 0 0.026531266827591861 -0.0014525903229758272 0 0.027622163584993063 2.6315747260015664e-05 0 0.027743895935119871 0.00041240990326414157 0 0.027838106353309747 0.00023259583411900633 0 0.028040837483154883 0.00032082121353735874 0 0.027838106353309747 0.00023259583411900633 0 0.027836354433301024 -3.0176364780814425e-05 0 0.023901856606055056 -0.0016943066520277224 0 0.024253299890347104 -0.0022374157459637829 0 0.028040837483154883 0.00032082121353735874 0 0.027838106353309747 0.00023259583411900633 0 0.027933727314748701 0.00039884183122141325 0 0.027743895935119871 0.00041240990326414157 0 0.027838106353309747 0.00023259583411900633 0 0.027933727314748701 0.00039884183122141325 0 0.027882317168750319 0.00049398614277924239 0 0.027914041040962363 0.00058331251566935693 0 0.028047524295908812 0.000496319411020322 0 0.027983870394022406 0.00063341620381805719 0 0.027743895935119871 0.00041240990326414157 0 0.027882317168750319 0.00049398614277924239 0 0.027743895935119871 0.00041240990326414157 0 0.027933727314748701 0.00039884183122141325 0 0.027882317168750319 0.00049398614277924239 0 0.027983870394022406 0.00063341620381805719 0 0.027882317168750319 0.00049398614277924239 0 0.027914041040962363 0.00058331251566935693 0 0.023901856606055056 -0.0016943066520277224 0 0.025942086098176425 -0.00065114981452757154 0 0.022173672913227343 -0.0017396369833298389 0 0.023326518894713124 -0.0015448688200348831 0 0.022656176747643697 -0.0026071676380914699 0 0.027933727314748701 0.00039884183122141325 0 0.027882317168750319 0.00049398614277924239 0 0.028047524295908812 0.000496319411020322 0 0.027914041040962363 0.00058331251566935693 0 0.027525802991468888 0.00064240767741719775 0 0.02770292360290651 0.00049916016306118056 0 0.027968706665556623 0.00036469847833599521 0 0.027933727314748701 0.00039884183122141325 0 0.028047524295908812 0.000496319411020322 0 0.028573603799944839 0.0007290675133336704 0 0.025942086098176425 -0.00065114981452757154 0 0.027525802991468888 0.00064240767741719775 0 0.02770292360290651 0.00049916016306118056 0 0.027607212505990669 0.0002920356674441483 0 0.02770292360290651 0.00049916016306118056 0 0.027728028978813143 0.00034250687875047101 0 0.027607212505990669 0.0002920356674441483 0 0.027983870394022406 0.00063341620381805719 0 0.027914041040962363 0.00058331251566935693 0 0.027921142661818464 0.00050310985486016222 0 0.027914041040962363 0.00058331251566935693 0 0.027921142661818464 0.00050310985486016222 0 0.027828216247507181 0.00046629283717929929 0 0.027914041040962363 0.00058331251566935693 0 0.02770292360290651 0.00049916016306118056 0 0.027828216247507181 0.00046629283717929929 0 0.02770292360290651 0.00049916016306118056 0 0.027728028978813143 0.00034250687875047101 0 0.027828216247507181 0.00046629283717929929 0 0.027728028978813143 0.00034250687875047101 0 0.027865459931643313 0.00037186530310694333 0 0.027912349970988817 0.00023823704978746346 0 0.027728028978813143 0.00034250687875047101 0 0.027828216247507181 0.00046629283717929929 0 0.027865459931643313 0.00037186530310694333 0 0.027921142661818464 0.00050310985486016222 0 0.027828216247507181 0.00046629283717929929 0 0.027865459931643313 0.00037186530310694333 0 0.027983870394022406 0.00063341620381805719 0 0.028105773362839002 0.00035200053136780744 0 0.027921142661818464 0.00050310985486016222 0 0.028105773362839002 0.00035200053136780744 0 0.027921142661818464 0.00050310985486016222 0 0.027865459931643313 0.00037186530310694333 0 0.028105773362839002 0.00035200053136780744 0 0.027865459931643313 0.00037186530310694333 0 0.027912349970988817 0.00023823704978746346 0 0.028249842554082468 -0.00012985330313097671 0 0.027912349970988817 0.00023823704978746346 0 0.027680505035977111 0.00018884145907135681 0 0.033022901834972557 -0.00086832659791996115 0 0.033224353217918862 -0.00079530428971615595 0 0.033401095652847657 -0.00090910928956173447 0 0.030600001392650362 -0.00048979149703444035 0 0.030776271865837361 -0.0003444882449871219 0 0.027728028978813143 0.00034250687875047101 0 0.027912349970988817 0.00023823704978746346 0 0.027680505035977111 0.00018884145907135681 0 0.033224353217918862 -0.00079530428971615595 0 0.033401095652847657 -0.00090910928956173447 0 0.033436347044769478 -0.00085414549064331575 0 0.033401095652847657 -0.00090910928956173447 0 0.033428387640478736 -0.00087699402149356634 0 0.033440200551035894 -0.00085604598822517622 0 0.030776271865837361 -0.0003444882449871219 0 0.029275137927798876 -0.00072565685846317628 0 0.027607212505990669 0.0002920356674441483 0 0.027680505035977111 0.00018884145907135681 0 0.027466419652464255 0.00032317528455198466 0 0.033401095652847657 -0.00090910928956173447 0 0.033430755497688487 -0.00087916325276807283 0 0.033428387640478736 -0.00087699402149356634 0 0.033430755497688487 -0.00087916325276807283 0 0.033441707118306713 -0.00087135692660473185 0 0.033428387640478736 -0.00087699402149356634 0 0.027728028978813143 0.00034250687875047101 0 0.027607212505990669 0.0002920356674441483 0 0.027680505035977111 0.00018884145907135681 0 0.033401095652847657 -0.00090910928956173447 0 0.033436347044769478 -0.00085414549064331575 0 0.033430755497688487 -0.00087916325276807283 0 0.033436347044769478 -0.00085414549064331575 0 0.033465584472561587 -0.00086568638692072913 0 0.033446928719572402 -0.00086572313361921952 0 0.033465584472561587 -0.00086568638692072913 0 0.033446928719572402 -0.00086572313361921952 0 0.033454320717777784 -0.00086654285800218426 0 0.033436347044769478 -0.00085414549064331575 0 0.033430755497688487 -0.00087916325276807283 0 0.033446928719572402 -0.00086572313361921952 0 0.033430755497688487 -0.00087916325276807283 0 0.033446928719572402 -0.00086572313361921952 0 0.033441707118306713 -0.00087135692660473185 0 0.033441707118306713 -0.00087135692660473185 0 0.033454320717777784 -0.00086654285800218426 0 0.033446629367632333 -0.0008675141798046666 0 0.033446928719572402 -0.00086572313361921952 0 0.033441707118306713 -0.00087135692660473185 0 0.033454320717777784 -0.00086654285800218426 0 0.033463808092108076 -0.00087278286040006381 0 0.033451326363709934 -0.00087301635446032373 0 0.033446629367632333 -0.0008675141798046666 0 0.033463808092108076 -0.00087278286040006381 0 0.033454320717777784 -0.00086654285800218426 0 0.033446629367632333 -0.0008675141798046666 0 0.033451326363709934 -0.00087301635446032373 0 0.033445118276296683 -0.00086935300114162391 0 0.033446629367632333 -0.0008675141798046666 0 0.033445118276296683 -0.00086935300114162391 0 0.033446629367632333 -0.0008675141798046666 0 0.033441157678363552 -0.00086616642700564582 0 0.033441707118306713 -0.00087135692660473185 0 0.033446629367632333 -0.0008675141798046666 0 0.033428387640478736 -0.00087699402149356634 0 0.033446629367632333 -0.0008675141798046666 0 0.033428387640478736 -0.00087699402149356634 0 0.033439296077133487 -0.0008684122411205062 0 0.033428387640478736 -0.00087699402149356634 0 0.033437864169038302 -0.00086641828771373173 0 0.033440200551035894 -0.00085604598822517622 0 0.033428387640478736 -0.00087699402149356634 0 0.033439296077133487 -0.0008684122411205062 0 0.033437864169038302 -0.00086641828771373173 0 0.033446629367632333 -0.0008675141798046666 0 0.033439296077133487 -0.0008684122411205062 0 0.033441157678363552 -0.00086616642700564582 0 0.033439296077133487 -0.0008684122411205062 0 0.033437864169038302 -0.00086641828771373173 0 0.033441157678363552 -0.00086616642700564582 0 0.033441157678363552 -0.00086616642700564582 0 0.033438642437753123 -0.00087172412129059458 0 0.033440200551035894 -0.00085604598822517622 0 0.033437864169038302 -0.00086641828771373173 0 0.033441157678363552 -0.00086616642700564582 0 0.033440200551035894 -0.00085604598822517622 0 0.033445118276296683 -0.00086935300114162391 0 0.033441157678363552 -0.00086616642700564582 0 0.033438642437753123 -0.00087172412129059458 0 0.033451326363709934 -0.00087301635446032373 0 0.033445118276296683 -0.00086935300114162391 0 0.033438642437753123 -0.00087172412129059458 0 0.031956531837955021 -0.0019376538376627479 0 0.031559850822313058 -0.0016242115170143872 0 0.03114149120679191 -0.0018878404566807542 0 0.032875987980387551 -0.00099140535736844072 0 0.029275137927798876 -0.00072565685846317628 0 0.031559850822313058 -0.0016242115170143872 0 0.031017473447793747 -0.0018502495575081449 0 0.03114149120679191 -0.0018878404566807542 0 0.031527268053802453 -0.0011471406945529909 0 0.031559850822313058 -0.0016242115170143872 0 0.031017473447793747 -0.0018502495575081449 0 0.033404256633780556 -0.00088533359415273014 0 0.033438642437753123 -0.00087172412129059458 0 0.033440200551035894 -0.00085604598822517622 0 0.024643920020134304 -0.001999449709313551 0 0.025302651813999377 -0.0014995006490203338 0 0.02581074273828737 -0.0020520328181692794 0 0.026336299832554436 -0.002399491684217605 0 0.0293331231242412 -0.0013639225749219528 0 0.025302651813999377 -0.0014995006490203338 0 0.025890514038931965 -0.0015420374339224949 0 0.02581074273828737 -0.0020520328181692794 0 0.025942086098176425 -0.00065114981452757154 0 0.029275137927798876 -0.00072565685846317628 0 0.026958852041856728 0.0002906954919418308 0 0.029275137927798876 -0.00072565685846317628 0 0.027525802991468888 0.00064240767741719775 0 0.027607212505990669 0.0002920356674441483 0 0.027326551314955955 0.00028574478902581251 0 0.026576474326185828 -0.0011400190058315697 0 0.025890514038931965 -0.0015420374339224949 0 0.025984023888968137 -0.0020986226007635362 0 0.025890514038931965 -0.0015420374339224949 0 0.025984023888968137 -0.0020986226007635362 0 0.02581074273828737 -0.0020520328181692794 0 0.029275137927798876 -0.00072565685846317628 0 0.0293331231242412 -0.0013639225749219528 0 0.019022934443500551 -0.0023252631073335779 0 0.019175534720568425 -0.00075906436022784662 0 0.027254475961675441 -0.0004423817359554879 0 0.029534745632289357 -0.00069541472160420499 0 0.032738681243344822 -0.00064854952310113565 0 0.032534535716726876 -0.00074251169332362915 0 0.032882634140612509 -0.00070186720446645181 0 0.022524663839424142 -0.00082923996183920405 0 0.026078928153659479 -0.00062464607216126174 0 0.026025303480353097 -0.0013542394851844249 0 0.012993918580548089 -0.00061191580034728528 0 0.012924303696994001 -0.00052109135597561335 0 0.012942310093697012 -0.00056145285567441028 0 0.022336865413314332 -0.0011734031075469832 0 0.022524663839424142 -0.00082923996183920405 0 0.026025303480353097 -0.0013542394851844249 0 0.032738681243344822 -0.00064854952310113565 0 0.032832998125912984 -0.00060539113671886815 0 0.032882634140612509 -0.00070186720446645181 0 0.022679255842478509 -0.0020986872987315591 0 0.02261812867432934 -0.0022143263965556065 0 0.023795431280906817 -0.0022088477264616754 0 0.034205368217453853 -0.0014456562634414304 0 0.034159438923278655 -0.0012885678980660202 0 0.034026239863398172 -0.0013630858543830543 0 0.019022934443500551 -0.0023252631073335779 0 0.027254475961675441 -0.0004423817359554879 0 0.027254475961675441 -0.0004423817359554879 0 0.034176189899888472 -0.00065417459623446413 0 0.034205368217453853 -0.0014456562634414304 0 0.034159438923278655 -0.0012885678980660202 0 0.034355400674167272 -0.0011946906190064088 0 0.034159438923278655 -0.0012885678980660202 0 0.034355400674167272 -0.0011946906190064088 0 0.034221073852390087 -0.0011602674873341329 0 0.034159438923278655 -0.0012885678980660202 0 0.034081317006913872 -0.0012495108131763061 0 0.034221073852390087 -0.0011602674873341329 0 0.032738681243344822 -0.00064854952310113565 0 0.032534535716726876 -0.00074251169332362915 0 0.032742266187545395 -0.00050751200800822429 0 0.032738681243344822 -0.00064854952310113565 0 0.032742266187545395 -0.00050751200800822429 0 0.032832998125912984 -0.00060539113671886815 0 0.032742266187545395 -0.00050751200800822429 0 0.032832998125912984 -0.00060539113671886815 0 0.032899089842038154 -0.00054885801126366366 0 0.032742266187545395 -0.00050751200800822429 0 0.032899089842038154 -0.00054885801126366366 0 0.032925025073597437 -0.00046813522471967196 0 0.032899089842038154 -0.00054885801126366366 0 0.033004523480390895 -0.0005120537015215874 0 0.032925025073597437 -0.00046813522471967196 0 0.032899089842038154 -0.00054885801126366366 0 0.033004523480390895 -0.0005120537015215874 0 0.032968798259657574 -0.00056339014706935408 0 0.033004523480390895 -0.0005120537015215874 0 0.032968798259657574 -0.00056339014706935408 0 0.033019081860661194 -0.00055487735353844012 0 0.032968798259657574 -0.00056339014706935408 0 0.032991854141577612 -0.0005972133678956615 0 0.032918803553792675 -0.00060213395634236752 0 0.032968798259657574 -0.00056339014706935408 0 0.032991854141577612 -0.0005972133678956615 0 0.033019081860661194 -0.00055487735353844012 0 0.032832998125912984 -0.00060539113671886815 0 0.032899089842038154 -0.00054885801126366366 0 0.032918803553792675 -0.00060213395634236752 0 0.032899089842038154 -0.00054885801126366366 0 0.032968798259657574 -0.00056339014706935408 0 0.032918803553792675 -0.00060213395634236752 0 0.033061064439108015 -0.00053998709300180506 0 0.033065639776777435 -0.00056854828860484802 0 0.033096684039704088 -0.00052252451918496337 0 0.033061064439108015 -0.00053998709300180506 0 0.033091324875845915 -0.00047268459593124962 0 0.033096684039704088 -0.00052252451918496337 0 0.033004523480390895 -0.0005120537015215874 0 0.033061064439108015 -0.00053998709300180506 0 0.033019081860661194 -0.00055487735353844012 0 0.033004523480390895 -0.0005120537015215874 0 0.033061064439108015 -0.00053998709300180506 0 0.033091324875845915 -0.00047268459593124962 0 0.032991854141577612 -0.0005972133678956615 0 0.033019081860661194 -0.00055487735353844012 0 0.033056344345820596 -0.00056491748010449637 0 0.033061064439108015 -0.00053998709300180506 0 0.033019081860661194 -0.00055487735353844012 0 0.033056344345820596 -0.00056491748010449637 0 0.033056344345820596 -0.00056491748010449637 0 0.03308807639939338 -0.00057219348255600733 0 0.033065639776777435 -0.00056854828860484802 0 0.033061064439108015 -0.00053998709300180506 0 0.033056344345820596 -0.00056491748010449637 0 0.033065639776777435 -0.00056854828860484802 0 0.029749269691618944 -0.00047940405696719751 0 0.029841948468672171 -0.001507261597379005 0 0.026025303480353097 -0.0013542394851844249 0 0.032991854141577612 -0.0005972133678956615 0 0.033056344345820596 -0.00056491748010449637 0 0.03308807639939338 -0.00057219348255600733 0 0.012976486040628257 -0.0003049358153858496 0 0.012924303696994001 -0.00052109135597561335 0 0.012908091881865679 -0.00043766541846035876 0 0.032991854141577612 -0.0005972133678956615 0 0.03308807639939338 -0.00057219348255600733 0 0.032882634140612509 -0.00070186720446645181 0 0.031398759892936716 -0.00054109235321381146 0 0.029534745632289357 -0.00069541472160420499 0 0.021490472576947469 -0.00090052412470931339 0 0.019175534720568425 -0.00075906436022784662 0 0.029749269691618944 -0.00047940405696719751 0 0.026078928153659479 -0.00062464607216126174 0 0.026025303480353097 -0.0013542394851844249 0 0.032832998125912984 -0.00060539113671886815 0 0.032918803553792675 -0.00060213395634236752 0 0.032882634140612509 -0.00070186720446645181 0 0.032991854141577612 -0.0005972133678956615 0 0.032918803553792675 -0.00060213395634236752 0 0.032882634140612509 -0.00070186720446645181 0 0.012924303696994001 -0.00052109135597561335 0 0.012913676583699508 -0.00051997604043791323 0 0.01290801450255933 -0.00049698457839848493 0 0.01290801450255933 -0.00049698457839848493 0 0.012908091881865679 -0.00043766541846035876 0 0.012887304391283659 -0.00051679869335969535 0 0.012908091881865679 -0.00043766541846035876 0 0.012887304391283659 -0.00051679869335969535 0 0.012825610896160066 -0.00047607601481004813 0 0.012924303696994001 -0.00052109135597561335 0 0.01290801450255933 -0.00049698457839848493 0 0.012908091881865679 -0.00043766541846035876 0 0.012913676583699508 -0.00051997604043791323 0 0.01290801450255933 -0.00049698457839848493 0 0.012887304391283659 -0.00051679869335969535 0 0.012908091881865679 -0.00043766541846035876 0 0.012931041740263884 -0.00039639326322087856 0 0.012825610896160066 -0.00047607601481004813 0 0.012947141840661536 -0.00036654760363306709 0 0.012931041740263884 -0.00039639326322087856 0 0.013055711122439076 -0.00031525935966989361 0 0.012976486040628257 -0.0003049358153858496 0 0.012947141840661536 -0.00036654760363306709 0 0.013055711122439076 -0.00031525935966989361 0 0.012908091881865679 -0.00043766541846035876 0 0.012947141840661536 -0.00036654760363306709 0 0.012931041740263884 -0.00039639326322087856 0 0.012976486040628257 -0.0003049358153858496 0 0.012908091881865679 -0.00043766541846035876 0 0.012947141840661536 -0.00036654760363306709 0 0.012931041740263884 -0.00039639326322087856 0 0.012825610896160066 -0.00047607601481004813 0 0.012786190331287537 -0.00052754533225475705 0 0.012887304391283659 -0.00051679869335969535 0 0.012825610896160066 -0.00047607601481004813 0 0.012799692215901685 -0.00050715577560414191 0 0.012887304391283659 -0.00051679869335969535 0 0.01292772776391888 -0.00057839068906869427 0 0.012799692215901685 -0.00050715577560414191 0 0.012887304391283659 -0.00051679869335969535 0 0.012942310093697012 -0.00056145285567441028 0 0.01292772776391888 -0.00057839068906869427 0 0.012924303696994001 -0.00052109135597561335 0 0.012913676583699508 -0.00051997604043791323 0 0.012942310093697012 -0.00056145285567441028 0 0.012913676583699508 -0.00051997604043791323 0 0.012887304391283659 -0.00051679869335969535 0 0.012942310093697012 -0.00056145285567441028 0 0.012969575380765352 -0.00060151013821091253 0 0.01292772776391888 -0.00057839068906869427 0 0.013025082569017906 -0.00064824214865193868 0 0.012993918580548089 -0.00061191580034728528 0 0.012969575380765352 -0.00060151013821091253 0 0.013025082569017906 -0.00064824214865193868 0 0.019022934443500551 -0.0023252631073335779 0 0.012638717843705651 -0.0015474407351231631 0 0.012942310093697012 -0.00056145285567441028 0 0.012969575380765352 -0.00060151013821091253 0 0.01292772776391888 -0.00057839068906869427 0 0.012993918580548089 -0.00061191580034728528 0 0.012942310093697012 -0.00056145285567441028 0 0.012969575380765352 -0.00060151013821091253 0 0.01292772776391888 -0.00057839068906869427 0 0.013025082569017906 -0.00064824214865193868 0 0.012957204559850546 -0.00057397169744246375 0 0.012638717843705651 -0.0015474407351231631 0 0.013712732258761627 -0.0010367019816289386 0 0.013811119605247552 -0.002280396167751888 0 0.014047195144136626 -0.0021503833717641074 0 0.014045704820750422 -0.0024638754249495958 0 0.013811119605247552 -0.002280396167751888 0 0.014047195144136626 -0.0021503833717641074 0 0.013836050894545026 -0.0015976858671989235 0 0.014045704820750422 -0.0024638754249495958 0 0.014433392569932608 -0.0023630425482720143 0 0.01409874967250256 -0.0026889192907663504 0 0.016362437241711329 -0.0018928448650008956 0 0.016480214791718021 -0.0020486929368948919 0 0.016471267867463894 -0.0020347087153757596 0 0.014047195144136626 -0.0021503833717641074 0 0.014045704820750422 -0.0024638754249495958 0 0.014433392569932608 -0.0023630425482720143 0 0.014290166433289958 -0.0024561711976921188 0 0.022037967976989526 -0.0022541951616970395 0 0.013777854419566518 -0.0026402776046112507 0 0.013811119605247552 -0.002280396167751888 0 0.013914763608094597 -0.0025297887015580667 0 0.014045704820750422 -0.0024638754249495958 0 0.013914763608094597 -0.0025297887015580667 0 0.014065693448611558 -0.0026810234332702897 0 0.013811119605247552 -0.002280396167751888 0 0.014045704820750422 -0.0024638754249495958 0 0.013914763608094597 -0.0025297887015580667 0 0.016752339246261887 -0.0017789563417140168 0 0.016526799810751468 -0.0019242037121156464 0 0.016323950564317836 -0.0014952756635761247 0 0.014047195144136626 -0.0021503833717641074 0 0.014433392569932608 -0.0023630425482720143 0 0.015013107728001291 -0.0018284900265625927 0 0.016362437241711329 -0.0018928448650008956 0 0.016526799810751468 -0.0019242037121156464 0 0.016323950564317836 -0.0014952756635761247 0 0.014290166433289958 -0.0024561711976921188 0 0.015900930515643126 -0.00149692969419852 0 0.016362437241711329 -0.0018928448650008956 0 0.016526799810751468 -0.0019242037121156464 0 0.01649773647145808 -0.0020940756085023374 0 0.01677961077194888 -0.0022570409162147192 0 0.016526799810751468 -0.0019242037121156464 0 0.01649773647145808 -0.0020940756085023374 0 0.024925042996759853 -0.0019564568790901671 0 0.025716004717704723 -0.001786797106584976 0 0.033230863218974331 -0.0016467108609153696 0 0.033610719809910976 -0.0015357954782983481 0 0.033631901033236704 -0.0013633710099801477 0 0.033610719809910976 -0.0015357954782983481 0 0.033848727907289593 -0.0014067470880472055 0 0.033790638799508201 -0.001352480892085029 0 0.016362437241711329 -0.0018928448650008956 0 0.01649773647145808 -0.0020940756085023374 0 0.016471267867463894 -0.0020347087153757596 0 0.033631901033236704 -0.0013633710099801477 0 0.033790638799508201 -0.001352480892085029 0 0.033868434203239567 -0.0011633921025131673 0 0.033631901033236704 -0.0013633710099801477 0 0.033868434203239567 -0.0011633921025131673 0 0.033564088304779305 -0.0011723312841456757 0 0.033610719809910976 -0.0015357954782983481 0 0.033631901033236704 -0.0013633710099801477 0 0.033790638799508201 -0.001352480892085029 0 0.033230863218974331 -0.0016467108609153696 0 0.033631901033236704 -0.0013633710099801477 0 0.033564088304779305 -0.0011723312841456757 0 0.027254475961675441 -0.0004423817359554879 0 0.0236433427605574 -0.0021948424882148698 0 0.013777854419566518 -0.0026402776046112507 0 0.013914763608094597 -0.0025297887015580667 0 0.014065693448611558 -0.0026810234332702897 0 0.019022934443500551 -0.0023252631073335779 0 0.0236433427605574 -0.0021948424882148698 0 0.034205368217453853 -0.0014456562634414304 0 0.033876051042952889 -0.0014942589111414941 0 0.034026239863398172 -0.0013630858543830543 0 0.033914124983509604 -0.0014288795134468366 0 0.033876051042952889 -0.0014942589111414941 0 0.034026239863398172 -0.0013630858543830543 0 0.033914124983509604 -0.0014288795134468366 0 0.033876051042952889 -0.0014942589111414941 0 0.033820320804523497 -0.0014929532329829289 0 0.033610719809910976 -0.0015357954782983481 0 0.033867324324241166 -0.0014788413461741703 0 0.033848727907289593 -0.0014067470880472055 0 0.025716004717704723 -0.001786797106584976 0 0.022037967976989526 -0.0022541951616970395 0 0.014045704820750422 -0.0024638754249495958 0 0.014065693448611558 -0.0026810234332702897 0 0.01409874967250256 -0.0026889192907663504 0 0.01649773647145808 -0.0020940756085023374 0 0.016466183255637232 -0.0020088894396939391 0 0.016471267867463894 -0.0020347087153757596 0 0.022037967976989526 -0.0022541951616970395 0 0.016883530866334279 -0.002374666844790204 0 0.0236433427605574 -0.0021948424882148698 0 0.022037967976989526 -0.0022541951616970395 0 0.033914124983509604 -0.0014288795134468366 0 0.033867324324241166 -0.0014788413461741703 0 0.033848727907289593 -0.0014067470880472055 0 0.026994857609382267 0.00054294339309410907 0 0.022037967976989526 -0.0022541951616970395 0 0.033914124983509604 -0.0014288795134468366 0 0.033848727907289593 -0.0014067470880472055 0 0.033941740614343893 -0.0013024120785172164 0 0.033848727907289593 -0.0014067470880472055 0 0.033941740614343893 -0.0013024120785172164 0 0.033790638799508201 -0.001352480892085029 0 0.033941740614343893 -0.0013024120785172164 0 0.034050354305655055 -0.0011409469622467548 0 0.033868434203239567 -0.0011633921025131673 0 0.033941740614343893 -0.0013024120785172164 0 0.033790638799508201 -0.001352480892085029 0 0.033868434203239567 -0.0011633921025131673 0 0.034081317006913872 -0.0012495108131763061 0 0.034050354305655055 -0.0011409469622467548 0 0.034221073852390087 -0.0011602674873341329 0 0.033941740614343893 -0.0013024120785172164 0 0.034081317006913872 -0.0012495108131763061 0 0.034050354305655055 -0.0011409469622467548 0 0.033914124983509604 -0.0014288795134468366 0 0.033941740614343893 -0.0013024120785172164 0 0.034026239863398172 -0.0013630858543830543 0 0.033941740614343893 -0.0013024120785172164 0 0.034026239863398172 -0.0013630858543830543 0 0.034081317006913872 -0.0012495108131763061 0 0.034159438923278655 -0.0012885678980660202 0 0.034026239863398172 -0.0013630858543830543 0 0.034081317006913872 -0.0012495108131763061 0 0.034050354305655055 -0.0011409469622467548 0 0.034183501387074162 -0.00093900563413944812 0 0.034221073852390087 -0.0011602674873341329 0 0.034050354305655055 -0.0011409469622467548 0 0.034020126586885628 -0.00098740003909566685 0 0.034183501387074162 -0.00093900563413944812 0 0.033868434203239567 -0.0011633921025131673 0 0.034020126586885628 -0.00098740003909566685 0 0.033878626278048281 -0.00092129803909730371 0 0.034050354305655055 -0.0011409469622467548 0 0.033868434203239567 -0.0011633921025131673 0 0.034020126586885628 -0.00098740003909566685 0 0.034020126586885628 -0.00098740003909566685 0 0.033878626278048281 -0.00092129803909730371 0 0.034119155356375504 -0.0007092430506186058 0 0.033878626278048281 -0.00092129803909730371 0 0.033925925207165912 -0.00063953287946492922 0 0.034119155356375504 -0.0007092430506186058 0 0.034020126586885628 -0.00098740003909566685 0 0.034183501387074162 -0.00093900563413944812 0 0.034119155356375504 -0.0007092430506186058 0 0.034183501387074162 -0.00093900563413944812 0 0.034119155356375504 -0.0007092430506186058 0 0.03429334389991065 -0.00071866811017331491 0 0.033564088304779305 -0.0011723312841456757 0 0.033878626278048281 -0.00092129803909730371 0 0.033616152692969491 -0.00078824599305922982 0 0.033314049574956046 -0.0010349056132052457 0 0.033564088304779305 -0.0011723312841456757 0 0.033616152692969491 -0.00078824599305922982 0 0.033868434203239567 -0.0011633921025131673 0 0.033564088304779305 -0.0011723312841456757 0 0.033878626278048281 -0.00092129803909730371 0 0.033878626278048281 -0.00092129803909730371 0 0.033616152692969491 -0.00078824599305922982 0 0.033925925207165912 -0.00063953287946492922 0 0.033616152692969491 -0.00078824599305922982 0 0.033925925207165912 -0.00063953287946492922 0 0.033762444506308942 -0.00053216682772949621 0 0.033468553046466593 -0.00059277886096468352 0 0.033616152692969491 -0.00078824599305922982 0 0.033762444506308942 -0.00053216682772949621 0 0.033925925207165912 -0.00063953287946492922 0 0.033981554508075655 -0.00045628854655242523 0 0.034176581194201576 -0.00038898215509733104 0 0.033925925207165912 -0.00063953287946492922 0 0.033981554508075655 -0.00045628854655242523 0 0.033762444506308942 -0.00053216682772949621 0 0.033981554508075655 -0.00045628854655242523 0 0.033762444506308942 -0.00053216682772949621 0 0.033970383275666566 -0.00032872864276143514 0 0.033784386281616785 -0.00036914641261110863 0 0.033762444506308942 -0.00053216682772949621 0 0.033970383275666566 -0.00032872864276143514 0 0.034119155356375504 -0.0007092430506186058 0 0.034299851985279052 -0.00044514133188692021 0 0.03429334389991065 -0.00071866811017331491 0 0.033925925207165912 -0.00063953287946492922 0 0.034119155356375504 -0.0007092430506186058 0 0.034176581194201576 -0.00038898215509733104 0 0.034119155356375504 -0.0007092430506186058 0 0.034176581194201576 -0.00038898215509733104 0 0.034299851985279052 -0.00044514133188692021 0 0.034181248546401088 -0.00038403435778161234 0 0.034398157323755028 -0.00037150157158419658 0 0.034299851985279052 -0.00044514133188692021 0 0.034554455962641742 -0.00046769608548781673 0 0.034481592736099645 -0.00066198345696803968 0 0.034398157323755028 -0.00037150157158419658 0 0.034594289092018268 -0.00036561426192455588 0 0.034594289092018268 -0.00036561426192455588 0 0.034393425592674512 -0.00076163884574304323 0 0.034400479401283587 -0.0006095433620901229 0 0.034337031097899595 -0.0007883493066475493 0 0.034476610537274979 -0.0007074651054430588 0 0.034299851985279052 -0.00044514133188692021 0 0.034481592736099645 -0.00066198345696803968 0 0.03429334389991065 -0.00071866811017331491 0 0.034183501387074162 -0.00093900563413944812 0 0.03429334389991065 -0.00071866811017331491 0 0.034391279082518066 -0.00089531918674424474 0 0.034481592736099645 -0.00066198345696803968 0 0.03429334389991065 -0.00071866811017331491 0 0.034391279082518066 -0.00089531918674424474 0 0.034393425592674512 -0.00076163884574304323 0 0.03433164005224619 -0.00092767423175048216 0 0.034337031097899595 -0.0007883493066475493 0 0.034275848120121584 -0.00097306747961077892 0 0.034445597151065883 -0.00099881791828136646 0 0.034337031097899595 -0.0007883493066475493 0 0.034445597151065883 -0.00099881791828136646 0 0.034537240704467558 -0.00080857390078759484 0 0.034176189899888472 -0.00065417459623446413 0 0.033600048583770331 -0.00075727975315186024 0 0.034355400674167272 -0.0011946906190064088 0 0.034275848120121584 -0.00097306747961077892 0 0.034445597151065883 -0.00099881791828136646 0 0.032742266187545395 -0.00050751200800822429 0 0.032908880676818394 -0.00038151105395282828 0 0.032925025073597437 -0.00046813522471967196 0 0.034355400674167272 -0.0011946906190064088 0 0.034275848120121584 -0.00097306747961077892 0 0.034221073852390087 -0.0011602674873341329 0 0.03433164005224619 -0.00092767423175048216 0 0.034237043164515167 -0.0011393313445652114 0 0.034183501387074162 -0.00093900563413944812 0 0.034391279082518066 -0.00089531918674424474 0 0.034221073852390087 -0.0011602674873341329 0 0.033091324875845915 -0.00047268459593124962 0 0.033043642296960989 -0.00040163215989490316 0 0.033185807457040702 -0.00037713088627985489 0 0.033004523480390895 -0.0005120537015215874 0 0.033091324875845915 -0.00047268459593124962 0 0.033043642296960989 -0.00040163215989490316 0 0.033004523480390895 -0.0005120537015215874 0 0.032925025073597437 -0.00046813522471967196 0 0.033043642296960989 -0.00040163215989490316 0 0.032908880676818394 -0.00038151105395282828 0 0.032925025073597437 -0.00046813522471967196 0 0.033043642296960989 -0.00040163215989490316 0 0.033600048583770331 -0.00075727975315186024 0 0.033767580534008121 -0.00054561270369994695 0 0.032908880676818394 -0.00038151105395282828 0 0.033043642296960989 -0.00040163215989490316 0 0.033053593347277067 -0.00025592806693778083 0 0.033043642296960989 -0.00040163215989490316 0 0.033155825922468504 -0.00030941632781538196 0 0.033053593347277067 -0.00025592806693778083 0 0.033043642296960989 -0.00040163215989490316 0 0.033155825922468504 -0.00030941632781538196 0 0.033185807457040702 -0.00037713088627985489 0 0.033155825922468504 -0.00030941632781538196 0 0.033185807457040702 -0.00037713088627985489 0 0.033264195315627978 -0.00029748136716141796 0 0.033155825922468504 -0.00030941632781538196 0 0.033241705770144077 -0.00025526990740549522 0 0.033264195315627978 -0.00029748136716141796 0 0.033187126030057829 -0.00020366163975530873 0 0.033053593347277067 -0.00025592806693778083 0 0.033236910026572926 -0.00010021963075497655 0 0.033155825922468504 -0.00030941632781538196 0 0.033241705770144077 -0.00025526990740549522 0 0.033187126030057829 -0.00020366163975530873 0 0.033155825922468504 -0.00030941632781538196 0 0.033187126030057829 -0.00020366163975530873 0 0.033053593347277067 -0.00025592806693778083 0 0.033241705770144077 -0.00025526990740549522 0 0.033187126030057829 -0.00020366163975530873 0 0.033282009456246507 -0.00020653053126224173 0 0.033187126030057829 -0.00020366163975530873 0 0.033282009456246507 -0.00020653053126224173 0 0.033277892712296468 -0.00016608893909376149 0 0.034337031097899595 -0.0007883493066475493 0 0.034537240704467558 -0.00080857390078759484 0 0.034476610537274979 -0.0007074651054430588 0 0.033767580534008121 -0.00054561270369994695 0 0.034270882956277164 -0.00032585497607751578 0 0.034400479401283587 -0.0006095433620901229 0 0.034476610537274979 -0.0007074651054430588 0 0.034630376095392219 -0.00062424292298402027 0 0.034661278137058001 -6.3393173752798317e-05 0 0.034626859813038507 -6.380404219528496e-05 0 0.034639097147732792 -7.1676378067879137e-05 0 0.034537240704467558 -0.00080857390078759484 0 0.034476610537274979 -0.0007074651054430588 0 0.034630376095392219 -0.00062424292298402027 0 0.034594289092018268 -0.00036561426192455588 0 0.034270882956277164 -0.00032585497607751578 0 0.033275503634050296 -0.00013589356888708698 0 0.033322503552985841 -0.00013154233159443931 0 0.033236910026572926 -0.00010021963075497655 0 0.033275503634050296 -0.00013589356888708698 0 0.033322503552985841 -0.00013154233159443931 0 0.033277892712296468 -0.00016608893909376149 0 0.033275503634050296 -0.00013589356888708698 0 0.033277892712296468 -0.00016608893909376149 0 0.033248389838644352 -0.00014218379066390397 0 0.033322503552985841 -0.00013154233159443931 0 0.033277892712296468 -0.00016608893909376149 0 0.033340649759899421 -0.00017308493586413459 0 0.033282009456246507 -0.00020653053126224173 0 0.033277892712296468 -0.00016608893909376149 0 0.033340649759899421 -0.00017308493586413459 0 0.033187126030057829 -0.00020366163975530873 0 0.033277892712296468 -0.00016608893909376149 0 0.033248389838644352 -0.00014218379066390397 0 0.033187126030057829 -0.00020366163975530873 0 0.033248389838644352 -0.00014218379066390397 0 0.033236910026572926 -0.00010021963075497655 0 0.033275503634050296 -0.00013589356888708698 0 0.033248389838644352 -0.00014218379066390397 0 0.033236910026572926 -0.00010021963075497655 0 0.033322503552985841 -0.00013154233159443931 0 0.033236910026572926 -0.00010021963075497655 0 0.033420557030994065 -7.3863494325604031e-05 0 0.034632817009929255 -6.3070202004524847e-05 0 0.034619972757723709 -3.5443508172537239e-05 0 0.034642034777350027 -6.1105514974752178e-05 0 0.034626859813038507 -6.380404219528496e-05 0 0.034632817009929255 -6.3070202004524847e-05 0 0.034619972757723709 -3.5443508172537239e-05 0 0.034270882956277164 -0.00032585497607751578 0 0.034029737476970259 1.9263338671737815e-05 0 0.033236910026572926 -0.00010021963075497655 0 0.03350015360135513 4.6361932280656786e-05 0 0.033420557030994065 -7.3863494325604031e-05 0 0.034619972757723709 -3.5443508172537239e-05 0 0.034642610143267541 -2.3773048575224536e-05 0 0.03456349092103643 3.5173009238986675e-05 0 0.034619972757723709 -3.5443508172537239e-05 0 0.034642034777350027 -6.1105514974752178e-05 0 0.034642610143267541 -2.3773048575224536e-05 0 0.034642034777350027 -6.1105514974752178e-05 0 0.034653806724942254 -0.0001086291008876118 0 0.034639903952937874 -6.6121068609123861e-05 0 0.034642034777350027 -6.1105514974752178e-05 0 0.034639903952937874 -6.6121068609123861e-05 0 0.034642610143267541 -2.3773048575224536e-05 0 0.034661278137058001 -6.3393173752798317e-05 0 0.034653806724942254 -0.0001086291008876118 0 0.034639097147732792 -7.1676378067879137e-05 0 0.034632817009929255 -6.3070202004524847e-05 0 0.034642034777350027 -6.1105514974752178e-05 0 0.034653806724942254 -0.0001086291008876118 0 0.034632817009929255 -6.3070202004524847e-05 0 0.034653806724942254 -0.0001086291008876118 0 0.034639097147732792 -7.1676378067879137e-05 0 0.034626859813038507 -6.380404219528496e-05 0 0.034632817009929255 -6.3070202004524847e-05 0 0.034639097147732792 -7.1676378067879137e-05 0 0.034652400321626822 -0.00023771908937582099 0 0.034653806724942254 -0.0001086291008876118 0 0.034601695446173905 -0.00017108196564091197 0 0.034594289092018268 -0.00036561426192455588 0 0.034681435016270981 -4.9933237908468023e-05 0 0.034512124212030759 -0.00030133748824316757 0 0.034652400321626822 -0.00023771908937582099 0 0.034601695446173905 -0.00017108196564091197 0 0.034512124212030759 -0.00030133748824316757 0 0.034601695446173905 -0.00017108196564091197 0 0.03457323839871311 -9.4677188219248443e-05 0 0.034601695446173905 -0.00017108196564091197 0 0.03457323839871311 -9.4677188219248443e-05 0 0.034639903952937874 -6.6121068609123861e-05 0 0.034653806724942254 -0.0001086291008876118 0 0.034601695446173905 -0.00017108196564091197 0 0.034639903952937874 -6.6121068609123861e-05 0 0.03457323839871311 -9.4677188219248443e-05 0 0.034639903952937874 -6.6121068609123861e-05 0 0.034647279671653972 -3.146759884725766e-05 0 0.03457323839871311 -9.4677188219248443e-05 0 0.034613906912406373 -8.2835845589742766e-06 0 0.034647279671653972 -3.146759884725766e-05 0 0.034613906912406373 -8.2835845589742766e-06 0 0.034647279671653972 -3.146759884725766e-05 0 0.034667123454582158 -2.0940644886482186e-05 0 0.034647279671653972 -3.146759884725766e-05 0 0.034663550954619725 -3.0646185446483844e-05 0 0.034667123454582158 -2.0940644886482186e-05 0 0.034647279671653972 -3.146759884725766e-05 0 0.034663550954619725 -3.0646185446483844e-05 0 0.034642610143267541 -2.3773048575224536e-05 0 0.034663550954619725 -3.0646185446483844e-05 0 0.034610877396019965 -1.0464830101156788e-05 0 0.034642610143267541 -2.3773048575224536e-05 0 0.034663550954619725 -3.0646185446483844e-05 0 0.034610877396019965 -1.0464830101156788e-05 0 0.034684749290248139 -7.2405025384987537e-05 0 0.034610877396019965 -1.0464830101156788e-05 0 0.034642610143267541 -2.3773048575224536e-05 0 0.03456349092103643 3.5173009238986675e-05 0 0.034639903952937874 -6.6121068609123861e-05 0 0.034647279671653972 -3.146759884725766e-05 0 0.034642610143267541 -2.3773048575224536e-05 0 0.034067252144474085 -0.00013085474112241462 0 0.034192396473714325 -0.00014622976870667533 0 0.034259124540095602 -5.5019450563208613e-05 0 0.034067252144474085 -0.00013085474112241462 0 0.033953725431914002 -0.00022865753979966141 0 0.034192396473714325 -0.00014622976870667533 0 0.033953725431914002 -0.00022865753979966141 0 0.033970383275666566 -0.00032872864276143514 0 0.034192396473714325 -0.00014622976870667533 0 0.033784386281616785 -0.00036914641261110863 0 0.033953725431914002 -0.00022865753979966141 0 0.033970383275666566 -0.00032872864276143514 0 0.033981554508075655 -0.00045628854655242523 0 0.033970383275666566 -0.00032872864276143514 0 0.034156485205089626 -0.00026306087039214184 0 0.033981554508075655 -0.00045628854655242523 0 0.034176581194201576 -0.00038898215509733104 0 0.034156485205089626 -0.00026306087039214184 0 0.033970383275666566 -0.00032872864276143514 0 0.034156485205089626 -0.00026306087039214184 0 0.034192396473714325 -0.00014622976870667533 0 0.034192396473714325 -0.00014622976870667533 0 0.03439141068995092 -0.00014155864802809106 0 0.034364879320833035 -6.1926540518551931e-05 0 0.034156485205089626 -0.00026306087039214184 0 0.034192396473714325 -0.00014622976870667533 0 0.03439141068995092 -0.00014155864802809106 0 0.034176581194201576 -0.00038898215509733104 0 0.034156485205089626 -0.00026306087039214184 0 0.03439141068995092 -0.00014155864802809106 0 0.034176581194201576 -0.00038898215509733104 0 0.034512124212030759 -0.00030133748824316757 0 0.03439141068995092 -0.00014155864802809106 0 0.034512124212030759 -0.00030133748824316757 0 0.03457323839871311 -9.4677188219248443e-05 0 0.03439141068995092 -0.00014155864802809106 0 0.03457323839871311 -9.4677188219248443e-05 0 0.03439141068995092 -0.00014155864802809106 0 0.034500562513300116 -2.1942890131505665e-05 0 0.03457323839871311 -9.4677188219248443e-05 0 0.034613906912406373 -8.2835845589742766e-06 0 0.034500562513300116 -2.1942890131505665e-05 0 0.034613906912406373 -8.2835845589742766e-06 0 0.034500562513300116 -2.1942890131505665e-05 0 0.034650155659623455 1.8782758653370869e-05 0 0.03439141068995092 -0.00014155864802809106 0 0.034500562513300116 -2.1942890131505665e-05 0 0.034364879320833035 -6.1926540518551931e-05 0 0.034364879320833035 -6.1926540518551931e-05 0 0.034427568842050414 -8.7923417057780341e-06 0 0.034259124540095602 -5.5019450563208613e-05 0 0.034500562513300116 -2.1942890131505665e-05 0 0.034364879320833035 -6.1926540518551931e-05 0 0.034427568842050414 -8.7923417057780341e-06 0 0.034192396473714325 -0.00014622976870667533 0 0.034364879320833035 -6.1926540518551931e-05 0 0.034259124540095602 -5.5019450563208613e-05 0 0.034500562513300116 -2.1942890131505665e-05 0 0.034427568842050414 -8.7923417057780341e-06 0 0.034596646196301511 2.3780371279993843e-05 0 0.034427568842050414 -8.7923417057780341e-06 0 0.034362961803742188 -5.8551589857943492e-06 0 0.034259124540095602 -5.5019450563208613e-05 0 0.034427568842050414 -8.7923417057780341e-06 0 0.034362961803742188 -5.8551589857943492e-06 0 0.034498606299813647 1.9197172176019352e-05 0 0.034159767879652345 -3.859670489684295e-05 0 0.034362961803742188 -5.8551589857943492e-06 0 0.034259124540095602 -5.5019450563208613e-05 0 0.034159767879652345 -3.859670489684295e-05 0 0.034067252144474085 -0.00013085474112241462 0 0.034259124540095602 -5.5019450563208613e-05 0 0.034763454289361777 3.211835247924972e-05 0 0.034480513266319096 2.7841022916168403e-05 0 0.034633737070801807 3.0935670488507666e-05 0 0.034763454289361777 3.211835247924972e-05 0 0.034714999450491515 3.0327650040352112e-05 0 0.034633737070801807 3.0935670488507666e-05 0 0.034714999450491515 3.0327650040352112e-05 0 0.034633737070801807 3.0935670488507666e-05 0 0.03475400488532316 2.5120726953337702e-05 0 0.034480513266319096 2.7841022916168403e-05 0 0.034633737070801807 3.0935670488507666e-05 0 0.034498606299813647 1.9197172176019352e-05 0 0.034633737070801807 3.0935670488507666e-05 0 0.034498606299813647 1.9197172176019352e-05 0 0.034596646196301511 2.3780371279993843e-05 0 0.034480513266319096 2.7841022916168403e-05 0 0.034362961803742188 -5.8551589857943492e-06 0 0.034498606299813647 1.9197172176019352e-05 0 0.034427568842050414 -8.7923417057780341e-06 0 0.034498606299813647 1.9197172176019352e-05 0 0.034596646196301511 2.3780371279993843e-05 0 0.034596646196301511 2.3780371279993843e-05 0 0.034714711845889638 1.623609663410111e-05 0 0.03475400488532316 2.5120726953337702e-05 0 0.034633737070801807 3.0935670488507666e-05 0 0.034596646196301511 2.3780371279993843e-05 0 0.03475400488532316 2.5120726953337702e-05 0 0.034714711845889638 1.623609663410111e-05 0 0.034650155659623455 1.8782758653370869e-05 0 0.034804929281694916 -7.5486155350676637e-06 0 0.034500562513300116 -2.1942890131505665e-05 0 0.034596646196301511 2.3780371279993843e-05 0 0.034650155659623455 1.8782758653370869e-05 0 0.034596646196301511 2.3780371279993843e-05 0 0.034714711845889638 1.623609663410111e-05 0 0.034650155659623455 1.8782758653370869e-05 0 0.034613906912406373 -8.2835845589742766e-06 0 0.034650155659623455 1.8782758653370869e-05 0 0.034665463007564089 6.5534295432070919e-06 0 0.034650155659623455 1.8782758653370869e-05 0 0.034804929281694916 -7.5486155350676637e-06 0 0.034665463007564089 6.5534295432070919e-06 0 0.034810214971154364 -1.0353462787055254e-05 0 0.034832027662570167 -1.4389159890881616e-05 0 0.03499984620334045 5.202829260237709e-08 0 0.034804929281694916 -7.5486155350676637e-06 0 0.034988491508892737 -1.4421790446933833e-05 0 0.034804929281694916 -7.5486155350676637e-06 0 0.034665463007564089 6.5534295432070919e-06 0 0.034673683356739551 -2.3925087456298529e-05 0 0.03499984620334045 5.202829260237709e-08 0 0.034872912788520914 6.0226840400879733e-06 0 0.034804929281694916 -7.5486155350676637e-06 0 0.03499984620334045 5.202829260237709e-08 0 0.034872912788520914 6.0226840400879733e-06 0 0.03499974602842814 5.4774910797390615e-09 0 0.034714711845889638 1.623609663410111e-05 0 0.034872912788520914 6.0226840400879733e-06 0 0.034804929281694916 -7.5486155350676637e-06 0 0.034714711845889638 1.623609663410111e-05 0 0.034872912788520914 6.0226840400879733e-06 0 0.03475400488532316 2.5120726953337702e-05 0 0.034872912788520914 6.0226840400879733e-06 0 0.03475400488532316 2.5120726953337702e-05 0 0.034909969585560204 1.0742134240851572e-05 0 0.034872912788520914 6.0226840400879733e-06 0 0.03499974602842814 5.4774910797390615e-09 0 0.034909969585560204 1.0742134240851572e-05 0 0.034909969585560204 1.0742134240851572e-05 0 0.034907322395068767 1.4554831739960568e-05 0 0.034840352135669383 2.3823411570387199e-05 0 0.034999864049231721 -1.6141855604563513e-08 0 0.034909969585560204 1.0742134240851572e-05 0 0.034907322395068767 1.4554831739960568e-05 0 0.034999864049231721 -1.6141855604563513e-08 0 0.03499974602842814 5.4774910797390615e-09 0 0.034909969585560204 1.0742134240851572e-05 0 0.034958206501692402 1.4045833189380467e-05 0 0.034999864049231721 -1.6141855604563513e-08 0 0.034907322395068767 1.4554831739960568e-05 0 0.034958206501692402 1.4045833189380467e-05 0 0.034907322395068767 1.4554831739960568e-05 0 0.03485644741447011 2.3873653001945739e-05 0 0.034763454289361777 3.211835247924972e-05 0 0.03485644741447011 2.3873653001945739e-05 0 0.034806154880104426 2.8284706578296861e-05 0 0.03475400488532316 2.5120726953337702e-05 0 0.034909969585560204 1.0742134240851572e-05 0 0.034785412761526954 2.7012016001221796e-05 0 0.034763454289361777 3.211835247924972e-05 0 0.034958206501692402 1.4045833189380467e-05 0 0.03485644741447011 2.3873653001945739e-05 0 0.03485644741447011 2.3873653001945739e-05 0 0.034840352135669383 2.3823411570387199e-05 0 0.034806154880104426 2.8284706578296861e-05 0 0.034907322395068767 1.4554831739960568e-05 0 0.03485644741447011 2.3873653001945739e-05 0 0.034840352135669383 2.3823411570387199e-05 0 0.034909969585560204 1.0742134240851572e-05 0 0.034840352135669383 2.3823411570387199e-05 0 0.034785412761526954 2.7012016001221796e-05 0 0.034714999450491515 3.0327650040352112e-05 0 0.03475400488532316 2.5120726953337702e-05 0 0.034785412761526954 2.7012016001221796e-05 0 0.034714999450491515 3.0327650040352112e-05 0 0.034785412761526954 2.7012016001221796e-05 0 0.03477088666745852 2.9510089432591063e-05 0 0.034763454289361777 3.211835247924972e-05 0 0.034714999450491515 3.0327650040352112e-05 0 0.03477088666745852 2.9510089432591063e-05 0 0.034763454289361777 3.211835247924972e-05 0 0.03477088666745852 2.9510089432591063e-05 0 0.034806154880104426 2.8284706578296861e-05 0 0.034840352135669383 2.3823411570387199e-05 0 0.03477088666745852 2.9510089432591063e-05 0 0.034806154880104426 2.8284706578296861e-05 0 0.034840352135669383 2.3823411570387199e-05 0 0.034785412761526954 2.7012016001221796e-05 0 0.03477088666745852 2.9510089432591063e-05 0 0.034684749290248139 -7.2405025384987537e-05 0 0.034686714271047692 -3.01608708790014e-05 0 0.034755385102677873 -3.2991608645393305e-05 0 0.03470019258459249 -6.7474244549027362e-05 0 0.034782723968370836 -7.4823312879465092e-05 0 0.034684749290248139 -7.2405025384987537e-05 0 0.034755385102677873 -3.2991608645393305e-05 0 0.034885170981721655 -2.8021410644446522e-05 0 0.034610877396019965 -1.0464830101156788e-05 0 0.034684749290248139 -7.2405025384987537e-05 0 0.034587037768550509 -9.5490508671848155e-05 0 0.034663550954619725 -3.0646185446483844e-05 0 0.034684749290248139 -7.2405025384987537e-05 0 0.034667123454582158 -2.0940644886482186e-05 0 0.034684749290248139 -7.2405025384987537e-05 0 0.034667123454582158 -2.0940644886482186e-05 0 0.034686714271047692 -3.01608708790014e-05 0 0.034613906912406373 -8.2835845589742766e-06 0 0.034667123454582158 -2.0940644886482186e-05 0 0.034665463007564089 6.5534295432070919e-06 0 0.034665463007564089 6.5534295432070919e-06 0 0.034686714271047692 -3.01608708790014e-05 0 0.034673683356739551 -2.3925087456298529e-05 0 0.034667123454582158 -2.0940644886482186e-05 0 0.034665463007564089 6.5534295432070919e-06 0 0.034686714271047692 -3.01608708790014e-05 0 0.034686714271047692 -3.01608708790014e-05 0 0.034673683356739551 -2.3925087456298529e-05 0 0.03472057315749031 2.1779958426787159e-05 0 0.034832027662570167 -1.4389159890881616e-05 0 0.034865610210401701 7.7011487658617726e-06 0 0.03499984620334045 5.202829260237709e-08 0 0.034988491508892737 -1.4421790446933833e-05 0 0.0350000556905068 -6.2653526011077082e-09 0 0.034988491508892737 -1.4421790446933833e-05 0 0.0350000556905068 -6.2653526011077082e-09 0 0.03500668063860625 2.7237160160703206e-06 0 0.0350000556905068 -6.2653526011077082e-09 0 0.03500668063860625 2.7237160160703206e-06 0 0.03499992796056884 -2.2895827041603125e-08 0 0.034686714271047692 -3.01608708790014e-05 0 0.03472057315749031 2.1779958426787159e-05 0 0.034755385102677873 -3.2991608645393305e-05 0 0.034755385102677873 -3.2991608645393305e-05 0 0.034957907273082456 1.2273653239758075e-05 0 0.034885170981721655 -2.8021410644446522e-05 0 0.03472057315749031 2.1779958426787159e-05 0 0.034755385102677873 -3.2991608645393305e-05 0 0.034957907273082456 1.2273653239758075e-05 0 0.03500668063860625 2.7237160160703206e-06 0 0.03499992796056884 -2.2895827041603125e-08 0 0.034957907273082456 1.2273653239758075e-05 0 0.034865610210401701 7.7011487658617726e-06 0 0.034946774499408133 1.4611319281413575e-05 0 0.034999915210647506 -3.3326990036247466e-08 0 0.034782723968370836 -7.4823312879465092e-05 0 0.034999902056650017 8.7039801358563046e-08 0 0.034957907273082456 1.2273653239758075e-05 0 0.034885170981721655 -2.8021410644446522e-05 0 0.03499992796056884 -2.2895827041603125e-08 0 0.034999902056650017 8.7039801358563046e-08 0 0.034957907273082456 1.2273653239758075e-05 0 0.034999453392524089 -1.7066859343568843e-08 0 0.034823231081644458 -7.0306782345661183e-05 0 0.034671544927875483 -0.00011786382864658274 0 0.034999940291021533 1.7865037970444969e-08 0 0.034853282275149146 -3.5528138436544776e-05 0 0.035000087598708839 -4.06465753057683e-08 0 0.034823231081644458 -7.0306782345661183e-05 0 0.034744082646334946 -0.00010304975543183747 0 0.034999453392524089 -1.7066859343568843e-08 0 0.035000087598708839 -4.06465753057683e-08 0 0.034823231081644458 -7.0306782345661183e-05 0 0.034823231081644458 -7.0306782345661183e-05 0 0.034668529612724375 -0.00011927300008780806 0 0.034744082646334946 -0.00010304975543183747 0 0.034823231081644458 -7.0306782345661183e-05 0 0.034671544927875483 -0.00011786382864658274 0 0.034668529612724375 -0.00011927300008780806 0 0.034671544927875483 -0.00011786382864658274 0 0.034668529612724375 -0.00011927300008780806 0 0.034587037768550509 -9.5490508671848155e-05 0 0.034684749290248139 -7.2405025384987537e-05 0 0.034671544927875483 -0.00011786382864658274 0 0.034587037768550509 -9.5490508671848155e-05 0 0.034668529612724375 -0.00011927300008780806 0 0.034447546496467772 -9.5394347440575742e-05 0 0.034744082646334946 -0.00010304975543183747 0 0.034668529612724375 -0.00011927300008780806 0 0.034587037768550509 -9.5490508671848155e-05 0 0.034447546496467772 -9.5394347440575742e-05 0 0.034587037768550509 -9.5490508671848155e-05 0 0.034447546496467772 -9.5394347440575742e-05 0 0.034344897781049551 3.7356187594972413e-05 0 0.034819912020723001 9.5807735956058695e-05 0 0.03469078964997141 8.3767107064671161e-05 0 0.034652914709287636 0.000231849954683278 0 0.034819912020723001 9.5807735956058695e-05 0 0.034652914709287636 0.000231849954683278 0 0.034801729719132639 0.00024978345868658817 0 0.034932669448334154 0.00013749712710088455 0 0.034819912020723001 9.5807735956058695e-05 0 0.034801729719132639 0.00024978345868658817 0 0.034819912020723001 9.5807735956058695e-05 0 0.034835313177380395 1.2404716466552212e-06 0 0.034967531694997993 -3.1531518172302398e-06 0 0.034688583427780008 3.7089459367045748e-05 0 0.034853282275149146 -3.5528138436544776e-05 0 0.034932669448334154 0.00013749712710088455 0 0.034819912020723001 9.5807735956058695e-05 0 0.034967531694997993 -3.1531518172302398e-06 0 0.034819912020723001 9.5807735956058695e-05 0 0.034835313177380395 1.2404716466552212e-06 0 0.03469078964997141 8.3767107064671161e-05 0 0.034835313177380395 1.2404716466552212e-06 0 0.034961395072528441 -1.8811819554695596e-05 0 0.034846661213170843 -5.7602795693915347e-05 0 0.034999985757095578 -5.4159407806244429e-08 0 0.034961395072528441 -1.8811819554695596e-05 0 0.034999752428980319 -1.4358372656315412e-08 0 0.034835313177380395 1.2404716466552212e-06 0 0.034967531694997993 -3.1531518172302398e-06 0 0.034961395072528441 -1.8811819554695596e-05 0 0.034999985757095578 -5.4159407806244429e-08 0 0.034967531694997993 -3.1531518172302398e-06 0 0.034961395072528441 -1.8811819554695596e-05 0 0.034961395072528441 -1.8811819554695596e-05 0 0.034999752428980319 -1.4358372656315412e-08 0 0.034846661213170843 -5.7602795693915347e-05 0 0.034999752428980319 -1.4358372656315412e-08 0 0.034846661213170843 -5.7602795693915347e-05 0 0.034999216095214031 -3.4826049133918222e-07 0 0.034846661213170843 -5.7602795693915347e-05 0 0.034761154248137922 -0.00010469703319548377 0 0.034999216095214031 -3.4826049133918222e-07 0 0.034846661213170843 -5.7602795693915347e-05 0 0.034761154248137922 -0.00010469703319548377 0 0.034676596907245338 1.7634485181815574e-06 0 0.034835313177380395 1.2404716466552212e-06 0 0.034846661213170843 -5.7602795693915347e-05 0 0.034676596907245338 1.7634485181815574e-06 0 0.034761154248137922 -0.00010469703319548377 0 0.034455531648001615 -0.00026009719360151214 0 0.034509721484746375 -0.00022356264015172881 0 0.034761154248137922 -0.00010469703319548377 0 0.034999216095214031 -3.4826049133918222e-07 0 0.034455531648001615 -0.00026009719360151214 0 0.034455531648001615 -0.00026009719360151214 0 0.034509721484746375 -0.00022356264015172881 0 0.034310137925644399 -0.00018021175742585335 0 0.034509721484746375 -0.00022356264015172881 0 0.034310137925644399 -0.00018021175742585335 0 0.034441177406064734 0.00010057814005382425 0 0.03446079815564948 -4.1666080553889003e-05 0 0.034252620280750726 0.00020322021432607969 0 0.034455531648001615 -0.00026009719360151214 0 0.034310137925644399 -0.00018021175742585335 0 0.033928316027511472 -0.00029948443214059282 0 0.034310137925644399 -0.00018021175742585335 0 0.034157513337137659 5.250391850089994e-05 0 0.033928316027511472 -0.00029948443214059282 0 0.03469078964997141 8.3767107064671161e-05 0 0.034676596907245338 1.7634485181815574e-06 0 0.034433687158280775 0.00018381448015933428 0 0.034835313177380395 1.2404716466552212e-06 0 0.03469078964997141 8.3767107064671161e-05 0 0.034676596907245338 1.7634485181815574e-06 0 0.034358120276297303 0.0001005817517230089 0 0.034676596907245338 1.7634485181815574e-06 0 0.034433687158280775 0.00018381448015933428 0 0.034701667752658122 -0.00011284156780573864 0 0.03446079815564948 -4.1666080553889003e-05 0 0.034761154248137922 -0.00010469703319548377 0 0.034358120276297303 0.0001005817517230089 0 0.034676596907245338 1.7634485181815574e-06 0 0.034358120276297303 0.0001005817517230089 0 0.034433687158280775 0.00018381448015933428 0 0.03407037091511865 0.00034345952784502036 0 0.03469078964997141 8.3767107064671161e-05 0 0.034433687158280775 0.00018381448015933428 0 0.034652914709287636 0.000231849954683278 0 0.034433687158280775 0.00018381448015933428 0 0.034652914709287636 0.000231849954683278 0 0.034483158665373902 0.0003697715278902534 0 0.034652914709287636 0.000231849954683278 0 0.034483158665373902 0.0003697715278902534 0 0.034684268273302517 0.00044430680732865288 0 0.034433687158280775 0.00018381448015933428 0 0.034483158665373902 0.0003697715278902534 0 0.03407037091511865 0.00034345952784502036 0 0.03407037091511865 0.00034345952784502036 0 0.032931390764330049 -0.00032313923701302987 0 0.033846919053702976 -0.00011168127274257243 0 0.033983535009335937 0.0003086908797418889 0 0.033684608012443489 9.4876675689518461e-05 0 0.034483158665373902 0.0003697715278902534 0 0.03407037091511865 0.00034345952784502036 0 0.034421811779874786 0.00060035539908294411 0 0.032931390764330049 -0.00032313923701302987 0 0.033846919053702976 -0.00011168127274257243 0 0.033595645703170633 -0.00065865403917930471 0 0.034483158665373902 0.0003697715278902534 0 0.034421811779874786 0.00060035539908294411 0 0.034684268273302517 0.00044430680732865288 0 0.034421811779874786 0.00060035539908294411 0 0.034652962575962308 0.00061611954601111147 0 0.034684268273302517 0.00044430680732865288 0 0.034157513337137659 5.250391850089994e-05 0 0.034441177406064734 0.00010057814005382425 0 0.034064426567906571 0.00041990584944702507 0 0.034310137925644399 -0.00018021175742585335 0 0.034157513337137659 5.250391850089994e-05 0 0.034441177406064734 0.00010057814005382425 0 0.034358120276297303 0.0001005817517230089 0 0.03407037091511865 0.00034345952784502036 0 0.034127565756240964 0.00033496990794190966 0 0.03407037091511865 0.00034345952784502036 0 0.034127565756240964 0.00033496990794190966 0 0.033846919053702976 -0.00011168127274257243 0 0.034252620280750726 0.00020322021432607969 0 0.034571234955229915 0.00020159175866671722 0 0.034127565756240964 0.00033496990794190966 0 0.033846919053702976 -0.00011168127274257243 0 0.034293663226937984 -0.00054959827534877903 0 0.034441177406064734 0.00010057814005382425 0 0.034064426567906571 0.00041990584944702507 0 0.034279057596429116 0.00081265261355106019 0 0.034064426567906571 0.00041990584944702507 0 0.034279057596429116 0.00081265261355106019 0 0.033801874030197507 0.00074305701794298465 0 0.034157513337137659 5.250391850089994e-05 0 0.034064426567906571 0.00041990584944702507 0 0.033598198168705892 0.00041458185650313357 0 0.034279057596429116 0.00081265261355106019 0 0.033801874030197507 0.00074305701794298465 0 0.033719972698284653 0.0012164717606508466 0 0.033846919053702976 -0.00011168127274257243 0 0.034293663226937984 -0.00054959827534877903 0 0.033595645703170633 -0.00065865403917930471 0 0.034293663226937984 -0.00054959827534877903 0 0.033809609245981136 -0.0012478047732658421 0 0.033595645703170633 -0.00065865403917930471 0 0.033809609245981136 -0.0012478047732658421 0 0.034554849439730161 -0.0018993896538361027 0 0.033549811606277971 -0.001968703036070146 0 0.034293663226937984 -0.00054959827534877903 0 0.033809609245981136 -0.0012478047732658421 0 0.034554849439730161 -0.0018993896538361027 0 0.034279057596429116 0.00081265261355106019 0 0.033719972698284653 0.0012164717606508466 0 0.034079033475310862 0.001522759881039509 0 0.034571234955229915 0.00020159175866671722 0 0.032029316715540844 -0.0007427780689019211 0 0.033684608012443489 9.4876675689518461e-05 0 0.033404890595576518 -0.00036440420686104633 0 0.034421811779874786 0.00060035539908294411 0 0.034578289926759286 0.00069165563657960208 0 0.034652962575962308 0.00061611954601111147 0 0.032931390764330049 -0.00032313923701302987 0 0.033014580581235263 -0.0012343695031907475 0 0.032177233279693039 -0.0014276587021810224 0 0.032931390764330049 -0.00032313923701302987 0 0.033595645703170633 -0.00065865403917930471 0 0.033014580581235263 -0.0012343695031907475 0 0.033809609245981136 -0.0012478047732658421 0 0.033595645703170633 -0.00065865403917930471 0 0.033014580581235263 -0.0012343695031907475 0 0.033014580581235263 -0.0012343695031907475 0 0.032213693554646095 -0.0018540898891007307 0 0.033549811606277971 -0.001968703036070146 0 0.033809609245981136 -0.0012478047732658421 0 0.033014580581235263 -0.0012343695031907475 0 0.033549811606277971 -0.001968703036070146 0 0.032177233279693039 -0.0014276587021810224 0 0.032471830888696006 -0.0016588815499475231 0 0.032213693554646095 -0.0018540898891007307 0 0.033014580581235263 -0.0012343695031907475 0 0.032177233279693039 -0.0014276587021810224 0 0.032213693554646095 -0.0018540898891007307 0 0.034578289926759286 0.00069165563657960208 0 0.034672137989821834 0.0006898206523463891 0 0.034661690594121435 0.00072848376488875871 0 0.034672137989821834 0.0006898206523463891 0 0.034687803336689305 0.00072560503791805535 0 0.034661690594121435 0.00072848376488875871 0 0.033404890595576518 -0.00036440420686104633 0 0.033602095352740301 -0.00039762069406167408 0 0.034652962575962308 0.00061611954601111147 0 0.034784225514844183 0.00062437010730073954 0 0.034684268273302517 0.00044430680732865288 0 0.034578289926759286 0.00069165563657960208 0 0.034672137989821834 0.0006898206523463891 0 0.034652962575962308 0.00061611954601111147 0 0.034672137989821834 0.0006898206523463891 0 0.034652962575962308 0.00061611954601111147 0 0.034784225514844183 0.00062437010730073954 0 0.034672137989821834 0.0006898206523463891 0 0.034784225514844183 0.00062437010730073954 0 0.034687803336689305 0.00072560503791805535 0 0.034345163545949117 0.00033879269556340085 0 0.034254673490177627 0.00042362637434078003 0 0.03391128200404258 8.752125782037306e-05 0 0.033743706242100484 4.5856566553850798e-06 0 0.03373851555623654 -7.034277713350788e-05 0 0.033743706242100484 4.5856566553850798e-06 0 0.033626550807588931 -8.0900065049992317e-05 0 0.03373851555623654 -7.034277713350788e-05 0 0.033743706242100484 4.5856566553850798e-06 0 0.033616438953134549 -2.1013061288012836e-05 0 0.033626550807588931 -8.0900065049992317e-05 0 0.033743706242100484 4.5856566553850798e-06 0 0.033616438953134549 -2.1013061288012836e-05 0 0.033795271561574608 6.5833851961635332e-05 0 0.03350015360135513 4.6361932280656786e-05 0 0.033616438953134549 -2.1013061288012836e-05 0 0.033795271561574608 6.5833851961635332e-05 0 0.03350015360135513 4.6361932280656786e-05 0 0.033616438953134549 -2.1013061288012836e-05 0 0.033420557030994065 -7.3863494325604031e-05 0 0.033616438953134549 -2.1013061288012836e-05 0 0.033496994532002076 -0.00010494534722700789 0 0.033420557030994065 -7.3863494325604031e-05 0 0.03350015360135513 4.6361932280656786e-05 0 0.033795271561574608 6.5833851961635332e-05 0 0.033840531946930534 0.00013755032120620691 0 0.034029737476970259 1.9263338671737815e-05 0 0.034196726662077362 4.9824337422988201e-05 0 0.03391128200404258 8.752125782037306e-05 0 0.033743706242100484 4.5856566553850798e-06 0 0.033795271561574608 6.5833851961635332e-05 0 0.03391128200404258 8.752125782037306e-05 0 0.033795271561574608 6.5833851961635332e-05 0 0.034024539158502502 0.00011365938153662405 0 0.033795271561574608 6.5833851961635332e-05 0 0.034024539158502502 0.00011365938153662405 0 0.033840531946930534 0.00013755032120620691 0 0.034024539158502502 0.00011365938153662405 0 0.033840531946930534 0.00013755032120620691 0 0.034344897781049551 3.7356187594972413e-05 0 0.034196726662077362 4.9824337422988201e-05 0 0.034294553858029313 1.8503330638752599e-05 0 0.034610877396019965 -1.0464830101156788e-05 0 0.03456349092103643 3.5173009238986675e-05 0 0.034344897781049551 3.7356187594972413e-05 0 0.034610877396019965 -1.0464830101156788e-05 0 0.034587037768550509 -9.5490508671848155e-05 0 0.034344897781049551 3.7356187594972413e-05 0 0.034447546496467772 -9.5394347440575742e-05 0 0.034344897781049551 3.7356187594972413e-05 0 0.03414262272654587 8.7530682073346815e-05 0 0.034024539158502502 0.00011365938153662405 0 0.034344897781049551 3.7356187594972413e-05 0 0.03414262272654587 8.7530682073346815e-05 0 0.034932669448334154 0.00013749712710088455 0 0.034879827234136442 0.00038333407268542033 0 0.034801729719132639 0.00024978345868658817 0 0.034688583427780008 3.7089459367045748e-05 0 0.034511204093029685 0.00024746680329759967 0 0.034879827234136442 0.00038333407268542033 0 0.034801729719132639 0.00024978345868658817 0 0.034684268273302517 0.00044430680732865288 0 0.034652914709287636 0.000231849954683278 0 0.034801729719132639 0.00024978345868658817 0 0.034684268273302517 0.00044430680732865288 0 0.03391128200404258 8.752125782037306e-05 0 0.034024539158502502 0.00011365938153662405 0 0.03414262272654587 8.7530682073346815e-05 0 0.034345163545949117 0.00033879269556340085 0 0.034511204093029685 0.00024746680329759967 0 0.034784225514844183 0.00062437010730073954 0 0.034879827234136442 0.00038333407268542033 0 0.034684268273302517 0.00044430680732865288 0 0.034997409055886469 -9.9765620793144408e-07 0 0.03459279361346114 -0.00011412131846024618 0 0.034998067090469091 1.3470543435967046e-08 0 0.031177061220574575 7.1957420065397638e-06 0 0.03044863354086038 -4.3179625925956946e-07 0 0.030253533642653582 2.5786220918698682e-05 0 0.031427608685099279 0.00036816772714153505 0 0.028741202908945832 0.00020723665197564385 0 0.031177061220574575 7.1957420065397638e-06 0 0.032158873954553316 6.3626747256352436e-07 0 0.03044863354086038 -4.3179625925956946e-07 0 0.031427608685099279 0.00036816772714153505 0 0.030565883884834891 -3.2518960689814791e-05 0 0.027300177278877923 0.00055960134735415939 0 0.027518518653845751 0.00088987663751765331 0 0.026900280885430287 0.0004737814557091553 0 0.034591652152407185 -0.00029403760407586667 0 0.034461317272772268 -0.00022049470276534319 0 0.034354198236782103 -0.00043725535958958933 0 0.027300177278877923 0.00055960134735415939 0 0.027518518653845751 0.00088987663751765331 0 0.027658553042009478 0.0004642514329988817 0 0.034591652152407185 -0.00029403760407586667 0 0.03459279361346114 -0.00011412131846024618 0 0.034461317272772268 -0.00022049470276534319 0 0.031427608685099279 0.00036816772714153505 0 0.03525374053685025 -0.0003661041206489481 0 0.033217723300233253 0.00054736319386281972 0 0.032166479733215646 1.7969266129966608e-06 0 0.03459279361346114 -0.00011412131846024618 0 0.031427608685099279 0.00036816772714153505 0 0.032161969165540809 3.5113829613503788e-07 0 0.032166479733215646 1.7969266129966608e-06 0 0.034997409055886469 -9.9765620793144408e-07 0 0.03459279361346114 -0.00011412131846024618 0 0.03459279361346114 -0.00011412131846024618 0 0.0342862372599032 -8.3732761771325399e-05 0 0.034461317272772268 -0.00022049470276534319 0 0.03459279361346114 -0.00011412131846024618 0 0.0342862372599032 -8.3732761771325399e-05 0 0.034998067090469091 1.3470543435967046e-08 0 0.0342862372599032 -8.3732761771325399e-05 0 0.034354198236782103 -0.00043725535958958933 0 0.033637895766129002 -0.00064770980609375718 0 0.0342862372599032 -8.3732761771325399e-05 0 0.034461317272772268 -0.00022049470276534319 0 0.034354198236782103 -0.00043725535958958933 0 0.030565883884834891 -3.2518960689814791e-05 0 0.030406889624130466 -0.00051264335600764081 0 0.0342862372599032 -8.3732761771325399e-05 0 0.033263444224786692 -0.00028995474011057128 0 0.033637895766129002 -0.00064770980609375718 0 0.0342862372599032 -8.3732761771325399e-05 0 0.033263444224786692 -0.00028995474011057128 0 0.034998067090469091 1.3470543435967046e-08 0 0.033263444224786692 -0.00028995474011057128 0 0.034998067090469091 1.3470543435967046e-08 0 0.033897061705676246 -0.00031718339033164956 0 0.034999216095214031 -3.4826049133918222e-07 0 0.034455531648001615 -0.00026009719360151214 0 0.034998067090469091 1.3470543435967046e-08 0 0.034455531648001615 -0.00026009719360151214 0 0.034998067090469091 1.3470543435967046e-08 0 0.033897061705676246 -0.00031718339033164956 0 0.034455531648001615 -0.00026009719360151214 0 0.033897061705676246 -0.00031718339033164956 0 0.033928316027511472 -0.00029948443214059282 0 0.033263444224786692 -0.00028995474011057128 0 0.033897061705676246 -0.00031718339033164956 0 0.032790941521683228 -0.0004879822876025907 0 0.033897061705676246 -0.00031718339033164956 0 0.033928316027511472 -0.00029948443214059282 0 0.032790941521683228 -0.0004879822876025907 0 0.033928316027511472 -0.00029948443214059282 0 0.032790941521683228 -0.0004879822876025907 0 0.033598198168705892 0.00041458185650313357 0 0.034157513337137659 5.250391850089994e-05 0 0.033928316027511472 -0.00029948443214059282 0 0.033598198168705892 0.00041458185650313357 0 0.033598198168705892 0.00041458185650313357 0 0.033117689122527522 0.0024397595433369767 0 0.031167246913203626 0.0010396126270022198 0 0.032790941521683228 -0.0004879822876025907 0 0.033598198168705892 0.00041458185650313357 0 0.031167246913203626 0.0010396126270022198 0 0.03356031481396015 0.00052530581262406472 0 0.033431999386611733 0.0017664498783659648 0 0.033598198168705892 0.00041458185650313357 0 0.033801874030197507 0.00074305701794298465 0 0.033383705519973439 0.00089126290740937115 0 0.034064426567906571 0.00041990584944702507 0 0.033598198168705892 0.00041458185650313357 0 0.033801874030197507 0.00074305701794298465 0 0.033801874030197507 0.00074305701794298465 0 0.033383705519973439 0.00089126290740937115 0 0.033719972698284653 0.0012164717606508466 0 0.033719972698284653 0.0012164717606508466 0 0.033288613626088877 0.0015033270540305448 0 0.034079033475310862 0.001522759881039509 0 0.027862973027581135 0.00089389637105785342 0 0.032029316715540844 -0.0007427780689019211 0 0.033719972698284653 0.0012164717606508466 0 0.033419716586258329 0.0012323552698351257 0 0.033288613626088877 0.0015033270540305448 0 0.033383705519973439 0.00089126290740937115 0 0.033719972698284653 0.0012164717606508466 0 0.033419716586258329 0.0012323552698351257 0 0.033383705519973439 0.00089126290740937115 0 0.033419716586258329 0.0012323552698351257 0 0.033156649119658745 0.0014039739449243514 0 0.033431999386611733 0.0017664498783659648 0 0.028457806134625424 0.0017236332756735261 0 0.033117689122527522 0.0024397595433369767 0 0.032364478142950466 0.0051732513685979684 0 0.031824960411937629 0.0032557836384842121 0 0.024164060579130838 0.00089125859839577349 0 0.023919757814118505 0.0007551097367240082 0 0.024290204808818223 0.00075173007672233989 0 0.025341544900437225 0.0014383268312117129 0 0.023817218334469707 0.00083919375242243719 0 0.024164060579130838 0.00089125859839577349 0 0.023919757814118505 0.0007551097367240082 0 0.023826152664660729 0.00087666289968370379 0 0.02762794143750132 0.0006972956434461346 0 0.027489582825234959 0.00068795129590349454 0 0.027602889403877413 0.0007797242723038034 0 0.033419716586258329 0.0012323552698351257 0 0.033288613626088877 0.0015033270540305448 0 0.033156649119658745 0.0014039739449243514 0 0.025341544900437225 0.0014383268312117129 0 0.027862973027581135 0.00089389637105785342 0 0.025341544900437225 0.0014383268312117129 0 0.028457806134625424 0.0017236332756735261 0 0.027862973027581135 0.00089389637105785342 0 0.028457806134625424 0.0017236332756735261 0 0.024164060579130838 0.00089125859839577349 0 0.023826152664660729 0.00087666289968370379 0 0.024605080028402955 0.0013213395170438408 0 0.032364478142950466 0.0051732513685979684 0 0.031824960411937629 0.0032557836384842121 0 0.030325902620664119 0.003826275937938804 0 0.028457806134625424 0.0017236332756735261 0 0.027529330894461045 0.0025151864317985999 0 0.031824960411937629 0.0032557836384842121 0 0.030325902620664119 0.003826275937938804 0 0.031167246913203626 0.0010396126270022198 0 0.033117689122527522 0.0024397595433369767 0 0.031824960411937629 0.0032557836384842121 0 0.031167246913203626 0.0010396126270022198 0 0.030325902620664119 0.003826275937938804 0 0.027224991869396736 0.0017612353842662307 0 0.031167246913203626 0.0010396126270022198 0 0.024605080028402955 0.0013213395170438408 0 0.025322303607294719 0.00096424734034308108 0 0.027224991869396736 0.0017612353842662307 0 0.027529330894461045 0.0025151864317985999 0 0.027064120143401281 0.0018435943860263737 0 0.024605080028402955 0.0013213395170438408 0 0.024290204808818223 0.00075173007672233989 0 0.025322303607294719 0.00096424734034308108 0 0.024164060579130838 0.00089125859839577349 0 0.024605080028402955 0.0013213395170438408 0 0.024290204808818223 0.00075173007672233989 0 0.025322303607294719 0.00096424734034308108 0 0.02578747276729464 0.0011303510267282339 0 0.024830152619353472 0.0007786032093223457 0 0.025322303607294719 0.00096424734034308108 0 0.027224991869396736 0.0017612353842662307 0 0.02578747276729464 0.0011303510267282339 0 0.027224991869396736 0.0017612353842662307 0 0.026222648898482172 0.00058777407909469618 0 0.02578747276729464 0.0011303510267282339 0 0.027224991869396736 0.0017612353842662307 0 0.027749653270051144 0.00047903601833315911 0 0.026222648898482172 0.00058777407909469618 0 0.027224991869396736 0.0017612353842662307 0 0.027749653270051144 0.00047903601833315911 0 0.031167246913203626 0.0010396126270022198 0 0.027749653270051144 0.00047903601833315911 0 0.031167246913203626 0.0010396126270022198 0 0.031148333152072934 -0.00053705644598655167 0 0.033263444224786692 -0.00028995474011057128 0 0.032790941521683228 -0.0004879822876025907 0 0.031148333152072934 -0.00053705644598655167 0 0.032790941521683228 -0.0004879822876025907 0 0.031167246913203626 0.0010396126270022198 0 0.031148333152072934 -0.00053705644598655167 0 0.027749653270051144 0.00047903601833315911 0 0.031148333152072934 -0.00053705644598655167 0 0.026865931618298949 -0.00052259881996265624 0 0.031192719557014744 -0.00045927990234135538 0 0.030406889624130466 -0.00051264335600764081 0 0.033263444224786692 -0.00028995474011057128 0 0.031148333152072934 -0.00053705644598655167 0 0.033637895766129002 -0.00064770980609375718 0 0.026900280885430287 0.0004737814557091553 0 0.026865931618298949 -0.00052259881996265624 0 0.026698835440473346 0.0002912398996092888 0 0.026900280885430287 0.0004737814557091553 0 0.026698835440473346 0.0002912398996092888 0 0.027263495207931067 0.00039041155697916078 0 0.026698835440473346 0.0002912398996092888 0 0.026222648898482172 0.00058777407909469618 0 0.027433853813160932 -0.0001836548371639705 0 0.027749653270051144 0.00047903601833315911 0 0.026865931618298949 -0.00052259881996265624 0 0.026222648898482172 0.00058777407909469618 0 0.026865931618298949 -0.00052259881996265624 0 0.026698835440473346 0.0002912398996092888 0 0.026222648898482172 0.00058777407909469618 0 0.026222648898482172 0.00058777407909469618 0 0.02578747276729464 0.0011303510267282339 0 0.024959586702530182 0.00086231029587314654 0 0.02578747276729464 0.0011303510267282339 0 0.024830152619353472 0.0007786032093223457 0 0.024959586702530182 0.00086231029587314654 0 0.024959586702530182 0.00086231029587314654 0 0.024977577302979573 0.00087487632621998138 0 0.024724815346837237 0.00022279048215238887 0 0.026222648898482172 0.00058777407909469618 0 0.024959586702530182 0.00086231029587314654 0 0.024977577302979573 0.00087487632621998138 0 0.026207125327840381 0.00055046671331443692 0 0.026229463550757757 0.00035941494750976798 0 0.027433853813160932 -0.0001836548371639705 0 0.027642179999035048 -0.00013439406456189836 0 0.027365360058364662 0.00013077347336370407 0 0.024977577302979573 0.00087487632621998138 0 0.027014651885230799 2.3717939587585102e-06 0 0.024724815346837237 0.00022279048215238887 0 0.026229463550757757 0.00035941494750976798 0 0.027019054212578858 6.7808715521876699e-08 0 0.027642179999035048 -0.00013439406456189836 0 0.027022168239151476 -8.5610581253622941e-07 0 0.028282467440328887 -2.2485373465815337e-05 0 0.027022168239151476 -8.5610581253622941e-07 0 0.028282467440328887 -2.2485373465815337e-05 0 0.028731540706384333 4.2968463457775402e-07 0 0.027433853813160932 -0.0001836548371639705 0 0.027642179999035048 -0.00013439406456189836 0 0.027022168239151476 -8.5610581253622941e-07 0 0.028509753377218977 -0.00016047107991336155 0 0.028741202908945832 0.00020723665197564385 0 0.028282467440328887 -2.2485373465815337e-05 0 0.027625421446876436 0.00019481826802563554 0 0.027658553042009478 0.0004642514329988817 0 0.028282467440328887 -2.2485373465815337e-05 0 0.028731540706384333 4.2968463457775402e-07 0 0.030253533642653582 2.5786220918698682e-05 0 0.027642179999035048 -0.00013439406456189836 0 0.028282467440328887 -2.2485373465815337e-05 0 0.027625421446876436 0.00019481826802563554 0 0.027642179999035048 -0.00013439406456189836 0 0.027365360058364662 0.00013077347336370407 0 0.027625421446876436 0.00019481826802563554 0 0.026698835440473346 0.0002912398996092888 0 0.027433853813160932 -0.0001836548371639705 0 0.027365360058364662 0.00013077347336370407 0 0.027365360058364662 0.00013077347336370407 0 0.027625421446876436 0.00019481826802563554 0 0.027263495207931067 0.00039041155697916078 0 0.026698835440473346 0.0002912398996092888 0 0.027365360058364662 0.00013077347336370407 0 0.027263495207931067 0.00039041155697916078 0 0.027300177278877923 0.00055960134735415939 0 0.026900280885430287 0.0004737814557091553 0 0.027263495207931067 0.00039041155697916078 0 0.027625421446876436 0.00019481826802563554 0 0.027263495207931067 0.00039041155697916078 0 0.027658553042009478 0.0004642514329988817 0 0.027300177278877923 0.00055960134735415939 0 0.027263495207931067 0.00039041155697916078 0 0.027658553042009478 0.0004642514329988817 0 0.028731540706384333 4.2968463457775402e-07 0 0.03044863354086038 -4.3179625925956946e-07 0 0.030253533642653582 2.5786220918698682e-05 0 0.023090743269050789 -1.3731525529381236e-08 0 0.023845353718480174 2.8525356535723981e-05 0 0.022626710013898984 -3.27742583921098e-05 0 0.023090743269050789 -1.3731525529381236e-08 0 0.022626710013898984 -3.27742583921098e-05 0 0.021589242804150675 -7.8882479985805491e-05 0 0.023090743269050789 -1.3731525529381236e-08 0 0.021589242804150675 -7.8882479985805491e-05 0 0.021127243814137844 -2.0017029957849973e-07 0 0.023090743269050789 -1.3731525529381236e-08 0 0.025055868470797191 -5.5545286935036019e-07 0 0.023845353718480174 2.8525356535723981e-05 0 0.025055868470797191 -5.5545286935036019e-07 0 0.024724815346837237 0.00022279048215238887 0 0.023845353718480174 2.8525356535723981e-05 0 0.027014651885230799 2.3717939587585102e-06 0 0.025055868470797191 -5.5545286935036019e-07 0 0.024724815346837237 0.00022279048215238887 0 0.024724815346837237 0.00022279048215238887 0 0.023845353718480174 2.8525356535723981e-05 0 0.023804297611200665 0.00027878061149935442 0 0.023845353718480174 2.8525356535723981e-05 0 0.023804297611200665 0.00027878061149935442 0 0.022626710013898984 -3.27742583921098e-05 0 0.024959586702530182 0.00086231029587314654 0 0.024724815346837237 0.00022279048215238887 0 0.023804297611200665 0.00027878061149935442 0 0.024830152619353472 0.0007786032093223457 0 0.023804297611200665 0.00027878061149935442 0 0.024019492742778065 0.00043640431148621306 0 0.024830152619353472 0.0007786032093223457 0 0.024959586702530182 0.00086231029587314654 0 0.023804297611200665 0.00027878061149935442 0 0.023804297611200665 0.00027878061149935442 0 0.022279983785033534 -3.7827097484971202e-05 0 0.02295617019592381 0.00014685065441332544 0 0.023804297611200665 0.00027878061149935442 0 0.022626710013898984 -3.27742583921098e-05 0 0.022279983785033534 -3.7827097484971202e-05 0 0.022626710013898984 -3.27742583921098e-05 0 0.022279983785033534 -3.7827097484971202e-05 0 0.021128851494952014 -0.00011965927084170995 0 0.022626710013898984 -3.27742583921098e-05 0 0.021128851494952014 -0.00011965927084170995 0 0.021589242804150675 -7.8882479985805491e-05 0 0.022279983785033534 -3.7827097484971202e-05 0 0.021290995605622542 -0.00013572936608004986 0 0.021128851494952014 -0.00011965927084170995 0 0.022279983785033534 -3.7827097484971202e-05 0 0.021833363336353717 -0.00012570828560628408 0 0.021290995605622542 -0.00013572936608004986 0 0.021833363336353717 -0.00012570828560628408 0 0.022183480320603795 -1.2489177340398146e-05 0 0.021528693795247699 -0.00024272881470732826 0 0.022183480320603795 -1.2489177340398146e-05 0 0.02295617019592381 0.00014685065441332544 0 0.023381964253637009 0.00025553179914116197 0 0.022374144874843949 -3.5612557550968533e-05 0 0.022415777329901975 0.00022663267837890665 0 0.021833363336353717 -0.00012570828560628408 0 0.022183480320603795 -1.2489177340398146e-05 0 0.02295617019592381 0.00014685065441332544 0 0.022279983785033534 -3.7827097484971202e-05 0 0.021833363336353717 -0.00012570828560628408 0 0.02295617019592381 0.00014685065441332544 0 0.023804297611200665 0.00027878061149935442 0 0.02295617019592381 0.00014685065441332544 0 0.024019492742778065 0.00043640431148621306 0 0.025322303607294719 0.00096424734034308108 0 0.024830152619353472 0.0007786032093223457 0 0.024019492742778065 0.00043640431148621306 0 0.024290204808818223 0.00075173007672233989 0 0.024019492742778065 0.00043640431148621306 0 0.023381964253637009 0.00025553179914116197 0 0.024290204808818223 0.00075173007672233989 0 0.025322303607294719 0.00096424734034308108 0 0.024019492742778065 0.00043640431148621306 0 0.02295617019592381 0.00014685065441332544 0 0.024019492742778065 0.00043640431148621306 0 0.023381964253637009 0.00025553179914116197 0 0.021976977245765854 0.00039403643892817989 0 0.021784835099600868 0.00055768319952144007 0 0.021614389937243291 0.00027639724484777221 0 0.021976977245765854 0.00039403643892817989 0 0.021614389937243291 0.00027639724484777221 0 0.021719172911343173 1.007956549534614e-05 0 0.023748584433578822 0.00077029044567754725 0 0.024290204808818223 0.00075173007672233989 0 0.023381964253637009 0.00025553179914116197 0 0.02189029761307602 0.00077284673736222639 0 0.021976977245765854 0.00039403643892817989 0 0.021784835099600868 0.00055768319952144007 0 0.025341544900437225 0.0014383268312117129 0 0.022415777329901975 0.00022663267837890665 0 0.02189029761307602 0.00077284673736222639 0 0.021790887541441442 0.00077046527914608138 0 0.021784835099600868 0.00055768319952144007 0 0.027607194806650075 -0.00029961052634342757 0 0.027800335135156912 -0.00015876841336804812 0 0.028073994229788721 -0.00029385150908066302 0 0.021784835099600868 0.00055768319952144007 0 0.021552737029820405 0.00059337097627096649 0 0.021614389937243291 0.00027639724484777221 0 0.027862973027581135 0.00089389637105785342 0 0.024390982086867307 -0.00012488494978724339 0 0.021790887541441442 0.00077046527914608138 0 0.021784835099600868 0.00055768319952144007 0 0.021552737029820405 0.00059337097627096649 0 0.021552737029820405 0.00059337097627096649 0 0.021614389937243291 0.00027639724484777221 0 0.021335395814171168 0.00041108377973011356 0 0.021614389937243291 0.00027639724484777221 0 0.021550881624439418 -2.5697831746710705e-05 0 0.021390415792396065 8.3056200353500052e-05 0 0.021614389937243291 0.00027639724484777221 0 0.021550881624439418 -2.5697831746710705e-05 0 0.021719172911343173 1.007956549534614e-05 0 0.021550881624439418 -2.5697831746710705e-05 0 0.021534145378241814 -0.00019217015988036947 0 0.021390415792396065 8.3056200353500052e-05 0 0.021550881624439418 -2.5697831746710705e-05 0 0.021719172911343173 1.007956549534614e-05 0 0.021552101603820008 -0.00015848185284151022 0 0.022183480320603795 -1.2489177340398146e-05 0 0.021976977245765854 0.00039403643892817989 0 0.021719172911343173 1.007956549534614e-05 0 0.021719172911343173 1.007956549534614e-05 0 0.021528693795247699 -0.00024272881470732826 0 0.021552101603820008 -0.00015848185284151022 0 0.022183480320603795 -1.2489177340398146e-05 0 0.021719172911343173 1.007956549534614e-05 0 0.021528693795247699 -0.00024272881470732826 0 0.021528693795247699 -0.00024272881470732826 0 0.021552101603820008 -0.00015848185284151022 0 0.021484198581212623 -0.00019543952894275862 0 0.021534145378241814 -0.00019217015988036947 0 0.021537873598391547 -8.9585541461098048e-05 0 0.021603297652709123 -0.00020703441032986938 0 0.021534145378241814 -0.00019217015988036947 0 0.021552101603820008 -0.00015848185284151022 0 0.021484198581212623 -0.00019543952894275862 0 0.021550881624439418 -2.5697831746710705e-05 0 0.021534145378241814 -0.00019217015988036947 0 0.021552101603820008 -0.00015848185284151022 0 0.023228963801602963 0.0014742047402158634 0 0.024546443374872967 0.00010596940245303941 0 0.021534145378241814 -0.00019217015988036947 0 0.021484198581212623 -0.00019543952894275862 0 0.021537873598391547 -8.9585541461098048e-05 0 0.021484198581212623 -0.00019543952894275862 0 0.021338069605565991 -0.00016708044822207697 0 0.021537873598391547 -8.9585541461098048e-05 0 0.021528693795247699 -0.00024272881470732826 0 0.02105663614806344 -0.0001693146894049373 0 0.021338069605565991 -0.00016708044822207697 0 0.021528693795247699 -0.00024272881470732826 0 0.021484198581212623 -0.00019543952894275862 0 0.021338069605565991 -0.00016708044822207697 0 0.021338069605565991 -0.00016708044822207697 0 0.021079552551930659 0.0001865971286506784 0 0.021537873598391547 -8.9585541461098048e-05 0 0.02105663614806344 -0.0001693146894049373 0 0.021338069605565991 -0.00016708044822207697 0 0.021079552551930659 0.0001865971286506784 0 0.018714326963825231 0.00081653153156103575 0 0.023228963801602963 0.0014742047402158634 0 0.017664338315823189 0.0012463288658031211 0 0.016996379960508186 0.0017117417938377101 0 0.017188030622802664 0.00095437046699271843 0 0.023228963801602963 0.0014742047402158634 0 0.020443188568346819 0.0025652509229522062 0 0.027137156821221677 0.0023722174783811899 0 0.026506478799542692 0.00390336052964449 0 0.028219757130514937 0.002769320246838286 0 0.020443188568346819 0.0025652509229522062 0 0.019746317285843366 0.0018559977314838859 0 0.017024732210711803 0.0009233252823361034 0 0.017157732171776335 0.00056134238418971546 0 0.017410412430028274 0.00091247573295392807 0 0.017157732171776335 0.00056134238418971546 0 0.016961494948039373 0.00029382103144242147 0 0.017258590806377629 0.00031363872257854749 0 0.017098443422959155 0.00065280885696784874 0 0.017157732171776335 0.00056134238418971546 0 0.016961494948039373 0.00029382103144242147 0 0.017098443422959155 0.00065280885696784874 0 0.016961494948039373 0.00029382103144242147 0 0.016740866084864567 0.00032794454493740324 0 0.016961494948039373 0.00029382103144242147 0 0.016738045110837547 -1.0035964132044917e-05 0 0.016740866084864567 0.00032794454493740324 0 0.016961494948039373 0.00029382103144242147 0 0.017138862736381794 2.1233378343275598e-05 0 0.017258590806377629 0.00031363872257854749 0 0.016961494948039373 0.00029382103144242147 0 0.017138862736381794 2.1233378343275598e-05 0 0.016738045110837547 -1.0035964132044917e-05 0 0.017138862736381794 2.1233378343275598e-05 0 0.017852414158172902 0.00019201976677792954 0 0.017389517123239506 -0.00020753889555034217 0 0.017138862736381794 2.1233378343275598e-05 0 0.017258590806377629 0.00031363872257854749 0 0.017852414158172902 0.00019201976677792954 0 0.017664338315823189 0.0012463288658031211 0 0.017852414158172902 0.00019201976677792954 0 0.017488527393064203 0.00060022927688853367 0 0.017258590806377629 0.00031363872257854749 0 0.017852414158172902 0.00019201976677792954 0 0.017488527393064203 0.00060022927688853367 0 0.017157732171776335 0.00056134238418971546 0 0.017258590806377629 0.00031363872257854749 0 0.017488527393064203 0.00060022927688853367 0 0.017157732171776335 0.00056134238418971546 0 0.017488527393064203 0.00060022927688853367 0 0.017410412430028274 0.00091247573295392807 0 0.017664338315823189 0.0012463288658031211 0 0.017488527393064203 0.00060022927688853367 0 0.017410412430028274 0.00091247573295392807 0 0.017664338315823189 0.0012463288658031211 0 0.017188030622802664 0.00095437046699271843 0 0.017410412430028274 0.00091247573295392807 0 0.020443188568346819 0.0025652509229522062 0 0.018232257437001125 0.0021745029245522698 0 0.021079552551930659 0.0001865971286506784 0 0.019144654781165692 0.00034431869660724507 0 0.020284091263313288 -7.2844260271270996e-06 0 0.018714326963825231 0.00081653153156103575 0 0.019491375492885744 0.00027724027415592094 0 0.017664338315823189 0.0012463288658031211 0 0.017852414158172902 0.00019201976677792954 0 0.019144654781165692 0.00034431869660724507 0 0.017852414158172902 0.00019201976677792954 0 0.018213937831888571 -0.00012070414991510789 0 0.017389517123239506 -0.00020753889555034217 0 0.017852414158172902 0.00019201976677792954 0 0.019144654781165692 0.00034431869660724507 0 0.018213937831888571 -0.00012070414991510789 0 0.019144654781165692 0.00034431869660724507 0 0.018213937831888571 -0.00012070414991510789 0 0.01894196120725199 -1.1568686902367392e-05 0 0.018213937831888571 -0.00012070414991510789 0 0.01894196120725199 -1.1568686902367392e-05 0 0.01790181735080637 -0.00027864319436762136 0 0.019144654781165692 0.00034431869660724507 0 0.020105687071754193 -2.8400438827263392e-05 0 0.020284091263313288 -7.2844260271270996e-06 0 0.019144654781165692 0.00034431869660724507 0 0.020105687071754193 -2.8400438827263392e-05 0 0.01894196120725199 -1.1568686902367392e-05 0 0.020105687071754193 -2.8400438827263392e-05 0 0.020284091263313288 -7.2844260271270996e-06 0 0.021014826554719365 -0.00017545212442564816 0 0.02105663614806344 -0.0001693146894049373 0 0.020284091263313288 -7.2844260271270996e-06 0 0.021014826554719365 -0.00017545212442564816 0 0.02105663614806344 -0.0001693146894049373 0 0.021079552551930659 0.0001865971286506784 0 0.020284091263313288 -7.2844260271270996e-06 0 0.021833363336353717 -0.00012570828560628408 0 0.021528693795247699 -0.00024272881470732826 0 0.021014826554719365 -0.00017545212442564816 0 0.021528693795247699 -0.00024272881470732826 0 0.02105663614806344 -0.0001693146894049373 0 0.021014826554719365 -0.00017545212442564816 0 0.021833363336353717 -0.00012570828560628408 0 0.021014826554719365 -0.00017545212442564816 0 0.021290995605622542 -0.00013572936608004986 0 0.020105687071754193 -2.8400438827263392e-05 0 0.021014826554719365 -0.00017545212442564816 0 0.021290995605622542 -0.00013572936608004986 0 0.020105687071754193 -2.8400438827263392e-05 0 0.021290995605622542 -0.00013572936608004986 0 0.021128851494952014 -0.00011965927084170995 0 0.021128851494952014 -0.00011965927084170995 0 0.019899642340918317 -9.2437616093922145e-05 0 0.020030740313084928 -0.00011138765549624846 0 0.020105687071754193 -2.8400438827263392e-05 0 0.021128851494952014 -0.00011965927084170995 0 0.019899642340918317 -9.2437616093922145e-05 0 0.019899642340918317 -9.2437616093922145e-05 0 0.01894196120725199 -1.1568686902367392e-05 0 0.018861485108243179 -0.00013531711555719628 0 0.020105687071754193 -2.8400438827263392e-05 0 0.019899642340918317 -9.2437616093922145e-05 0 0.01894196120725199 -1.1568686902367392e-05 0 0.01894196120725199 -1.1568686902367392e-05 0 0.018861485108243179 -0.00013531711555719628 0 0.018085530503215277 -0.00022767614020247667 0 0.019899642340918317 -9.2437616093922145e-05 0 0.018861485108243179 -0.00013531711555719628 0 0.020030740313084928 -0.00011138765549624846 0 0.018861485108243179 -0.00013531711555719628 0 0.018546405232932082 -0.00011356468840446577 0 0.020030740313084928 -0.00011138765549624846 0 0.018861485108243179 -0.00013531711555719628 0 0.018546405232932082 -0.00011356468840446577 0 0.017395684532644031 -0.00023593300026537899 0 0.018546405232932082 -0.00011356468840446577 0 0.019163394260824439 -2.0735549716901835e-07 0 0.017199450858456727 -2.1306686717623352e-07 0 0.018546405232932082 -0.00011356468840446577 0 0.019163394260824439 -2.0735549716901835e-07 0 0.020030740313084928 -0.00011138765549624846 0 0.019163394260824439 -2.0735549716901835e-07 0 0.020030740313084928 -0.00011138765549624846 0 0.021127243814137844 -2.0017029957849973e-07 0 0.021128851494952014 -0.00011965927084170995 0 0.020030740313084928 -0.00011138765549624846 0 0.021589242804150675 -7.8882479985805491e-05 0 0.020030740313084928 -0.00011138765549624846 0 0.021589242804150675 -7.8882479985805491e-05 0 0.021127243814137844 -2.0017029957849973e-07 0 0.033244569057415289 -5.8606238792939904e-05 0 0.0337584846291272 -0.0002083723173116354 0 0.033420006811101334 -0.00035649577071103635 0 0.033425594729565238 -0.00036142466633508899 0 0.033430110565287913 -0.00034184857267962379 0 0.033420006811101334 -0.00035649577071103635 0 0.033468954591489089 -0.00026954437720935401 0 0.033613655910396799 -0.00025883571314956627 0 0.033415905053101061 -0.00040448984779494168 0 0.0337584846291272 -0.0002083723173116354 0 0.0325523678759429 -0.0003925049921870689 0 0.033242544329011414 0.00035188223282009841 0 0.033225859422461333 -0.00086662039474311864 0 0.0325523678759429 -0.0003925049921870689 0 0.032483531095486906 0.00039029795779261329 0 0.031821386823340299 -0.00017085596064569768 0 0.0325523678759429 -0.0003925049921870689 0 0.032483531095486906 0.00039029795779261329 0 0.033242544329011414 0.00035188223282009841 0 0.032483531095486906 0.00039029795779261329 0 0.033242544329011414 0.00035188223282009841 0 0.033148198603827242 0.001781600684081019 0 0.032483531095486906 0.00039029795779261329 0 0.031832951613159695 0.00092968852664713846 0 0.033148198603827242 0.001781600684081019 0 0.033244569057415289 -5.8606238792939904e-05 0 0.034049279148259136 0.00057895010673838219 0 0.033425594729565238 -0.00036142466633508899 0 0.033334151616202151 -0.00046117909187903052 0 0.033490697010946868 -0.0005631727508365118 0 0.033425594729565238 -0.00036142466633508899 0 0.033339104736611856 -0.00040523054868838251 0 0.033334151616202151 -0.00046117909187903052 0 0.033420006811101334 -0.00035649577071103635 0 0.033425594729565238 -0.00036142466633508899 0 0.033339104736611856 -0.00040523054868838251 0 0.033339104736611856 -0.00040523054868838251 0 0.033334151616202151 -0.00046117909187903052 0 0.03320859030608167 -0.00048159906535268695 0 0.033339104736611856 -0.00040523054868838251 0 0.033231943118108356 -0.00043548136911034953 0 0.03320859030608167 -0.00048159906535268695 0 0.033231943118108356 -0.00043548136911034953 0 0.033127261771493666 -0.00050540495778871866 0 0.03320859030608167 -0.00048159906535268695 0 0.033231943118108356 -0.00043548136911034953 0 0.033334529002718279 -0.00038128764030144713 0 0.033304390939923746 -0.00036539263666473284 0 0.033231943118108356 -0.00043548136911034953 0 0.033231064484305212 -0.00039723687667264906 0 0.033304390939923746 -0.00036539263666473284 0 0.033339104736611856 -0.00040523054868838251 0 0.033231943118108356 -0.00043548136911034953 0 0.033334529002718279 -0.00038128764030144713 0 0.033091324875845915 -0.00047268459593124962 0 0.033159611376788481 -0.0004561196916284444 0 0.033096684039704088 -0.00052252451918496337 0 0.033127261771493666 -0.00050540495778871866 0 0.033159611376788481 -0.0004561196916284444 0 0.033096684039704088 -0.00052252451918496337 0 0.033231943118108356 -0.00043548136911034953 0 0.033127261771493666 -0.00050540495778871866 0 0.033159611376788481 -0.0004561196916284444 0 0.033231943118108356 -0.00043548136911034953 0 0.033159611376788481 -0.0004561196916284444 0 0.033231064484305212 -0.00039723687667264906 0 0.033159611376788481 -0.0004561196916284444 0 0.033185807457040702 -0.00037713088627985489 0 0.033231064484305212 -0.00039723687667264906 0 0.033091324875845915 -0.00047268459593124962 0 0.033159611376788481 -0.0004561196916284444 0 0.033185807457040702 -0.00037713088627985489 0 0.033185807457040702 -0.00037713088627985489 0 0.033231064484305212 -0.00039723687667264906 0 0.033282065254156036 -0.00033598279830094528 0 0.033231064484305212 -0.00039723687667264906 0 0.033282065254156036 -0.00033598279830094528 0 0.033304390939923746 -0.00036539263666473284 0 0.033282065254156036 -0.00033598279830094528 0 0.033264195315627978 -0.00029748136716141796 0 0.033347760687609848 -0.00026586220762736908 0 0.033282065254156036 -0.00033598279830094528 0 0.033304390939923746 -0.00036539263666473284 0 0.033370241080032205 -0.0003014946068620815 0 0.033282065254156036 -0.00033598279830094528 0 0.033370241080032205 -0.0003014946068620815 0 0.033347760687609848 -0.00026586220762736908 0 0.033185807457040702 -0.00037713088627985489 0 0.033282065254156036 -0.00033598279830094528 0 0.033264195315627978 -0.00029748136716141796 0 0.033420006811101334 -0.00035649577071103635 0 0.033334529002718279 -0.00038128764030144713 0 0.0333798293260162 -0.00033671778223989861 0 0.033420006811101334 -0.00035649577071103635 0 0.033339104736611856 -0.00040523054868838251 0 0.033334529002718279 -0.00038128764030144713 0 0.033334529002718279 -0.00038128764030144713 0 0.033304390939923746 -0.00036539263666473284 0 0.0333798293260162 -0.00033671778223989861 0 0.033370241080032205 -0.0003014946068620815 0 0.0333798293260162 -0.00033671778223989861 0 0.033468954591489089 -0.00026954437720935401 0 0.033304390939923746 -0.00036539263666473284 0 0.033370241080032205 -0.0003014946068620815 0 0.0333798293260162 -0.00033671778223989861 0 0.033420006811101334 -0.00035649577071103635 0 0.0333798293260162 -0.00033671778223989861 0 0.033468954591489089 -0.00026954437720935401 0 0.033370241080032205 -0.0003014946068620815 0 0.033434013911582953 -0.00023810600178417662 0 0.033347760687609848 -0.00026586220762736908 0 0.033370241080032205 -0.0003014946068620815 0 0.033468954591489089 -0.00026954437720935401 0 0.033434013911582953 -0.00023810600178417662 0 0.033434013911582953 -0.00023810600178417662 0 0.033463107395684644 -0.00017622249826152299 0 0.033590718961626034 -0.00015355005991287695 0 0.033468954591489089 -0.00026954437720935401 0 0.033434013911582953 -0.00023810600178417662 0 0.033590718961626034 -0.00015355005991287695 0 0.033468954591489089 -0.00026954437720935401 0 0.033590718961626034 -0.00015355005991287695 0 0.033604732870520765 -0.00018671311646497438 0 0.033241705770144077 -0.00025526990740549522 0 0.033264195315627978 -0.00029748136716141796 0 0.03333810990264021 -0.00022082725023508853 0 0.033264195315627978 -0.00029748136716141796 0 0.033347760687609848 -0.00026586220762736908 0 0.03333810990264021 -0.00022082725023508853 0 0.03333810990264021 -0.00022082725023508853 0 0.033463107395684644 -0.00017622249826152299 0 0.033413198521089905 -0.00016004536417374738 0 0.033347760687609848 -0.00026586220762736908 0 0.03333810990264021 -0.00022082725023508853 0 0.033463107395684644 -0.00017622249826152299 0 0.033434013911582953 -0.00023810600178417662 0 0.033347760687609848 -0.00026586220762736908 0 0.033463107395684644 -0.00017622249826152299 0 0.033241705770144077 -0.00025526990740549522 0 0.033282009456246507 -0.00020653053126224173 0 0.03333810990264021 -0.00022082725023508853 0 0.033282009456246507 -0.00020653053126224173 0 0.03333810990264021 -0.00022082725023508853 0 0.033340649759899421 -0.00017308493586413459 0 0.033395105472720413 -0.00012911750940263668 0 0.033413198521089905 -0.00016004536417374738 0 0.033496994532002076 -0.00010494534722700789 0 0.03333810990264021 -0.00022082725023508853 0 0.033340649759899421 -0.00017308493586413459 0 0.033413198521089905 -0.00016004536417374738 0 0.033322503552985841 -0.00013154233159443931 0 0.033395105472720413 -0.00012911750940263668 0 0.033340649759899421 -0.00017308493586413459 0 0.033395105472720413 -0.00012911750940263668 0 0.033340649759899421 -0.00017308493586413459 0 0.033413198521089905 -0.00016004536417374738 0 0.033463107395684644 -0.00017622249826152299 0 0.033413198521089905 -0.00016004536417374738 0 0.033496994532002076 -0.00010494534722700789 0 0.033395105472720413 -0.00012911750940263668 0 0.033496994532002076 -0.00010494534722700789 0 0.033420557030994065 -7.3863494325604031e-05 0 0.033322503552985841 -0.00013154233159443931 0 0.033395105472720413 -0.00012911750940263668 0 0.033420557030994065 -7.3863494325604031e-05 0 0.033463107395684644 -0.00017622249826152299 0 0.033590718961626034 -0.00015355005991287695 0 0.033626550807588931 -8.0900065049992317e-05 0 0.033463107395684644 -0.00017622249826152299 0 0.033496994532002076 -0.00010494534722700789 0 0.033626550807588931 -8.0900065049992317e-05 0 0.033616438953134549 -2.1013061288012836e-05 0 0.033496994532002076 -0.00010494534722700789 0 0.033626550807588931 -8.0900065049992317e-05 0 0.034254673490177627 0.00042362637434078003 0 0.0337584846291272 -0.0002083723173116354 0 0.034687803336689305 0.00072560503791805535 0 0.034655778880289367 0.00071100032308703091 0 0.034661690594121435 0.00072848376488875871 0 0.033590718961626034 -0.00015355005991287695 0 0.03373851555623654 -7.034277713350788e-05 0 0.033604732870520765 -0.00018671311646497438 0 0.03373851555623654 -7.034277713350788e-05 0 0.033604732870520765 -0.00018671311646497438 0 0.033613655910396799 -0.00025883571314956627 0 0.033590718961626034 -0.00015355005991287695 0 0.033626550807588931 -8.0900065049992317e-05 0 0.03373851555623654 -7.034277713350788e-05 0 0.033468954591489089 -0.00026954437720935401 0 0.033604732870520765 -0.00018671311646497438 0 0.033613655910396799 -0.00025883571314956627 0 0.033225859422461333 -0.00086662039474311864 0 0.032485376643575245 -0.0010816118582129338 0 0.032471830888696006 -0.0016588815499475231 0 0.0337584846291272 -0.0002083723173116354 0 0.033602095352740301 -0.00039762069406167408 0 0.0325523678759429 -0.0003925049921870689 0 0.032485376643575245 -0.0010816118582129338 0 0.032014871534581067 -0.00083598167179604497 0 0.0325523678759429 -0.0003925049921870689 0 0.033225859422461333 -0.00086662039474311864 0 0.032485376643575245 -0.0010816118582129338 0 0.032485376643575245 -0.0010816118582129338 0 0.032471830888696006 -0.0016588815499475231 0 0.032188280249923186 -0.0013723091769501452 0 0.032471830888696006 -0.0016588815499475231 0 0.032213693554646095 -0.0018540898891007307 0 0.032188280249923186 -0.0013723091769501452 0 0.032213693554646095 -0.0018540898891007307 0 0.032188280249923186 -0.0013723091769501452 0 0.03164794211855488 -0.0011830169838333384 0 0.032213693554646095 -0.0018540898891007307 0 0.031441643978778605 -0.0015714168419413814 0 0.03164794211855488 -0.0011830169838333384 0 0.032211371608176817 -0.001901121204588109 0 0.032233530992441722 -0.0020278747917106548 0 0.032213693554646095 -0.0018540898891007307 0 0.031441643978778605 -0.0015714168419413814 0 0.03087861871410846 -0.0020669638097034972 0 0.031441643978778605 -0.0015714168419413814 0 0.03087861871410846 -0.0020669638097034972 0 0.030837490742978164 -0.0015609281591256745 0 0.031441643978778605 -0.0015714168419413814 0 0.03096432311007135 -0.0011413922155927541 0 0.030837490742978164 -0.0015609281591256745 0 0.031441643978778605 -0.0015714168419413814 0 0.03164794211855488 -0.0011830169838333384 0 0.03096432311007135 -0.0011413922155927541 0 0.03164794211855488 -0.0011830169838333384 0 0.03096432311007135 -0.0011413922155927541 0 0.031197752952351235 -0.00073227214567277306 0 0.03164794211855488 -0.0011830169838333384 0 0.031197752952351235 -0.00073227214567277306 0 0.032014871534581067 -0.00083598167179604497 0 0.032485376643575245 -0.0010816118582129338 0 0.032188280249923186 -0.0013723091769501452 0 0.032014871534581067 -0.00083598167179604497 0 0.032188280249923186 -0.0013723091769501452 0 0.03164794211855488 -0.0011830169838333384 0 0.032014871534581067 -0.00083598167179604497 0 0.032029316715540844 -0.0007427780689019211 0 0.025226305599311345 -0.00043573669039005962 0 0.029814244317706171 -0.0020861768938883877 0 0.030431385746087412 -0.0018371639209776558 0 0.02956505762099932 -0.0010969829975692345 0 0.027800335135156912 -0.00015876841336804812 0 0.028073994229788721 -0.00029385150908066302 0 0.027987845169079692 -1.4884000611494859e-05 0 0.030431385746087412 -0.0018371639209776558 0 0.030003483849193865 -0.00075372133510289861 0 0.02956505762099932 -0.0010969829975692345 0 0.024390982086867307 -0.00012488494978724339 0 0.025226305599311345 -0.00043573669039005962 0 0.029814244317706171 -0.0020861768938883877 0 0.030431385746087412 -0.0018371639209776558 0 0.03087861871410846 -0.0020669638097034972 0 0.030647574847494346 -0.0018723303356406858 0 0.028131860979543732 -0.0010318141378756218 0 0.030431385746087412 -0.0018371639209776558 0 0.030525374812266786 -0.0012872117888090692 0 0.030164697535026892 -0.00093383221896468211 0 0.032029316715540844 -0.0007427780689019211 0 0.032233530992441722 -0.0020278747917106548 0 0.030431385746087412 -0.0018371639209776558 0 0.03087861871410846 -0.0020669638097034972 0 0.030837490742978164 -0.0015609281591256745 0 0.03096432311007135 -0.0011413922155927541 0 0.030837490742978164 -0.0015609281591256745 0 0.030525374812266786 -0.0012872117888090692 0 0.030431385746087412 -0.0018371639209776558 0 0.030837490742978164 -0.0015609281591256745 0 0.030525374812266786 -0.0012872117888090692 0 0.03096432311007135 -0.0011413922155927541 0 0.031197752952351235 -0.00073227214567277306 0 0.030164697535026892 -0.00093383221896468211 0 0.03096432311007135 -0.0011413922155927541 0 0.030525374812266786 -0.0012872117888090692 0 0.030164697535026892 -0.00093383221896468211 0 0.025226305599311345 -0.00043573669039005962 0 0.021425457594058027 -2.9298297841469444e-05 0 0.021614389937243291 0.00027639724484777221 0 0.021335395814171168 0.00041108377973011356 0 0.021390415792396065 8.3056200353500052e-05 0 0.021972402430356454 -0.00071929096695544587 0 0.021814493452447088 -0.00084658228120060427 0 0.021660455511993998 -0.0004911291329518059 0 0.028131860979543732 -0.0010318141378756218 0 0.025226305599311345 -0.00043573669039005962 0 0.021972402430356454 -0.00071929096695544587 0 0.021660455511993998 -0.0004911291329518059 0 0.021603297652709123 -0.00020703441032986938 0 0.028131860979543732 -0.0010318141378756218 0 0.024546443374872967 0.00010596940245303941 0 0.0215449578980315 -0.00024641536035325629 0 0.021425457594058027 -2.9298297841469444e-05 0 0.028856906978528447 -0.0018409173471979014 0 0.029211817767545136 -0.00024004663213627941 0 0.02796406104767726 0.00049107071727731049 0 0.028131860979543732 -0.0010318141378756218 0 0.031372395984960985 -0.0002402033316872826 0 0.028856906978528447 -0.0018409173471979014 0 0.029211817767545136 -0.00024004663213627941 0 0.030921652716320806 -0.00016891040014909385 0 0.02948825350276001 0.0010269993155509829 0 0.028934077580048245 0.0015261103792595691 0 0.029211817767545136 -0.00024004663213627941 0 0.029785275590727672 0.00085121991971204845 0 0.030921652716320806 -0.00016891040014909385 0 0.029785275590727672 0.00085121991971204845 0 0.028910065861122356 0.00056651013936011296 0 0.028424297839922112 0.001872443818177531 0 0.029211817767545136 -0.00024004663213627941 0 0.029785275590727672 0.00085121991971204845 0 0.028910065861122356 0.00056651013936011296 0 0.028910065861122356 0.00056651013936011296 0 0.02796406104767726 0.00049107071727731049 0 0.028424297839922112 0.001872443818177531 0 0.021534145378241814 -0.00019217015988036947 0 0.021660455511993998 -0.0004911291329518059 0 0.021603297652709123 -0.00020703441032986938 0 0.029211817767545136 -0.00024004663213627941 0 0.028910065861122356 0.00056651013936011296 0 0.02796406104767726 0.00049107071727731049 0 0.031197752952351235 -0.00073227214567277306 0 0.032014871534581067 -0.00083598167179604497 0 0.031821386823340299 -0.00017085596064569768 0 0.0325523678759429 -0.0003925049921870689 0 0.032014871534581067 -0.00083598167179604497 0 0.031821386823340299 -0.00017085596064569768 0 0.031197752952351235 -0.00073227214567277306 0 0.030164697535026892 -0.00093383221896468211 0 0.030921652716320806 -0.00016891040014909385 0 0.031197752952351235 -0.00073227214567277306 0 0.031821386823340299 -0.00017085596064569768 0 0.030921652716320806 -0.00016891040014909385 0 0.029785275590727672 0.00085121991971204845 0 0.030921652716320806 -0.00016891040014909385 0 0.03081699779270938 0.001430001188170567 0 0.030921652716320806 -0.00016891040014909385 0 0.031832951613159695 0.00092968852664713846 0 0.03081699779270938 0.001430001188170567 0 0.031821386823340299 -0.00017085596064569768 0 0.030921652716320806 -0.00016891040014909385 0 0.031832951613159695 0.00092968852664713846 0 0.032483531095486906 0.00039029795779261329 0 0.031821386823340299 -0.00017085596064569768 0 0.031832951613159695 0.00092968852664713846 0 0.031832951613159695 0.00092968852664713846 0 0.031725585542017841 0.0022303437262497739 0 0.03081699779270938 0.001430001188170567 0 0.031725585542017841 0.0022303437262497739 0 0.03081699779270938 0.001430001188170567 0 0.029965516035461569 0.0023550377671102702 0 0.029785275590727672 0.00085121991971204845 0 0.03081699779270938 0.001430001188170567 0 0.029965516035461569 0.0023550377671102702 0 0.031725585542017841 0.0022303437262497739 0 0.029965516035461569 0.0023550377671102702 0 0.031037648678964268 0.003462051040475209 0 0.031725585542017841 0.0022303437262497739 0 0.031037648678964268 0.003462051040475209 0 0.032962357935029878 0.0032581335390201491 0 0.023228963801602963 0.0014742047402158634 0 0.028934077580048245 0.0015261103792595691 0 0.027137156821221677 0.0023722174783811899 0 0.028483168027977731 0.0015589949220138999 0 0.028219757130514937 0.002769320246838286 0 0.027005894470257061 0.0028332510523785071 0 0.02796406104767726 0.00049107071727731049 0 0.028424297839922112 0.001872443818177531 0 0.029785275590727672 0.00085121991971204845 0 0.028483168027977731 0.0015589949220138999 0 0.029965516035461569 0.0023550377671102702 0 0.028483168027977731 0.0015589949220138999 0 0.029965516035461569 0.0023550377671102702 0 0.028219757130514937 0.002769320246838286 0 0.029965516035461569 0.0023550377671102702 0 0.028219757130514937 0.002769320246838286 0 0.028900647951516794 0.0037229368639486024 0 0.029965516035461569 0.0023550377671102702 0 0.028900647951516794 0.0037229368639486024 0 0.031037648678964268 0.003462051040475209 0 0.026506478799542692 0.00390336052964449 0 0.028219757130514937 0.002769320246838286 0 0.028900647951516794 0.0037229368639486024 0 0.020443188568346819 0.0025652509229522062 0 0.023001271149437914 0.0020180165109995852 0 0.017098443422959155 0.00065280885696784874 0 0.016740866084864567 0.00032794454493740324 0 0.016511100595302652 0.00044974557982454952 0 0.016740866084864567 0.00032794454493740324 0 0.016511100595302652 0.00044974557982454952 0 0.016479975243655586 9.0271426146948191e-05 0 0.016479975243655586 9.0271426146948191e-05 0 0.016256226318510852 0.00015484357253473685 0 0.016255644313173768 -0.0001721408283240453 0 0.016511100595302652 0.00044974557982454952 0 0.016479975243655586 9.0271426146948191e-05 0 0.016256226318510852 0.00015484357253473685 0 0.016738045110837547 -1.0035964132044917e-05 0 0.016740866084864567 0.00032794454493740324 0 0.016479975243655586 9.0271426146948191e-05 0 0.016074692570656572 0.00020265859072109507 0 0.0162129741125751 0.00035268763382636213 0 0.01596539783514233 0.00034006307846794892 0 0.023667620396907573 0.0020711572052599307 0 0.023931949860128549 0.00073036406951471327 0 0.016511100595302652 0.00044974557982454952 0 0.0162129741125751 0.00035268763382636213 0 0.016256226318510852 0.00015484357253473685 0 0.023001271149437914 0.0020180165109995852 0 0.023667620396907573 0.0020711572052599307 0 0.016074692570656572 0.00020265859072109507 0 0.0162129741125751 0.00035268763382636213 0 0.016256226318510852 0.00015484357253473685 0 0.016074692570656572 0.00020265859072109507 0 0.015902707290108588 0.00012356696711879494 0 0.016086440067977749 4.8537464409925842e-06 0 0.016074692570656572 0.00020265859072109507 0 0.016256226318510852 0.00015484357253473685 0 0.016086440067977749 4.8537464409925842e-06 0 0.013788341924131435 -0.00041872898420642501 0 0.013600559220043499 -0.00024687941610612702 0 0.013392175132619559 -0.00038350300350890784 0 0.013788341924131435 -0.00041872898420642501 0 0.013392175132619559 -0.00038350300350890784 0 0.013514294472879721 -0.00060652162779489848 0 0.013788341924131435 -0.00041872898420642501 0 0.013600559220043499 -0.00024687941610612702 0 0.013822387039938966 -6.3610200686135715e-05 0 0.013600559220043499 -0.00024687941610612702 0 0.013822387039938966 -6.3610200686135715e-05 0 0.013326475942009964 -0.00010723913430942813 0 0.013600559220043499 -0.00024687941610612702 0 0.013386072158658316 -0.00025503990875338638 0 0.013392175132619559 -0.00038350300350890784 0 0.014239532592347398 -0.00014264859825521752 0 0.023931949860128549 0.00073036406951471327 0 0.016074692570656572 0.00020265859072109507 0 0.015902707290108588 0.00012356696711879494 0 0.01596539783514233 0.00034006307846794892 0 0.023931949860128549 0.00073036406951471327 0 0.034049279148259136 0.00057895010673838219 0 0.031725585542017841 0.0022303437262497739 0 0.032962357935029878 0.0032581335390201491 0 0.033148198603827242 0.001781600684081019 0 0.033588750707025758 -0.0010622290749430093 0 0.033269595984942259 -0.00080032362726793532 0 0.033490697010946868 -0.0005631727508365118 0 0.023931949860128549 0.00073036406951471327 0 0.023014408674920859 -0.00089135537812083817 0 0.033588750707025758 -0.0010622290749430093 0 0.033269595984942259 -0.00080032362726793532 0 0.032901242275987293 -0.0013760885880635032 0 0.033334151616202151 -0.00046117909187903052 0 0.03320637214135836 -0.00056120516778201241 0 0.033490697010946868 -0.0005631727508365118 0 0.033269595984942259 -0.00080032362726793532 0 0.03320637214135836 -0.00056120516778201241 0 0.033490697010946868 -0.0005631727508365118 0 0.033334151616202151 -0.00046117909187903052 0 0.03320637214135836 -0.00056120516778201241 0 0.03320859030608167 -0.00048159906535268695 0 0.031832951613159695 0.00092968852664713846 0 0.031725585542017841 0.0022303437262497739 0 0.033148198603827242 0.001781600684081019 0 0.033015696885836644 -0.00057825910071702209 0 0.033061270413420898 -0.00055344051994488455 0 0.033061270781177106 -0.0005482101103701048 0 0.033015696885836644 -0.00057825910071702209 0 0.033065639776777435 -0.00056854828860484802 0 0.033061270413420898 -0.00055344051994488455 0 0.03308807639939338 -0.00057219348255600733 0 0.033015696885836644 -0.00057825910071702209 0 0.033065639776777435 -0.00056854828860484802 0 0.033065639776777435 -0.00056854828860484802 0 0.033096684039704088 -0.00052252451918496337 0 0.033061270413420898 -0.00055344051994488455 0 0.033127261771493666 -0.00050540495778871866 0 0.033096684039704088 -0.00052252451918496337 0 0.033061270413420898 -0.00055344051994488455 0 0.033127261771493666 -0.00050540495778871866 0 0.033061270413420898 -0.00055344051994488455 0 0.033061270781177106 -0.0005482101103701048 0 0.033127261771493666 -0.00050540495778871866 0 0.03320859030608167 -0.00048159906535268695 0 0.033061270781177106 -0.0005482101103701048 0 0.03320637214135836 -0.00056120516778201241 0 0.03320859030608167 -0.00048159906535268695 0 0.033061270781177106 -0.0005482101103701048 0 0.03320637214135836 -0.00056120516778201241 0 0.033061270781177106 -0.0005482101103701048 0 0.032864144925446551 -0.00057182641464362499 0 0.033015696885836644 -0.00057825910071702209 0 0.033061270781177106 -0.0005482101103701048 0 0.032864144925446551 -0.00057182641464362499 0 0.033269595984942259 -0.00080032362726793532 0 0.03320637214135836 -0.00056120516778201241 0 0.032864144925446551 -0.00057182641464362499 0 0.033269595984942259 -0.00080032362726793532 0 0.032864144925446551 -0.00057182641464362499 0 0.032901242275987293 -0.0013760885880635032 0 0.029841948468672171 -0.001507261597379005 0 0.032864144925446551 -0.00057182641464362499 0 0.032901242275987293 -0.0013760885880635032 0 0.03308807639939338 -0.00057219348255600733 0 0.033015696885836644 -0.00057825910071702209 0 0.032864144925446551 -0.00057182641464362499 0 0.021490472576947469 -0.00090052412470931339 0 0.023014408674920859 -0.00089135537812083817 0 0.029749269691618944 -0.00047940405696719751 0 0.029841948468672171 -0.001507261597379005 0 0.032864144925446551 -0.00057182641464362499 0 0.031398759892936716 -0.00054109235321381146 0 0.032772601873891333 -0.00055078589783315378 0 0.012976486040628257 -0.0003049358153858496 0 0.013326475942009964 -0.00010723913430942813 0 0.013055711122439076 -0.00031525935966989361 0 0.012931041740263884 -0.00039639326322087856 0 0.013055711122439076 -0.00031525935966989361 0 0.013063981399598006 -0.00039480732075807272 0 0.013055711122439076 -0.00031525935966989361 0 0.013205489199685198 -0.00027444774252286924 0 0.013063981399598006 -0.00039480732075807272 0 0.013326475942009964 -0.00010723913430942813 0 0.013055711122439076 -0.00031525935966989361 0 0.013205489199685198 -0.00027444774252286924 0 0.013600559220043499 -0.00024687941610612702 0 0.013326475942009964 -0.00010723913430942813 0 0.013386072158658316 -0.00025503990875338638 0 0.013326475942009964 -0.00010723913430942813 0 0.013205489199685198 -0.00027444774252286924 0 0.013386072158658316 -0.00025503990875338638 0 0.013205489199685198 -0.00027444774252286924 0 0.013386072158658316 -0.00025503990875338638 0 0.013392175132619559 -0.00038350300350890784 0 0.013392175132619559 -0.00038350300350890784 0 0.013063981399598006 -0.00039480732075807272 0 0.013215857217251293 -0.00054457271764897942 0 0.013205489199685198 -0.00027444774252286924 0 0.013392175132619559 -0.00038350300350890784 0 0.013063981399598006 -0.00039480732075807272 0 0.013392175132619559 -0.00038350300350890784 0 0.013215857217251293 -0.00054457271764897942 0 0.013514294472879721 -0.00060652162779489848 0 0.012931041740263884 -0.00039639326322087856 0 0.013063981399598006 -0.00039480732075807272 0 0.012786190331287537 -0.00052754533225475705 0 0.013063981399598006 -0.00039480732075807272 0 0.012786190331287537 -0.00052754533225475705 0 0.013215857217251293 -0.00054457271764897942 0 0.012786190331287537 -0.00052754533225475705 0 0.013215857217251293 -0.00054457271764897942 0 0.013366782979304605 -0.00093699258715892217 0 0.012903747679834232 -0.00055803239322969292 0 0.01268059275507843 -0.00061462360372048529 0 0.013215857217251293 -0.00054457271764897942 0 0.013366782979304605 -0.00093699258715892217 0 0.013514294472879721 -0.00060652162779489848 0 0.012786190331287537 -0.00052754533225475705 0 0.012506183935586345 -0.00031056049595632335 0 0.012588468245287483 -0.00024757030646282291 0 0.012588468245287483 -0.00024757030646282291 0 0.012514968013197387 -0.00015914117509910903 0 0.01250852092342312 -0.00016798068975410165 0 0.012588468245287483 -0.00024757030646282291 0 0.012525304336261577 -0.00019091465324156908 0 0.012514968013197387 -0.00015914117509910903 0 0.012506183935586345 -0.00031056049595632335 0 0.012588468245287483 -0.00024757030646282291 0 0.012525304336261577 -0.00019091465324156908 0 0.012525304336261577 -0.00019091465324156908 0 0.012521582558403667 -0.00017926134779975666 0 0.012514968013197387 -0.00015914117509910903 0 0.012525304336261577 -0.00019091465324156908 0 0.012521582558403667 -0.00017926134779975666 0 0.012532792424242017 -0.00016636008464529145 0 0.013811093005262625 -0.00043273153724592266 0 0.013316799998501463 -9.4234661122790213e-05 0 0.012530295980871202 -0.00015335398614307893 0 0.012551612967953053 -0.00012890037423009761 0 0.012576703579280852 -9.4128036320816828e-05 0 0.012568290691828776 -4.4508602573141084e-05 0 0.012576703579280852 -9.4128036320816828e-05 0 0.012684600838109766 -7.0582286403498854e-05 0 0.012551612967953053 -0.00012890037423009761 0 0.012576703579280852 -9.4128036320816828e-05 0 0.012557086934651221 -0.00012820563658977866 0 0.012530295980871202 -0.00015335398614307893 0 0.012551612967953053 -0.00012890037423009761 0 0.012533005269066391 -0.00016787981387613067 0 0.012551612967953053 -0.00012890037423009761 0 0.012543369586472125 -0.00014753134487755572 0 0.012533005269066391 -0.00016787981387613067 0 0.012551612967953053 -0.00012890037423009761 0 0.012543369586472125 -0.00014753134487755572 0 0.012557086934651221 -0.00012820563658977866 0 0.012543369586472125 -0.00014753134487755572 0 0.012532792424242017 -0.00016636008464529145 0 0.012533005269066391 -0.00016787981387613067 0 0.012525304336261577 -0.00019091465324156908 0 0.012532792424242017 -0.00016636008464529145 0 0.012533005269066391 -0.00016787981387613067 0 0.012525304336261577 -0.00019091465324156908 0 0.012533005269066391 -0.00016787981387613067 0 0.012514195667296519 -0.00021837691306649695 0 0.012506183935586345 -0.00031056049595632335 0 0.012525304336261577 -0.00019091465324156908 0 0.012514195667296519 -0.00021837691306649695 0 0.015817684733662518 -0.00047673111691751022 0 0.015787165935682655 -0.00028182950241983939 0 0.015987778388830438 -0.00038615705147440556 0 0.012530295980871202 -0.00015335398614307893 0 0.012533005269066391 -0.00016787981387613067 0 0.012499609025434949 -0.00022058710315859243 0 0.013811093005262625 -0.00043273153724592266 0 0.014430214345121173 -0.00041925446220623458 0 0.012533005269066391 -0.00016787981387613067 0 0.012514195667296519 -0.00021837691306649695 0 0.012499609025434949 -0.00022058710315859243 0 0.01587890606455359 -0.00034557366524781723 0 0.015871159065046183 -0.00012593200662954792 0 0.016059687635841074 -0.00024750847663288617 0 0.014430214345121173 -0.00041925446220623458 0 0.014921466241069145 -0.00053224614208502257 0 0.012506183935586345 -0.00031056049595632335 0 0.012514195667296519 -0.00021837691306649695 0 0.012499609025434949 -0.00022058710315859243 0 0.013366782979304605 -0.00093699258715892217 0 0.013855113358405863 -0.0011724421731598149 0 0.013815794945360761 -0.00077624504529151485 0 0.01268059275507843 -0.00061462360372048529 0 0.014430214345121173 -0.00041925446220623458 0 0.013366782979304605 -0.00093699258715892217 0 0.013514294472879721 -0.00060652162779489848 0 0.013815794945360761 -0.00077624504529151485 0 0.013788341924131435 -0.00041872898420642501 0 0.013514294472879721 -0.00060652162779489848 0 0.013815794945360761 -0.00077624504529151485 0 0.014239532592347398 -0.00014264859825521752 0 0.014921466241069145 -0.00053224614208502257 0 0.015902707290108588 0.00012356696711879494 0 0.015871159065046183 -0.00012593200662954792 0 0.016086440067977749 4.8537464409925842e-06 0 0.015871159065046183 -0.00012593200662954792 0 0.016086440067977749 4.8537464409925842e-06 0 0.016059687635841074 -0.00024750847663288617 0 0.016086440067977749 4.8537464409925842e-06 0 0.016059687635841074 -0.00024750847663288617 0 0.016255644313173768 -0.0001721408283240453 0 0.016256226318510852 0.00015484357253473685 0 0.016086440067977749 4.8537464409925842e-06 0 0.016255644313173768 -0.0001721408283240453 0 0.016059687635841074 -0.00024750847663288617 0 0.016255644313173768 -0.0001721408283240453 0 0.016180206743269351 -0.00036344383884058014 0 0.016738045110837547 -1.0035964132044917e-05 0 0.016479975243655586 9.0271426146948191e-05 0 0.016464656267937111 -0.0001772315494608619 0 0.016738045110837547 -1.0035964132044917e-05 0 0.016464656267937111 -0.0001772315494608619 0 0.016638218549161702 -0.0002375144315578622 0 0.016479975243655586 9.0271426146948191e-05 0 0.016464656267937111 -0.0001772315494608619 0 0.016255644313173768 -0.0001721408283240453 0 0.016255644313173768 -0.0001721408283240453 0 0.016316520755098287 -0.00029935523086654334 0 0.016180206743269351 -0.00036344383884058014 0 0.016464656267937111 -0.0001772315494608619 0 0.016255644313173768 -0.0001721408283240453 0 0.016316520755098287 -0.00029935523086654334 0 0.016316520755098287 -0.00029935523086654334 0 0.016272098046610183 -0.00041533656648856416 0 0.016180206743269351 -0.00036344383884058014 0 0.016464656267937111 -0.0001772315494608619 0 0.016316520755098287 -0.00029935523086654334 0 0.016428599425175053 -0.0003472526670991282 0 0.016316520755098287 -0.00029935523086654334 0 0.016428599425175053 -0.0003472526670991282 0 0.016272098046610183 -0.00041533656648856416 0 0.016428599425175053 -0.0003472526670991282 0 0.016338289099338474 -0.00045457349542630241 0 0.01660061447411236 -0.00036645629664533138 0 0.016428599425175053 -0.0003472526670991282 0 0.016638218549161702 -0.0002375144315578622 0 0.01660061447411236 -0.00036645629664533138 0 0.016464656267937111 -0.0001772315494608619 0 0.016428599425175053 -0.0003472526670991282 0 0.016638218549161702 -0.0002375144315578622 0 0.016428599425175053 -0.0003472526670991282 0 0.016338289099338474 -0.00045457349542630241 0 0.016272098046610183 -0.00041533656648856416 0 0.016338289099338474 -0.00045457349542630241 0 0.016272098046610183 -0.00041533656648856416 0 0.016188003568913981 -0.00049848087910159885 0 0.016272098046610183 -0.00041533656648856416 0 0.016118189355634499 -0.00049918739911040846 0 0.016180206743269351 -0.00036344383884058014 0 0.016272098046610183 -0.00041533656648856416 0 0.016118189355634499 -0.00049918739911040846 0 0.016188003568913981 -0.00049848087910159885 0 0.016118189355634499 -0.00049918739911040846 0 0.016188003568913981 -0.00049848087910159885 0 0.016082889536720782 -0.00053212276858355964 0 0.016118189355634499 -0.00049918739911040846 0 0.016070192200998722 -0.00054619690824592431 0 0.016082889536720782 -0.00053212276858355964 0 0.016188003568913981 -0.00049848087910159885 0 0.016082889536720782 -0.00053212276858355964 0 0.01610978597464531 -0.00052401167462149539 0 0.016338289099338474 -0.00045457349542630241 0 0.016188003568913981 -0.00049848087910159885 0 0.01610978597464531 -0.00052401167462149539 0 0.014430214345121173 -0.00041925446220623458 0 0.016269405958198882 -0.0004830977296211352 0 0.01587890606455359 -0.00034557366524781723 0 0.016059687635841074 -0.00024750847663288617 0 0.016055884304648646 -0.00043650643074213361 0 0.016059687635841074 -0.00024750847663288617 0 0.016055884304648646 -0.00043650643074213361 0 0.016180206743269351 -0.00036344383884058014 0 0.016118189355634499 -0.00049918739911040846 0 0.016055884304648646 -0.00043650643074213361 0 0.016180206743269351 -0.00036344383884058014 0 0.016118189355634499 -0.00049918739911040846 0 0.015987778388830438 -0.00038615705147440556 0 0.016070192200998722 -0.00054619690824592431 0 0.016021352900840381 -0.00044837539637187574 0 0.016269405958198882 -0.0004830977296211352 0 0.015817684733662518 -0.00047673111691751022 0 0.015987778388830438 -0.00038615705147440556 0 0.016070192200998722 -0.00054619690824592431 0 0.013811093005262625 -0.00043273153724592266 0 0.014543944670962044 -0.00024215961082506082 0 0.012568290691828776 -4.4508602573141084e-05 0 0.012684600838109766 -7.0582286403498854e-05 0 0.012852081841409003 2.1946984159394102e-05 0 0.012684600838109766 -7.0582286403498854e-05 0 0.012667654998728172 -0.00020110991206865022 0 0.012589831120844382 -0.0001423048773488966 0 0.012684600838109766 -7.0582286403498854e-05 0 0.012810766442105855 -0.00016062680163469542 0 0.012667654998728172 -0.00020110991206865022 0 0.012684600838109766 -7.0582286403498854e-05 0 0.012852081841409003 2.1946984159394102e-05 0 0.012810766442105855 -0.00016062680163469542 0 0.012852081841409003 2.1946984159394102e-05 0 0.012810766442105855 -0.00016062680163469542 0 0.013457800310271205 9.0531707865267952e-05 0 0.012810766442105855 -0.00016062680163469542 0 0.013457800310271205 9.0531707865267952e-05 0 0.012997509916313727 -0.00040033366273860272 0 0.012810766442105855 -0.00016062680163469542 0 0.012730064464680585 -0.00031033481148028618 0 0.012997509916313727 -0.00040033366273860272 0 0.012730064464680585 -0.00031033481148028618 0 0.012667654998728172 -0.00020110991206865022 0 0.012622798664474837 -0.00030494404998409241 0 0.012810766442105855 -0.00016062680163469542 0 0.012730064464680585 -0.00031033481148028618 0 0.012667654998728172 -0.00020110991206865022 0 0.015810081680911206 -0.00053084533526421369 0 0.016082889536720782 -0.00053212276858355964 0 0.01610978597464531 -0.00052401167462149539 0 0.015810081680911206 -0.00053084533526421369 0 0.016082889536720782 -0.00053212276858355964 0 0.01604904675423055 -0.00042327446070287685 0 0.014543944670962044 -0.00024215961082506082 0 0.014750434988512669 -0.00020533923463459069 0 0.016070192200998722 -0.00054619690824592431 0 0.016082889536720782 -0.00053212276858355964 0 0.01604904675423055 -0.00042327446070287685 0 0.013457800310271205 9.0531707865267952e-05 0 0.013710519654803978 -0.00066181991192858778 0 0.012997509916313727 -0.00040033366273860272 0 0.015810081680911206 -0.00053084533526421369 0 0.01604904675423055 -0.00042327446070287685 0 0.015039912765160949 -0.0004285531726415138 0 0.013457800310271205 9.0531707865267952e-05 0 0.013710519654803978 -0.00066181991192858778 0 0.015039912765160949 -0.0004285531726415138 0 0.014750434988512669 -0.00020533923463459069 0 0.015071666618083263 -0.00041591074713138879 0 0.013710519654803978 -0.00066181991192858778 0 0.013580252163797407 -0.0011267908487039781 0 0.014412849949041712 -0.0010060142787047905 0 0.013710519654803978 -0.00066181991192858778 0 0.015039912765160949 -0.0004285531726415138 0 0.014412849949041712 -0.0010060142787047905 0 0.013710519654803978 -0.00066181991192858778 0 0.013102130194669527 -0.00094658588812754645 0 0.012997509916313727 -0.00040033366273860272 0 0.013710519654803978 -0.00066181991192858778 0 0.013102130194669527 -0.00094658588812754645 0 0.013580252163797407 -0.0011267908487039781 0 0.013102130194669527 -0.00094658588812754645 0 0.013145471515962803 -0.0014472764801351341 0 0.01275775470150884 -0.001370519301587813 0 0.013102130194669527 -0.00094658588812754645 0 0.013145471515962803 -0.0014472764801351341 0 0.013580252163797407 -0.0011267908487039781 0 0.013580252163797407 -0.0011267908487039781 0 0.014412849949041712 -0.0010060142787047905 0 0.013641800005040942 -0.0015221816549650601 0 0.013145471515962803 -0.0014472764801351341 0 0.013580252163797407 -0.0011267908487039781 0 0.013641800005040942 -0.0015221816549650601 0 0.011904937733998658 -0.001201223128182238 0 0.010495711820036412 -0.0012288184539667752 0 0.012676260930228304 -0.00039461041378444935 0 0.012783687327909516 -0.00051636920528020411 0 0.012565297512371411 -0.00039820977568330064 0 0.012676260930228304 -0.00039461041378444935 0 0.01277836568453552 -0.00041365701169565736 0 0.012783687327909516 -0.00051636920528020411 0 0.012730064464680585 -0.00031033481148028618 0 0.012676260930228304 -0.00039461041378444935 0 0.012622798664474837 -0.00030494404998409241 0 0.012730064464680585 -0.00031033481148028618 0 0.012676260930228304 -0.00039461041378444935 0 0.01277836568453552 -0.00041365701169565736 0 0.013102130194669527 -0.00094658588812754645 0 0.012997509916313727 -0.00040033366273860272 0 0.012560423359167449 -0.0010635184265798258 0 0.01277836568453552 -0.00041365701169565736 0 0.012997509916313727 -0.00040033366273860272 0 0.012783687327909516 -0.00051636920528020411 0 0.012997509916313727 -0.00040033366273860272 0 0.012327970591743771 -0.0010131954409924649 0 0.012560423359167449 -0.0010635184265798258 0 0.012730064464680585 -0.00031033481148028618 0 0.01277836568453552 -0.00041365701169565736 0 0.012997509916313727 -0.00040033366273860272 0 0.013176760839331444 -0.00021357287509659627 0 0.011904937733998658 -0.001201223128182238 0 0.01231928126334499 -0.00098181280988848623 0 0.012560423359167449 -0.0010635184265798258 0 0.012365057611586695 -0.0013418059219908883 0 0.011904937733998658 -0.001201223128182238 0 0.01228830527613416 -0.0012037727723253216 0 0.013102130194669527 -0.00094658588812754645 0 0.012560423359167449 -0.0010635184265798258 0 0.01275775470150884 -0.001370519301587813 0 0.01275775470150884 -0.001370519301587813 0 0.012365057611586695 -0.0013418059219908883 0 0.012502015885177718 -0.0016730211424796724 0 0.012560423359167449 -0.0010635184265798258 0 0.01275775470150884 -0.001370519301587813 0 0.012365057611586695 -0.0013418059219908883 0 0.01231928126334499 -0.00098181280988848623 0 0.012365057611586695 -0.0013418059219908883 0 0.011615302203395276 -0.0016339501444448167 0 0.011904937733998658 -0.001201223128182238 0 0.010355539076396541 -0.0022612311698602936 0 0.0098183202987761602 -0.0021929326378167585 0 0.0090533661840858787 -0.0020639084732698388 0 0.009363104035143106 -0.0026715842762501502 0 0.0088789328435794485 -0.0023534932844697775 0 0.0088817335599653859 -0.0026231017754267988 0 0.009363104035143106 -0.0026715842762501502 0 0.0088789328435794485 -0.0023534932844697775 0 0.0090533661840858787 -0.0020639084732698388 0 0.009363104035143106 -0.0026715842762501502 0 0.012565297512371411 -0.00039820977568330064 0 0.012622798664474837 -0.00030494404998409241 0 0.012551121614457171 -0.00027935308818843201 0 0.012676260930228304 -0.00039461041378444935 0 0.012565297512371411 -0.00039820977568330064 0 0.012622798664474837 -0.00030494404998409241 0 0.012565297512371411 -0.00039820977568330064 0 0.01249570520983702 -0.0002989302044091511 0 0.012551121614457171 -0.00027935308818843201 0 0.012565297512371411 -0.00039820977568330064 0 0.01249570520983702 -0.0002989302044091511 0 0.012456567956398002 -0.00032028395620971762 0 0.0090533661840858787 -0.0020639084732698388 0 0.0085863773330854438 -0.002272480212080753 0 0.0083635504788868477 -0.0019624270170885637 0 0.010495711820036412 -0.0012288184539667752 0 0.011395552541135563 -0.0010705740310792357 0 0.0088789328435794485 -0.0023534932844697775 0 0.0090533661840858787 -0.0020639084732698388 0 0.0085863773330854438 -0.002272480212080753 0 0.0088789328435794485 -0.0023534932844697775 0 0.0085863773330854438 -0.002272480212080753 0 0.0086416418052560531 -0.0025089403521315464 0 0.0088789328435794485 -0.0023534932844697775 0 0.0086416418052560531 -0.0025089403521315464 0 0.0088817335599653859 -0.0026231017754267988 0 0.0085863773330854438 -0.002272480212080753 0 0.0086416418052560531 -0.0025089403521315464 0 0.0084002005917136885 -0.0024592141800959619 0 0.0086416418052560531 -0.0025089403521315464 0 0.0084002005917136885 -0.0024592141800959619 0 0.0084201518485114823 -0.0026438520822465728 0 0.0084002005917136885 -0.0024592141800959619 0 0.0082027651922061857 -0.002355225245458295 0 0.0081354662354590837 -0.0026741963951839921 0 0.0084002005917136885 -0.0024592141800959619 0 0.0081354662354590837 -0.0026741963951839921 0 0.0084201518485114823 -0.0026438520822465728 0 0.0082027651922061857 -0.002355225245458295 0 0.0078273533060293343 -0.0023950210448487222 0 0.0083635504788868477 -0.0019624270170885637 0 0.0082027651922061857 -0.002355225245458295 0 0.0078273533060293343 -0.0023950210448487222 0 0.0081354662354590837 -0.0026741963951839921 0 0.0085863773330854438 -0.002272480212080753 0 0.0084002005917136885 -0.0024592141800959619 0 0.0082027651922061857 -0.002355225245458295 0 0.0078273533060293343 -0.0023950210448487222 0 0.0077648055058808629 -0.002778019630887267 0 0.0081354662354590837 -0.0026741963951839921 0 0.01291125603111714 -0.0015286280100906329 0 0.012866052487072142 -0.00092633005452780518 0 0.013515162418490389 -0.0010837018497885805 0 0.01291125603111714 -0.0015286280100906329 0 0.012866052487072142 -0.00092633005452780518 0 0.012365832419579965 -0.001290358734265195 0 0.012484331568872071 -0.00032187413853659288 0 0.012504285125808602 -0.00029302014503213052 0 0.012502335759104434 -0.00027937219987033519 0 0.01027056416489568 -0.0020534720366074881 0 0.011395552541135563 -0.0010705740310792357 0 0.012981508173110307 -0.00063681193518722728 0 0.011395552541135563 -0.0010705740310792357 0 0.0085863773330854438 -0.002272480212080753 0 0.0082027651922061857 -0.002355225245458295 0 0.0083635504788868477 -0.0019624270170885637 0 0.01249570520983702 -0.0002989302044091511 0 0.012504285125808602 -0.00029302014503213052 0 0.012505339734200293 -0.00027252363283760593 0 0.012474551477027137 -0.00033611022216247492 0 0.011395552541135563 -0.0010705740310792357 0 0.012504285125808602 -0.00029302014503213052 0 0.012505339734200293 -0.00027252363283760593 0 0.012502335759104434 -0.00027937219987033519 0 0.012505339734200293 -0.00027252363283760593 0 0.012502335759104434 -0.00027937219987033519 0 0.012508358130664326 -0.00024431191973375876 0 0.012508358130664326 -0.00024431191973375876 0 0.012513114744081674 -0.00024011806927180552 0 0.012520016321624404 -0.00020578172159242407 0 0.012505339734200293 -0.00027252363283760593 0 0.012513114744081674 -0.00024011806927180552 0 0.012518162588147731 -0.00024543264322555134 0 0.012505339734200293 -0.00027252363283760593 0 0.012508358130664326 -0.00024431191973375876 0 0.012513114744081674 -0.00024011806927180552 0 0.012484331568872071 -0.00032187413853659288 0 0.012502335759104434 -0.00027937219987033519 0 0.012495078875512577 -0.00025220883501935593 0 0.012508358130664326 -0.00024431191973375876 0 0.012495078875512577 -0.00025220883501935593 0 0.012509659888068875 -0.00020061713647704903 0 0.012502335759104434 -0.00027937219987033519 0 0.012508358130664326 -0.00024431191973375876 0 0.012495078875512577 -0.00025220883501935593 0 0.012521582558403667 -0.00017926134779975666 0 0.012514968013197387 -0.00015914117509910903 0 0.012509659888068875 -0.00020061713647704903 0 0.012514968013197387 -0.00015914117509910903 0 0.012509659888068875 -0.00020061713647704903 0 0.012462839630926264 -0.00017352350679562727 0 0.012495078875512577 -0.00025220883501935593 0 0.012509659888068875 -0.00020061713647704903 0 0.012462839630926264 -0.00017352350679562727 0 0.012508358130664326 -0.00024431191973375876 0 0.012509659888068875 -0.00020061713647704903 0 0.012520016321624404 -0.00020578172159242407 0 0.012521582558403667 -0.00017926134779975666 0 0.012509659888068875 -0.00020061713647704903 0 0.012520016321624404 -0.00020578172159242407 0 0.012521582558403667 -0.00017926134779975666 0 0.012532792424242017 -0.00016636008464529145 0 0.012520016321624404 -0.00020578172159242407 0 0.012532792424242017 -0.00016636008464529145 0 0.012520016321624404 -0.00020578172159242407 0 0.012535645784756189 -0.00018939833211965542 0 0.012520016321624404 -0.00020578172159242407 0 0.012535645784756189 -0.00018939833211965542 0 0.012518162588147731 -0.00024543264322555134 0 0.012535645784756189 -0.00018939833211965542 0 0.012558797664789689 -0.00018326487308251927 0 0.01254861497939444 -0.00022274705660966029 0 0.012535645784756189 -0.00018939833211965542 0 0.012548594332254713 -0.00015426539300522561 0 0.012558797664789689 -0.00018326487308251927 0 0.012532792424242017 -0.00016636008464529145 0 0.012535645784756189 -0.00018939833211965542 0 0.012548594332254713 -0.00015426539300522561 0 0.012543369586472125 -0.00014753134487755572 0 0.012532792424242017 -0.00016636008464529145 0 0.012548594332254713 -0.00015426539300522561 0 0.012557086934651221 -0.00012820563658977866 0 0.012548594332254713 -0.00015426539300522561 0 0.012589831120844382 -0.0001423048773488966 0 0.012543369586472125 -0.00014753134487755572 0 0.012557086934651221 -0.00012820563658977866 0 0.012548594332254713 -0.00015426539300522561 0 0.012576703579280852 -9.4128036320816828e-05 0 0.012557086934651221 -0.00012820563658977866 0 0.012589831120844382 -0.0001423048773488966 0 0.012576703579280852 -9.4128036320816828e-05 0 0.012684600838109766 -7.0582286403498854e-05 0 0.012589831120844382 -0.0001423048773488966 0 0.012667654998728172 -0.00020110991206865022 0 0.012589831120844382 -0.0001423048773488966 0 0.012586178336606852 -0.00021811100778028697 0 0.012589831120844382 -0.0001423048773488966 0 0.012558797664789689 -0.00018326487308251927 0 0.012586178336606852 -0.00021811100778028697 0 0.012548594332254713 -0.00015426539300522561 0 0.012589831120844382 -0.0001423048773488966 0 0.012558797664789689 -0.00018326487308251927 0 0.012558797664789689 -0.00018326487308251927 0 0.012586178336606852 -0.00021811100778028697 0 0.01254861497939444 -0.00022274705660966029 0 0.012586178336606852 -0.00021811100778028697 0 0.012551121614457171 -0.00027935308818843201 0 0.01254861497939444 -0.00022274705660966029 0 0.012667654998728172 -0.00020110991206865022 0 0.012586178336606852 -0.00021811100778028697 0 0.012622798664474837 -0.00030494404998409241 0 0.012586178336606852 -0.00021811100778028697 0 0.012622798664474837 -0.00030494404998409241 0 0.012551121614457171 -0.00027935308818843201 0 0.01249570520983702 -0.0002989302044091511 0 0.012551121614457171 -0.00027935308818843201 0 0.012518162588147731 -0.00024543264322555134 0 0.01249570520983702 -0.0002989302044091511 0 0.012505339734200293 -0.00027252363283760593 0 0.012518162588147731 -0.00024543264322555134 0 0.012513114744081674 -0.00024011806927180552 0 0.012520016321624404 -0.00020578172159242407 0 0.012518162588147731 -0.00024543264322555134 0 0.012551121614457171 -0.00027935308818843201 0 0.012518162588147731 -0.00024543264322555134 0 0.01254861497939444 -0.00022274705660966029 0 0.012535645784756189 -0.00018939833211965542 0 0.012518162588147731 -0.00024543264322555134 0 0.01254861497939444 -0.00022274705660966029 0 0.013272186381926001 -1.51633753268321e-07 0 0.015752953957958036 -0.00029622153811715722 0 0.013727835490507722 -0.00014089602821578667 0 0.015752953957958036 -0.00029622153811715722 0 0.015271967655137806 -0.00029486114855441854 0 0.013727835490507722 -0.00014089602821578667 0 0.013272186381926001 -1.51633753268321e-07 0 0.015752953957958036 -0.00029622153811715722 0 0.015235709474002882 -5.0425764286142103e-07 0 0.015235709474002882 -5.0425764286142103e-07 0 0.017199450858456727 -2.1306686717623352e-07 0 0.017395684532644031 -0.00023593300026537899 0 0.018546405232932082 -0.00011356468840446577 0 0.017199450858456727 -2.1306686717623352e-07 0 0.017395684532644031 -0.00023593300026537899 0 0.015752953957958036 -0.00029622153811715722 0 0.015235709474002882 -5.0425764286142103e-07 0 0.017395684532644031 -0.00023593300026537899 0 0.015752953957958036 -0.00029622153811715722 0 0.017395684532644031 -0.00023593300026537899 0 0.017122517880858352 -0.00038814114668859941 0 0.018861485108243179 -0.00013531711555719628 0 0.017395684532644031 -0.00023593300026537899 0 0.018085530503215277 -0.00022767614020247667 0 0.017395684532644031 -0.00023593300026537899 0 0.018085530503215277 -0.00022767614020247667 0 0.017122517880858352 -0.00038814114668859941 0 0.01894196120725199 -1.1568686902367392e-05 0 0.018085530503215277 -0.00022767614020247667 0 0.01790181735080637 -0.00027864319436762136 0 0.018085530503215277 -0.00022767614020247667 0 0.017122517880858352 -0.00038814114668859941 0 0.01790181735080637 -0.00027864319436762136 0 0.017122517880858352 -0.00038814114668859941 0 0.016170852981059761 -0.00035128295671273368 0 0.016372061742676386 -0.00042454043150953741 0 0.015752953957958036 -0.00029622153811715722 0 0.017122517880858352 -0.00038814114668859941 0 0.016170852981059761 -0.00035128295671273368 0 0.015752953957958036 -0.00029622153811715722 0 0.016170852981059761 -0.00035128295671273368 0 0.015271967655137806 -0.00029486114855441854 0 0.016170852981059761 -0.00035128295671273368 0 0.016372061742676386 -0.00042454043150953741 0 0.015271967655137806 -0.00029486114855441854 0 0.016262736077148142 -0.00042629005756082889 0 0.016622264347765262 -0.00045829095628337245 0 0.016490559108893837 -0.00046007961187909677 0 0.016372061742676386 -0.00042454043150953741 0 0.016262736077148142 -0.00042629005756082889 0 0.016622264347765262 -0.00045829095628337245 0 0.016622264347765262 -0.00045829095628337245 0 0.016853168127857653 -0.0004428235985767845 0 0.017068042458621924 -0.00041951122467635214 0 0.016622264347765262 -0.00045829095628337245 0 0.016853168127857653 -0.0004428235985767845 0 0.016490559108893837 -0.00046007961187909677 0 0.016372061742676386 -0.00042454043150953741 0 0.016622264347765262 -0.00045829095628337245 0 0.017068042458621924 -0.00041951122467635214 0 0.017122517880858352 -0.00038814114668859941 0 0.016372061742676386 -0.00042454043150953741 0 0.017068042458621924 -0.00041951122467635214 0 0.017122517880858352 -0.00038814114668859941 0 0.017068042458621924 -0.00041951122467635214 0 0.01790181735080637 -0.00027864319436762136 0 0.017068042458621924 -0.00041951122467635214 0 0.01790181735080637 -0.00027864319436762136 0 0.017392289825279617 -0.00035734442972262922 0 0.018213937831888571 -0.00012070414991510789 0 0.017392289825279617 -0.00035734442972262922 0 0.017389517123239506 -0.00020753889555034217 0 0.018213937831888571 -0.00012070414991510789 0 0.01790181735080637 -0.00027864319436762136 0 0.017392289825279617 -0.00035734442972262922 0 0.016853168127857653 -0.0004428235985767845 0 0.017068042458621924 -0.00041951122467635214 0 0.017392289825279617 -0.00035734442972262922 0 0.016853168127857653 -0.0004428235985767845 0 0.017392289825279617 -0.00035734442972262922 0 0.016898520700199784 -0.00038152957840996155 0 0.017392289825279617 -0.00035734442972262922 0 0.016898520700199784 -0.00038152957840996155 0 0.017389517123239506 -0.00020753889555034217 0 0.016898520700199784 -0.00038152957840996155 0 0.017389517123239506 -0.00020753889555034217 0 0.016910922207674376 -0.0002474421295827625 0 0.017138862736381794 2.1233378343275598e-05 0 0.017389517123239506 -0.00020753889555034217 0 0.016910922207674376 -0.0002474421295827625 0 0.017138862736381794 2.1233378343275598e-05 0 0.016738045110837547 -1.0035964132044917e-05 0 0.016910922207674376 -0.0002474421295827625 0 0.016738045110837547 -1.0035964132044917e-05 0 0.016910922207674376 -0.0002474421295827625 0 0.016638218549161702 -0.0002375144315578622 0 0.016910922207674376 -0.0002474421295827625 0 0.016638218549161702 -0.0002375144315578622 0 0.01660061447411236 -0.00036645629664533138 0 0.016898520700199784 -0.00038152957840996155 0 0.016910922207674376 -0.0002474421295827625 0 0.01660061447411236 -0.00036645629664533138 0 0.016898520700199784 -0.00038152957840996155 0 0.01660061447411236 -0.00036645629664533138 0 0.01647160024248611 -0.00046813302604258424 0 0.016338289099338474 -0.00045457349542630241 0 0.01660061447411236 -0.00036645629664533138 0 0.01647160024248611 -0.00046813302604258424 0 0.016338289099338474 -0.00045457349542630241 0 0.01647160024248611 -0.00046813302604258424 0 0.01610978597464531 -0.00052401167462149539 0 0.016853168127857653 -0.0004428235985767845 0 0.016898520700199784 -0.00038152957840996155 0 0.01647160024248611 -0.00046813302604258424 0 0.016853168127857653 -0.0004428235985767845 0 0.01647160024248611 -0.00046813302604258424 0 0.016490559108893837 -0.00046007961187909677 0 0.01647160024248611 -0.00046813302604258424 0 0.016490559108893837 -0.00046007961187909677 0 0.016193418352875154 -0.00047657312971758465 0 0.016262736077148142 -0.00042629005756082889 0 0.016193418352875154 -0.00047657312971758465 0 0.015799345144066244 -0.00050009543583063492 0 0.016262736077148142 -0.00042629005756082889 0 0.016490559108893837 -0.00046007961187909677 0 0.016193418352875154 -0.00047657312971758465 0 0.016193418352875154 -0.00047657312971758465 0 0.01610978597464531 -0.00052401167462149539 0 0.015799345144066244 -0.00050009543583063492 0 0.01647160024248611 -0.00046813302604258424 0 0.016193418352875154 -0.00047657312971758465 0 0.01610978597464531 -0.00052401167462149539 0 0.015810081680911206 -0.00053084533526421369 0 0.01610978597464531 -0.00052401167462149539 0 0.015799345144066244 -0.00050009543583063492 0 0.016262736077148142 -0.00042629005756082889 0 0.015799345144066244 -0.00050009543583063492 0 0.015735422561307673 -0.00049294081729758593 0 0.015799345144066244 -0.00050009543583063492 0 0.015735422561307673 -0.00049294081729758593 0 0.015039912765160949 -0.0004285531726415138 0 0.015735422561307673 -0.00049294081729758593 0 0.015039912765160949 -0.0004285531726415138 0 0.015322752332084683 -0.00064515700277117689 0 0.015810081680911206 -0.00053084533526421369 0 0.015799345144066244 -0.00050009543583063492 0 0.015039912765160949 -0.0004285531726415138 0 0.015039912765160949 -0.0004285531726415138 0 0.014412849949041712 -0.0010060142787047905 0 0.015322752332084683 -0.00064515700277117689 0 0.014412849949041712 -0.0010060142787047905 0 0.014252974834914812 -0.0014392087437580996 0 0.013641800005040942 -0.0015221816549650601 0 0.014412849949041712 -0.0010060142787047905 0 0.014973117104771599 -0.0011235272631519094 0 0.014252974834914812 -0.0014392087437580996 0 0.014412849949041712 -0.0010060142787047905 0 0.014973117104771599 -0.0011235272631519094 0 0.015322752332084683 -0.00064515700277117689 0 0.014973117104771599 -0.0011235272631519094 0 0.015322752332084683 -0.00064515700277117689 0 0.015435244945475194 -0.00090245660004887988 0 0.015322752332084683 -0.00064515700277117689 0 0.015435244945475194 -0.00090245660004887988 0 0.015700634397324113 -0.00048444702089818492 0 0.014973117104771599 -0.0011235272631519094 0 0.015435244945475194 -0.00090245660004887988 0 0.015294989679676456 -0.0014330968625714971 0 0.015435244945475194 -0.00090245660004887988 0 0.015892276718216716 -0.0010982455942480922 0 0.015294989679676456 -0.0014330968625714971 0 0.015435244945475194 -0.00090245660004887988 0 0.015695953411157294 -0.00073795130908528388 0 0.015892276718216716 -0.0010982455942480922 0 0.015435244945475194 -0.00090245660004887988 0 0.015695953411157294 -0.00073795130908528388 0 0.015700634397324113 -0.00048444702089818492 0 0.015771909251465616 0.00053485699606471953 0 0.016229055749787918 -0.00012385109996727165 0 0.015667953682983477 -7.691552357522524e-05 0 0.015629671346849259 -3.1580549502212842e-05 0 0.015982417489849906 -0.0002973915533295111 0 0.015735422561307673 -0.00049294081729758593 0 0.015322752332084683 -0.00064515700277117689 0 0.015700634397324113 -0.00048444702089818492 0 0.016262736077148142 -0.00042629005756082889 0 0.015735422561307673 -0.00049294081729758593 0 0.015700634397324113 -0.00048444702089818492 0 0.016188508290311276 -0.00039423492385911858 0 0.015982417489849906 -0.0002973915533295111 0 0.016372061742676386 -0.00042454043150953741 0 0.016262736077148142 -0.00042629005756082889 0 0.016229055749787918 -0.00012385109996727165 0 0.016372061742676386 -0.00042454043150953741 0 0.016229055749787918 -0.00012385109996727165 0 0.015667953682983477 -7.691552357522524e-05 0 0.016372061742676386 -0.00042454043150953741 0 0.015667953682983477 -7.691552357522524e-05 0 0.015271967655137806 -0.00029486114855441854 0 0.015271967655137806 -0.00029486114855441854 0 0.014819379189391439 0.00030843843186357118 0 0.013727835490507722 -0.00014089602821578667 0 0.014819379189391439 0.00030843843186357118 0 0.013297109126897534 0.00030363891167841712 0 0.013727835490507722 -0.00014089602821578667 0 0.015667953682983477 -7.691552357522524e-05 0 0.015271967655137806 -0.00029486114855441854 0 0.014819379189391439 0.00030843843186357118 0 0.015771909251465616 0.00053485699606471953 0 0.015667953682983477 -7.691552357522524e-05 0 0.014819379189391439 0.00030843843186357118 0 0.015629671346849259 -3.1580549502212842e-05 0 0.016165139516366535 5.5500691268824321e-05 0 0.015771909251465616 0.00053485699606471953 0 0.014819379189391439 0.00030843843186357118 0 0.014987470605231708 0.0014735738805461206 0 0.016165139516366535 5.5500691268824321e-05 0 0.0085079227824133939 -0.00084314893757678883 0 0.014987470605231708 0.0014735738805461206 0 0.01364436769770338 0.0012612620783433828 0 0.013946156150208991 0.0029187821551556218 0 0.014819379189391439 0.00030843843186357118 0 0.01364436769770338 0.0012612620783433828 0 0.013297109126897534 0.00030363891167841712 0 0.014819379189391439 0.00030843843186357118 0 0.014987470605231708 0.0014735738805461206 0 0.01364436769770338 0.0012612620783433828 0 0.01364436769770338 0.0012612620783433828 0 0.013297109126897534 0.00030363891167841712 0 0.011773701018398752 0.00040522859375509798 0 0.01364436769770338 0.0012612620783433828 0 0.011773701018398752 0.00040522859375509798 0 0.012191418298241049 0.0022032482191933775 0 0.01364436769770338 0.0012612620783433828 0 0.012191418298241049 0.0022032482191933775 0 0.013946156150208991 0.0029187821551556218 0 0.0093427898386186682 1.0592724190195122e-07 0 0.010851056394363004 0.0012666650081678606 0 0.0093472374374321699 4.8822009429552336e-06 0 0.011773701018398752 0.00040522859375509798 0 0.012191418298241049 0.0022032482191933775 0 0.013297109126897534 0.00030363891167841712 0 0.011773701018398752 0.00040522859375509798 0 0.011307681751565851 -1.2701728263194691e-06 0 0.0093472374374321699 4.8822009429552336e-06 0 0.011773701018398752 0.00040522859375509798 0 0.011307681751565851 -1.2701728263194691e-06 0 0.013297109126897534 0.00030363891167841712 0 0.011307681751565851 -1.2701728263194691e-06 0 0.013727835490507722 -0.00014089602821578667 0 0.013272186381926001 -1.51633753268321e-07 0 0.011307681751565851 -1.2701728263194691e-06 0 0.013727835490507722 -0.00014089602821578667 0 0.0045597199316719786 5.6041217424708869e-07 0 0.0059825092214592351 -5.8079584989244894e-07 0 0.0059762642168606399 1.8973908231653414e-05 0 0.0045544457799451621 2.9502972438352128e-06 0 0.0028678783607230087 0.0012555095208539827 0 0.0022772999689680534 -4.5441723305356108e-05 0 0.0045593438597550358 -2.1335967412462304e-07 0 0.0043760890739731207 0.00071451755444619308 0 0.0016302227022322057 0.00081674177022926487 0 0.0028678783607230087 0.0012555095208539827 0 0.0022772999689680534 -4.5441723305356108e-05 0 0.0016302227022322057 0.00081674177022926487 0 0.0020316017995320778 0.0019570572474396307 0 0.00098812395283819575 0.0012461295843910359 0 0.0016302227022322057 0.00081674177022926487 0 0.0028678783607230087 0.0012555095208539827 0 0.0020316017995320778 0.0019570572474396307 0 0.0043760890739731207 0.00071451755444619308 0 0.0035165999991034176 -0.00084508196642323508 0 0.0059825092214592351 -5.8079584989244894e-07 0 0.0059762642168606399 1.8973908231653414e-05 0 0.0062629437091018805 -2.668898645401194e-05 0 0.0074081805777760643 -1.323512732486178e-07 0 0.0082730669696363564 -0.00019280171868797088 0 0.0081947383764059828 0.00036916963030167644 0 0.0074086504842844183 2.0186014245194045e-06 0 0.0035165999991034176 -0.00084508196642323508 0 0.0059825092214592351 -5.8079584989244894e-07 0 0.0074004507177154516 5.9880188603456503e-07 0 0.0062629437091018805 -2.668898645401194e-05 0 0.0093385985600145209 1.3141358650681345e-07 0 0.0074081805777760643 -1.323512732486178e-07 0 0.0082730669696363564 -0.00019280171868797088 0 0.0082730669696363564 -0.00019280171868797088 0 0.0081947383764059828 0.00036916963030167644 0 0.0085670411912835871 -2.7659069706722495e-05 0 0.010851056394363004 0.0012666650081678606 0 0.0085079227824133939 -0.00084314893757678883 0 0.0035165999991034176 -0.00084508196642323508 0 0.0085079227824133939 -0.00084314893757678883 0 -0.0028212140221813217 -0.0039269500714454149 0 -0.0016144682074796669 -0.0056012090763727321 0 -0.001420205070369989 -0.0032718847846938859 0 0.0085079227824133939 -0.00084314893757678883 0 0.0075831616286661371 -0.0037732030773343682 0 0.015892276718216716 -0.0010982455942480922 0 0.016102313385290227 -0.0015234685397537838 0 0.015647186398246794 -0.0018053996518964327 0 -0.0016144682074796669 -0.0056012090763727321 0 0.00021527547409122682 -0.0049117262056622667 0 -0.001420205070369989 -0.0032718847846938859 0 0.00051837415010966303 0.00019187207947300296 0 0.00098812395283819575 0.0012461295843910359 0 0.00083869105121723913 0.00051103563720757215 0 0.00056640696998237663 -0.001023120142514572 0 -0.00087105166830942209 -0.0012301456438654577 0 0.00021527547409122682 -0.0049117262056622667 0 -1.5934048905525122e-06 -0.002398969052658659 0 -0.001420205070369989 -0.0032718847846938859 0 0.0035165999991034176 -0.00084508196642323508 0 -0.00087105166830942209 -0.0012301456438654577 0 0.0016302227022322057 0.00081674177022926487 0 0.00083869105121723913 0.00051103563720757215 0 0.0010961987354660098 0.00023252743531269857 0 0.0016302227022322057 0.00081674177022926487 0 0.00098812395283819575 0.0012461295843910359 0 0.00083869105121723913 0.00051103563720757215 0 0.00051837415010966303 0.00019187207947300296 0 0.00083869105121723913 0.00051103563720757215 0 0.0005065322332238483 0.00034066570328282085 0 0.00051837415010966303 0.00019187207947300296 0 0.00079261699668904824 0.00010199176796138511 0 0.0005065322332238483 0.00034066570328282085 0 0.00079261699668904824 0.00010199176796138511 0 0.0017847041627425894 -0.001046732315525921 0 0.0010601771712966718 0.0010919743866341508 0 0.00051837415010966303 0.00019187207947300296 0 0.00079261699668904824 0.00010199176796138511 0 0.0017847041627425894 -0.001046732315525921 0 0.00056640696998237663 -0.001023120142514572 0 0.0016776254161245414 -0.00093172064615723951 0 0.0017847041627425894 -0.001046732315525921 0 0.0026097705211331071 -0.0043493845001283732 0 0.0065420367138030473 -0.0035466431572262641 0 0.00021527547409122682 -0.0049117262056622667 0 -1.5934048905525122e-06 -0.002398969052658659 0 0.0026097705211331071 -0.0043493845001283732 0 -1.5934048905525122e-06 -0.002398969052658659 0 0.0017847041627425894 -0.001046732315525921 0 0.0026097705211331071 -0.0043493845001283732 0 0.015647186398246794 -0.0018053996518964327 0 0.015294989679676456 -0.0014330968625714971 0 0.014994652146050187 -0.0022196096845927848 0 0.0075831616286661371 -0.0037732030773343682 0 0.0089307412298693274 -0.0032147673037945931 0 0.015892276718216716 -0.0010982455942480922 0 0.015647186398246794 -0.0018053996518964327 0 0.015294989679676456 -0.0014330968625714971 0 0.014973117104771599 -0.0011235272631519094 0 0.015294989679676456 -0.0014330968625714971 0 0.01455698095433031 -0.0017386805146528399 0 0.015294989679676456 -0.0014330968625714971 0 0.014994652146050187 -0.0022196096845927848 0 0.01455698095433031 -0.0017386805146528399 0 0.014994652146050187 -0.0022196096845927848 0 0.01455698095433031 -0.0017386805146528399 0 0.013834017185230788 -0.0025559901360057997 0 0.01455698095433031 -0.0017386805146528399 0 0.013723621625832837 -0.0018886458798284527 0 0.013834017185230788 -0.0025559901360057997 0 0.014973117104771599 -0.0011235272631519094 0 0.01455698095433031 -0.0017386805146528399 0 0.014252974834914812 -0.0014392087437580996 0 0.01455698095433031 -0.0017386805146528399 0 0.014252974834914812 -0.0014392087437580996 0 0.013723621625832837 -0.0018886458798284527 0 0.014252974834914812 -0.0014392087437580996 0 0.013723621625832837 -0.0018886458798284527 0 0.013641800005040942 -0.0015221816549650601 0 0.013723621625832837 -0.0018886458798284527 0 0.012993571372291976 -0.0022440099055255356 0 0.013834017185230788 -0.0025559901360057997 0 0.012993571372291976 -0.0022440099055255356 0 0.013834017185230788 -0.0025559901360057997 0 0.011890422147388282 -0.0018257092084035722 0 0.010246019391776761 -0.0029353665028174574 0 0.011923287267834967 -0.0019147812624505901 0 0.0089307412298693274 -0.0032147673037945931 0 0.010246019391776761 -0.0029353665028174574 0 0.0017847041627425894 -0.001046732315525921 0 0.0065420367138030473 -0.0035466431572262641 0 0.0051348461059364473 0.00052107415672349622 0 0.0065420367138030473 -0.0035466431572262641 0 0.0087775032651613589 5.3451165172297423e-05 0 0.0051348461059364473 0.00052107415672349622 0 0.0065420367138030473 -0.0035466431572262641 0 0.0087775032651613589 5.3451165172297423e-05 0 0.011890422147388282 -0.0018257092084035722 0 0.0087775032651613589 5.3451165172297423e-05 0 0.0083483631910354454 0.0025457331931905717 0 0.0051348461059364473 0.00052107415672349622 0 0.0087775032651613589 5.3451165172297423e-05 0 0.0083483631910354454 0.0025457331931905717 0 0.011639407667101859 0.0021816609836343985 0 0.0083483631910354454 0.0025457331931905717 0 0.0051348461059364473 0.00052107415672349622 0 0.0048767464538451624 0.0050599938145368265 0 0.0083483631910354454 0.0025457331931905717 0 0.0091988641399727393 0.0052429684029633959 0 0.011639407667101859 0.0021816609836343985 0 0.0083483631910354454 0.0025457331931905717 0 0.0048767464538451624 0.0050599938145368265 0 0.0091988641399727393 0.0052429684029633959 0 0.0048767464538451624 0.0050599938145368265 0 0.0091988641399727393 0.0052429684029633959 0 0.0081892706711969611 0.0082888600908061494 0 -0.00086071332771026174 -0.0003714499880756514 0 -0.00085036051035174533 -0.00060472447938482541 0 -0.0010172010017207283 -0.00032773799220239862 0 -0.00027233616989944399 -0.00077389007636911671 0 0.0023755241094985547 0.001463048006052842 0 -0.00031843172080074639 -0.00050462112652396092 0 -0.00086071332771026174 -0.0003714499880756514 0 -0.00085036051035174533 -0.00060472447938482541 0 0.0023755241094985547 0.001463048006052842 0 -0.0014016746847423341 0.0002120922760626082 0 -0.00077148176365518864 0.00040360818539377061 0 -0.0010172010017207283 -0.00032773799220239862 0 -0.00057640883366312371 -4.2682262110982186e-05 0 -0.00077148176365518864 0.00040360818539377061 0 -0.0013251192022595381 -0.00011378218118045672 0 -0.0010172010017207283 -0.00032773799220239862 0 0.0023843925731569463 0.0031915838299684143 0 0.0023755241094985547 0.001463048006052842 0 -0.00077148176365518864 0.00040360818539377061 0 -0.00057640883366312371 -4.2682262110982186e-05 0 2.2299802580070214e-05 0.00032636098175325973 0 -0.00057640883366312371 -4.2682262110982186e-05 0 -0.00031030267667529006 -1.2763191142640671e-05 0 2.2299802580070214e-05 0.00032636098175325973 0 -0.001014774102113851 -0.00023312354084088424 0 -0.0010172010017207283 -0.00032773799220239862 0 -0.00057640883366312371 -4.2682262110982186e-05 0 -0.001014774102113851 -0.00023312354084088424 0 -0.00057640883366312371 -4.2682262110982186e-05 0 -0.00031030267667529006 -1.2763191142640671e-05 0 -0.001014774102113851 -0.00023312354084088424 0 -0.00081844009668246339 -0.00016393040528188098 0 -0.00031030267667529006 -1.2763191142640671e-05 0 -0.00031030267667529006 -1.2763191142640671e-05 0 0.00032648910219112341 0.0003963021478063884 0 2.2299802580070214e-05 0.00032636098175325973 0 -0.00031030267667529006 -1.2763191142640671e-05 0 0.00032648910219112341 0.0003963021478063884 0 -5.6978780084607637e-05 -4.7705787375773242e-05 0 0.00032648910219112341 0.0003963021478063884 0 2.2299802580070214e-05 0.00032636098175325973 0 0.0010601771712966718 0.0010919743866341508 0 -0.00077148176365518864 0.00040360818539377061 0 2.2299802580070214e-05 0.00032636098175325973 0 0.0010601771712966718 0.0010919743866341508 0 0.0023843925731569463 0.0031915838299684143 0 0.00088042099186387297 0.00097630889534833817 0 0.0017847041627425894 -0.001046732315525921 0 0.0051348461059364473 0.00052107415672349622 0 0.0010601771712966718 0.0010919743866341508 0 0.0051348461059364473 0.00052107415672349622 0 0.0048767464538451624 0.0050599938145368265 0 0.0010601771712966718 0.0010919743866341508 0 0.00079261699668904824 0.00010199176796138511 0 0.0010601771712966718 0.0010919743866341508 0 0.0005065322332238483 0.00034066570328282085 0 0.00032648910219112341 0.0003963021478063884 0 0.0010601771712966718 0.0010919743866341508 0 0.0005065322332238483 0.00034066570328282085 0 0.0005065322332238483 0.00034066570328282085 0 0.0010961987354660098 0.00023252743531269857 0 0.00043751313794476813 0.00017497323461537626 0 0.00083869105121723913 0.00051103563720757215 0 0.0005065322332238483 0.00034066570328282085 0 0.0010961987354660098 0.00023252743531269857 0 0.0010961987354660098 0.00023252743531269857 0 0.00043751313794476813 0.00017497323461537626 0 0.00049829432789576602 -9.8150408742643492e-05 0 0.00032648910219112341 0.0003963021478063884 0 0.0005065322332238483 0.00034066570328282085 0 0.00043751313794476813 0.00017497323461537626 0 0.00032648910219112341 0.0003963021478063884 0 0.00043751313794476813 0.00017497323461537626 0 -5.6978780084607637e-05 -4.7705787375773242e-05 0 -0.00081844009668246339 -0.00016393040528188098 0 -0.0008478851788785495 -0.00022011253892053784 0 -5.6978780084607637e-05 -4.7705787375773242e-05 0 -0.00081844009668246339 -0.00016393040528188098 0 -0.00031030267667529006 -1.2763191142640671e-05 0 -5.6978780084607637e-05 -4.7705787375773242e-05 0 -0.00053343796488412398 -0.00022814123987974937 0 0.00033167648488576331 -8.5463713655196588e-05 0 -0.0008478851788785495 -0.00022011253892053784 0 -5.6978780084607637e-05 -4.7705787375773242e-05 0 0.00049829432789576602 -9.8150408742643492e-05 0 0.00043751313794476813 0.00017497323461537626 0 -5.6978780084607637e-05 -4.7705787375773242e-05 0 0.00049829432789576602 -9.8150408742643492e-05 0 -0.00023545770459469778 -0.00026338292210571361 0 0.0012134272606676533 -0.00013229442854950941 0 0.00092760848192814974 -2.0681173687201106e-07 0 -0.00023545770459469778 -0.00026338292210571361 0 0.00049829432789576602 -9.8150408742643492e-05 0 0.0012134272606676533 -0.00013229442854950941 0 0.0012134272606676533 -0.00013229442854950941 0 0.00092760848192814974 -2.0681173687201106e-07 0 0.0027438233377694811 -1.1980418182473775e-06 0 0.0012134272606676533 -0.00013229442854950941 0 0.0027438233377694811 -1.1980418182473775e-06 0 0.0022772999689680534 -4.5441723305356108e-05 0 0.0010961987354660098 0.00023252743531269857 0 0.00049829432789576602 -9.8150408742643492e-05 0 0.0022772999689680534 -4.5441723305356108e-05 0 0.00049829432789576602 -9.8150408742643492e-05 0 0.0012134272606676533 -0.00013229442854950941 0 0.0022772999689680534 -4.5441723305356108e-05 0 0.0016302227022322057 0.00081674177022926487 0 0.0010961987354660098 0.00023252743531269857 0 0.0022772999689680534 -4.5441723305356108e-05 0 0.0045544457799451621 2.9502972438352128e-06 0 0.0027438233377694811 -1.1980418182473775e-06 0 0.0022772999689680534 -4.5441723305356108e-05 0 0.0083172420891652558 -0.0012384586040770477 0 0.0080745515038978186 -0.0015933032718341998 0 0.0079940705540971334 -0.0011104048745826929 0 0.0089252025980442028 -0.0028536744744096657 0 0.0096534150148524425 -0.0020433305116476781 0 0.0083172420891652558 -0.0012384586040770477 0 0.0081291421939421061 -0.00095851642302515285 0 0.0087418609428972418 -0.00093377192389681584 0 0.0083172420891652558 -0.0012384586040770477 0 0.0081291421939421061 -0.00095851642302515285 0 0.0079940705540971334 -0.0011104048745826929 0 0.0083779233698834162 -0.003481235647580465 0 0.0084796614492750593 -0.0034817289102217317 0 0.0082770303981169868 -0.0032446594809949535 0 0.0089252025980442028 -0.0028536744744096657 0 0.0079177451097784922 -0.0026464590145587907 0 0.0083779233698834162 -0.003481235647580465 0 0.0084762572444294446 -0.0034782137874010636 0 0.0083507371832706543 -0.0036202627031261172 0 0.0087339702576922588 -0.0029265396612050071 0 0.0089252025980442028 -0.0028536744744096657 0 0.0083172420891652558 -0.0012384586040770477 0 0.0087418609428972418 -0.00093377192389681584 0 0.0086050481624770289 -0.00150420337662938 0 0.0086050481624770289 -0.00150420337662938 0 0.0092135886127539292 -0.001497835453852431 0 0.0087639775900687934 -0.0017783994864431392 0 0.0087418609428972418 -0.00093377192389681584 0 0.0086050481624770289 -0.00150420337662938 0 0.0092135886127539292 -0.001497835453852431 0 0.0086050481624770289 -0.00150420337662938 0 0.0085243029761812254 -0.0019267670040119128 0 0.0087639775900687934 -0.0017783994864431392 0 0.0073076306357688593 -0.0017934573457160639 0 0.0079177451097784922 -0.0026464590145587907 0 0.0086050481624770289 -0.00150420337662938 0 0.0080745515038978186 -0.0015933032718341998 0 0.0085243029761812254 -0.0019267670040119128 0 0.0083172420891652558 -0.0012384586040770477 0 0.0086050481624770289 -0.00150420337662938 0 0.0080745515038978186 -0.0015933032718341998 0 0.0062188177365433877 -0.0024318341139673116 0 0.0079177451097784922 -0.0026464590145587907 0 0.0066116517778840303 -0.0022190732438620302 0 0.0067616769836220947 -0.002199457009175457 0 0.0066416149078866102 -0.0023461509111671092 0 0.0079153987332348918 -0.0037759784081455522 0 0.0078219627375463834 -0.0033704680225584613 0 0.0075595604994436339 -0.0035452779487876408 0 0.0051429093119141579 -0.0022040118097178527 0 0.0054759363918700519 -0.0018020489633431001 0 0.0060804317406053885 -0.002064917618875642 0 0.0062188177365433877 -0.0024318341139673116 0 0.0069511931452717916 -0.0031694252993233682 0 0.0051429093119141579 -0.0022040118097178527 0 0.0060804317406053885 -0.002064917618875642 0 0.0061448551348366248 -0.0026856618068027472 0 0.0079153987332348918 -0.0037759784081455522 0 0.0078219627375463834 -0.0033704680225584613 0 0.0080549281486684936 -0.0033955846909916516 0 0.0078219627375463834 -0.0033704680225584613 0 0.0075595604994436339 -0.0035452779487876408 0 0.0075993182628588752 -0.0032920460327563457 0 0.0078219627375463834 -0.0033704680225584613 0 0.0080549281486684936 -0.0033955846909916516 0 0.0080000204703271072 -0.0031807106820678048 0 0.0078219627375463834 -0.0033704680225584613 0 0.0077316391016647879 -0.0031625729950367498 0 0.0075993182628588752 -0.0032920460327563457 0 0.0079153987332348918 -0.0037759784081455522 0 0.0082654756271832771 -0.0034413970456651909 0 0.0080549281486684936 -0.0033955846909916516 0 0.0083779233698834162 -0.003481235647580465 0 0.0083507371832706543 -0.0036202627031261172 0 0.0082770303981169868 -0.0032446594809949535 0 0.0082654756271832771 -0.0034413970456651909 0 0.0080549281486684936 -0.0033955846909916516 0 0.0082770303981169868 -0.0032446594809949535 0 0.0079177451097784922 -0.0026464590145587907 0 0.008276989765111922 -0.0035230003391024771 0 0.0080549281486684936 -0.0033955846909916516 0 0.0082770303981169868 -0.0032446594809949535 0 0.0080000204703271072 -0.0031807106820678048 0 0.0080000204703271072 -0.0031807106820678048 0 0.0078976441050989978 -0.0029399734675812353 0 0.0081750366243881194 -0.0029975633967217787 0 0.0082770303981169868 -0.0032446594809949535 0 0.0080000204703271072 -0.0031807106820678048 0 0.0081750366243881194 -0.0029975633967217787 0 0.0082770303981169868 -0.0032446594809949535 0 0.0081750366243881194 -0.0029975633967217787 0 0.0084693353591400958 -0.0030602854192575126 0 0.0078219627375463834 -0.0033704680225584613 0 0.0080000204703271072 -0.0031807106820678048 0 0.0077316391016647879 -0.0031625729950367498 0 0.0080000204703271072 -0.0031807106820678048 0 0.0077316391016647879 -0.0031625729950367498 0 0.0078976441050989978 -0.0029399734675812353 0 0.0077316391016647879 -0.0031625729950367498 0 0.0078976441050989978 -0.0029399734675812353 0 0.0076452885554911393 -0.0029866065170395554 0 0.0078976441050989978 -0.0029399734675812353 0 0.0077648055058808629 -0.002778019630887267 0 0.0076452885554911393 -0.0029866065170395554 0 0.0078976441050989978 -0.0029399734675812353 0 0.0077648055058808629 -0.002778019630887267 0 0.0081354662354590837 -0.0026741963951839921 0 0.0083594855512805089 -0.0028375545659708391 0 0.0081750366243881194 -0.0029975633967217787 0 0.0084693353591400958 -0.0030602854192575126 0 0.0083594855512805089 -0.0028375545659708391 0 0.0081750366243881194 -0.0029975633967217787 0 0.0081354662354590837 -0.0026741963951839921 0 0.0078976441050989978 -0.0029399734675812353 0 0.0081750366243881194 -0.0029975633967217787 0 0.0081354662354590837 -0.0026741963951839921 0 0.0083594855512805089 -0.0028375545659708391 0 0.0081354662354590837 -0.0026741963951839921 0 0.0084201518485114823 -0.0026438520822465728 0 0.0083594855512805089 -0.0028375545659708391 0 0.0084201518485114823 -0.0026438520822465728 0 0.0086093165735059308 -0.002795907929227839 0 0.0086093165735059308 -0.002795907929227839 0 0.0089108284699996546 -0.0030917463543236479 0 0.0088817335599653859 -0.0026231017754267988 0 0.0086416418052560531 -0.0025089403521315464 0 0.0084201518485114823 -0.0026438520822465728 0 0.0086093165735059308 -0.002795907929227839 0 0.0086416418052560531 -0.0025089403521315464 0 0.0086093165735059308 -0.002795907929227839 0 0.0088817335599653859 -0.0026231017754267988 0 0.0086093165735059308 -0.002795907929227839 0 0.0084693353591400958 -0.0030602854192575126 0 0.0089108284699996546 -0.0030917463543236479 0 0.0083594855512805089 -0.0028375545659708391 0 0.0086093165735059308 -0.002795907929227839 0 0.0084693353591400958 -0.0030602854192575126 0 0.0089252025980442028 -0.0028536744744096657 0 0.0099220532986483041 -0.0027719135900386356 0 0.0084796614492750593 -0.0034817289102217317 0 0.0084693353591400958 -0.0030602854192575126 0 0.0089108284699996546 -0.0030917463543236479 0 0.010094723128443816 -0.003223946119321355 0 0.011135827807241374 -0.0032038784990195452 0 0.01085545384233012 -0.0024078472510345346 0 0.0084796614492750593 -0.0034817289102217317 0 0.0082770303981169868 -0.0032446594809949535 0 0.0084693353591400958 -0.0030602854192575126 0 0.011135827807241374 -0.0032038784990195452 0 0.01085545384233012 -0.0024078472510345346 0 0.011600405163624265 -0.0025928250149327417 0 0.0089108284699996546 -0.0030917463543236479 0 0.0088817335599653859 -0.0026231017754267988 0 0.009363104035143106 -0.0026715842762501502 0 0.01085545384233012 -0.0024078472510345346 0 0.011615302203395276 -0.0016339501444448167 0 0.011600405163624265 -0.0025928250149327417 0 0.0099220532986483041 -0.0027719135900386356 0 0.010355539076396541 -0.0022612311698602936 0 0.012365057611586695 -0.0013418059219908883 0 0.011615302203395276 -0.0016339501444448167 0 0.012502015885177718 -0.0016730211424796724 0 0.011615302203395276 -0.0016339501444448167 0 0.012502015885177718 -0.0016730211424796724 0 0.012324334872963728 -0.0024165779668204085 0 0.011615302203395276 -0.0016339501444448167 0 0.012324334872963728 -0.0024165779668204085 0 0.011600405163624265 -0.0025928250149327417 0 0.01275775470150884 -0.001370519301587813 0 0.012502015885177718 -0.0016730211424796724 0 0.012766171781744381 -0.0017996937391110053 0 0.012500176661178568 -0.0017083126776598347 0 0.012350566423462181 -0.0023738220308405444 0 0.012502015885177718 -0.0016730211424796724 0 0.012766171781744381 -0.0017996937391110053 0 0.012439189023215875 -0.0020783502726940506 0 0.0127473866705618 -0.0021406628271815886 0 0.012364396449282587 -0.0024313685548019129 0 0.012770408055797057 -0.0024155589703686521 0 0.012439189023215875 -0.0020783502726940506 0 0.0127473866705618 -0.0021406628271815886 0 0.012364396449282587 -0.0024313685548019129 0 0.012766171781744381 -0.0017996937391110053 0 0.012439189023215875 -0.0020783502726940506 0 0.0127473866705618 -0.0021406628271815886 0 0.011135827807241374 -0.0032038784990195452 0 0.011600405163624265 -0.0025928250149327417 0 0.012146622065815406 -0.0031721016823506448 0 0.012324334872963728 -0.0024165779668204085 0 0.011600405163624265 -0.0025928250149327417 0 0.012146622065815406 -0.0031721016823506448 0 0.012350566423462181 -0.0023738220308405444 0 0.012497258393106184 -0.0019157440632790144 0 0.013641800005040942 -0.0015221816549650601 0 0.0130764853268693 -0.0019158999380108593 0 0.013310624189704263 -0.0020498543339915729 0 0.013723621625832837 -0.0018886458798284527 0 0.013641800005040942 -0.0015221816549650601 0 0.013310624189704263 -0.0020498543339915729 0 0.013145471515962803 -0.0014472764801351341 0 0.013641800005040942 -0.0015221816549650601 0 0.0130764853268693 -0.0019158999380108593 0 0.013145471515962803 -0.0014472764801351341 0 0.01275775470150884 -0.001370519301587813 0 0.012766171781744381 -0.0017996937391110053 0 0.013145471515962803 -0.0014472764801351341 0 0.012766171781744381 -0.0017996937391110053 0 0.0130764853268693 -0.0019158999380108593 0 0.012766171781744381 -0.0017996937391110053 0 0.0127473866705618 -0.0021406628271815886 0 0.0130764853268693 -0.0019158999380108593 0 0.0127473866705618 -0.0021406628271815886 0 0.0130764853268693 -0.0019158999380108593 0 0.013052281300714683 -0.0024696593952082679 0 0.0127473866705618 -0.0021406628271815886 0 0.013052281300714683 -0.0024696593952082679 0 0.012770408055797057 -0.0024155589703686521 0 0.013723621625832837 -0.0018886458798284527 0 0.012993571372291976 -0.0022440099055255356 0 0.013310624189704263 -0.0020498543339915729 0 0.0130764853268693 -0.0019158999380108593 0 0.013310624189704263 -0.0020498543339915729 0 0.013052281300714683 -0.0024696593952082679 0 0.012993571372291976 -0.0022440099055255356 0 0.013310624189704263 -0.0020498543339915729 0 0.013052281300714683 -0.0024696593952082679 0 0.013052281300714683 -0.0024696593952082679 0 0.013736739543724105 -0.0017928307503923616 0 0.011890422147388282 -0.0018257092084035722 0 0.012993571372291976 -0.0022440099055255356 0 0.013052281300714683 -0.0024696593952082679 0 0.011890422147388282 -0.0018257092084035722 0 0.013043808922952833 -0.0025410007095543574 0 0.014131963600741981 -0.0026513955059012636 0 0.013052281300714683 -0.0024696593952082679 0 0.013736739543724105 -0.0017928307503923616 0 0.014702184288883962 -0.0029406588578518335 0 0.013736739543724105 -0.0017928307503923616 0 0.014400938632380206 2.828592624862311e-05 0 0.015562011115733394 -0.0013285283870708925 0 0.013736739543724105 -0.0017928307503923616 0 0.014400938632380206 2.828592624862311e-05 0 0.011890422147388282 -0.0018257092084035722 0 0.014400938632380206 2.828592624862311e-05 0 0.011890422147388282 -0.0018257092084035722 0 0.011639407667101859 0.0021816609836343985 0 0.012497258393106184 -0.0019157440632790144 0 0.013638926880532202 -0.0007392952567368688 0 0.016823025880057157 -0.0030108530827450846 0 0.015562011115733394 -0.0013285283870708925 0 0.017496901827110931 -0.00079363116214381372 0 0.0096534150148524425 -0.0020433305116476781 0 0.012497258393106184 -0.0019157440632790144 0 0.0087418609428972418 -0.00093377192389681584 0 0.0093834537778174406 -0.00091751109582524919 0 0.0092135886127539292 -0.001497835453852431 0 0.016823025880057157 -0.0030108530827450846 0 0.014702184288883962 -0.0029406588578518335 0 0.015562011115733394 -0.0013285283870708925 0 0.012497258393106184 -0.0019157440632790144 0 0.014131963600741981 -0.0026513955059012636 0 0.013736739543724105 -0.0017928307503923616 0 0.014702184288883962 -0.0029406588578518335 0 0.015562011115733394 -0.0013285283870708925 0 0.014400938632380206 2.828592624862311e-05 0 0.015562011115733394 -0.0013285283870708925 0 0.016310991616998317 0.00067285300103915146 0 0.015562011115733394 -0.0013285283870708925 0 0.017496901827110931 -0.00079363116214381372 0 0.016310991616998317 0.00067285300103915146 0 0.0092135886127539292 -0.001497835453852431 0 0.0087639775900687934 -0.0017783994864431392 0 0.0089155637237434884 -0.0019985178464135838 0 0.0092135886127539292 -0.001497835453852431 0 0.0090339151379133821 -0.0020629764435866494 0 0.0089155637237434884 -0.0019985178464135838 0 0.0090182334278666853 -0.0020588815662458322 0 0.0088860181524433313 -0.0025058752474175 0 0.0089155637237434884 -0.0019985178464135838 0 0.017496901827110931 -0.00079363116214381372 0 0.018159610931807443 0.001574815637406158 0 0.016310991616998317 0.00067285300103915146 0 0.013638926880532202 -0.0007392952567368688 0 0.0090877667308658597 -0.0015590366877265957 0 0.0090877667308658597 -0.0015590366877265957 0 0.0090959496955369794 -0.0016549059921335807 0 0.018159610931807443 0.001574815637406158 0 0.016310991616998317 0.00067285300103915146 0 0.015425702831956115 0.0034846102677787345 0 0.014400938632380206 2.828592624862311e-05 0 0.016310991616998317 0.00067285300103915146 0 0.015425702831956115 0.0034846102677787345 0 0.0019423490580038794 -0.0017222092847920274 0 0.0028464463817806161 -0.0015161106535864343 0 0.0022554754554891566 -0.0012108475294880638 0 0.0090877667308658597 -0.0015590366877265957 0 0.0051463085184454945 -0.0018544142890889364 0 0.0090877667308658597 -0.0015590366877265957 0 0.0088548504352735525 0.00098668767846042779 0 0.0029180440787559088 -0.0022643150623755069 0 0.0028464463817806161 -0.0015161106535864343 0 0.0030352216417735903 -0.0016191128071218407 0 0.0029180440787559088 -0.0022643150623755069 0 0.0019423490580038794 -0.0017222092847920274 0 0.0028464463817806161 -0.0015161106535864343 0 0.0040004487589179565 -0.0013877674563970448 0 0.0051463085184454945 -0.0018544142890889364 0 0.0087775032651613589 5.3451165172297423e-05 0 0.011890422147388282 -0.0018257092084035722 0 0.011639407667101859 0.0021816609836343985 0 0.014400938632380206 2.828592624862311e-05 0 0.015425702831956115 0.0034846102677787345 0 0.011639407667101859 0.0021816609836343985 0 0.0088548504352735525 0.00098668767846042779 0 0.0067903547184309408 0.0025771323300948948 0 0.015425702831956115 0.0034846102677787345 0 0.011639407667101859 0.0021816609836343985 0 0.012145660851534339 0.0058351024549827581 0 0.0091988641399727393 0.0052429684029633959 0 0.011639407667101859 0.0021816609836343985 0 0.012145660851534339 0.0058351024549827581 0 0.0091988641399727393 0.0052429684029633959 0 0.0081892706711969611 0.0082888600908061494 0 0.012145660851534339 0.0058351024549827581 0 0.0023755241094985547 0.001463048006052842 0 0.0067903547184309408 0.0025771323300948948 0 0.0010409618443192028 -0.001166133932407905 0 0.0013792491920846417 -0.00049363989445954206 0 0.0008618252464986753 -0.00061352279238740463 0 0.00026596478108640794 -0.00068412487052850002 0 0.0010409618443192028 -0.001166133932407905 0 0.0008618252464986753 -0.00061352279238740463 0 0.0010409618443192028 -0.001166133932407905 0 0.0013792491920846417 -0.00049363989445954206 0 0.0017439730574501041 -0.0010605690827873732 0 0.0019423490580038794 -0.0017222092847920274 0 0.0010409618443192028 -0.001166133932407905 0 0.0017439730574501041 -0.0010605690827873732 0 0.00076946820561433766 -0.00011800077756427001 0 0.00026596478108640794 -0.00068412487052850002 0 0.0008618252464986753 -0.00061352279238740463 0 0.00076946820561433766 -0.00011800077756427001 0 0.0013792491920846417 -0.00049363989445954206 0 0.0008618252464986753 -0.00061352279238740463 0 0.0027069871787230109 -0.001007852990680135 0 0.0022554754554891566 -0.0012108475294880638 0 0.002137752133166586 -0.00072608839719493748 0 0.0028464463817806161 -0.0015161106535864343 0 0.0027069871787230109 -0.001007852990680135 0 0.003017920083523151 -0.0016206716052898243 0 0.0028464463817806161 -0.0015161106535864343 0 0.0027069871787230109 -0.001007852990680135 0 0.0022554754554891566 -0.0012108475294880638 0 0.0019423490580038794 -0.0017222092847920274 0 0.0022554754554891566 -0.0012108475294880638 0 0.0017439730574501041 -0.0010605690827873732 0 0.0022554754554891566 -0.0012108475294880638 0 0.0017439730574501041 -0.0010605690827873732 0 0.002137752133166586 -0.00072608839719493748 0 0.0016179872571399163 -1.6521658463003056e-05 0 0.0013792491920846417 -0.00049363989445954206 0 0.0021304983672823749 -0.00021882502625958567 0 0.0013792491920846417 -0.00049363989445954206 0 0.002137752133166586 -0.00072608839719493748 0 0.0021304983672823749 -0.00021882502625958567 0 0.0013792491920846417 -0.00049363989445954206 0 0.0017439730574501041 -0.0010605690827873732 0 0.002137752133166586 -0.00072608839719493748 0 0.0027069871787230109 -0.001007852990680135 0 0.0027408015647831384 -0.00024484788173440611 0 0.0032095949015750122 -0.0006408201432114445 0 0.0027069871787230109 -0.001007852990680135 0 0.002137752133166586 -0.00072608839719493748 0 0.0027408015647831384 -0.00024484788173440611 0 0.002137752133166586 -0.00072608839719493748 0 0.0021304983672823749 -0.00021882502625958567 0 0.0027408015647831384 -0.00024484788173440611 0 0.0032095949015750122 -0.0006408201432114445 0 0.0036978734636628555 -4.4692273287946416e-05 0 0.0039676400965494261 -0.0012890201658431676 0 0.0027408015647831384 -0.00024484788173440611 0 0.0032095949015750122 -0.0006408201432114445 0 0.0036978734636628555 -4.4692273287946416e-05 0 0.0037660096205354493 -0.00011067427572891685 0 0.0036945496477759419 -0.00079368229903831146 0 0.0036978734636628555 -4.4692273287946416e-05 0 0.003835080186107816 -0.00039563035193578602 0 0.0041006245400569703 -1.796421172145393e-05 0 0.003835080186107816 -0.00039563035193578602 0 0.0042483021990466514 -0.00011608387739682526 0 0.0041006245400569703 -1.796421172145393e-05 0 0.0032095949015750122 -0.0006408201432114445 0 0.0039676400965494261 -0.0012890201658431676 0 0.0029725037950657936 -0.0017780632499882945 0 0.0027493057221027856 -0.00074465747532618024 0 0.0051463085184454945 -0.0018544142890889364 0 0.0027069871787230109 -0.001007852990680135 0 0.0032095949015750122 -0.0006408201432114445 0 0.003017920083523151 -0.0016206716052898243 0 0.0051463085184454945 -0.0018544142890889364 0 0.0057105129276485153 -0.0020871276113132321 0 0.0036945496477759419 -0.00079368229903831146 0 0.0057105129276485153 -0.0020871276113132321 0 0.003835080186107816 -0.00039563035193578602 0 0.0039496449668503112 -0.0014864264948024927 0 0.0044432167680592176 -0.00082563778285124731 0 0.0039676400965494261 -0.0012890201658431676 0 0.0029725037950657936 -0.0017780632499882945 0 0.0042056049076106593 -0.0024987512810975619 0 0.0073076306357688593 -0.0017934573457160639 0 0.0057105129276485153 -0.0020871276113132321 0 0.0080745515038978186 -0.0015933032718341998 0 0.0081514911374100732 -0.0020709686239672089 0 0.0085243029761812254 -0.0019267670040119128 0 0.0088860181524433313 -0.0025058752474175 0 0.0081514911374100732 -0.0020709686239672089 0 0.0085243029761812254 -0.0019267670040119128 0 0.0088860181524433313 -0.0025058752474175 0 0.0085243029761812254 -0.0019267670040119128 0 0.0087726068003164785 -0.0020536878204143604 0 0.0085243029761812254 -0.0019267670040119128 0 0.0087639775900687934 -0.0017783994864431392 0 0.0087726068003164785 -0.0020536878204143604 0 0.0088860181524433313 -0.0025058752474175 0 0.0089155637237434884 -0.0019985178464135838 0 0.0087726068003164785 -0.0020536878204143604 0 0.0087639775900687934 -0.0017783994864431392 0 0.0089155637237434884 -0.0019985178464135838 0 0.0087726068003164785 -0.0020536878204143604 0 0.0050815786185994857 -0.0022070355470011523 0 0.0054759363918700519 -0.0018020489633431001 0 0.0048512572679659458 -0.0013960826007471596 0 0.0054759363918700519 -0.0018020489633431001 0 0.0055279324182375134 -0.00087166390871630832 0 0.0060804317406053885 -0.002064917618875642 0 0.0054759363918700519 -0.0018020489633431001 0 0.0048512572679659458 -0.0013960826007471596 0 0.0055279324182375134 -0.00087166390871630832 0 0.0062188177365433877 -0.0024318341139673116 0 0.0056132436499160129 -0.0021911632555733068 0 0.0066116517778840303 -0.0022190732438620302 0 0.0067616769836220947 -0.002199457009175457 0 0.0065826766966199692 -0.0020922585180526629 0 0.0050815786185994857 -0.0022070355470011523 0 0.0039496449668503112 -0.0014864264948024927 0 0.0048512572679659458 -0.0013960826007471596 0 0.0062188177365433877 -0.0024318341139673116 0 0.0057105129276485153 -0.0020871276113132321 0 0.0044432167680592176 -0.00082563778285124731 0 0.0055279324182375134 -0.00087166390871630832 0 0.0042483021990466514 -0.00011608387739682526 0 0.0039496449668503112 -0.0014864264948024927 0 0.0048512572679659458 -0.0013960826007471596 0 0.0044432167680592176 -0.00082563778285124731 0 0.0048512572679659458 -0.0013960826007471596 0 0.0044432167680592176 -0.00082563778285124731 0 0.0055279324182375134 -0.00087166390871630832 0 0.0042453198563758019 -0.00046488854813492959 0 0.0043178827162285265 -2.4544870846114954e-05 0 0.0042483021990466514 -0.00011608387739682526 0 0.0048962537297266963 -0.00069127947931768075 0 0.0043001362085799064 -0.00015093830833703116 0 0.003835080186107816 -0.00039563035193578602 0 0.0044432167680592176 -0.00082563778285124731 0 0.0042483021990466514 -0.00011608387739682526 0 0.004393418904543504 6.7103594653792785e-05 0 0.0042483021990466514 -0.00011608387739682526 0 0.0041006245400569703 -1.796421172145393e-05 0 0.004393418904543504 6.7103594653792785e-05 0 0.0042483021990466514 -0.00011608387739682526 0 0.0043229051281848709 9.5407613315103378e-05 0 0.0043178827162285265 -2.4544870846114954e-05 0 0.0042483021990466514 -0.00011608387739682526 0 0.0043229051281848709 9.5407613315103378e-05 0 0.0041645523404606078 -6.7776386951885759e-05 0 0.0043229051281848709 9.5407613315103378e-05 0 0.0043233417817014055 0.00038394588878779245 0 0.0043178827162285265 -2.4544870846114954e-05 0 0.0043229051281848709 9.5407613315103378e-05 0 0.0043233417817014055 0.00038394588878779245 0 0.0033476115226156863 -0.00010018137331283873 0 0.0043233417817014055 0.00038394588878779245 0 0.0032797576374788365 0.00084534681001791436 0 0.0051005019630337746 -0.00018167451876867688 0 0.0058647524463179392 0.00025361893869931863 0 0.0058470285812562426 -0.00075266031511099778 0 0.0043233417817014055 0.00038394588878779245 0 0.0051005019630337746 -0.00018167451876867688 0 0.0058647524463179392 0.00025361893869931863 0 0.0043071540739988475 0.00044112568880154965 0 0.0047393877534641551 0.00050680587123414032 0 0.0042453198563758019 -0.00046488854813492959 0 0.0043178827162285265 -2.4544870846114954e-05 0 0.0045554479675170593 -0.00016112175821447186 0 0.0043178827162285265 -2.4544870846114954e-05 0 0.0043233417817014055 0.00038394588878779245 0 0.0045554479675170593 -0.00016112175821447186 0 0.0043233417817014055 0.00038394588878779245 0 0.0051005019630337746 -0.00018167451876867688 0 0.0045554479675170593 -0.00016112175821447186 0 0.0020514308491171728 0.00029961593956260316 0 0.0038517895078341705 0.00027728559413465846 0 0.0024445637606998871 0.00015096161823569814 0 0.0032797576374788365 0.00084534681001791436 0 0.0025064178982561981 0.0011239537140508636 0 0.0033476115226156863 -0.00010018137331283873 0 0.0024445637606998871 0.00015096161823569814 0 0.0032797576374788365 0.00084534681001791436 0 0.0047393877534641551 0.00050680587123414032 0 0.0038517895078341705 0.00027728559413465846 0 0.0058647524463179392 0.00025361893869931863 0 0.0069614586059500794 -0.00012545846464528926 0 0.006485301413082724 -0.00068363186334436798 0 0.0021076108096738299 0.00014521111289825042 0 0.0020872098498394753 0.00083236290596471125 0 0.0018778654705869464 0.00066386257369748555 0 0.0069614586059500794 -0.00012545846464528926 0 0.006485301413082724 -0.00068363186334436798 0 0.006956660046778849 -0.0013611908713301371 0 0.0038517895078341705 0.00027728559413465846 0 0.0052284633635014607 -0.0018631344306252759 0 0.0058647524463179392 0.00025361893869931863 0 0.006485301413082724 -0.00068363186334436798 0 0.0058470285812562426 -0.00075266031511099778 0 0.006485301413082724 -0.00068363186334436798 0 0.0058470285812562426 -0.00075266031511099778 0 0.0064554437728963068 -0.0012686436234696156 0 0.0058470285812562426 -0.00075266031511099778 0 0.0062624721965677602 -0.0014635893847888166 0 0.0064554437728963068 -0.0012686436234696156 0 0.0062624721965677602 -0.0014635893847888166 0 0.0064554437728963068 -0.0012686436234696156 0 0.0063184993747253384 -0.0018446702913023599 0 0.006485301413082724 -0.00068363186334436798 0 0.0064554437728963068 -0.0012686436234696156 0 0.006956660046778849 -0.0013611908713301371 0 0.0052885404537098045 -0.0028368893193427011 0 0.0063184993747253384 -0.0018446702913023599 0 0.0055307257144989377 -0.0022376400105513479 0 0.0052284633635014607 -0.0018631344306252759 0 0.0063979478914259896 -0.0017969918107199709 0 0.0064554437728963068 -0.0012686436234696156 0 0.006956660046778849 -0.0013611908713301371 0 0.0063184993747253384 -0.0018446702913023599 0 0.0052885404537098045 -0.0028368893193427011 0 0.0052923021486034642 -0.0030083810370261999 0 0.0063184993747253384 -0.0018446702913023599 0 0.005229918584064912 -0.0019879829598368911 0 0.0052284633635014607 -0.0018631344306252759 0 0.0052885404537098045 -0.0028368893193427011 0 0.0050054824022245465 -0.0023199369587965945 0 0.0055307257144989377 -0.0022376400105513479 0 0.0052885404537098045 -0.0028368893193427011 0 0.0050054824022245465 -0.0023199369587965945 0 0.0048669059313001632 -0.0027360311982193826 0 0.0052885404537098045 -0.0028368893193427011 0 0.0052795492756543471 -0.0029863302467610787 0 0.0048669059313001632 -0.0027360311982193826 0 0.0042453198563758019 -0.00046488854813492959 0 0.0045554479675170593 -0.00016112175821447186 0 0.0050199732333743542 -0.00066678494802313061 0 0.0051005019630337746 -0.00018167451876867688 0 0.0045554479675170593 -0.00016112175821447186 0 0.0050199732333743542 -0.00066678494802313061 0 0.0058470285812562426 -0.00075266031511099778 0 0.0050199732333743542 -0.00066678494802313061 0 0.0055787960499702922 -0.0010807319116817203 0 0.0051005019630337746 -0.00018167451876867688 0 0.0058470285812562426 -0.00075266031511099778 0 0.0050199732333743542 -0.00066678494802313061 0 0.0058470285812562426 -0.00075266031511099778 0 0.0062624721965677602 -0.0014635893847888166 0 0.0055787960499702922 -0.0010807319116817203 0 0.0050199732333743542 -0.00066678494802313061 0 0.0055787960499702922 -0.0010807319116817203 0 0.005208831019043644 -0.0015030036179619853 0 0.0062624721965677602 -0.0014635893847888166 0 0.0055787960499702922 -0.0010807319116817203 0 0.005208831019043644 -0.0015030036179619853 0 0.0048962537297266963 -0.00069127947931768075 0 0.0060480957771369024 -0.0017096529085893601 0 0.0055279324182375134 -0.00087166390871630832 0 0.0068101366573742371 -0.0019663455969366819 0 0.0060804317406053885 -0.002064917618875642 0 0.0042453198563758019 -0.00046488854813492959 0 0.0050199732333743542 -0.00066678494802313061 0 0.005208831019043644 -0.0015030036179619853 0 0.0068101366573742371 -0.0019663455969366819 0 0.0060804317406053885 -0.002064917618875642 0 0.0068783170232622369 -0.0025192661893252083 0 0.0060804317406053885 -0.002064917618875642 0 0.0061448551348366248 -0.0026856618068027472 0 0.0068783170232622369 -0.0025192661893252083 0 0.0069511931452717916 -0.0031694252993233682 0 0.0071245834396395586 -0.0030957234443469411 0 0.0075993182628588752 -0.0032920460327563457 0 0.007207788333097969 -0.0030818820268834566 0 0.0075136064566145126 -0.0031725251255703443 0 0.0075595604994436339 -0.0035452779487876408 0 0.0075993182628588752 -0.0032920460327563457 0 0.007207788333097969 -0.0030818820268834566 0 0.0061448551348366248 -0.0026856618068027472 0 0.007207788333097969 -0.0030818820268834566 0 0.0068783170232622369 -0.0025192661893252083 0 0.007207788333097969 -0.0030818820268834566 0 0.0068783170232622369 -0.0025192661893252083 0 0.0076432079074258644 -0.0026865622496305376 0 0.007207788333097969 -0.0030818820268834566 0 0.0076432079074258644 -0.0026865622496305376 0 0.0075253461576848717 -0.0031471118835899536 0 0.0060480957771369024 -0.0017096529085893601 0 0.0074948948351966057 -0.0026557447146261523 0 0.0062624721965677602 -0.0014635893847888166 0 0.005208831019043644 -0.0015030036179619853 0 0.006786522905460445 -0.0018714859903773203 0 0.0068101366573742371 -0.0019663455969366819 0 0.0068783170232622369 -0.0025192661893252083 0 0.0076432079074258644 -0.0026865622496305376 0 0.005208831019043644 -0.0015030036179619853 0 0.006786522905460445 -0.0018714859903773203 0 0.0076432079074258644 -0.0026865622496305376 0 0.0063184993747253384 -0.0018446702913023599 0 0.006786522905460445 -0.0018714859903773203 0 0.0058258230076733758 -0.0014431869394891429 0 0.0062624721965677602 -0.0014635893847888166 0 0.0063184993747253384 -0.0018446702913023599 0 0.006786522905460445 -0.0018714859903773203 0 0.006786522905460445 -0.0018714859903773203 0 0.0058258230076733758 -0.0014431869394891429 0 0.005454548765599785 -0.00043329060955722237 0 0.0050054824022245465 -0.0023199369587965945 0 0.0055094127887762882 -0.0019417451495715695 0 0.0050092964418483356 -0.0016595630385242176 0 0.0055094127887762882 -0.0019417451495715695 0 0.0058258230076733758 -0.0014431869394891429 0 0.0050092964418483356 -0.0016595630385242176 0 0.0050054824022245465 -0.0023199369587965945 0 0.0055307257144989377 -0.0022376400105513479 0 0.0055094127887762882 -0.0019417451495715695 0 0.0063184993747253384 -0.0018446702913023599 0 0.0055094127887762882 -0.0019417451495715695 0 0.0058258230076733758 -0.0014431869394891429 0 0.0063184993747253384 -0.0018446702913023599 0 0.0055307257144989377 -0.0022376400105513479 0 0.0055094127887762882 -0.0019417451495715695 0 0.0052656080093358574 -0.0011448862318076509 0 0.0050092964418483356 -0.0016595630385242176 0 0.0047673808181546264 -0.0010318256889653612 0 0.0058258230076733758 -0.0014431869394891429 0 0.0052656080093358574 -0.0011448862318076509 0 0.0050092964418483356 -0.0016595630385242176 0 0.0058258230076733758 -0.0014431869394891429 0 0.0052656080093358574 -0.0011448862318076509 0 0.005454548765599785 -0.00043329060955722237 0 0.0052656080093358574 -0.0011448862318076509 0 0.005454548765599785 -0.00043329060955722237 0 0.0047673808181546264 -0.0010318256889653612 0 0.0094854146104051545 -0.0028746173365005877 0 0.0083248334264763597 -0.0030684617323718695 0 0.0093754711225672357 -0.0032326435621648133 0 0.0094854146104051545 -0.0028746173365005877 0 0.0076432079074258644 -0.0026865622496305376 0 0.0083248334264763597 -0.0030684617323718695 0 0.0068683396261224779 -0.0018037376704342369 0 0.0074375180842231369 -0.0016984716727738679 0 0.006786522905460445 -0.0018714859903773203 0 0.0094854146104051545 -0.0028746173365005877 0 0.0076432079074258644 -0.0026865622496305376 0 0.0076432079074258644 -0.0026865622496305376 0 0.0083248334264763597 -0.0030684617323718695 0 0.0075253461576848717 -0.0031471118835899536 0 0.011162446881990983 -0.0028388764059992504 0 0.0093754711225672357 -0.0032326435621648133 0 0.010152153204234515 -0.0027016231271222053 0 0.0083248334264763597 -0.0030684617323718695 0 0.0075015290511946716 -0.0035167408816457642 0 0.0093754711225672357 -0.0032326435621648133 0 0.0083248334264763597 -0.0030684617323718695 0 0.0075253461576848717 -0.0031471118835899536 0 0.0075015290511946716 -0.0035167408816457642 0 0.0093790233783416759 -0.0031206571990883562 0 0.0094329899847761765 -0.003183089714592276 0 0.0094854146104051545 -0.0028746173365005877 0 0.0093754711225672357 -0.0032326435621648133 0 0.0094878718397489615 -0.0029681032030077418 0 0.0093754711225672357 -0.0032326435621648133 0 0.0096657179945527118 -0.0028995366887139425 0 0.0094878718397489615 -0.0029681032030077418 0 0.0093754711225672357 -0.0032326435621648133 0 0.0096657179945527118 -0.0028995366887139425 0 0.010152153204234515 -0.0027016231271222053 0 0.0096657179945527118 -0.0028995366887139425 0 0.0096783013199789776 -0.0026072354514361218 0 0.0094878718397489615 -0.0029681032030077418 0 0.010152153204234515 -0.0027016231271222053 0 0.010183490948640359 -0.0022046996250722085 0 0.011027470126580376 -0.0020417493412033414 0 0.0096783013199789776 -0.0026072354514361218 0 0.010183490948640359 -0.0022046996250722085 0 0.0096508364285973914 -0.001968654411876478 0 0.0096657179945527118 -0.0028995366887139425 0 0.0096783013199789776 -0.0026072354514361218 0 0.010152153204234515 -0.0027016231271222053 0 0.0096783013199789776 -0.0026072354514361218 0 0.010152153204234515 -0.0027016231271222053 0 0.010183490948640359 -0.0022046996250722085 0 0.011162446881990983 -0.0028388764059992504 0 0.010152153204234515 -0.0027016231271222053 0 0.011027470126580376 -0.0020417493412033414 0 0.0093790233783416759 -0.0031206571990883562 0 0.0098544084307098847 -0.0025074902084054594 0 0.011162446881990983 -0.0028388764059992504 0 0.011027470126580376 -0.0020417493412033414 0 0.012210731396933874 -0.0021085340743205007 0 0.0075015290511946716 -0.0035167408816457642 0 0.0074254439649613568 -0.0029244746516605444 0 0.0073690021497670776 -0.0032385158199507878 0 0.0074254439649613568 -0.0029244746516605444 0 0.0076452885554911393 -0.0029866065170395554 0 0.0075136064566145126 -0.0031725251255703443 0 0.0077648055058808629 -0.002778019630887267 0 0.0074254439649613568 -0.0029244746516605444 0 0.0076452885554911393 -0.0029866065170395554 0 0.0074254439649613568 -0.0029244746516605444 0 0.0075136064566145126 -0.0031725251255703443 0 0.0073690021497670776 -0.0032385158199507878 0 0.0077316391016647879 -0.0031625729950367498 0 0.0076452885554911393 -0.0029866065170395554 0 0.0075136064566145126 -0.0031725251255703443 0 0.0077316391016647879 -0.0031625729950367498 0 0.0075993182628588752 -0.0032920460327563457 0 0.0075136064566145126 -0.0031725251255703443 0 0.007207788333097969 -0.0030818820268834566 0 0.0075136064566145126 -0.0031725251255703443 0 0.0073690021497670776 -0.0032385158199507878 0 0.007207788333097969 -0.0030818820268834566 0 0.0075253461576848717 -0.0031471118835899536 0 0.0073690021497670776 -0.0032385158199507878 0 0.0075253461576848717 -0.0031471118835899536 0 0.0075015290511946716 -0.0035167408816457642 0 0.0073690021497670776 -0.0032385158199507878 0 0.001518311282076889 0.00083409168280644389 0 0.0018204270628199987 0.00093812949656858107 0 0.0016596634927470739 0.00069420197313427355 0 0.001518311282076889 0.00083409168280644389 0 0.0018204270628199987 0.00093812949656858107 0 0.0017139289731228169 0.0014474190399987176 0 0.0016596634927470739 0.00069420197313427355 0 0.0020491439253858138 0.00066744329889623717 0 0.0016367126914362295 0.00054727470202116065 0 0.0018204270628199987 0.00093812949656858107 0 0.0016596634927470739 0.00069420197313427355 0 0.0020491439253858138 0.00066744329889623717 0 0.001518311282076889 0.00083409168280644389 0 0.0016596634927470739 0.00069420197313427355 0 0.0014930748852553175 0.0006718322023518933 0 0.0014930748852553175 0.0006718322023518933 0 0.0015301542277105012 0.00075927373462478318 0 0.0014592196786816099 0.00068148022248189298 0 0.001518311282076889 0.00083409168280644389 0 0.0014930748852553175 0.0006718322023518933 0 0.0015301542277105012 0.00075927373462478318 0 0.001518311282076889 0.00083409168280644389 0 0.0015301542277105012 0.00075927373462478318 0 0.0015094763306566779 0.00059118209923421426 0 0.0015301542277105012 0.00075927373462478318 0 0.0015731823125804283 0.000737701496127714 0 0.0015094763306566779 0.00059118209923421426 0 0.0084396284974842806 0.00071039707627620528 0 0.0084614728186102883 0.00073255597950933808 0 0.0084346465205675271 0.00073120996930156005 0 0.0046434997390071104 0.00078944927587376547 0 0.0044395977726096481 0.00086433890337711192 0 0.001518311282076889 0.00083409168280644389 0 0.0014433095699455563 0.0007364431443837732 0 0.0015094763306566779 0.00059118209923421426 0 0.0018402401769591198 0.00025034427839718172 0 0.0046434997390071104 0.00078944927587376547 0 0.0046434997390071104 0.00078944927587376547 0 0.0087098402517203372 -0.00052278056645816437 0 0.0093972892835774129 -0.0025333058413601504 0 0.0092167071122023873 -0.0029849396518368751 0 0.0088042650849536001 -0.0019435508716400007 0 0.0062191921509363157 -0.00025728305720915432 0 0.0066776062354315527 -0.00056251077505078788 0 0.006522741316413741 9.0982916883771439e-05 0 0.0059454682717781536 -0.0010200900472359239 0 0.0087098402517203372 -0.00052278056645816437 0 0.0096783013199789776 -0.0026072354514361218 0 0.0093972892835774129 -0.0025333058413601504 0 0.0096508364285973914 -0.001968654411876478 0 0.0093972892835774129 -0.0025333058413601504 0 0.0096508364285973914 -0.001968654411876478 0 0.0088042650849536001 -0.0019435508716400007 0 0.0096783013199789776 -0.0026072354514361218 0 0.0093972892835774129 -0.0025333058413601504 0 0.0094878718397489615 -0.0029681032030077418 0 0.0074375180842231369 -0.0016984716727738679 0 0.0059454682717781536 -0.0010200900472359239 0 0.0093972892835774129 -0.0025333058413601504 0 0.0094878718397489615 -0.0029681032030077418 0 0.0092167071122023873 -0.0029849396518368751 0 0.005454548765599785 -0.00043329060955722237 0 0.0031462229747071845 0.00092596122130422754 0 0.0031985028947981325 0.00073883869495017349 0 0.0094854146104051545 -0.0028746173365005877 0 0.0094878718397489615 -0.0029681032030077418 0 0.0092167071122023873 -0.0029849396518368751 0 0.0018204270628199987 0.00093812949656858107 0 0.0017139289731228169 0.0014474190399987176 0 0.0031136849022685019 0.00089612881443387553 0 0.0018204270628199987 0.00093812949656858107 0 0.0031136849022685019 0.00089612881443387553 0 0.0020491439253858138 0.00066744329889623717 0 0.0046434997390071104 0.00078944927587376547 0 0.0059454682717781536 -0.0010200900472359239 0 0.0031985028947981325 0.00073883869495017349 0 0.0020491439253858138 0.00066744329889623717 0 0.0029760971054434227 -1.7234016596167191e-05 0 0.0031136849022685019 0.00089612881443387553 0 0.0031985028947981325 0.00073883869495017349 0 0.0020491439253858138 0.00066744329889623717 0 0.0059454682717781536 -0.0010200900472359239 0 0.0057519228391154573 -0.00066414304832653447 0 0.0020491439253858138 0.00066744329889623717 0 0.0029760971054434227 -1.7234016596167191e-05 0 0.0027680453250468872 -0.00099033908502276836 0 0.0020433867260309562 0.00060262969685793651 0 0.0022575680259518099 -0.00017352486655306144 0 0.0031985028947981325 0.00073883869495017349 0 0.0029760971054434227 -1.7234016596167191e-05 0 0.003914390778188166 -0.00049117124921942991 0 0.0029760971054434227 -1.7234016596167191e-05 0 0.0027680453250468872 -0.00099033908502276836 0 0.003914390778188166 -0.00049117124921942991 0 0.005454548765599785 -0.00043329060955722237 0 0.003914390778188166 -0.00049117124921942991 0 0.0047673808181546264 -0.0010318256889653612 0 0.005454548765599785 -0.00043329060955722237 0 0.0031985028947981325 0.00073883869495017349 0 0.003914390778188166 -0.00049117124921942991 0 0.0027680453250468872 -0.00099033908502276836 0 0.003914390778188166 -0.00049117124921942991 0 0.0040433585411549381 -0.0014863032043675106 0 0.003914390778188166 -0.00049117124921942991 0 0.0047673808181546264 -0.0010318256889653612 0 0.0040433585411549381 -0.0014863032043675106 0 0.0050092964418483356 -0.0016595630385242176 0 0.0047673808181546264 -0.0010318256889653612 0 0.0040433585411549381 -0.0014863032043675106 0 0.0040433585411549381 -0.0014863032043675106 0 0.0044133973551468194 -0.0023475046092912536 0 0.0034478689661063132 -0.0025899705830345603 0 0.0050054824022245465 -0.0023199369587965945 0 0.0050092964418483356 -0.0016595630385242176 0 0.0044133973551468194 -0.0023475046092912536 0 0.0050092964418483356 -0.0016595630385242176 0 0.0040433585411549381 -0.0014863032043675106 0 0.0044133973551468194 -0.0023475046092912536 0 0.001755240631114801 0.00050144459814118012 0 0.0015386491086714985 0.00042903867400726772 0 0.0017367446440061569 0.0003717285976898465 0 0.0027680453250468872 -0.00099033908502276836 0 0.0040433585411549381 -0.0014863032043675106 0 0.0034478689661063132 -0.0025899705830345603 0 0.0022575680259518099 -0.00017352486655306144 0 0.0026165996310263786 -0.0012669188962538534 0 0.0015386491086714985 0.00042903867400726772 0 0.0016367126914362295 0.00054727470202116065 0 0.0014249725801313224 0.00049872342272826316 0 0.001755240631114801 0.00050144459814118012 0 0.0015386491086714985 0.00042903867400726772 0 0.0016367126914362295 0.00054727470202116065 0 0.0020491439253858138 0.00066744329889623717 0 0.001755240631114801 0.00050144459814118012 0 0.0016367126914362295 0.00054727470202116065 0 0.0016596634927470739 0.00069420197313427355 0 0.0014930748852553175 0.0006718322023518933 0 0.0016367126914362295 0.00054727470202116065 0 0.0014930748852553175 0.0006718322023518933 0 0.0016367126914362295 0.00054727470202116065 0 0.0014249725801313224 0.00049872342272826316 0 0.0014930748852553175 0.0006718322023518933 0 0.0014249725801313224 0.00049872342272826316 0 0.0014141387860462352 0.00061530457846708478 0 0.0014249725801313224 0.00049872342272826316 0 0.0013789615619810875 0.00037119518590797483 0 0.0012481026013036985 0.00033420278390797691 0 0.0015386491086714985 0.00042903867400726772 0 0.0014249725801313224 0.00049872342272826316 0 0.0013789615619810875 0.00037119518590797483 0 0.0013789615619810875 0.00037119518590797483 0 0.0013272065247065163 0.00025240700390169495 0 0.0012481026013036985 0.00033420278390797691 0 0.0015386491086714985 0.00042903867400726772 0 0.0013789615619810875 0.00037119518590797483 0 0.0013272065247065163 0.00025240700390169495 0 0.0015386491086714985 0.00042903867400726772 0 0.0013272065247065163 0.00025240700390169495 0 0.0017367446440061569 0.0003717285976898465 0 0.0013272065247065163 0.00025240700390169495 0 0.001086052836560698 0.00022280074930843122 0 0.0012481026013036985 0.00033420278390797691 0 0.0026165996310263786 -0.0012669188962538534 0 0.0030430795322996277 -0.0011811199138401943 0 0.0043600549020501016 -0.00318180006703988 0 0.0034478689661063132 -0.0025899705830345603 0 0.0040185660988702535 -0.0041759729141800277 0 0.0052795492756543471 -0.0029863302467610787 0 0.0043600549020501016 -0.00318180006703988 0 0.0048669059313001632 -0.0027360311982193826 0 0.0052795492756543471 -0.0029863302467610787 0 0.0043600549020501016 -0.00318180006703988 0 0.0040185660988702535 -0.0041759729141800277 0 0.0043600549020501016 -0.00318180006703988 0 0.0048669059313001632 -0.0027360311982193826 0 0.0044133973551468194 -0.0023475046092912536 0 0.0050054824022245465 -0.0023199369587965945 0 0.0048669059313001632 -0.0027360311982193826 0 0.0044133973551468194 -0.0023475046092912536 0 0.0043600549020501016 -0.00318180006703988 0 0.0044133973551468194 -0.0023475046092912536 0 0.0034478689661063132 -0.0025899705830345603 0 0.0011543790420078994 0.00029738317855184174 0 0.001920038304992719 6.7259678914884663e-06 0 0.0013272065247065163 0.00025240700390169495 0 0.001244470289847095 0.00022140244983471217 0 0.0012008943449499476 0.00020979542307461167 0 0.0013272065247065163 0.00025240700390169495 0 0.0017367446440061569 0.0003717285976898465 0 0.0017694271012287006 3.189878302406155e-05 0 0.0037097412748530499 -0.00041949767394750166 0 0.0037175649162637004 -0.0011267532441537882 0 0.0041088376399038406 -0.00072082239062797883 0 0.0017367446440061569 0.0003717285976898465 0 0.0017694271012287006 3.189878302406155e-05 0 0.0018326045462835391 8.851567528478618e-05 0 0.001920038304992719 6.7259678914884663e-06 0 0.0030430795322996277 -0.0011811199138401943 0 0.001920038304992719 6.7259678914884663e-06 0 0.0024462805986668031 0.0001370115795288597 0 0.0026816609608150527 -0.0002167795299770456 0 0.0025909726754363696 -0.00018300755006144963 0 0.0026233033855546542 -0.00027749029449734657 0 0.0024462805986668031 0.0001370115795288597 0 0.0030430795322996277 -0.0011811199138401943 0 0.0037097412748530499 -0.00041949767394750166 0 0.0040471341980664417 -0.0005437405860935923 0 0.0041088376399038406 -0.00072082239062797883 0 0.0052284633635014607 -0.0018631344306252759 0 0.0030430795322996277 -0.0011811199138401943 0 0.0020872098498394753 0.00083236290596471125 0 0.0017944417790763136 0.00092887680678866043 0 0.0018778654705869464 0.00066386257369748555 0 0.0024462805986668031 0.0001370115795288597 0 0.0018706516263086784 0.00094265809660979685 0 0.0038517895078341705 0.00027728559413465846 0 0.0024462805986668031 0.0001370115795288597 0 0.0017709710302533134 0.0009669835781936036 0 0.0018778654705869464 0.00066386257369748555 0 0.0016028825102681105 0.00069689045996643574 0 0.0015988233084071189 0.0010285899244509176 0 0.0017709710302533134 0.0009669835781936036 0 0.0016028825102681105 0.00069689045996643574 0 0.0015988233084071189 0.0010285899244509176 0 0.0016028825102681105 0.00069689045996643574 0 0.0011592686333317215 0.00058716903429809162 0 0.001920038304992719 6.7259678914884663e-06 0 0.0011393340473559561 0.00046378707578650713 0 0.0016028825102681105 0.00069689045996643574 0 0.0011592686333317215 0.00058716903429809162 0 0.001604080203042947 0.0002616074836332641 0 0.0011456645964910293 0.00011903809399325848 0 0.0011592686333317215 0.00058716903429809162 0 0.001604080203042947 0.0002616074836332641 0 0.0021076108096738299 0.00014521111289825042 0 0.0018778654705869464 0.00066386257369748555 0 0.001604080203042947 0.0002616074836332641 0 0.0018778654705869464 0.00066386257369748555 0 0.0016028825102681105 0.00069689045996643574 0 0.001604080203042947 0.0002616074836332641 0 0.0013272065247065163 0.00025240700390169495 0 0.0012008943449499476 0.00020979542307461167 0 0.001086052836560698 0.00022280074930843122 0 0.0011456645964910293 0.00011903809399325848 0 0.0011592686333317215 0.00058716903429809162 0 0.00085043145155463658 0.000134560289042202 0 0.0011393340473559561 0.00046378707578650713 0 0.00089676429122040042 0.00014842342591750031 0 0.0012008943449499476 0.00020979542307461167 0 0.001086052836560698 0.00022280074930843122 0 0.00085043145155463658 0.000134560289042202 0 0.001086052836560698 0.00022280074930843122 0 0.00085043145155463658 0.000134560289042202 0 0.00084833952217406986 0.0001686634466520847 0 -0.00061993351170372922 5.1056479778204694e-05 0 -0.00098193887078671239 -5.8368470768573275e-05 0 -0.001175080375978231 0.0001026563174431297 0 0.00012775353607664286 5.5428937896073053e-05 0 -1.8712527509232032e-05 0.0001465227554697279 0 0.001086052836560698 0.00022280074930843122 0 0.00084833952217406986 0.0001686634466520847 0 0.0011097897486110342 0.00025717795801931794 0 -0.00098193887078671239 -5.8368470768573275e-05 0 -0.0013284416351868635 -5.7619781579706234e-05 0 -0.001175080375978231 0.0001026563174431297 0 -0.0012195835868366038 -0.00026118531848165331 0 -0.00098193887078671239 -5.8368470768573275e-05 0 -0.0013284416351868635 -5.7619781579706234e-05 0 -0.0016447656884896031 -0.00022005542436028368 0 -0.0013284416351868635 -5.7619781579706234e-05 0 -0.001644070101879486 -7.8052952608874599e-05 0 -0.001644070101879486 -7.8052952608874599e-05 0 -0.001432507751665706 1.207207027259635e-05 0 -0.0016954658325995164 -7.144310889442817e-05 0 -0.0013284416351868635 -5.7619781579706234e-05 0 -0.001644070101879486 -7.8052952608874599e-05 0 -0.001432507751665706 1.207207027259635e-05 0 -0.0013284416351868635 -5.7619781579706234e-05 0 -0.001432507751665706 1.207207027259635e-05 0 -0.001175080375978231 0.0001026563174431297 0 -0.001432507751665706 1.207207027259635e-05 0 -0.0015863006520889982 -5.658756762060947e-05 0 -0.0016954658325995164 -7.144310889442817e-05 0 -0.0015863006520889982 -5.658756762060947e-05 0 -0.0017099723674245959 -0.00013627755663612128 0 -0.0016479439723840266 -0.00012291585242908749 0 -0.0015863006520889982 -5.658756762060947e-05 0 -0.0014750022011234837 -3.1328491889161106e-06 0 -0.0015802509481850557 -7.0576471327666888e-05 0 -0.001432507751665706 1.207207027259635e-05 0 -0.0015863006520889982 -5.658756762060947e-05 0 -0.0014750022011234837 -3.1328491889161106e-06 0 0.0011821549846614651 0.00039031334663505095 0 0.0012481026013036985 0.00033420278390797691 0 0.0011097897486110342 0.00025717795801931794 0 0.001086052836560698 0.00022280074930843122 0 0.0012481026013036985 0.00033420278390797691 0 0.0011097897486110342 0.00025717795801931794 0 -0.00014349179914629933 0.00025043042015736588 0 -1.8712527509232032e-05 0.0001465227554697279 0 -0.001432507751665706 1.207207027259635e-05 0 -0.0014750022011234837 -3.1328491889161106e-06 0 -0.001175080375978231 0.0001026563174431297 0 -0.0018292452485191729 -0.00015202197923253234 0 -0.0020042355556722496 -7.3787771901979703e-05 0 -0.0019338908573174308 -0.00010062288725830224 0 -0.0022243137341962727 -5.6599346869895205e-05 0 -0.0020042355556722496 -7.3787771901979703e-05 0 -0.0020890279181524198 -8.9334033555967042e-05 0 -0.0020042355556722496 -7.3787771901979703e-05 0 -0.0020890279181524198 -8.9334033555967042e-05 0 -0.0019338908573174308 -0.00010062288725830224 0 -0.0020890279181524198 -8.9334033555967042e-05 0 -0.0019338908573174308 -0.00010062288725830224 0 -0.0019669402877155635 -0.00011758000872702054 0 -0.0019338908573174308 -0.00010062288725830224 0 -0.0018252181983728706 -0.00012422934587268898 0 -0.0018209922998493971 -0.00018192691004484938 0 -0.0018292452485191729 -0.00015202197923253234 0 -0.0019338908573174308 -0.00010062288725830224 0 -0.0018209922998493971 -0.00018192691004484938 0 -0.0019338908573174308 -0.00010062288725830224 0 -0.0018331625307069282 -9.4404769117469229e-05 0 -0.0018252181983728706 -0.00012422934587268898 0 -0.0018331625307069282 -9.4404769117469229e-05 0 -0.0016954658325995164 -7.144310889442817e-05 0 -0.0018252181983728706 -0.00012422934587268898 0 -0.0018331625307069282 -9.4404769117469229e-05 0 -0.0019669402877155635 -0.00011758000872702054 0 -0.0018154302356288561 -0.00013475293801360771 0 -0.0019069697226668889 -0.0002265957468784366 0 -0.0019669402877155635 -0.00011758000872702054 0 -0.0018154302356288561 -0.00013475293801360771 0 -0.0019338908573174308 -0.00010062288725830224 0 -0.0018331625307069282 -9.4404769117469229e-05 0 -0.0019669402877155635 -0.00011758000872702054 0 -0.001644070101879486 -7.8052952608874599e-05 0 -0.0018331625307069282 -9.4404769117469229e-05 0 -0.0018154302356288561 -0.00013475293801360771 0 -0.0016447656884896031 -0.00022005542436028368 0 -0.001644070101879486 -7.8052952608874599e-05 0 -0.0018154302356288561 -0.00013475293801360771 0 -0.001644070101879486 -7.8052952608874599e-05 0 -0.0018331625307069282 -9.4404769117469229e-05 0 -0.0016954658325995164 -7.144310889442817e-05 0 -0.0016954658325995164 -7.144310889442817e-05 0 -0.0017593604609650586 -0.00013387915727538252 0 -0.0018252181983728706 -0.00012422934587268898 0 -0.0016954658325995164 -7.144310889442817e-05 0 -0.0017099723674245959 -0.00013627755663612128 0 -0.0017593604609650586 -0.00013387915727538252 0 -0.0015863006520889982 -5.658756762060947e-05 0 -0.0016954658325995164 -7.144310889442817e-05 0 -0.0017099723674245959 -0.00013627755663612128 0 -0.0017099723674245959 -0.00013627755663612128 0 -0.001749446494957883 -0.00023302213616586175 0 -0.0017083076129484796 -0.00018861879844293033 0 -0.0017099723674245959 -0.00013627755663612128 0 -0.001773515134162573 -0.00021271700875592862 0 -0.0017593604609650586 -0.00013387915727538252 0 -0.0017099723674245959 -0.00013627755663612128 0 -0.001773515134162573 -0.00021271700875592862 0 -0.001749446494957883 -0.00023302213616586175 0 -0.001773515134162573 -0.00021271700875592862 0 -0.0017593604609650586 -0.00013387915727538252 0 -0.0017977829772786221 -0.00020202520137891947 0 -0.001773515134162573 -0.00021271700875592862 0 -0.0017674344168239309 -0.00031580776793760189 0 -0.001749446494957883 -0.00023302213616586175 0 -0.001773515134162573 -0.00021271700875592862 0 -0.0017625500129786046 -0.00030091175238556602 0 -0.0017674344168239309 -0.00031580776793760189 0 -0.0017593604609650586 -0.00013387915727538252 0 -0.0018252181983728706 -0.00012422934587268898 0 -0.0017977829772786221 -0.00020202520137891947 0 -0.0018252181983728706 -0.00012422934587268898 0 -0.0018209922998493971 -0.00018192691004484938 0 -0.0017977829772786221 -0.00020202520137891947 0 -0.0018209922998493971 -0.00018192691004484938 0 -0.0017977829772786221 -0.00020202520137891947 0 -0.0017486950941076034 -0.0002781392659665957 0 -0.0017977829772786221 -0.00020202520137891947 0 -0.0017625500129786046 -0.00030091175238556602 0 -0.0017486950941076034 -0.0002781392659665957 0 -0.001773515134162573 -0.00021271700875592862 0 -0.0017977829772786221 -0.00020202520137891947 0 -0.0017625500129786046 -0.00030091175238556602 0 -0.0017625500129786046 -0.00030091175238556602 0 -0.0016582043192275996 -0.00040445817644077481 0 -0.0017241461830784792 -0.00042691463435462278 0 -0.0017625500129786046 -0.00030091175238556602 0 -0.0017486950941076034 -0.0002781392659665957 0 -0.0016582043192275996 -0.00040445817644077481 0 -0.0017486950941076034 -0.0002781392659665957 0 -0.0016582043192275996 -0.00040445817644077481 0 -0.001679949038340592 -0.00028753136879099654 0 -0.0015141872327846908 -0.00044287074047595653 0 -0.0014247128594130636 -0.00062882926129112211 0 -0.0016582043192275996 -0.00040445817644077481 0 -0.0015141872327846908 -0.00044287074047595653 0 -0.0016582043192275996 -0.00040445817644077481 0 -0.001679949038340592 -0.00028753136879099654 0 -0.0018292452485191729 -0.00015202197923253234 0 -0.0018209922998493971 -0.00018192691004484938 0 -0.001679949038340592 -0.00028753136879099654 0 -0.0016313600846122613 -0.0002413604294454775 0 -0.0018292452485191729 -0.00015202197923253234 0 -0.001679949038340592 -0.00028753136879099654 0 -0.0018209922998493971 -0.00018192691004484938 0 -0.0017486950941076034 -0.0002781392659665957 0 -0.001679949038340592 -0.00028753136879099654 0 -0.0011542457868434347 -0.0011157237224153026 0 -0.0013416230056730112 -0.00095699360456765522 0 -0.0011518136172051765 -0.0011372803910726635 0 -0.0011092461161720723 -0.0012926048022930835 0 -0.0010508887888971039 -0.0013699125207966912 0 -0.0011518136172051765 -0.0011372803910726635 0 -0.0015352681851859128 -0.00070272942713204493 0 -0.0017837006523137328 -0.00057740406230014172 0 -0.0011518136172051765 -0.0011372803910726635 0 -0.0011092461161720723 -0.0012926048022930835 0 -0.0010805651718563834 -0.0013664881001868201 0 -0.0014247128594130636 -0.00062882926129112211 0 -0.0015352681851859128 -0.00070272942713204493 0 -0.0016190205297884582 -0.00053334417555635769 0 -0.0014247128594130636 -0.00062882926129112211 0 -0.0011518136172051765 -0.0011372803910726635 0 -0.0015352681851859128 -0.00070272942713204493 0 -0.0014247128594130636 -0.00062882926129112211 0 -0.0016582043192275996 -0.00040445817644077481 0 -0.0016190205297884582 -0.00053334417555635769 0 -0.0016582043192275996 -0.00040445817644077481 0 -0.0016190205297884582 -0.00053334417555635769 0 -0.0017241461830784792 -0.00042691463435462278 0 -0.0015352681851859128 -0.00070272942713204493 0 -0.0016190205297884582 -0.00053334417555635769 0 -0.0017065999132532402 -0.00052618842336101771 0 -0.0016190205297884582 -0.00053334417555635769 0 -0.0017065999132532402 -0.00052618842336101771 0 -0.0017241461830784792 -0.00042691463435462278 0 -0.0017241461830784792 -0.00042691463435462278 0 -0.0017632136767126896 -0.00041735095631907046 0 -0.0017674344168239309 -0.00031580776793760189 0 -0.0017625500129786046 -0.00030091175238556602 0 -0.0017241461830784792 -0.00042691463435462278 0 -0.0017674344168239309 -0.00031580776793760189 0 -0.0017065999132532402 -0.00052618842336101771 0 -0.0017241461830784792 -0.00042691463435462278 0 -0.0017632136767126896 -0.00041735095631907046 0 -0.0017065999132532402 -0.00052618842336101771 0 -0.0017632136767126896 -0.00041735095631907046 0 -0.0017837006523137328 -0.00057740406230014172 0 -0.0011352739924681422 -0.0013167123108866136 0 -0.0011160541758161995 -0.0013601671833050404 0 -0.0011092461161720723 -0.0012926048022930835 0 -0.0012944794344204489 -0.0014012945688913192 0 -0.0012022169855436832 -0.0014563539379590592 0 -0.0011092461161720723 -0.0012926048022930835 0 -0.0010805651718563834 -0.0013664881001868201 0 -0.0010569338438260458 -0.0013633833439728874 0 -0.0015352681851859128 -0.00070272942713204493 0 -0.0017065999132532402 -0.00052618842336101771 0 -0.0017837006523137328 -0.00057740406230014172 0 -0.0011160541758161995 -0.0013601671833050404 0 -0.0015389148411018754 -0.0014585019510834666 0 -0.0012944794344204489 -0.0014012945688913192 0 -0.0015512143036344953 -0.0014332595982838197 0 -0.0014167447132742582 -0.0014879846214124262 0 -0.0013416230056730112 -0.00095699360456765522 0 -0.0015731607854100888 -0.00087109130232505111 0 -0.0010805651718563834 -0.0013664881001868201 0 -0.0010569338438260458 -0.0013633833439728874 0 -0.0010113477488499375 -0.0013525686299228816 0 -0.0017632136767126896 -0.00041735095631907046 0 -0.0017837006523137328 -0.00057740406230014172 0 -0.0017454206592284242 -0.00027388553762847144 0 -0.0017837006523137328 -0.00057740406230014172 0 -0.0017454206592284242 -0.00027388553762847144 0 -0.0017128973705633904 -0.00017930417528250799 0 -0.0017632136767126896 -0.00041735095631907046 0 -0.0017591168777361058 -0.00031222256320298666 0 -0.0017454206592284242 -0.00027388553762847144 0 -0.0017591168777361058 -0.00031222256320298666 0 -0.0017674344168239309 -0.00031580776793760189 0 -0.001749446494957883 -0.00023302213616586175 0 -0.0017632136767126896 -0.00041735095631907046 0 -0.0017591168777361058 -0.00031222256320298666 0 -0.0017674344168239309 -0.00031580776793760189 0 -0.0017591168777361058 -0.00031222256320298666 0 -0.001749446494957883 -0.00023302213616586175 0 -0.0017454206592284242 -0.00027388553762847144 0 -0.0017454206592284242 -0.00027388553762847144 0 -0.0017083076129484796 -0.00018861879844293033 0 -0.0016895153545347318 -0.00017745485864500448 0 -0.001749446494957883 -0.00023302213616586175 0 -0.0017454206592284242 -0.00027388553762847144 0 -0.0017083076129484796 -0.00018861879844293033 0 -0.0017099723674245959 -0.00013627755663612128 0 -0.0017083076129484796 -0.00018861879844293033 0 -0.0016479439723840266 -0.00012291585242908749 0 -0.0017083076129484796 -0.00018861879844293033 0 -0.0016895153545347318 -0.00017745485864500448 0 -0.0016479439723840266 -0.00012291585242908749 0 -0.0010569338438260458 -0.0013633833439728874 0 -0.0010113477488499375 -0.0013525686299228816 0 -0.00099418384692605364 -0.0013222470146072741 0 -0.0016895153545347318 -0.00017745485864500448 0 -0.0017128973705633904 -0.00017930417528250799 0 -0.0016406750702977768 -0.00012267899983415276 0 -0.0017454206592284242 -0.00027388553762847144 0 -0.0016895153545347318 -0.00017745485864500448 0 -0.0017128973705633904 -0.00017930417528250799 0 -0.0015512143036344953 -0.0014332595982838197 0 -0.0015801092493386217 -0.0015355271990221239 0 -0.0016785468664591674 -0.0015593235674594651 0 -0.0015512143036344953 -0.0014332595982838197 0 -0.0015801092493386217 -0.0015355271990221239 0 -0.0015039601829932878 -0.0015273427200353576 0 -0.0015512143036344953 -0.0014332595982838197 0 -0.0015039601829932878 -0.0015273427200353576 0 -0.0014167447132742582 -0.0014879846214124262 0 -0.0015039601829932878 -0.0015273427200353576 0 -0.0014251362769759181 -0.001587626385269955 0 -0.0014167447132742582 -0.0014879846214124262 0 -0.0015039601829932878 -0.0015273427200353576 0 -0.0015455500352813095 -0.0015966867581150815 0 -0.0014251362769759181 -0.001587626385269955 0 -0.0015455500352813095 -0.0015966867581150815 0 -0.0015078771361438793 -0.001726823348155922 0 -0.0014251362769759181 -0.001587626385269955 0 -0.0015801092493386217 -0.0015355271990221239 0 -0.0016145524220241919 -0.0015873554754310777 0 -0.0016785468664591674 -0.0015593235674594651 0 -0.0015801092493386217 -0.0015355271990221239 0 -0.0015039601829932878 -0.0015273427200353576 0 -0.0015455500352813095 -0.0015966867581150815 0 -0.0015801092493386217 -0.0015355271990221239 0 -0.0015455500352813095 -0.0015966867581150815 0 -0.0016145524220241919 -0.0015873554754310777 0 -0.0015455500352813095 -0.0015966867581150815 0 -0.0016145524220241919 -0.0015873554754310777 0 -0.0016195552019316066 -0.0016608848554483934 0 -0.0015455500352813095 -0.0015966867581150815 0 -0.0016195552019316066 -0.0016608848554483934 0 -0.0015078771361438793 -0.001726823348155922 0 -0.0015869439634277403 -0.0017529455413508319 0 -0.0016195552019316066 -0.0016608848554483934 0 -0.0015078771361438793 -0.001726823348155922 0 -0.0015869439634277403 -0.0017529455413508319 0 -0.0015215314100959685 -0.0018779486941447679 0 -0.0015078771361438793 -0.001726823348155922 0 -0.0015869439634277403 -0.0017529455413508319 0 -0.0015215314100959685 -0.0018779486941447679 0 -0.0016984560866109477 -0.0017524934436294469 0 -0.0015215314100959685 -0.0018779486941447679 0 -0.0015078771361438793 -0.001726823348155922 0 -0.0013821224005152175 -0.0018700525260960709 0 -0.0015078771361438793 -0.001726823348155922 0 -0.0013747255110150996 -0.0017201350734862373 0 -0.0014251362769759181 -0.001587626385269955 0 -0.0015078771361438793 -0.001726823348155922 0 -0.0013747255110150996 -0.0017201350734862373 0 -0.0013821224005152175 -0.0018700525260960709 0 -0.0013821224005152175 -0.0018700525260960709 0 -0.0012470895615912499 -0.0017595321016740445 0 -0.0012212943611668351 -0.0020063416101425767 0 -0.0013747255110150996 -0.0017201350734862373 0 -0.0013821224005152175 -0.0018700525260960709 0 -0.0012470895615912499 -0.0017595321016740445 0 -0.0012470895615912499 -0.0017595321016740445 0 -0.001311558473573285 -0.0016339099097938306 0 -0.0012159106455043667 -0.0015860310570887986 0 -0.0013747255110150996 -0.0017201350734862373 0 -0.0012470895615912499 -0.0017595321016740445 0 -0.001311558473573285 -0.0016339099097938306 0 -0.001311558473573285 -0.0016339099097938306 0 -0.0013087140872726935 -0.0015167567417099148 0 -0.0012159106455043667 -0.0015860310570887986 0 -0.001311558473573285 -0.0016339099097938306 0 -0.0014251362769759181 -0.001587626385269955 0 -0.0013087140872726935 -0.0015167567417099148 0 -0.0013747255110150996 -0.0017201350734862373 0 -0.001311558473573285 -0.0016339099097938306 0 -0.0014251362769759181 -0.001587626385269955 0 -0.0014251362769759181 -0.001587626385269955 0 -0.0014167447132742582 -0.0014879846214124262 0 -0.0013087140872726935 -0.0015167567417099148 0 -0.0012944794344204489 -0.0014012945688913192 0 -0.0014167447132742582 -0.0014879846214124262 0 -0.0013087140872726935 -0.0015167567417099148 0 -0.0013087140872726935 -0.0015167567417099148 0 -0.0012022169855436832 -0.0014563539379590592 0 -0.0012159106455043667 -0.0015860310570887986 0 -0.0012944794344204489 -0.0014012945688913192 0 -0.0013087140872726935 -0.0015167567417099148 0 -0.0012022169855436832 -0.0014563539379590592 0 -0.0011092461161720723 -0.0012926048022930835 0 -0.0012022169855436832 -0.0014563539379590592 0 -0.0010781041022115913 -0.001498755906848222 0 -0.0012159106455043667 -0.0015860310570887986 0 -0.0011060067130842983 -0.0016699547770988995 0 -0.0010781041022115913 -0.001498755906848222 0 -0.0012022169855436832 -0.0014563539379590592 0 -0.0012159106455043667 -0.0015860310570887986 0 -0.0010781041022115913 -0.001498755906848222 0 -0.0012470895615912499 -0.0017595321016740445 0 -0.0012159106455043667 -0.0015860310570887986 0 -0.0011060067130842983 -0.0016699547770988995 0 -0.0012470895615912499 -0.0017595321016740445 0 -0.0011009534993819709 -0.0018788570823949653 0 -0.0011060067130842983 -0.0016699547770988995 0 -0.0012470895615912499 -0.0017595321016740445 0 -0.0011009534993819709 -0.0018788570823949653 0 -0.0012212943611668351 -0.0020063416101425767 0 -0.0011009534993819709 -0.0018788570823949653 0 -0.0011060067130842983 -0.0016699547770988995 0 -0.0010069125668063742 -0.0017709125317009761 0 -0.0011060067130842983 -0.0016699547770988995 0 -0.0010069125668063742 -0.0017709125317009761 0 -0.00096103836290231811 -0.0016392649492210961 0 -0.0011009534993819709 -0.0018788570823949653 0 -0.0010069125668063742 -0.0017709125317009761 0 -0.00088889059051587213 -0.0019394014509459471 0 -0.00079639623919802954 -0.0017605226344929801 0 -0.00062296723719129979 -0.0019571959900210206 0 -0.00088889059051587213 -0.0019394014509459471 0 -0.00079639623919802954 -0.0017605226344929801 0 -0.0010069125668063742 -0.0017709125317009761 0 -0.00088889059051587213 -0.0019394014509459471 0 -0.00079639623919802954 -0.0017605226344929801 0 -0.00090359394947878786 -0.001551204578927287 0 -0.00096103836290231811 -0.0016392649492210961 0 -0.00079639623919802954 -0.0017605226344929801 0 -0.0010069125668063742 -0.0017709125317009761 0 -0.00096103836290231811 -0.0016392649492210961 0 -0.00090359394947878786 -0.001551204578927287 0 -0.0010781041022115913 -0.001498755906848222 0 -0.0010508887888971039 -0.0013699125207966912 0 -0.00090359394947878786 -0.001551204578927287 0 -0.00096103836290231811 -0.0016392649492210961 0 -0.0010781041022115913 -0.001498755906848222 0 -0.0011060067130842983 -0.0016699547770988995 0 -0.00096103836290231811 -0.0016392649492210961 0 -0.0010781041022115913 -0.001498755906848222 0 -0.0011092461161720723 -0.0012926048022930835 0 -0.0010781041022115913 -0.001498755906848222 0 -0.0010508887888971039 -0.0013699125207966912 0 0.0013252845260936575 0.00064095918524872324 0 0.0013872211606251439 0.00064874386863079914 0 0.0013318985190167018 0.000524070896009713 0 0.0013252845260936575 0.00064095918524872324 0 0.001442047063399907 0.00068806616099235051 0 0.0013905463452275606 0.00066166728294807546 0 0.0013252845260936575 0.00064095918524872324 0 0.0013872211606251439 0.00064874386863079914 0 0.0013905463452275606 0.00066166728294807546 0 0.0013872211606251439 0.00064874386863079914 0 0.0014141387860462352 0.00061530457846708478 0 0.0013318985190167018 0.000524070896009713 0 0.0014249725801313224 0.00049872342272826316 0 0.0014141387860462352 0.00061530457846708478 0 0.0013318985190167018 0.000524070896009713 0 0.0014249725801313224 0.00049872342272826316 0 0.0012481026013036985 0.00033420278390797691 0 0.0013318985190167018 0.000524070896009713 0 0.0011821549846614651 0.00039031334663505095 0 0.0012481026013036985 0.00033420278390797691 0 0.0013318985190167018 0.000524070896009713 0 0.0011821549846614651 0.00039031334663505095 0 0.0013252845260936575 0.00064095918524872324 0 0.0013318985190167018 0.000524070896009713 0 -0.0014750022011234837 -3.1328491889161106e-06 0 -0.0015802509481850557 -7.0576471327666888e-05 0 -0.0015835531705894253 -6.5613456780293288e-05 0 0.0011821549846614651 0.00039031334663505095 0 0.0013252845260936575 0.00064095918524872324 0 0.0011258897243220729 0.00063835891799877834 0 -0.00014349179914629933 0.00025043042015736588 0 -0.00025423331055918007 -2.6511972250623503e-05 0 -0.0015863006520889982 -5.658756762060947e-05 0 -0.0016479439723840266 -0.00012291585242908749 0 -0.0015802509481850557 -7.0576471327666888e-05 0 -0.0016895153545347318 -0.00017745485864500448 0 -0.0016479439723840266 -0.00012291585242908749 0 -0.0016406750702977768 -0.00012267899983415276 0 -0.0016479439723840266 -0.00012291585242908749 0 -0.0015802509481850557 -7.0576471327666888e-05 0 -0.0016406750702977768 -0.00012267899983415276 0 -0.00099418384692605364 -0.0013222470146072741 0 -0.00082393254349586397 -0.0013274791487341707 0 -0.00084437645679066831 -0.0012871247358657838 0 -0.0015802509481850557 -7.0576471327666888e-05 0 -0.0016406750702977768 -0.00012267899983415276 0 -0.0015835531705894253 -6.5613456780293288e-05 0 -0.0010113477488499375 -0.0013525686299228816 0 -0.00099418384692605364 -0.0013222470146072741 0 -0.00082393254349586397 -0.0013274791487341707 0 -0.0015389148411018754 -0.0014585019510834666 0 -6.4517355346178541e-05 -0.00051733013676424401 0 -0.0017128973705633904 -0.00017930417528250799 0 -0.0016406750702977768 -0.00012267899983415276 0 -0.0015835531705894253 -6.5613456780293288e-05 0 -0.0015731607854100888 -0.00087109130232505111 0 -0.00025423331055918007 -2.6511972250623503e-05 0 0.0013252845260936575 0.00064095918524872324 0 0.0014694072420764698 0.00072279705117332704 0 0.001442047063399907 0.00068806616099235051 0 0.0018533612814478496 0.0006640582307808259 0 -0.00025423331055918007 -2.6511972250623503e-05 0 0.0014694072420764698 0.00072279705117332704 0 0.001479126008126711 0.00068953184039505829 0 0.001442047063399907 0.00068806616099235051 0 -0.00025423331055918007 -2.6511972250623503e-05 0 -6.4517355346178541e-05 -0.00051733013676424401 0 0.001442047063399907 0.00068806616099235051 0 0.0014616147096411152 0.00065236479179965037 0 0.0013905463452275606 0.00066166728294807546 0 0.001442047063399907 0.00068806616099235051 0 0.0015579211657046313 0.00066545859142486986 0 0.0014616147096411152 0.00065236479179965037 0 0.0015856535810709832 0.00075900872823806884 0 0.001442047063399907 0.00068806616099235051 0 0.0015579211657046313 0.00066545859142486986 0 -6.4517355346178541e-05 -0.00051733013676424401 0 0.001683961636778564 0.00029748960309509081 0 0.0015579211657046313 0.00066545859142486986 0 0.0014616147096411152 0.00065236479179965037 0 0.0015865158593627332 0.00059636625073899053 0 0.0014616147096411152 0.00065236479179965037 0 0.0015865158593627332 0.00059636625073899053 0 0.0014633995888300672 0.00061093816995359232 0 0.0015856535810709832 0.00075900872823806884 0 0.0015579211657046313 0.00066545859142486986 0 0.0018739599396283009 0.00052632933136877592 0 -0.0018161661136765763 -0.0014454029253400474 0 -0.0016785468664591674 -0.0015593235674594651 0 -0.0016984560866109477 -0.0017524934436294469 0 -6.4517355346178541e-05 -0.00051733013676424401 0 -0.00076728377095715327 -0.00059882957091762713 0 -0.0015512143036344953 -0.0014332595982838197 0 -0.0018161661136765763 -0.0014454029253400474 0 -0.0016785468664591674 -0.0015593235674594651 0 -0.0016145524220241919 -0.0015873554754310777 0 -0.0016195552019316066 -0.0016608848554483934 0 -0.0016785468664591674 -0.0015593235674594651 0 -0.0015869439634277403 -0.0017529455413508319 0 -0.0016195552019316066 -0.0016608848554483934 0 -0.0016984560866109477 -0.0017524934436294469 0 -0.0016195552019316066 -0.0016608848554483934 0 -0.0016785468664591674 -0.0015593235674594651 0 -0.0016984560866109477 -0.0017524934436294469 0 0.0018739599396283009 0.00052632933136877592 0 0.0015865158593627332 0.00059636625073899053 0 0.0016854041892936378 0.00049027068346270202 0 0.0015579211657046313 0.00066545859142486986 0 0.0018739599396283009 0.00052632933136877592 0 0.0015865158593627332 0.00059636625073899053 0 0.0018455549682104653 0.00039501485540037028 0 0.0016854041892936378 0.00049027068346270202 0 0.0015798463645964012 0.00039266390947634609 0 0.0018739599396283009 0.00052632933136877592 0 0.0018455549682104653 0.00039501485540037028 0 0.0016854041892936378 0.00049027068346270202 0 0.001531531547747081 0.00053907140893811906 0 0.0014170411786282961 0.00061152959937216061 0 0.0015798463645964012 0.00039266390947634609 0 0.0015865158593627332 0.00059636625073899053 0 0.001531531547747081 0.00053907140893811906 0 0.0014633995888300672 0.00061093816995359232 0 0.0015865158593627332 0.00059636625073899053 0 0.0016854041892936378 0.00049027068346270202 0 0.001531531547747081 0.00053907140893811906 0 0.0016854041892936378 0.00049027068346270202 0 0.001531531547747081 0.00053907140893811906 0 0.0015798463645964012 0.00039266390947634609 0 0.0014170411786282961 0.00061152959937216061 0 0.0014165841155662146 0.00065329571353007067 0 0.0014592196786816099 0.00068148022248189298 0 0.0013146443684951936 0.00079500391150875841 0 0.0053116498141972694 0.00077886826088410387 0 0.0014170411786282961 0.00061152959937216061 0 0.0014633995888300672 0.00061093816995359232 0 0.0014165841155662146 0.00065329571353007067 0 0.001531531547747081 0.00053907140893811906 0 0.0014170411786282961 0.00061152959937216061 0 0.0014633995888300672 0.00061093816995359232 0 0.0014616147096411152 0.00065236479179965037 0 0.0014633995888300672 0.00061093816995359232 0 0.0014165841155662146 0.00065329571353007067 0 0.0013872211606251439 0.00064874386863079914 0 0.0014165841155662146 0.00065329571353007067 0 0.0014592196786816099 0.00068148022248189298 0 0.0013872211606251439 0.00064874386863079914 0 0.0014165841155662146 0.00065329571353007067 0 0.0013905463452275606 0.00066166728294807546 0 0.0014616147096411152 0.00065236479179965037 0 0.0014165841155662146 0.00065329571353007067 0 0.0013905463452275606 0.00066166728294807546 0 0.0014930748852553175 0.0006718322023518933 0 0.0014141387860462352 0.00061530457846708478 0 0.0014592196786816099 0.00068148022248189298 0 0.0013872211606251439 0.00064874386863079914 0 0.0014141387860462352 0.00061530457846708478 0 0.0014592196786816099 0.00068148022248189298 0 0.0015301542277105012 0.00075927373462478318 0 0.0014592196786816099 0.00068148022248189298 0 0.0015731823125804283 0.000737701496127714 0 0.0013146443684951936 0.00079500391150875841 0 0.0017895326003802897 0.00065122698185229421 0 0.0014170411786282961 0.00061152959937216061 0 0.0014592196786816099 0.00068148022248189298 0 0.0015731823125804283 0.000737701496127714 0 0.0021670223670937345 0.00069143380523694568 0 0.0015731823125804283 0.000737701496127714 0 0.0017943316291641784 0.00055110019563595308 0 0.0015731823125804283 0.000737701496127714 0 0.0017943316291641784 0.00055110019563595308 0 0.0015094763306566779 0.00059118209923421426 0 0.0094157500027769632 0.00091216213306079545 0 0.0044395977726096481 0.00086433890337711192 0 0.0017943316291641784 0.00055110019563595308 0 0.0018119465295066371 0.00026279138409587827 0 0.0015094763306566779 0.00059118209923421426 0 0.0017943316291641784 0.00055110019563595308 0 0.0018119465295066371 0.00026279138409587827 0 0.0022579007599223275 0.00031327770743046722 0 0.014560021429678221 0.00046934070670737952 0 0.014581190847015462 0.00049432715018354206 0 0.014604331933451217 0.00048095852684004145 0 0.014560021429678221 0.00046934070670737952 0 0.014581190847015462 0.00049432715018354206 0 0.014590318520261259 0.00052812621094730744 0 0.012929688386181455 0.0020774069503117151 0 0.013486783512590878 0.0017667352927129673 0 0.013382226100907868 0.0010929909427739705 0 0.0094157500027769632 0.00091216213306079545 0 0.014770995792887267 0.00066596339617104225 0 0.0021670223670937345 0.00069143380523694568 0 0.0022579007599223275 0.00031327770743046722 0 0.0028284068495261845 0.00045919778077154518 0 0.012069111321249859 0.0018329416735427232 0 0.012929688386181455 0.0020774069503117151 0 0.013382226100907868 0.0010929909427739705 0 0.0094157500027769632 0.00091216213306079545 0 0.00770088586820699 0.0012128901399723088 0 0.0021670223670937345 0.00069143380523694568 0 0.0017943316291641784 0.00055110019563595308 0 0.0022579007599223275 0.00031327770743046722 0 0.00770088586820699 0.0012128901399723088 0 0.0053116498141972694 0.00077886826088410387 0 0.013720376693318187 0.0022677581373180974 0 0.014439917769219705 0.0019145067063721358 0 0.013908438114287916 0.0016219614424151621 0 0.012929688386181455 0.0020774069503117151 0 0.013720376693318187 0.0022677581373180974 0 0.013486783512590878 0.0017667352927129673 0 0.013720376693318187 0.0022677581373180974 0 0.013486783512590878 0.0017667352927129673 0 0.013908438114287916 0.0016219614424151621 0 0.0018455549682104653 0.00039501485540037028 0 0.0018860618298018686 0.00020007017038615779 0 0.0022424143022481123 6.6140445050448277e-05 0 0.0018739599396283009 0.00052632933136877592 0 0.0018455549682104653 0.00039501485540037028 0 0.0022424143022481123 6.6140445050448277e-05 0 0.00083074333006163026 5.2831391945303351e-05 0 0.0053116498141972694 0.00077886826088410387 0 0.0053116498141972694 0.00077886826088410387 0 0.0085529159869191119 0.00080640414192681355 0 0.0018455549682104653 0.00039501485540037028 0 0.0016967284986798982 0.00032436191092243319 0 0.0018860618298018686 0.00020007017038615779 0 0.0085529159869191119 0.00080640414192681355 0 0.0072718618534908736 0.00038672097109841068 0 0.014586183376845922 0.0012112277706596225 0 0.013382226100907868 0.0010929909427739705 0 0.014654487550157814 0.00060825162816848129 0 0.014439917769219705 0.0019145067063721358 0 0.014586183376845922 0.0012112277706596225 0 0.013908438114287916 0.0016219614424151621 0 0.014439917769219705 0.0019145067063721358 0 0.014586183376845922 0.0012112277706596225 0 0.014987826364632067 0.0015845421977857756 0 0.014586183376845922 0.0012112277706596225 0 0.013908438114287916 0.0016219614424151621 0 0.013382226100907868 0.0010929909427739705 0 0.013486783512590878 0.0017667352927129673 0 0.013908438114287916 0.0016219614424151621 0 0.013382226100907868 0.0010929909427739705 0 0.014590318520261259 0.00052812621094730744 0 0.014654487550157814 0.00060825162816848129 0 0.014601501902433072 0.00047173023243513295 0 0.014770995792887267 0.00066596339617104225 0 0.014294270447960425 0.00071369296902181357 0 0.014586183376845922 0.0012112277706596225 0 0.014654487550157814 0.00060825162816848129 0 0.015044843818231655 0.00073602636249374713 0 0.014654487550157814 0.00060825162816848129 0 0.015008172841012007 0.0004725850031561505 0 0.014853204595135934 0.00028427371647217725 0 0.014654487550157814 0.00060825162816848129 0 0.014601501902433072 0.00047173023243513295 0 0.014853204595135934 0.00028427371647217725 0 0.014601501902433072 0.00047173023243513295 0 0.014582517113576774 0.00048452294009506032 0 0.014584181436299144 0.00049527978135864375 0 0.014601501902433072 0.00047173023243513295 0 0.014582517113576774 0.00048452294009506032 0 0.014533830234443273 0.00042072504895827 0 0.01462378351747892 0.00049731872365356368 0 0.014582517113576774 0.00048452294009506032 0 0.014533830234443273 0.00042072504895827 0 0.01462378351747892 0.00049731872365356368 0 0.014582517113576774 0.00048452294009506032 0 0.014598457707430743 0.00049136697631414251 0 0.014582517113576774 0.00048452294009506032 0 0.014598457707430743 0.00049136697631414251 0 0.014584181436299144 0.00049527978135864375 0 0.014581190847015462 0.00049432715018354206 0 0.014604331933451217 0.00048095852684004145 0 0.014598457707430743 0.00049136697631414251 0 0.014581190847015462 0.00049432715018354206 0 0.014598457707430743 0.00049136697631414251 0 0.014584181436299144 0.00049527978135864375 0 0.014590318520261259 0.00052812621094730744 0 0.014601501902433072 0.00047173023243513295 0 0.014584181436299144 0.00049527978135864375 0 0.014581190847015462 0.00049432715018354206 0 0.014590318520261259 0.00052812621094730744 0 0.014584181436299144 0.00049527978135864375 0 -0.00083680977808867454 -0.0024261991153748308 0 -0.001144173078135672 -0.0024093915150828166 0 -0.00058570522500483026 -0.0027871623695393823 0 -0.00061952621452310123 -0.002583313230288107 0 -0.00083680977808867454 -0.0024261991153748308 0 -0.00058570522500483026 -0.0027871623695393823 0 -0.00057388550008161717 -0.0024284360528976923 0 -0.00061952621452310123 -0.002583313230288107 0 -0.00083680977808867454 -0.0024261991153748308 0 -0.00057388550008161717 -0.0024284360528976923 0 -0.00083680977808867454 -0.0024261991153748308 0 -0.00072973519820609088 -0.0021494203404644908 0 -0.00062296723719129979 -0.0019571959900210206 0 -0.00072973519820609088 -0.0021494203404644908 0 -0.00088889059051587213 -0.0019394014509459471 0 -0.0011009534993819709 -0.0018788570823949653 0 -0.00088889059051587213 -0.0019394014509459471 0 -0.00099907265395532082 -0.0021328821406469594 0 -0.00072973519820609088 -0.0021494203404644908 0 -0.00088889059051587213 -0.0019394014509459471 0 -0.00099907265395532082 -0.0021328821406469594 0 -0.00083680977808867454 -0.0024261991153748308 0 -0.00072973519820609088 -0.0021494203404644908 0 -0.00099907265395532082 -0.0021328821406469594 0 -0.00099907265395532082 -0.0021328821406469594 0 -0.001144173078135672 -0.0024093915150828166 0 -0.0012212943611668351 -0.0020063416101425767 0 -0.0011009534993819709 -0.0018788570823949653 0 -0.00099907265395532082 -0.0021328821406469594 0 -0.0012212943611668351 -0.0020063416101425767 0 -0.00083680977808867454 -0.0024261991153748308 0 -0.00099907265395532082 -0.0021328821406469594 0 -0.001144173078135672 -0.0024093915150828166 0 -0.001144173078135672 -0.0024093915150828166 0 -0.0013653740486805554 -0.0020472528430935839 0 -0.0015309698119429316 -0.0021175265660909586 0 0.015614089192403391 0.0010855274455660242 0 0.014972386042049179 0.0013993448582783133 0 0.015153967987870495 0.0011165557110981788 0 0.0066461439025783057 -0.00098779892157130388 0 0.0072718618534908736 0.00038672097109841068 0 -0.001144173078135672 -0.0024093915150828166 0 -0.0012212943611668351 -0.0020063416101425767 0 -0.0013653740486805554 -0.0020472528430935839 0 -0.0013821224005152175 -0.0018700525260960709 0 -0.0012212943611668351 -0.0020063416101425767 0 -0.0013653740486805554 -0.0020472528430935839 0 -0.0015215314100959685 -0.0018779486941447679 0 -0.0013821224005152175 -0.0018700525260960709 0 -0.0013653740486805554 -0.0020472528430935839 0 -0.0015215314100959685 -0.0018779486941447679 0 -0.0016984560866109477 -0.0017524934436294469 0 -0.0015309698119429316 -0.0021175265660909586 0 -0.00076728377095715327 -0.00059882957091762713 0 0.0072718618534908736 0.00038672097109841068 0 -0.0015215314100959685 -0.0018779486941447679 0 -0.0013653740486805554 -0.0020472528430935839 0 -0.0015309698119429316 -0.0021175265660909586 0 0.014586183376845922 0.0012112277706596225 0 0.014987826364632067 0.0015845421977857756 0 0.015153967987870495 0.0011165557110981788 0 0.014586183376845922 0.0012112277706596225 0 0.015153967987870495 0.0011165557110981788 0 0.015044843818231655 0.00073602636249374713 0 0.0072718618534908736 0.00038672097109841068 0 0.01418838774325162 0.00011077509032589494 0 0.015153967987870495 0.0011165557110981788 0 0.015044843818231655 0.00073602636249374713 0 0.015460531372820803 0.00077102620916903969 0 0.014654487550157814 0.00060825162816848129 0 0.015044843818231655 0.00073602636249374713 0 0.015008172841012007 0.0004725850031561505 0 0.015008172841012007 0.0004725850031561505 0 0.015308940768455001 0.0005270752613655361 0 0.015223269085474622 0.00023856390886993552 0 0.015044843818231655 0.00073602636249374713 0 0.015008172841012007 0.0004725850031561505 0 0.015308940768455001 0.0005270752613655361 0 0.015638686721237419 0.00046180121290908925 0 0.015460531372820803 0.00077102620916903969 0 0.015780091686600158 0.00073657644469584012 0 0.015308940768455001 0.0005270752613655361 0 0.015638686721237419 0.00046180121290908925 0 0.015460531372820803 0.00077102620916903969 0 0.015308940768455001 0.0005270752613655361 0 0.015638686721237419 0.00046180121290908925 0 0.015223269085474622 0.00023856390886993552 0 0.015614089192403391 0.0010855274455660242 0 0.015153967987870495 0.0011165557110981788 0 0.015460531372820803 0.00077102620916903969 0 0.015044843818231655 0.00073602636249374713 0 0.015308940768455001 0.0005270752613655361 0 0.015460531372820803 0.00077102620916903969 0 0.015614089192403391 0.0010855274455660242 0 0.015460531372820803 0.00077102620916903969 0 0.015780091686600158 0.00073657644469584012 0 0.015614089192403391 0.0010855274455660242 0 0.015780091686600158 0.00073657644469584012 0 0.016097667334635583 0.0008333638930980334 0 0.015638686721237419 0.00046180121290908925 0 0.015780091686600158 0.00073657644469584012 0 0.015919333799493403 0.00047296544021085664 0 0.019788132476027686 0.0034013408114376706 0 0.022117176906314189 0.0039353552788182512 0 0.021000123779533832 0.0021019370389519254 0 0.015780091686600158 0.00073657644469584012 0 0.015919333799493403 0.00047296544021085664 0 0.016097667334635583 0.0008333638930980334 0 0.019788132476027686 0.0034013408114376706 0 0.022117176906314189 0.0039353552788182512 0 0.021853602515962845 0.0063367789337646311 0 0.019287085958856535 0.0028690672726819867 0 0.01042436176055124 0.00096544821505474435 0 0.0066461439025783057 -0.00098779892157130388 0 0.01042436176055124 0.00096544821505474435 0 0.02054603560242857 0.00021172027941393875 0 0.019032474128261444 -0.00071220432378517784 0 0.020492446831294073 -0.0019534704357286165 0 0.02243563371093835 -0.0015969647269243139 0 0.022866267056538776 0.0017947434562375008 0 0.02054603560242857 0.00021172027941393875 0 0.022866267056538776 0.0017947434562375008 0 0.02054603560242857 0.00021172027941393875 0 0.021000123779533832 0.0021019370389519254 0 0.02054603560242857 0.00021172027941393875 0 0.021000123779533832 0.0021019370389519254 0 0.017786496916891322 0.00083418383919872891 0 0.019287085958856535 0.0028690672726819867 0 0.016533910734157511 9.0254899138300917e-05 0 0.019788132476027686 0.0034013408114376706 0 0.021000123779533832 0.0021019370389519254 0 0.017786496916891322 0.00083418383919872891 0 0.015638686721237419 0.00046180121290908925 0 0.015919333799493403 0.00047296544021085664 0 0.015888991150799552 1.8808440173449949e-05 0 0.02054603560242857 0.00021172027941393875 0 0.019032474128261444 -0.00071220432378517784 0 0.017786496916891322 0.00083418383919872891 0 0.019032474128261444 -0.00071220432378517784 0 0.017786496916891322 0.00083418383919872891 0 0.017661090654771984 -0.0012391970163518765 0 0.017786496916891322 0.00083418383919872891 0 0.015611272744564378 -0.0017026494470804105 0 0.017661090654771984 -0.0012391970163518765 0 0.015888991150799552 1.8808440173449949e-05 0 0.015235595551158537 -0.0001565664561919685 0 0.015611272744564378 -0.0017026494470804105 0 0.016533910734157511 9.0254899138300917e-05 0 0.015723549453316801 -0.0014733294678492001 0 0.015888991150799552 1.8808440173449949e-05 0 0.015223269085474622 0.00023856390886993552 0 0.015235595551158537 -0.0001565664561919685 0 0.015638686721237419 0.00046180121290908925 0 0.015888991150799552 1.8808440173449949e-05 0 0.015223269085474622 0.00023856390886993552 0 0.015223269085474622 0.00023856390886993552 0 0.015235595551158537 -0.0001565664561919685 0 0.014937604620354749 2.4394224459520954e-05 0 0.015223269085474622 0.00023856390886993552 0 0.014853204595135934 0.00028427371647217725 0 0.014937604620354749 2.4394224459520954e-05 0 0.015008172841012007 0.0004725850031561505 0 0.015223269085474622 0.00023856390886993552 0 0.014853204595135934 0.00028427371647217725 0 0.015034442915291794 -0.00021006241432275344 0 0.015235595551158537 -0.0001565664561919685 0 0.014937604620354749 2.4394224459520954e-05 0 0.015611272744564378 -0.0017026494470804105 0 0.01466502414329365 -0.0028797718146507585 0 0.017132897860243128 -0.0028138668715207015 0 0.014523435987319972 -0.00050703697613443336 0 0.017359514623598266 -0.0011924224078249509 0 0.015235595551158537 -0.0001565664561919685 0 0.015611272744564378 -0.0017026494470804105 0 0.01466502414329365 -0.0028797718146507585 0 0.015034442915291794 -0.00021006241432275344 0 0.015235595551158537 -0.0001565664561919685 0 0.015109012922069707 -0.00042975838870851056 0 0.017359514623598266 -0.0011924224078249509 0 0.019331958931204669 -0.0028105095701517618 0 0.021358779957015014 -0.0014410827318227168 0 0.020787682224709551 4.6429258332014279e-06 0 0.022055011664280297 -0.00076769026644299258 0 0.018049959743502843 -0.0015127055187546719 0 0.018150687033096968 -0.0011274076817373612 0 0.017845648154073059 -0.0012804632220997957 0 0.01929387801137997 -0.0012010608318820972 0 0.017359514623598266 -0.0011924224078249509 0 0.020547257033285426 -0.0010285587366228328 0 0.021358779957015014 -0.0014410827318227168 0 0.020787682224709551 4.6429258332014279e-06 0 0.01466502414329365 -0.0028797718146507585 0 0.017009798712537116 -0.0045793678564615666 0 0.017132897860243128 -0.0028138668715207015 0 0.017009798712537116 -0.0045793678564615666 0 0.017132897860243128 -0.0028138668715207015 0 0.018990304484378752 -0.0041992475917307804 0 0.017132897860243128 -0.0028138668715207015 0 0.017661090654771984 -0.0012391970163518765 0 0.018776709482597985 -0.002181043550105676 0 0.015611272744564378 -0.0017026494470804105 0 0.017132897860243128 -0.0028138668715207015 0 0.017661090654771984 -0.0012391970163518765 0 0.019032474128261444 -0.00071220432378517784 0 0.017661090654771984 -0.0012391970163518765 0 0.018776709482597985 -0.002181043550105676 0 0.019032474128261444 -0.00071220432378517784 0 0.018776709482597985 -0.002181043550105676 0 0.020492446831294073 -0.0019534704357286165 0 0.018776709482597985 -0.002181043550105676 0 0.019787297798205952 -0.0031016751004607937 0 0.020492446831294073 -0.0019534704357286165 0 0.018776709482597985 -0.002181043550105676 0 0.018990304484378752 -0.0041992475917307804 0 0.019787297798205952 -0.0031016751004607937 0 0.019488881836898987 -0.0061065456776777643 0 0.018990304484378752 -0.0041992475917307804 0 0.020950295488668186 -0.0038215990964928122 0 0.017132897860243128 -0.0028138668715207015 0 0.018776709482597985 -0.002181043550105676 0 0.018990304484378752 -0.0041992475917307804 0 0.018990304484378752 -0.0041992475917307804 0 0.019787297798205952 -0.0031016751004607937 0 0.020950295488668186 -0.0038215990964928122 0 0.019787297798205952 -0.0031016751004607937 0 0.020950295488668186 -0.0038215990964928122 0 0.020492446831294073 -0.0019534704357286165 0 0.027622163584993063 2.6315747260015664e-05 0 0.027554728325627987 -0.00044078858139373986 0 0.027836354433301024 -3.0176364780814425e-05 0 0.027622163584993063 2.6315747260015664e-05 0 0.027838106353309747 0.00023259583411900633 0 0.027836354433301024 -3.0176364780814425e-05 0 0.02243563371093835 -0.0015969647269243139 0 0.020950295488668186 -0.0038215990964928122 0 0.020492446831294073 -0.0019534704357286165 0 0.025166785125901842 -0.00033736424476026706 0 0.024253299890347104 -0.0022374157459637829 0 0.02243563371093835 -0.0015969647269243139 0 0.02054603560242857 0.00021172027941393875 0 0.020492446831294073 -0.0019534704357286165 0 0.014601501902433072 0.00047173023243513295 0 0.014533830234443273 0.00042072504895827 0 0.014668940499210401 0.00027668098386403876 0 0.014592017451545635 0.00012363978552961535 0 0.014533830234443273 0.00042072504895827 0 0.014668940499210401 0.00027668098386403876 0 0.015846344963927669 -0.000122559880154936 0 0.01529062993829524 0.00033625086815834232 0 0.017027085219152634 -0.00032746086340252126 0 0.016407819619439497 -0.00043734605630591384 0 0.016813017803393927 -0.00085784672697793618 0 0.017027085219152634 -0.00032746086340252126 0 0.016407819619439497 -0.00043734605630591384 0 0.016047113131322465 0.00030223465040059701 0 0.016407819619439497 -0.00043734605630591384 0 0.015873997433633227 -0.00035404074100125636 0 0.016047113131322465 0.00030223465040059701 0 0.016407819619439497 -0.00043734605630591384 0 0.015873997433633227 -0.00035404074100125636 0 0.016161340606699326 -0.00088985597596750142 0 0.015873997433633227 -0.00035404074100125636 0 0.016047113131322465 0.00030223465040059701 0 0.015422265871900822 -0.00016271355581776769 0 0.014601501902433072 0.00047173023243513295 0 0.014668940499210401 0.00027668098386403876 0 0.014853204595135934 0.00028427371647217725 0 0.014668940499210401 0.00027668098386403876 0 0.014853204595135934 0.00028427371647217725 0 0.014937604620354749 2.4394224459520954e-05 0 0.014668940499210401 0.00027668098386403876 0 0.014937604620354749 2.4394224459520954e-05 0 0.014821132224747326 -0.00021675477658293296 0 0.015034442915291794 -0.00021006241432275344 0 0.014937604620354749 2.4394224459520954e-05 0 0.014821132224747326 -0.00021675477658293296 0 0.015846344963927669 -0.000122559880154936 0 0.016085987759465487 -0.00040075859624283416 0 0.014592017451545635 0.00012363978552961535 0 0.014668940499210401 0.00027668098386403876 0 0.014821132224747326 -0.00021675477658293296 0 0.017027085219152634 -0.00032746086340252126 0 0.017648542919781098 -0.00078338243477871379 0 0.016813017803393927 -0.00085784672697793618 0 0.017648542919781098 -0.00078338243477871379 0 0.017117352853349952 -0.0012109775330939947 0 0.016813017803393927 -0.00085784672697793618 0 0.018150687033096968 -0.0011274076817373612 0 0.017648542919781098 -0.00078338243477871379 0 0.017845648154073059 -0.0012804632220997957 0 0.015034442915291794 -0.00021006241432275344 0 0.015109012922069707 -0.00042975838870851056 0 0.014821132224747326 -0.00021675477658293296 0 0.017359514623598266 -0.0011924224078249509 0 0.016085987759465487 -0.00040075859624283416 0 0.017648542919781098 -0.00078338243477871379 0 0.017845648154073059 -0.0012804632220997957 0 0.017512145118426647 -0.0013812043133803456 0 0.017761721778433631 -0.001584795723438822 0 0.017845648154073059 -0.0012804632220997957 0 0.017512145118426647 -0.0013812043133803456 0 0.017761721778433631 -0.001584795723438822 0 0.018049959743502843 -0.0015127055187546719 0 0.017845648154073059 -0.0012804632220997957 0 0.017648542919781098 -0.00078338243477871379 0 0.017512145118426647 -0.0013812043133803456 0 0.017117352853349952 -0.0012109775330939947 0 0.017076106683500996 -0.0016067596827767077 0 0.017512145118426647 -0.0013812043133803456 0 0.017117352853349952 -0.0012109775330939947 0 0.017076106683500996 -0.0016067596827767077 0 0.017117352853349952 -0.0012109775330939947 0 0.016585210995624551 -0.0013811063814896543 0 0.017117352853349952 -0.0012109775330939947 0 0.016813017803393927 -0.00085784672697793618 0 0.016585210995624551 -0.0013811063814896543 0 0.016813017803393927 -0.00085784672697793618 0 0.016161340606699326 -0.00088985597596750142 0 0.016585210995624551 -0.0013811063814896543 0 0.016407819619439497 -0.00043734605630591384 0 0.016813017803393927 -0.00085784672697793618 0 0.016161340606699326 -0.00088985597596750142 0 0.016752339246261887 -0.0017789563417140168 0 0.016585210995624551 -0.0013811063814896543 0 0.016323950564317836 -0.0014952756635761247 0 0.016161340606699326 -0.00088985597596750142 0 0.016585210995624551 -0.0013811063814896543 0 0.016323950564317836 -0.0014952756635761247 0 0.015013107728001291 -0.0018284900265625927 0 0.014745236593226803 -0.0010088416211721702 0 0.013836050894545026 -0.0015976858671989235 0 0.014745236593226803 -0.0010088416211721702 0 0.014859595334463164 -0.00042053629915777348 0 0.01399642369278215 -0.00048210543714278636 0 0.016161340606699326 -0.00088985597596750142 0 0.015013107728001291 -0.0018284900265625927 0 0.014745236593226803 -0.0010088416211721702 0 0.016091110646044036 -0.0009688821574909992 0 0.015900930515643126 -0.00149692969419852 0 0.016161340606699326 -0.00088985597596750142 0 0.014745236593226803 -0.0010088416211721702 0 0.015264616741294144 -0.00058583590479912944 0 0.014745236593226803 -0.0010088416211721702 0 0.015264616741294144 -0.00058583590479912944 0 0.014859595334463164 -0.00042053629915777348 0 0.015873997433633227 -0.00035404074100125636 0 0.015422265871900822 -0.00016271355581776769 0 0.015264616741294144 -0.00058583590479912944 0 0.015873997433633227 -0.00035404074100125636 0 0.016161340606699326 -0.00088985597596750142 0 0.015264616741294144 -0.00058583590479912944 0 0.015422265871900822 -0.00016271355581776769 0 0.014942358935149731 -0.00023637183454233506 0 0.015150606947208042 0.00021633188023285381 0 0.015422265871900822 -0.00016271355581776769 0 0.015264616741294144 -0.00058583590479912944 0 0.014942358935149731 -0.00023637183454233506 0 0.015025199122333284 -0.00062839957116894414 0 0.014338351128288195 -0.00042910217663139359 0 0.015264616741294144 -0.00058583590479912944 0 0.014859595334463164 -0.00042053629915777348 0 0.014750256168695245 -6.4639395797434407e-05 0 0.014859595334463164 -0.00042053629915777348 0 0.014730273350622065 -0.00018968473872020528 0 0.01399642369278215 -0.00048210543714278636 0 0.014730273350622065 -0.00018968473872020528 0 0.013977318121822041 0.00035193936665492268 0 0.01399642369278215 -0.00048210543714278636 0 0.014469630692621553 -0.00041597231497671894 0 0.014338351128288195 -0.00042910217663139359 0 0.014338351128288195 -0.00042910217663139359 0 0.013415532465806521 1.7354962009777841e-06 0 0.014338351128288195 -0.00042910217663139359 0 0.013933206932086608 0.00012619704821474284 0 0.013362401492448646 -0.0008514256971642616 0 0.012896992211804436 -0.00033145869861637392 0 0.013183549677391894 -0.00023630811127326465 0 0.014942358935149731 -0.00023637183454233506 0 0.01471111887508759 0.0005059548799912747 0 0.015150606947208042 0.00021633188023285381 0 0.01529062993829524 0.00033625086815834232 0 0.01488089927423342 0.00055549193917387211 0 0.016047113131322465 0.00030223465040059701 0 0.015422265871900822 -0.00016271355581776769 0 0.015150606947208042 0.00021633188023285381 0 0.016047113131322465 0.00030223465040059701 0 0.015150606947208042 0.00021633188023285381 0 0.014805156654555906 0.00058070103610018717 0 0.01471111887508759 0.0005059548799912747 0 0.015150606947208042 0.00021633188023285381 0 0.014805156654555906 0.00058070103610018717 0 0.013325388521715234 0.00023525027525252276 0 0.012990487460103853 -0.00016521280978001358 0 0.012890773722178636 0.00022369499250875479 0 0.013325388521715234 0.00023525027525252276 0 0.013483817781028517 -0.00011911151933423292 0 0.012990487460103853 -0.00016521280978001358 0 0.013977318121822041 0.00035193936665492268 0 0.013325388521715234 0.00023525027525252276 0 0.013483817781028517 -0.00011911151933423292 0 0.013977318121822041 0.00035193936665492268 0 0.01399642369278215 -0.00048210543714278636 0 0.013483817781028517 -0.00011911151933423292 0 0.01399642369278215 -0.00048210543714278636 0 0.013483817781028517 -0.00011911151933423292 0 0.013282573874441784 -0.00047242959082616725 0 0.012990487460103853 -0.00016521280978001358 0 0.013282573874441784 -0.00047242959082616725 0 0.012892838555180558 -0.0003861100224543447 0 0.013483817781028517 -0.00011911151933423292 0 0.012990487460103853 -0.00016521280978001358 0 0.013282573874441784 -0.00047242959082616725 0 0.013282573874441784 -0.00047242959082616725 0 0.012957204559850546 -0.00057397169744246375 0 0.012892838555180558 -0.0003861100224543447 0 0.013282573874441784 -0.00047242959082616725 0 0.013272634057211012 -0.00067635773847103849 0 0.012957204559850546 -0.00057397169744246375 0 0.014047195144136626 -0.0021503833717641074 0 0.015013107728001291 -0.0018284900265625927 0 0.013836050894545026 -0.0015976858671989235 0 0.013942641316770355 -0.00050606099092024041 0 0.013712732258761627 -0.0010367019816289386 0 0.014745236593226803 -0.0010088416211721702 0 0.01399642369278215 -0.00048210543714278636 0 0.013836050894545026 -0.0015976858671989235 0 0.01399642369278215 -0.00048210543714278636 0 0.013282573874441784 -0.00047242959082616725 0 0.013272634057211012 -0.00067635773847103849 0 0.013025082569017906 -0.00064824214865193868 0 0.013272634057211012 -0.00067635773847103849 0 0.012957204559850546 -0.00057397169744246375 0 0.012957204559850546 -0.00057397169744246375 0 0.012799692215901685 -0.00050715577560414191 0 0.012685057394924749 -0.00036152868862435498 0 0.01292772776391888 -0.00057839068906869427 0 0.012957204559850546 -0.00057397169744246375 0 0.012799692215901685 -0.00050715577560414191 0 0.012957204559850546 -0.00057397169744246375 0 0.012685057394924749 -0.00036152868862435498 0 0.012892838555180558 -0.0003861100224543447 0 0.012825610896160066 -0.00047607601481004813 0 0.012786190331287537 -0.00052754533225475705 0 0.012754402942564162 -0.0004733314481730074 0 0.012786190331287537 -0.00052754533225475705 0 0.012754402942564162 -0.0004733314481730074 0 0.012653255546518832 -0.00035295453451489762 0 0.012799692215901685 -0.00050715577560414191 0 0.012754402942564162 -0.0004733314481730074 0 0.012653255546518832 -0.00035295453451489762 0 0.012825610896160066 -0.00047607601481004813 0 0.012799692215901685 -0.00050715577560414191 0 0.012754402942564162 -0.0004733314481730074 0 0.012799692215901685 -0.00050715577560414191 0 0.012685057394924749 -0.00036152868862435498 0 0.012653255546518832 -0.00035295453451489762 0 0.012685057394924749 -0.00036152868862435498 0 0.012653255546518832 -0.00035295453451489762 0 0.012529475966499498 -0.00020644585041210408 0 0.012786190331287537 -0.00052754533225475705 0 0.012588468245287483 -0.00024757030646282291 0 0.012653255546518832 -0.00035295453451489762 0 0.012588468245287483 -0.00024757030646282291 0 0.012653255546518832 -0.00035295453451489762 0 0.01250852092342312 -0.00016798068975410165 0 0.012653255546518832 -0.00035295453451489762 0 0.01250852092342312 -0.00016798068975410165 0 0.012529475966499498 -0.00020644585041210408 0 0.01250852092342312 -0.00016798068975410165 0 0.012529475966499498 -0.00020644585041210408 0 0.012360121929916375 -4.6927381814536483e-05 0 0.012529475966499498 -0.00020644585041210408 0 0.012360121929916375 -4.6927381814536483e-05 0 0.012459818923809554 -0.0001180831883231664 0 0.01250852092342312 -0.00016798068975410165 0 0.012360121929916375 -4.6927381814536483e-05 0 0.012428026586793591 -0.00010422195847668927 0 0.012514968013197387 -0.00015914117509910903 0 0.01250852092342312 -0.00016798068975410165 0 0.012428026586793591 -0.00010422195847668927 0 0.012990487460103853 -0.00016521280978001358 0 0.012680675413600446 -0.00022164376417310806 0 0.012556962600163733 4.3565843484413282e-06 0 0.012990487460103853 -0.00016521280978001358 0 0.012892838555180558 -0.0003861100224543447 0 0.012680675413600446 -0.00022164376417310806 0 0.012685057394924749 -0.00036152868862435498 0 0.012892838555180558 -0.0003861100224543447 0 0.012680675413600446 -0.00022164376417310806 0 0.012685057394924749 -0.00036152868862435498 0 0.012529475966499498 -0.00020644585041210408 0 0.012459818923809554 -0.0001180831883231664 0 0.012685057394924749 -0.00036152868862435498 0 0.012680675413600446 -0.00022164376417310806 0 0.012459818923809554 -0.0001180831883231664 0 0.012680675413600446 -0.00022164376417310806 0 0.012459818923809554 -0.0001180831883231664 0 0.012556962600163733 4.3565843484413282e-06 0 0.012360121929916375 -4.6927381814536483e-05 0 0.012459818923809554 -0.0001180831883231664 0 0.012058418294432355 0.00022075964419720099 0 0.012459818923809554 -0.0001180831883231664 0 0.012556962600163733 4.3565843484413282e-06 0 0.012058418294432355 0.00022075964419720099 0 0.012990487460103853 -0.00016521280978001358 0 0.012556962600163733 4.3565843484413282e-06 0 0.012890773722178636 0.00022369499250875479 0 0.012556962600163733 4.3565843484413282e-06 0 0.012620276671872585 0.00035668484899811049 0 0.012058418294432355 0.00022075964419720099 0 0.012556962600163733 4.3565843484413282e-06 0 0.012890773722178636 0.00022369499250875479 0 0.012620276671872585 0.00035668484899811049 0 0.012890773722178636 0.00022369499250875479 0 0.012620276671872585 0.00035668484899811049 0 0.012982822787340436 0.00064119663906768844 0 0.012620276671872585 0.00035668484899811049 0 0.012578759644384045 0.00090859773644540284 0 0.012982822787340436 0.00064119663906768844 0 0.011938423180354723 0.00024858239694499278 0 0.011802361461797771 0.00033260904684145832 0 0.012058418294432355 0.00022075964419720099 0 0.011666866098685625 -0.00013936832090170667 0 0.010981348548382458 -0.00014497949839255145 0 0.012620276671872585 0.00035668484899811049 0 0.012058418294432355 0.00022075964419720099 0 0.012578759644384045 0.00090859773644540284 0 0.012058418294432355 0.00022075964419720099 0 0.011666866098685625 -0.00013936832090170667 0 0.0122063822091577 -7.8288919802925225e-05 0 0.011666866098685625 -0.00013936832090170667 0 0.011673015498536164 -0.00044461591378169689 0 0.0122063822091577 -7.8288919802925225e-05 0 0.011666866098685625 -0.00013936832090170667 0 0.011673015498536164 -0.00044461591378169689 0 0.010901114847218472 -0.00051169001126679737 0 0.011673015498536164 -0.00044461591378169689 0 0.010901114847218472 -0.00051169001126679737 0 0.011111917525664258 -0.00096453253355876915 0 0.012578759644384045 0.00090859773644540284 0 0.012982822787340436 0.00064119663906768844 0 0.012962454024790146 0.0013515078623564122 0 0.010483161296719355 -0.00054436606615045535 0 0.011114446344992184 -4.4729952558092867e-07 0 0.010901114847218472 -0.00051169001126679737 0 0.010981348548382458 -0.00014497949839255145 0 0.010524371250970471 -0.00057641485451471834 0 0.010901114847218472 -0.00051169001126679737 0 0.010484006548232911 -0.00062494568037069567 0 0.010524371250970471 -0.00057641485451471834 0 0.011802361461797771 0.00033260904684145832 0 0.011739818301226449 0.00040581319344698861 0 0.011666866098685625 -0.00013936832090170667 0 0.010901114847218472 -0.00051169001126679737 0 0.010981348548382458 -0.00014497949839255145 0 0.012514968013197387 -0.00015914117509910903 0 0.012428026586793591 -0.00010422195847668927 0 0.012462839630926264 -0.00017352350679562727 0 0.012428026586793591 -0.00010422195847668927 0 0.012462839630926264 -0.00017352350679562727 0 0.0122063822091577 -7.8288919802925225e-05 0 0.012360121929916375 -4.6927381814536483e-05 0 0.012428026586793591 -0.00010422195847668927 0 0.0122063822091577 -7.8288919802925225e-05 0 0.012360121929916375 -4.6927381814536483e-05 0 0.012058418294432355 0.00022075964419720099 0 0.0122063822091577 -7.8288919802925225e-05 0 0.011724748102834782 -0.00045289453171572258 0 0.012159009259305624 -0.00054011908880917771 0 0.011673015498536164 -0.00044461591378169689 0 0.0122063822091577 -7.8288919802925225e-05 0 0.012358409603981766 -0.00040198429811512848 0 0.012484331568872071 -0.00032187413853659288 0 0.012495078875512577 -0.00025220883501935593 0 0.012358409603981766 -0.00040198429811512848 0 0.012462839630926264 -0.00017352350679562727 0 0.0122063822091577 -7.8288919802925225e-05 0 0.012358409603981766 -0.00040198429811512848 0 0.012495078875512577 -0.00025220883501935593 0 0.012462839630926264 -0.00017352350679562727 0 0.012358409603981766 -0.00040198429811512848 0 0.012981508173110307 -0.00063681193518722728 0 0.012159009259305624 -0.00054011908880917771 0 0.012866052487072142 -0.00092633005452780518 0 0.012148035450610991 -0.00071292891316443051 0 0.012365832419579965 -0.001290358734265195 0 0.012148035450610991 -0.00071292891316443051 0 0.012365832419579965 -0.001290358734265195 0 0.011623945785479583 -0.0012473972809923784 0 0.011673015498536164 -0.00044461591378169689 0 0.012148035450610991 -0.00071292891316443051 0 0.011623945785479583 -0.0012473972809923784 0 0.012210731396933874 -0.0021085340743205007 0 0.012365832419579965 -0.001290358734265195 0 0.011623945785479583 -0.0012473972809923784 0 0.011027470126580376 -0.0020417493412033414 0 0.012210731396933874 -0.0021085340743205007 0 0.011623945785479583 -0.0012473972809923784 0 0.01291125603111714 -0.0015286280100906329 0 0.012210731396933874 -0.0021085340743205007 0 0.012365832419579965 -0.001290358734265195 0 0.01027056416489568 -0.0020534720366074881 0 0.0098544084307098847 -0.0025074902084054594 0 0.0078273533060293343 -0.0023950210448487222 0 0.0077648055058808629 -0.002778019630887267 0 0.0074254439649613568 -0.0029244746516605444 0 0.010494954191257004 -0.0010095170448869621 0 0.011111917525664258 -0.00096453253355876915 0 0.010479377961612845 -0.001648681065230148 0 0.010494954191257004 -0.0010095170448869621 0 0.010479377961612845 -0.001648681065230148 0 0.0099731053635085248 -0.0013401819555635601 0 0.010494954191257004 -0.0010095170448869621 0 0.0099731053635085248 -0.0013401819555635601 0 0.0099006052761121451 -0.0006267905548693755 0 0.010901114847218472 -0.00051169001126679737 0 0.010494954191257004 -0.0010095170448869621 0 0.0099006052761121451 -0.0006267905548693755 0 0.010901114847218472 -0.00051169001126679737 0 0.010494954191257004 -0.0010095170448869621 0 0.011111917525664258 -0.00096453253355876915 0 0.011623945785479583 -0.0012473972809923784 0 0.011111917525664258 -0.00096453253355876915 0 0.010479377961612845 -0.001648681065230148 0 0.011673015498536164 -0.00044461591378169689 0 0.011623945785479583 -0.0012473972809923784 0 0.011111917525664258 -0.00096453253355876915 0 0.011027470126580376 -0.0020417493412033414 0 0.011623945785479583 -0.0012473972809923784 0 0.010479377961612845 -0.001648681065230148 0 0.010479377961612845 -0.001648681065230148 0 0.0096508364285973914 -0.001968654411876478 0 0.0099731053635085248 -0.0013401819555635601 0 0.010183490948640359 -0.0022046996250722085 0 0.010479377961612845 -0.001648681065230148 0 0.0096508364285973914 -0.001968654411876478 0 0.010183490948640359 -0.0022046996250722085 0 0.011027470126580376 -0.0020417493412033414 0 0.010479377961612845 -0.001648681065230148 0 0.0096508364285973914 -0.001968654411876478 0 0.009282125848073022 -0.0013233651344355234 0 0.0088042650849536001 -0.0019435508716400007 0 0.0096508364285973914 -0.001968654411876478 0 0.0099731053635085248 -0.0013401819555635601 0 0.009282125848073022 -0.0013233651344355234 0 0.0099731053635085248 -0.0013401819555635601 0 0.009282125848073022 -0.0013233651344355234 0 0.0099006052761121451 -0.0006267905548693755 0 0.0098251721966328715 -0.00078856814670755628 0 0.011114446344992184 -4.4729952558092867e-07 0 0.011114446344992184 -4.4729952558092867e-07 0 0.011397615094980582 0.00076299552026867963 0 0.012017725795787165 0.00076084948957093302 0 0.012830210304686467 0.000994734029404327 0 0.012452844394605884 0.00060692603510490827 0 0.010496542296457025 -9.5682187743277301e-05 0 0.010810465016875784 0.00028068675354297464 0 0.010050038847270217 6.7570004282405097e-05 0 0.010496542296457025 -9.5682187743277301e-05 0 0.010050038847270217 6.7570004282405097e-05 0 0.010178730218414429 -0.00047435623553103348 0 0.011397615094980582 0.00076299552026867963 0 0.0087098402517203372 -0.00052278056645816437 0 0.0098251721966328715 -0.00078856814670755628 0 0.0087098402517203372 -0.00052278056645816437 0 0.0084396284974842806 0.00071039707627620528 0 0.0084831706676354868 0.0007234814813521426 0 0.0084614728186102883 0.00073255597950933808 0 0.0084980430100340173 0.00075620485759599228 0 0.0084831706676354868 0.0007234814813521426 0 0.0084614728186102883 0.00073255597950933808 0 0.0084614728186102883 0.00073255597950933808 0 0.0084346465205675271 0.00073120996930156005 0 0.0084591810212724227 0.00074724956517479722 0 0.0094157500027769632 0.00091216213306079545 0 0.011946876975110416 0.00064794437091272557 0 0.0084405315911283574 0.0007393742871885569 0 0.0084346465205675271 0.00073120996930156005 0 0.0084591810212724227 0.00074724956517479722 0 0.014604331933451217 0.00048095852684004145 0 0.014625892583591746 0.00045927910896789291 0 0.01466503864256501 0.00049181420810000352 0 0.014560021429678221 0.00046934070670737952 0 0.014604331933451217 0.00048095852684004145 0 0.014625892583591746 0.00045927910896789291 0 0.011397615094980582 0.00076299552026867963 0 0.011946876975110416 0.00064794437091272557 0 0.0084980430100340173 0.00075620485759599228 0 0.0084614728186102883 0.00073255597950933808 0 0.0084591810212724227 0.00074724956517479722 0 0.01468621085707217 0.0004725240070369358 0 0.014625892583591746 0.00045927910896789291 0 0.01466503864256501 0.00049181420810000352 0 0.01466503864256501 0.00049181420810000352 0 0.014712801727771903 0.00054097481241088439 0 0.0146698695279921 0.000499045331535941 0 0.011397615094980582 0.00076299552026867963 0 0.014012174011285438 0.0003761018192505739 0 0.01468621085707217 0.0004725240070369358 0 0.01466503864256501 0.00049181420810000352 0 0.014712801727771903 0.00054097481241088439 0 0.014604331933451217 0.00048095852684004145 0 0.014598457707430743 0.00049136697631414251 0 0.0146698695279921 0.000499045331535941 0 0.014604331933451217 0.00048095852684004145 0 0.01466503864256501 0.00049181420810000352 0 0.0146698695279921 0.000499045331535941 0 0.01462378351747892 0.00049731872365356368 0 0.014598457707430743 0.00049136697631414251 0 0.0146698695279921 0.000499045331535941 0 0.01462378351747892 0.00049731872365356368 0 0.0146698695279921 0.000499045331535941 0 0.014805156654555906 0.00058070103610018717 0 0.01462378351747892 0.00049731872365356368 0 0.014533830234443273 0.00042072504895827 0 0.014805156654555906 0.00058070103610018717 0 0.013933206932086608 0.00012619704821474284 0 0.014012174011285438 0.0003761018192505739 0 0.012896992211804436 -0.00033145869861637392 0 0.013183549677391894 -0.00023630811127326465 0 0.01300654670190283 0.00037819746802114434 0 0.014712801727771903 0.00054097481241088439 0 0.0146698695279921 0.000499045331535941 0 0.014805156654555906 0.00058070103610018717 0 0.01471111887508759 0.0005059548799912747 0 0.014712801727771903 0.00054097481241088439 0 0.014805156654555906 0.00058070103610018717 0 0.012896992211804436 -0.00033145869861637392 0 0.01300654670190283 0.00037819746802114434 0 0.012434677901135095 0.00018890542138696269 0 0.013977318121822041 0.00035193936665492268 0 0.013325388521715234 0.00023525027525252276 0 0.013461013968245198 0.00077127701735234743 0 0.013415532465806521 1.7354962009777841e-06 0 0.013012370791786042 0.00053163671956266048 0 0.013325388521715234 0.00023525027525252276 0 0.013461013968245198 0.00077127701735234743 0 0.012982822787340436 0.00064119663906768844 0 0.013325388521715234 0.00023525027525252276 0 0.012890773722178636 0.00022369499250875479 0 0.012982822787340436 0.00064119663906768844 0 0.012434677901135095 0.00018890542138696269 0 0.011976592898030583 0.00071063071692440121 0 0.012452844394605884 0.00060692603510490827 0 0.013461013968245198 0.00077127701735234743 0 0.012982822787340436 0.00064119663906768844 0 0.012962454024790146 0.0013515078623564122 0 0.013012370791786042 0.00053163671956266048 0 0.011739818301226449 0.00040581319344698861 0 0.011114446344992184 -4.4729952558092867e-07 0 0.011739818301226449 0.00040581319344698861 0 0.012017725795787165 0.00076084948957093302 0 0.011976592898030583 0.00071063071692440121 0 0.012452844394605884 0.00060692603510490827 0 0.012830210304686467 0.000994734029404327 0 0.01300654670190283 0.00037819746802114434 0 0.012452844394605884 0.00060692603510490827 0 0.01300654670190283 0.00037819746802114434 0 0.012434677901135095 0.00018890542138696269 0 0.012452844394605884 0.00060692603510490827 0 
</DataArray>
</PointData>
<CellData Scalars="region_id,cross_section_updated," Vectors="" Tensors="stress,">
<DataArray type="Float64" Name="region_id" format="ascii">
5 5 5 6 5 5 5 5 5 5 5 6 5 5 5 5 5 5 5 5 5 5 6 5 5 6 5 5 5 5 5 5 6 5 5 5 5 5 6 5 5 6 5 6 5 5 5 5 5 5 5 5 5 6 6 5 5 6 5 5 5 5 6 5 5 5 5 5 6 6 5 5 5 5 5 6 5 5 5 5 5 6 5 5 5 6 5 5 6 6 5 6 5 6 6 5 5 5 5 5 5 6 5 5 5 6 5 5 5 5 5 5 5 5 5 5 5 5 5 5 5 5 5 5 5 6 5 5 6 6 5 5 5 5 6 5 5 5 5 5 5 5 5 5 5 5 5 5 5 5 5 5 5 5 5 5 5 5 5 5 5 6 5 6 5 5 5 5 6 5 5 6 5 5 6 5 5 5 5 5 6 5 5 5 5 5 5 5 5 5 5 5 5 6 5 5 5 6 5 5 6 5 5 5 5 6 6 5 5 5 5 6 5 5 5 5 5 5 5 5 5 5 5 5 5 5 5 5 5 5 5 5 5 5 5 6 5 5 6 5 5 5 5 5 5 5 5 5 6 5 6 5 5 5 5 5 6 5 6 5 5 5 5 5 6 5 6 5 5 5 5 5 5 5 6 5 6 5 5 5 6 5 5 6 5 5 5 6 5 5 5 5 5 5 5 5 5 6 5 5 6 6 5 6 5 5 6 5 5 5 5 6 5 5 5 5 5 5 5 5 5 5 5 5 5 5 5 5 5 5 5 6 5 5 5 5 6 5 5 5 6 5 6 5 5 5 5 5 5 5 6 5 5 5 5 5 5 5 6 5 5 5 6 6 5 5 5 5 5 5 5 5 5 6 5 5 5 5 5 6 5 5 5 5 5 5 5 5 5 6 5 5 6 5 6 5 5 5 5 6 5 5 5 5 5 5 6 5 6 5 6 5 6 6 5 5 5 5 5 5 5 5 5 6 5 5 6 5 5 5 5 6 5 6 5 5 5 6 6 5 5 5 5 6 5 5 5 6 6 6 5 5 6 5 5 5 6 5 6 6 6 5 6 5 5 5 5 5 5 5 5 5 5 5 5 5 5 5 5 6 5 6 5 6 6 5 5 5 5 6 5 5 6 5 6 6 5 6 5 5 5 5 5 6 5 5 5 5 5 5 5 5 5 5 6 5 5 5 5 6 5 5 5 5 5 6 5 6 6 5 5 5 6 5 6 5 5 5 5 5 5 6 5 6 5 5 5 5 6 5 5 5 5 5 6 5 5 5 6 5 5 5 5 5 5 5 5 5 5 6 5 5 5 5 6 5 5 5 5 6 5 5 5 5 5 5 5 5 5 6 6 5 5 5 5 5 5 5 5 5 5 6 5 5 5 5 6 5 5 5 5 5 5 5 6 5 6 5 6 5 5 5 5 5 5 5 5 5 5 5 5 5 5 5 5 5 5 5 5 5 5 5 5 5 5 5 5 5 5 6 5 6 5 5 5 5 5 5 5 5 5 5 5 5 5 5 5 5 5 5 5 5 6 5 5 5 5 5 5 5 5 5 5 5 5 5 6 6 5 5 5 5 5 6 5 5 6 5 5 5 6 5 5 5 5 5 5 5 5 5 5 6 5 5 5 5 5 6 5 5 5 5 5 5 5 5 6 6 5 5 6 5 5 5 5 6 5 5 5 5 5 5 5 5 5 5 5 5 5 5 5 6 5 5 5 5 5 6 5 5 5 6 5 5 5 5 5 5 5 5 5 5 5 5 5 5 5 5 5 6 5 5 5 5 5 5 5 5 5 5 5 6 5 5 5 5 5 5 5 6 6 5 5 5 6 5 5 5 6 5 5 5 5 5 5 6 5 5 5 6 5 6 5 6 5 5 5 5 5 5 5 5 5 5 5 5 5 6 5 5 5 6 5 5 6 5 5 5 6 6 5 5 6 5 5 5 5 5 5 5 6 5 6 6 5 5 5 5 6 5 5 5 5 5 5 5 5 5 5 6 5 6 5 5 5 5 5 5 5 5 5 5 5 5 5 5 5 5 5 5 5 5 6 5 5 5 5 6 6 5 5 5 5 5 5 6 5 5 5 5 5 6 6 5 5 5 5 6 5 5 5 5 5 5 5 6 5 5 5 5 6 6 5 5 5 5 5 5 5 5 5 5 5 5 5 5 5 5 5 5 5 5 5 5 5 5 5 5 5 6 5 5 5 5 5 5 6 5 5 5 5 5 5 5 5 5 5 5 5 5 5 5 5 5 5 5 5 5 5 6 5 5 6 5 5 5 5 5 5 5 6 5 5 6 5 5 5 5 6 5 6 5 5 5 5 6 5 5 5 5 5 5 5 5 5 5 5 5 5 5 5 5 5 6 5 5 5 5 6 5 5 6 5 5 6 5 5 5 5 5 5 5 6 5 5 5 5 5 6 5 5 5 5 5 6 5 5 5 5 5 5 5 5 5 5 5 5 5 5 5 5 5 5 5 5 5 5 5 5 5 5 5 5 5 5 5 5 5 5 5 6 5 5 5 6 5 5 5 5 5 5 5 5 5 5 6 5 5 5 5 5 5 5 5 5 5 5 5 5 5 5 6 5 6 5 5 5 5 5 5 5 5 5 5 5 5 5 5 5 5 5 5 5 5 5 5 5 5 5 5 5 5 6 5 5 5 5 5 5 6 5 5 6 6 5 5 5 5 5 5 5 6 5 5 6 5 6 5 5 5 5 5 6 5 5 5 5 5 5 5 5 5 5 5 5 5 6 5 5 5 5 5 5 5 5 5 5 5 5 5 5 5 5 5 5 5 5 5 5 5 5 5 5 5 5 5 5 5 5 5 5 5 6 5 5 6 5 5 5 5 5 6 5 5 5 5 5 5 6 5 5 5 5 5 5 5 5 5 6 5 5 5 5 5 5 5 5 5 5 5 5 5 5 5 5 5 5 5 5 5 5 5 5 5 5 5 5 5 5 5 5 5 5 5 5 5 5 5 5 5 5 5 5 5 5 5 5 5 6 5 5 5 5 5 5 5 5 5 5 5 5 5 5 5 5 5 5 5 5 5 5 5 6 5 5 5 5 5 5 5 5 5 5 6 5 5 6 5 5 5 5 5 5 5 6 6 5 5 5 5 5 5 5 5 5 5 5 5 5 5 6 5 5 5 5 5 5 6 5 5 5 5 5 5 5 5 6 5 5 5 5 5 5 5 5 5 6 5 5 5 5 5 5 5 5 5 5 5 5 6 5 6 6 5 5 5 5 6 5 5 5 5 6 5 6 5 6 5 6 6 5 6 5 5 5 6 6 5 5 5 5 6 5 5 5 5 5 5 5 5 5 5 5 5 6 5 5 5 5 5 5 6 5 5 5 5 5 6 5 5 5 6 5 5 6 5 5 5 6 5 5 5 5 5 5 6 5 5 6 5 6 5 5 5 5 5 5 5 5 5 5 5 5 5 5 5 5 5 5 6 5 5 5 6 6 5 5 6 5 5 5 5 6 5 5 5 5 5 5 5 5 5 5 5 5 5 5 5 5 5 6 5 5 5 5 5 5 5 5 5 6 5 5 5 5 5 5 6 5 5 5 5 5 5 5 5 5 5 5 5 5 5 5 5 5 5 5 5 5 5 5 5 5 5 5 5 5 5 5 5 5 5 5 5 5 5 6 5 5 5 5 5 5 5 6 5 5 5 5 5 6 5 5 5 5 5 5 5 6 5 5 5 5 6 6 5 5 6 6 5 5 5 5 5 5 5 5 5 5 5 5 5 5 5 6 5 5 5 5 5 5 5 5 5 6 5 5 5 5 5 5 5 5 5 5 6 5 6 5 5 5 6 6 5 5 5 5 5 5 5 5 5 5 5 5 5 5 5 5 5 5 5 5 5 6 5 5 5 5 5 5 5 5 5 5 5 5 5 5 5 5 5 5 5 5 5 5 5 5 5 5 5 5 6 5 5 6 5 5 5 6 5 5 5 6 6 6 5 5 6 5 5 5 5 5 5 5 5 6 5 5 5 5 6 5 5 5 6 5 5 5 5 5 5 6 5 5 5 5 6 5 5 6 5 5 5 5 6 5 5 5 5 6 5 5 5 5 5 5 5 6 5 6 5 5 6 5 5 5 5 6 5 5 5 6 5 5 5 5 5 5 6 5 5 5 5 5 5 5 5 5 5 5 5 5 5 5 5 6 5 5 5 5 6 5 5 6 5 5 6 5 5 5 5 6 5 5 5 5 5 5 5 5 5 5 5 5 6 5 5 5 5 5 5 6 5 5 5 5 5 5 5 5 5 5 5 6 5 5 5 5 5 5 5 5 5 5 5 5 6 5 5 5 6 5 5 5 6 5 5 5 5 6 6 5 5 5 5 5 6 5 5 5 5 5 5 5 6 5 5 5 5 6 5 5 5 5 5 5 6 5 5 5 5 5 5 6 5 5 5 5 5 6 6 5 5 5 5 6 5 5 5 5 5 6 5 5 5 5 5 6 6 5 5 6 6 5 5 5 5 6 6 5 5 5 5 6 6 5 5 6 5 5 6 5 5 5 5 5 5 5 6 5 5 6 5 5 6 5 5 5 5 5 5 5 5 5 5 5 5 5 5 5 6 5 5 5 5 5 5 5 5 5 5 6 5 5 5 6 5 6 5 5 5 5 5 5 6 5 5 5 5 5 5 5 5 5 5 5 5 5 5 6 5 6 5 5 5 5 5 5 5 5 6 5 5 5 5 5 6 5 5 5 6 5 5 6 5 5 5 5 6 5 6 5 5 5 6 5 5 5 5 5 5 6 5 5 5 5 5 5 6 5 5 6 6 5 5 5 6 6 5 6 6 5 5 5 6 5 5 5 5 6 5 6 6 5 6 6 5 5 5 5 6 5 5 6 6 5 5 5 5 5 5 5 6 6 5 5 5 5 5 5 5 5 5 5 5 5 5 5 5 6 5 6 5 5 5 5 5 6 5 5 6 5 5 5 5 5 5 5 5 5 5 5 5 5 5 5 5 5 5 5 5 5 5 5 5 5 5 6 5 6 5 5 5 5 5 5 5 5 5 6 6 5 5 6 5 6 5 5 5 5 5 5 5 5 5 5 5 6 5 5 5 5 6 5 5 5 5 5 5 6 5 6 5 5 5 5 5 5 5 5 5 5 5 5 5 5 6 5 5 5 5 5 5 5 5 5 5 5 5 5 5 5 5 5 5 5 5 5 5 5 6 6 5 5 5 5 5 5 5 5 5 5 5 5 6 5 5 5 5 5 5 5 5 5 5 5 5 6 5 5 5 5 5 6 5 6 5 5 5 5 5 5 5 5 5 5 5 5 6 5 6 5 5 5 5 5 6 5 5 5 5 5 5 5 5 6 5 5 6 5 5 6 5 5 5 6 5 5 5 5 5 5 5 5 5 5 5 5 5 5 5 5 5 6 5 6 6 5 5 5 5 5 6 5 5 5 5 5 5 5 5 5 5 5 6 5 5 5 5 5 5 6 5 5 5 5 6 5 5 5 5 5 5 6 5 5 5 5 6 5 5 5 5 6 5 5 5 5 6 5 6 5 5 5 5 6 5 5 5 5 5 5 5 5 5 5 5 5 5 5 6 5 5 6 5 5 5 5 5 5 5 5 5 5 5 5 5 5 5 5 5 5 5 5 5 5 5 5 5 5 5 5 5 5 5 5 5 5 5 5 5 5 5 5 5 5 5 5 5 5 5 6 5 5 5 6 5 5 5 5 5 6 5 5 5 6 5 5 5 5 5 5 5 5 5 5 5 5 5 5 5 5 6 5 6 5 5 5 5 5 5 5 6 5 5 5 6 5 5 5 5 5 5 5 5 5 5 5 5 5 5 5 5 5 5 5 5 5 5 5 6 5 5 5 5 5 5 5 5 5 5 5 5 5 5 5 6 5 5 5 5 5 5 5 5 5 5 5 6 5 5 6 5 5 5 5 5 5 5 5 5 5 5 5 5 5 5 5 5 5 5 5 5 5 5 5 5 5 5 6 5 6 5 5 5 5 5 6 5 5 5 5 6 5 5 5 5 5 5 5 5 6 6 5 5 5 5 5 5 6 5 6 5 6 5 5 5 6 5 5 5 5 5 5 5 5 5 5 5 6 5 5 6 5 5 5 5 6 5 5 5 5 5 5 5 5 5 5 5 5 6 5 5 5 5 5 6 5 5 5 6 5 5 5 5 5 6 6 5 5 6 5 5 5 5 5 6 5 5 6 5 5 6 5 5 5 5 5 5 5 5 5 5 6 5 5 5 5 5 6 5 5 5 5 5 5 5 6 5 5 5 5 6 5 5 5 5 5 5 5 6 6 5 5 6 6 5 6 5 5 6 5 5 6 6 5 6 6 5 6 5 5 6 5 6 5 5 6 5 5 6 5 5 5 5 5 5 5 5 5 5 5 5 5 5 5 5 5 5 5 6 5 5 5 5 5 5 5 5 5 5 5 5 5 6 5 6 5 5 5 6 5 6 5 5 5 5 5 5 5 5 5 5 5 6 5 5 6 5 5 5 5 5 5 5 5 5 5 5 5 5 5 5 5 5 5 5 5 5 5 5 5 5 5 5 5 5 5 5 6 5 6 5 5 5 5 5 6 5 5 5 6 5 5 5 5 5 5 5 5 6 5 5 6 5 6 5 6 6 6 5 5 5 5 6 5 5 5 5 5 5 5 5 5 5 6 5 5 6 5 5 5 5 5 6 5 5 5 5 6 5 5 5 5 5 5 5 5 5 6 5 5 6 5 5 5 5 6 5 5 5 6 5 6 5 5 6 5 6 5 5 6 5 5 5 5 5 5 5 5 5 5 5 5 5 5 5 5 6 5 5 6 6 5 5 5 5 5 6 6 5 6 5 5 5 6 6 6 5 5 5 5 6 6 5 5 6 5 6 5 6 6 5 5 5 5 5 6 5 5 5 5 5 5 6 5 5 5 6 5 5 5 5 6 5 5 6 5 5 5 5 6 5 5 5 5 5 6 5 6 5 6 5 5 5 5 5 5 5 5 5 5 5 5 5 5 5 5 5 6 5 5 5 6 5 5 5 5 5 5 5 6 5 5 5 5 6 5 5 5 5 6 5 5 5 6 5 5 5 5 5 5 5 6 5 5 6 5 5 5 6 5 6 5 5 5 5 5 5 5 5 5 5 5 5 5 5 6 5 5 5 5 5 5 5 5 5 5 5 5 5 6 5 5 5 5 6 5 5 5 5 5 5 5 5 5 5 5 5 5 5 5 5 5 5 5 5 5 5 5 5 5 5 5 6 6 5 5 5 5 5 6 5 5 6 5 5 5 5 5 5 5 5 5 5 5 5 5 5 5 5 5 5 5 5 5 5 5 5 5 5 6 5 5 5 5 5 5 5 5 6 6 5 5 5 5 5 5 5 5 5 5 5 5 5 5 5 6 5 5 6 5 6 5 5 5 5 5 5 5 6 5 5 5 6 5 6 5 5 5 5 5 6 5 5 5 5 6 5 5 5 5 5 5 5 6 5 5 5 5 5 5 6 5 5 5 5 5 5 5 5 5 5 5 6 5 5 5 5 5 5 5 6 5 6 5 5 5 5 5 5 5 5 5 5 5 5 5 5 5 6 5 5 5 5 5 5 5 5 5 5 5 5 6 5 5 5 5 6 5 5 5 5 5 5 6 5 5 5 5 5 6 5 5 5 5 6 5 5 5 5 5 5 5 5 6 5 5 5 5 5 5 5 5 5 5 6 5 5 5 6 5 5 6 6 5 5 5 5 5 6 5 5 5 5 5 5 5 5 5 6 5 5 5 5 5 5 5 5 5 5 5 5 5 5 5 5 5 5 5 5 5 5 5 5 6 5 5 5 5 5 5 5 5 5 5 5 5 5 5 6 5 5 6 5 5 5 6 5 5 5 6 5 5 5 5 5 6 5 5 5 5 5 5 5 6 5 5 5 6 5 6 5 5 5 5 5 5 5 5 5 5 5 5 6 5 5 5 5 5 5 5 5 5 6 5 5 5 6 5 5 5 5 5 5 5 5 5 5 5 5 5 5 5 5 5 5 5 5 5 5 5 5 5 5 5 5 5 5 5 5 6 5 5 5 5 5 5 5 5 5 5 5 5 5 5 5 5 5 5 5 5 5 5 6 5 5 5 5 5 6 5 5 5 5 5 5 5 5 5 5 5 5 5 5 5 5 5 5 5 5 5 6 5 5 5 5 5 5 5 5 5 5 5 5 5 5 5 5 5 5 5 5 5 5 5 5 6 6 5 5 5 5 6 6 5 5 6 5 6 5 5 5 5 6 5 5 5 6 5 5 5 6 5 6 5 6 5 5 5 5 5 5 6 5 5 5 5 5 5 5 5 5 5 5 5 5 5 5 5 5 5 5 5 5 5 5 6 5 5 6 5 6 5 5 6 5 5 5 5 5 5 5 5 6 5 5 5 5 5 5 5 5 5 5 5 5 5 5 5 5 5 5 5 5 5 5 5 5 5 5 5 5 5 5 5 5 5 5 5 5 5 5 5 5 6 5 5 5 6 5 5 6 5 5 5 5 5 5 5 5 5 5 5 5 5 5 5 5 5 5 5 5 5 5 5 5 5 5 5 5 5 5 5 5 5 5 5 5 5 5 5 5 5 5 5 5 5 5 5 5 5 5 5 5 5 5 5 5 5 6 5 5 5 5 5 6 5 5 5 5 5 5 6 5 5 5 5 5 5 6 5 5 5 5 5 5 5 5 5 5 5 5 5 5 5 5 5 5 5 5 5 5 5 5 5 5 5 5 5 5 6 5 5 5 5 5 6 5 5 5 5 5 6 5 5 5 5 5 6 5 5 5 5 5 5 5 5 5 6 5 5 5 5 5 5 5 6 5 6 5 5 5 5 6 5 6 5 5 5 5 5 5 5 5 5 6 5 5 6 6 6 5 5 5 5 5 5 5 5 5 5 5 5 5 5 5 5 5 5 5 5 5 5 5 5 5 6 5 6 5 5 6 5 5 5 5 5 5 5 5 6 6 5 6 5 5 5 6 5 5 5 5 5 5 6 5 6 6 5 5 5 6 5 5 6 5 5 5 6 5 5 5 5 5 5 5 6 5 5 6 5 5 5 5 6 5 6 5 5 5 5 5 6 5 5 6 5 6 5 5 5 5 5 5 5 5 6 5 5 5 5 5 6 5 6 5 5 5 5 5 6 5 5 5 6 5 5 5 5 5 5 6 5 5 6 5 5 5 5 5 6 5 6 5 5 5 6 5 5 6 5 5 6 5 5 5 5 5 5 5 5 5 5 6 5 6 5 5 6 5 6 5 5 6 5 5 6 5 5 6 5 6 5 5 5 5 5 5 5 6 5 5 5 5 5 5 6 5 6 5 5 5 5 5 5 6 5 6 5 5 5 5 6 6 5 5 5 5 5 5 5 5 5 5 5 5 5 5 5 5 5 5 5 5 5 5 5 5 5 5 5 5 5 5 5 5 5 5 5 5 5 5 5 5 5 6 5 5 6 5 5 5 5 5 5 5 5 5 5 5 5 5 5 6 5 5 5 5 6 5 5 5 5 6 5 5 5 5 6 5 5 5 5 6 5 6 5 5 5 5 6 5 6 5 5 5 5 5 5 5 5 5 5 5 5 5 5 5 5 5 5 5 5 5 5 5 5 5 5 5 5 5 5 5 5 5 6 5 5 5 5 6 5 5 5 6 5 5 5 5 6 5 5 5 5 5 5 6 5 5 5 5 5 5 6 5 5 5 5 6 5 6 5 5 5 5 5 5 5 5 5 5 5 5 5 5 5 5 5 5 6 5 5 5 5 5 5 5 5 5 5 5 5 5 5 5 6 5 5 5 5 5 5 5 5 5 5 5 5 6 5 6 5 5 5 5 5 5 5 5 5 5 5 5 5 5 5 5 5 5 5 5 6 5 5 5 5 6 6 5 5 5 6 5 5 6 5 6 5 6 5 5 5 5 5 5 5 5 6 5 5 5 5 5 5 5 5 5 5 5 5 5 5 5 5 5 5 5 5 5 6 5 5 5 5 6 6 5 5 5 5 5 5 5 5 5 5 5 6 5 5 6 5 5 5 5 5 5 6 5 5 5 6 5 6 5 5 5 5 5 5 5 5 5 5 5 5 5 6 5 5 5 5 5 5 5 6 5 5 6 6 5 5 6 5 5 5 5 5 5 6 5 5 5 5 5 6 5 5 5 5 5 6 5 5 5 6 5 6 5 5 5 6 5 5 5 6 5 5 5 5 5 5 5 5 5 5 5 5 6 5 5 5 6 5 5 5 5 5 5 6 5 5 6 6 5 5 6 5 5 5 5 6 5 5 5 5 5 5 5 5 5 5 5 5 5 5 5 5 5 5 5 5 5 5 5 5 5 5 5 6 5 5 5 6 5 5 5 5 5 5 5 5 5 5 5 5 6 6 5 5 5 5 5 5 5 5 5 5 5 5 5 5 5 5 5 5 5 5 6 5 5 5 6 5 5 5 5 6 5 5 6 5 5 5 5 5 5 6 5 5 5 5 5 5 5 5 6 5 5 5 5 6 5 6 5 5 6 5 5 5 6 5 5 5 6 5 5 5 6 5 5 5 5 5 5 6 5 5 5 5 5 5 5 5 5 5 5 5 5 5 5 5 5 5 5 5 5 5 5 5 5 5 5 5 5 5 5 5 5 5 5 5 5 5 5 5 5 5 5 5 5 5 5 5 5 5 5 5 5 5 5 5 5 5 5 5 5 5 5 5 5 5 5 6 5 5 6 5 5 5 5 6 5 5 5 5 5 5 5 5 5 6 5 5 6 5 5 5 5 6 5 5 5 6 5 5 5 5 5 6 5 6 5 5 5 6 5 5 5 6 5 5 5 5 5 6 5 5 6 6 5 5 6 5 5 5 6 5 5 5 6 5 6 5 6 5 5 5 6 6 5 5 6 5 5 5 5 6 5 5 6 5 6 5 6 5 5 5 5 5 5 5 6 5 5 5 5 5 5 5 5 5 5 5 5 5 5 5 6 5 5 5 5 5 5 5 5 5 5 5 5 5 5 5 5 6 5 5 5 6 5 5 6 5 5 5 5 5 5 5 5 5 5 5 5 5 5 5 5 5 5 5 6 5 6 5 6 5 5 6 5 5 5 5 5 5 5 6 5 5 5 5 5 6 5 5 5 5 6 5 5 5 5 5 6 5 5 5 6 5 6 5 5 5 5 5 5 5 5 5 5 5 6 5 5 5 5 5 5 5 5 5 5 5 5 5 5 5 5 5 5 5 5 6 5 5 5 5 5 5 5 5 5 5 5 5 5 5 5 5 5 5 5 5 5 5 6 5 5 5 6 5 5 5 5 5 5 5 5 5 5 5 6 5 5 5 5 5 6 5 5 5 5 5 5 5 5 5 5 5 5 5 5 5 5 5 5 5 5 5 5 5 5 5 6 5 5 5 5 5 5 5 5 5 5 5 5 5 5 5 5 5 5 5 5 5 5 5 5 5 5 5 6 5 5 5 5 5 5 5 5 5 5 5 5 6 5 6 5 5 5 6 5 5 5 5 5 6 5 5 5 5 5 5 5 5 5 5 5 5 5 5 5 5 5 5 6 5 5 5 5 5 5 5 5 5 5 5 5 5 5 5 5 5 5 5 5 5 5 5 5 5 5 5 5 5 5 5 5 5 5 5 5 5 5 5 5 5 5 5 5 5 5 5 5 6 5 5 5 6 5 5 5 5 5 5 5 5 5 5 5 5 5 5 5 5 5 6 5 5 5 5 6 5 5 5 5 5 5 5 5 5 6 5 5 5 6 5 5 5 5 6 5 5 5 5 5 5 5 5 5 5 5 5 5 5 5 5 5 5 6 5 5 5 5 5 5 5 5 6 6 5 5 5 5 5 5 6 6 5 5 5 5 5 5 5 5 5 5 5 5 5 5 5 5 6 5 5 5 5 5 5 5 5 6 5 6 5 5 5 5 6 5 5 6 5 5 5 5 5 5 5 5 5 6 5 5 5 5 5 5 5 5 5 5 6 5 5 5 6 5 5 5 5 5 5 5 5 6 5 6 5 6 5 5 6 5 5 5 6 5 5 6 5 6 6 5 5 5 5 5 5 5 5 5 6 5 5 6 6 5 5 5 5 5 5 5 5 5 5 5 6 5 5 5 6 5 5 5 5 5 5 5 5 5 6 5 5 5 5 5 5 5 5 5 5 5 6 5 5 5 5 5 5 5 5 5 5 5 5 5 5 5 5 5 5 5 5 5 5 5 5 5 5 5 5 5 5 5 5 5 5 5 5 5 5 6 5 5 5 5 5 5 6 5 5 6 5 5 5 5 5 5 5 5 5 5 5 6 5 5 5 5 6 5 5 6 5 5 5 6 5 5 5 5 5 5 5 5 5 5 5 6 5 6 5 5 5 5 5 5 6 5 5 5 5 6 5 6 6 5 6 5 5 6 5 6 6 5 5 5 5 6 6 6 5 5 5 6 5 5 5 6 5 5 5 5 5 6 5 6 6 6 5 5 6 5 5 5 6 5 5 5 5 5 5 5 6 5 5 5 5 5 5 5 5 5 5 5 5 5 5 5 5 5 5 5 5 5 5 6 5 5 6 5 5 5 5 5 5 5 5 5 5 5 6 5 5 5 5 5 5 5 5 5 5 5 5 5 5 5 5 5 5 5 5 5 5 6 5 6 6 5 5 6 5 5 5 5 6 5 5 5 5 5 5 5 5 5 5 5 5 5 5 6 5 5 6 5 5 6 5 6 5 6 5 5 6 5 5 5 6 5 5 5 5 6 5 5 5 5 6 5 5 5 5 5 5 5 6 5 5 5 6 5 5 6 5 5 5 5 5 5 5 5 5 5 5 5 5 5 5 5 5 5 5 5 5 6 5 5 5 5 5 5 5 5 5 5 5 5 5 5 5 5 5 5 5 5 5 5 5 6 6 5 6 5 5 5 5 6 5 5 5 5 5 5 5 5 5 6 5 5 5 5 5 5 5 5 5 5 5 5 5 5 5 5 5 5 5 5 5 5 5 5 5 5 5 5 5 5 5 5 5 5 5 5 5 5 5 5 5 5 5 5 5 5 5 5 5 5 5 5 5 5 5 5 5 5 5 6 5 5 6 5 5 6 5 5 5 5 5 5 5 5 5 5 5 5 5 6 5 5 5 6 5 5 5 5 5 6 5 5 5 5 5 6 5 5 5 5 5 5 5 5 5 6 5 5 5 5 5 5 5 5 5 5 5 5 5 5 5 5 6 5 6 5 5 5 5 5 5 5 5 5 5 5 5 5 5 5 5 5 5 5 5 6 5 5 5 5 5 5 5 5 5 5 5 5 5 5 5 5 5 5 5 5 5 5 5 5 5 6 5 5 5 5 5 5 5 5 5 5 5 5 5 5 5 6 5 5 5 5 5 5 6 5 5 6 5 5 5 6 5 5 5 5 5 5 5 5 5 5 5 5 5 6 5 5 6 6 5 5 5 6 5 5 5 6 5 5 5 5 5 5 5 5 5 5 5 5 5 5 5 6 5 6 5 5 5 6 5 5 5 5 5 5 6 5 5 5 5 5 5 5 5 5 5 5 5 5 5 5 5 5 5 5 5 5 5 5 5 6 5 5 5 6 5 5 5 5 5 5 5 5 5 5 5 5 5 5 5 5 5 5 5 6 5 5 5 5 5 5 5 5 5 5 5 6 5 5 5 5 5 5 5 5 5 5 5 5 5 5 5 5 5 5 5 5 5 5 5 5 5 5 5 5 5 5 5 5 5 5 5 5 5 5 5 6 5 5 5 5 5 5 5 5 5 5 5 5 5 5 5 5 5 5 5 5 5 5 5 5 5 5 5 5 5 5 6 5 5 5 6 5 6 5 5 5 5 6 5 5 5 5 5 5 5 6 5 5 5 5 5 6 5 5 5 5 5 5 5 5 6 5 5 5 5 5 5 5 6 5 5 6 5 5 6 5 5 6 5 5 6 5 5 5 5 5 5 5 5 5 5 5 6 5 5 5 5 5 6 5 5 5 6 6 5 5 5 6 5 5 5 5 5 5 5 5 5 5 5 5 5 5 5 5 5 5 5 5 5 5 5 5 5 5 5 5 5 6 5 5 5 5 6 5 5 5 5 5 5 5 5 5 5 5 5 5 5 5 5 5 5 5 6 5 5 5 5 5 5 5 5 5 5 5 5 5 5 5 5 5 5 5 5 5 5 5 5 5 5 5 6 5 5 5 5 5 5 5 5 5 5 5 5 5 5 6 5 5 5 5 6 5 5 6 5 5 5 5 5 5 5 5 6 5 5 5 6 5 5 6 5 5 5 5 5 5 5 5 5 5 5 5 5 5 5 5 5 5 5 5 5 5 5 5 5 5 5 5 5 5 5 5 6 5 6 5 5 5 5 5 5 5 5 5 5 5 5 5 5 5 5 5 5 5 5 5 5 5 5 5 5 5 6 5 5 6 5 5 5 5 5 5 5 5 5 6 5 5 5 5 5 5 5 5 6 5 5 5 5 5 5 5 5 5 5 5 5 5 5 5 5 5 5 5 5 5 5 5 5 5 5 5 5 5 5 5 5 5 5 5 5 6 5 5 5 5 5 5 5 5 6 5 5 5 5 5 6 5 5 5 5 6 5 5 6 5 5 5 5 5 5 5 5 5 5 6 5 5 5 6 5 5 5 6 5 5 5 5 5 5 5 5 5 6 5 5 5 5 5 5 5 5 6 5 5 5 5 5 5 5 5 5 5 5 5 5 5 5 5 5 5 5 5 5 5 5 5 5 5 5 6 5 5 6 5 6 5 5 5 6 5 5 5 5 5 5 5 5 5 5 5 6 5 5 5 5 5 6 5 5 5 5 6 5 5 5 5 5 5 5 5 5 5 6 5 5 5 5 5 5 5 5 5 5 5 5 5 5 5 5 5 6 5 6 5 5 5 5 6 5 5 5 5 6 5 5 6 5 5 5 5 5 5 6 5 5 5 5 5 5 6 5 5 5 5 5 5 5 5 5 5 5 5 5 5 5 6 5 5 5 5 5 5 5 5 5 5 5 5 6 5 5 5 5 5 5 5 5 5 5 5 5 5 5 5 5 6 5 5 5 6 6 5 5 5 5 5 5 5 5 5 5 6 5 6 5 5 6 5 5 5 5 5 5 5 5 5 5 5 5 5 6 5 5 5 5 6 5 5 5 5 5 5 5 5 5 5 5 5 5 5 5 5 5 5 6 5 5 5 5 5 5 5 5 6 5 5 5 5 5 5 5 5 5 5 5 5 5 5 5 5 5 5 5 5 6 5 5 5 5 5 5 5 5 5 5 5 5 5 5 5 5 5 5 5 5 5 6 5 6 5 5 5 5 6 5 5 5 5 5 5 5 5 5 5 5 5 5 5 5 5 5 5 6 5 5 6 5 5 5 6 5 5 6 5 6 6 5 5 6 5 5 5 5 5 5 5 5 5 6 6 5 6 5 5 5 5 5 5 5 6 5 5 5 5 6 5 5 5 5 5 5 5 5 5 5 5 5 6 5 5 5 5 5 6 5 6 5 6 5 5 5 5 5 5 5 5 5 5 5 5 5 5 5 5 5 5 5 5 5 5 5 5 5 5 5 5 5 5 5 5 5 5 5 5 5 5 5 5 5 5 5 5 5 5 5 5 5 5 5 6 5 5 5 5 5 5 6 5 5 5 5 6 5 5 5 6 5 5 5 5 6 5 5 5 5 5 5 5 5 5 5 5 5 5 5 5 5 5 5 5 5 5 5 5 5 5 5 5 5 5 5 5 5 5 5 6 5 5 5 5 5 5 5 5 6 5 5 5 5 5 5 5 5 6 5 5 5 5 5 5 5 5 5 5 5 6 5 6 5 5 5 5 6 5 5 5 5 5 6 5 5 5 5 5 5 5 5 5 5 5 5 5 5 5 5 5 5 5 5 5 5 5 5 5 5 5 5 5 5 5 5 5 5 5 6 5 6 5 5 5 5 5 5 5 5 5 6 6 5 6 5 5 5 5 5 5 5 5 6 5 5 5 5 5 5 5 5 5 5 5 5 5 5 5 5 5 5 5 5 5 5 5 5 5 5 6 5 5 5 5 5 5 5 5 5 5 5 5 5 5 5 5 5 5 6 5 5 5 5 5 5 5 5 5 5 5 5 5 5 5 5 5 5 5 5 5 5 5 5 5 5 5 6 5 5 5 5 6 5 5 5 5 5 5 5 5 5 5 5 5 5 5 5 5 5 5 5 5 5 5 5 6 5 5 5 5 5 5 5 5 5 5 5 5 5 5 5 5 5 6 5 6 5 5 5 5 5 5 5 5 5 5 5 5 5 5 5 5 5 5 5 5 5 5 5 5 5 5 5 5 5 5 5 5 5 5 5 5 5 5 5 5 5 5 5 6 5 6 5 5 6 6 5 5 5 5 5 5 5 5 5 5 6 5 5 5 5 5 5 5 5 5 5 5 5 5 5 5 5 5 5 5 5 5 6 5 5 5 5 5 5 5 5 5 5 5 5 5 5 5 5 5 5 5 5 5 5 5 5 5 5 5 5 5 5 5 5 5 5 5 5 5 5 5 5 5 5 5 5 5 5 5 5 5 5 5 6 5 5 5 5 5 5 5 5 5 5 5 5 6 5 6 5 5 5 6 5 5 5 5 5 5 5 6 6 5 5 5 5 5 5 5 5 5 5 5 5 5 5 5 5 6 5 5 5 5 5 6 6 5 5 5 5 5 5 5 6 5 5 5 5 5 6 5 5 5 5 5 6 5 5 5 5 5 5 5 5 5 5 5 5 5 5 5 5 5 5 5 5 5 5 5 5 5 5 5 5 5 5 5 5 5 6 5 5 5 5 5 6 5 5 5 5 5 5 5 5 5 5 5 5 5 5 5 5 5 5 5 6 5 5 5 5 5 5 5 5 5 5 5 5 6 5 5 5 5 6 5 5 5 5 5 6 5 5 6 5 5 5 5 5 5 5 5 5 5 5 5 5 6 6 5 5 6 5 6 5 5 5 5 5 5 5 5 6 5 5 5 5 5 5 5 6 5 5 5 5 5 5 5 6 5 5 5 5 5 5 5 5 5 5 5 5 5 5 5 5 5 5 5 5 5 5 6 5 5 5 5 5 5 5 5 5 5 5 5 5 5 5 5 5 5 5 5 6 5 5 5 5 5 5 6 5 6 5 6 5 6 5 5 5 5 5 5 5 5 5 6 5 5 5 5 5 5 5 6 5 5 5 5 6 5 5 5 5 5 5 6 5 5 5 5 5 6 5 5 5 5 5 5 5 6 5 5 5 6 6 5 5 5 5 6 5 5 5 6 5 5 5 5 6 5 6 5 5 6 5 5 5 5 5 5 6 5 5 5 5 6 5 5 5 5 5 5 5 5 5 5 5 5 5 5 6 5 5 5 6 5 5 5 5 5 5 5 5 5 5 5 5 5 5 5 5 5 5 5 5 5 5 5 5 5 5 6 5 5 5 5 6 5 6 6 5 5 5 6 6 6 5 5 5 5 5 5 5 6 6 5 5 5 5 5 5 5 5 5 5 5 5 5 5 5 5 5 5 5 5 5 5 5 5 5 5 6 6 5 5 5 5 5 5 5 5 5 5 5 5 5 5 5 5 5 5 5 5 5 6 5 5 5 6 5 5 5 5 5 6 5 5 5 5 5 5 6 5 5 6 5 5 5 5 5 5 5 6 5 6 5 5 5 5 6 5 5 6 6 5 6 5 5 5 5 5 5 5 5 5 5 5 5 5 5 5 5 5 5 5 5 5 5 5 5 5 5 5 5 5 5 6 5 6 6 5 5 5 5 6 5 5 6 5 5 5 6 5 5 5 5 5 6 5 5 5 5 5 5 5 5 5 5 5 6 5 5 5 6 5 5 5 5 5 5 5 5 5 5 5 6 5 5 5 5 5 5 5 5 5 5 6 5 5 5 5 5 5 5 5 5 5 5 5 5 5 5 5 5 5 5 5 5 5 5 5 5 5 5 5 5 5 5 5 5 5 5 5 5 5 5 5 5 5 5 5 5 5 5 5 5 5 5 6 5 5 5 5 5 5 5 5 5 5 5 5 5 5 5 5 5 5 5 5 5 5 5 5 5 5 6 5 5 5 5 5 5 5 5 6 5 5 5 5 5 5 5 6 6 5 5 5 6 5 5 5 5 5 5 5 5 5 5 5 5 5 6 5 5 5 5 5 5 5 5 5 5 5 5 5 5 5 6 5 5 5 5 5 6 5 5 5 5 5 5 5 6 5 5 5 5 5 5 5 5 6 5 5 5 5 5 5 5 5 5 5 6 6 5 5 5 5 5 5 5 5 5 5 6 5 5 5 5 6 5 5 5 5 5 5 5 5 6 5 5 5 5 6 5 5 5 5 5 6 5 5 5 6 5 5 5 6 5 6 5 5 5 5 6 5 6 5 5 5 5 5 6 5 5 5 5 5 5 5 5 5 5 5 5 6 5 5 5 5 6 5 5 5 6 5 5 6 5 5 5 6 6 6 5 5 6 5 5 5 5 6 5 5 5 5 5 5 5 5 5 5 5 6 5 5 5 5 5 5 5 5 5 5 6 5 5 6 5 5 5 6 5 5 5 5 5 5 5 5 5 5 5 5 5 5 5 5 5 5 5 5 5 5 5 5 5 5 5 5 5 5 6 5 5 5 5 5 5 5 5 5 5 5 6 5 5 5 6 5 5 5 5 5 5 5 5 5 5 5 5 5 6 5 5 5 5 5 5 6 5 6 5 6 5 5 5 5 5 5 5 5 5 5 5 5 5 5 5 6 5 6 5 5 5 5 5 5 5 5 5 5 5 5 5 5 5 5 5 5 5 5 5 5 5 5 5 5 5 5 6 5 5 6 5 5 5 5 5 6 5 5 5 5 5 5 5 5 5 5 5 5 5 5 5 5 5 5 5 5 5 5 5 5 5 5 5 5 5 5 5 5 5 5 5 5 5 5 5 5 5 5 5 5 5 5 5 5 5 6 5 5 5 5 5 5 6 5 5 5 5 5 5 6 5 5 5 5 5 5 5 5 6 5 5 5 6 5 6 5 6 5 5 5 5 5 6 5 5 6 5 6 6 5 6 5 6 5 5 5 5 5 5 5 5 5 5 5 5 5 5 5 5 5 5 5 6 5 5 5 5 5 5 5 6 5 5 5 5 5 5 6 5 6 5 5 5 5 5 5 5 5 6 5 6 5 5 6 5 5 5 5 5 5 5 5 5 5 5 5 5 5 5 5 5 5 5 6 5 6 5 5 5 5 5 5 5 5 5 5 5 5 5 6 5 5 5 5 5 5 5 6 5 5 5 5 5 5 5 5 5 5 5 5 6 5 5 6 5 5 6 5 5 6 5 5 5 5 5 5 5 5 5 5 5 5 5 5 5 5 5 5 5 5 5 5 5 5 6 5 5 5 5 6 5 6 5 5 5 5 5 5 5 5 5 5 5 6 5 5 5 5 6 5 5 5 5 5 5 5 5 6 5 5 5 5 5 5 5 5 6 5 6 5 5 5 5 6 5 5 5 5 5 5 5 5 6 5 5 5 5 5 5 5 5 5 5 5 5 5 5 6 6 5 5 6 5 5 5 5 5 5 5 5 5 5 5 5 5 5 5 5 5 5 5 5 5 5 5 5 5 5 5 5 5 5 5 5 5 5 5 5 5 5 5 5 5 5 5 5 5 5 5 5 5 5 5 5 5 5 5 5 5 5 5 5 5 5 5 5 5 5 5 5 5 5 5 5 5 5 5 5 5 5 5 5 5 5 5 5 5 5 5 5 5 5 5 5 5 5 5 5 6 5 5 6 5 5 5 5 5 5 5 6 5 6 5 5 5 5 5 5 6 5 5 5 5 5 5 5 6 5 5 5 6 5 5 6 5 5 5 6 6 5 6 5 5 5 6 5 6 5 5 5 5 5 5 6 5 5 5 5 6 5 5 5 5 5 5 5 5 5 5 6 6 5 5 5 5 5 5 5 5 5 5 6 5 6 5 5 6 5 5 5 5 5 5 5 5 5 6 5 5 5 5 5 5 5 5 5 5 5 6 5 5 5 5 5 5 5 5 5 5 5 6 5 5 5 6 5 6 5 5 5 5 6 5 5 6 5 5 5 6 5 5 5 5 5 5 5 5 6 5 5 5 5 5 5 5 5 5 5 5 5 5 5 5 5 5 5 5 6 5 5 5 5 5 5 6 5 5 5 5 6 5 5 5 5 5 5 6 5 5 5 5 5 5 5 5 5 5 5 5 5 6 5 5 5 5 6 5 6 5 5 6 5 5 5 5 5 5 5 6 6 5 5 5 6 6 5 5 6 5 5 6 5 5 5 6 5 5 5 5 5 5 5 5 5 5 5 5 5 5 5 5 5 5 5 6 5 5 5 6 5 6 6 5 5 6 5 5 5 5 5 5 5 5 5 6 5 5 6 5 5 5 5 6 5 5 5 5 5 5 5 5 5 6 5 5 5 6 5 5 6 5 5 5 6 5 5 5 5 5 5 6 5 5 6 5 5 5 5 5 5 5 5 5 5 6 5 5 5 5 6 5 5 5 5 5 6 5 5 5 5 5 5 5 5 5 5 5 5 5 5 5 5 5 6 5 5 5 5 5 6 5 5 5 5 5 5 5 5 5 6 5 5 5 5 5 5 5 5 5 5 5 5 5 5 5 5 5 5 5 5 6 5 6 6 5 5 6 5 5 5 6 5 5 5 5 5 6 5 5 6 5 6 5 5 5 5 5 5 5 5 5 5 5 5 6 5 5 5 5 5 5 5 5 5 5 5 5 6 5 5 5 5 5 5 6 5 5 5 5 6 6 5 6 5 6 5 6 6 5 5 5 6 5 5 5 5 5 5 6 5 5 5 6 5 5 5 5 5 5 5 5 5 5 5 5 5 6 5 5 5 5 5 5 5 5 5 5 5 5 5 5 5 5 5 5 5 5 5 5 5 5 5 5 5 5 5 5 5 5 5 5 5 5 5 6 5 5 5 5 5 5 5 5 5 5 5 5 5 6 5 5 5 6 5 6 5 5 5 5 5 5 5 5 5 5 5 5 5 5 5 5 5 5 5 5 5 5 5 5 5 5 5 5 5 5 5 5 5 5 5 5 5 5 5 5 5 5 5 5 5 5 5 5 5 5 5 5 5 5 5 5 5 5 5 5 5 5 5 5 5 5 5 5 5 6 5 5 5 5 5 5 6 5 6 5 6 5 6 5 5 5 6 5 5 5 5 6 5 5 5 5 5 5 5 5 5 5 5 5 5 6 5 5 5 5 5 5 5 5 5 6 5 5 5 6 5 5 5 5 5 6 5 5 6 5 6 5 5 5 5 5 6 6 5 6 5 5 5 5 5 5 6 5 5 5 5 5 5 5 5 5 5 5 5 5 5 5 5 5 5 5 5 5 5 5 5 5 6 5 5 5 5 6 5 5 5 6 5 5 5 5 5 5 5 5 5 5 5 5 5 5 5 6 6 5 5 5 5 6 5 5 5 5 5 5 6 5 5 5 5 5 5 5 6 5 5 6 5 5 6 5 5 5 5 5 5 5 5 5 5 5 5 5 5 5 5 6 5 5 5 6 5 5 5 5 5 5 5 5 5 6 5 5 5 5 5 6 5 5 5 5 5 5 5 5 5 5 5 5 5 5 6 5 5 5 5 5 5 6 5 5 5 6 6 6 5 5 6 5 5 5 5 5 5 5 5 5 5 5 5 5 6 5 5 5 5 5 5 5 5 5 5 5 5 5 5 5 5 5 5 5 5 5 5 5 5 5 5 5 5 5 5 5 5 6 5 5 5 5 5 5 5 6 5 5 6 5 5 5 5 5 6 5 5 5 5 6 5 5 5 5 5 5 6 5 5 5 5 5 5 5 5 5 5 5 5 5 5 5 6 6 5 5 5 6 6 5 5 5 6 5 5 5 6 5 5 5 6 5 5 5 5 5 5 6 5 5 5 5 5 6 5 5 5 5 6 6 5 5 5 
</DataArray>
<DataArray type="Float64" Name="stress" NumberOfComponents="9" format="ascii">
1020.3530128390485 -232.10233892293283 0 -232.10233892293283 0.71741860652621736 0 0 0 0 727.62841318987194 -1174.9948951795527 0 -1174.9948951795527 177.05873794278222 0 0 0 0 3487.9557488528881 -826.33604901719161 0 -826.33604901719161 -311.18870557413373 0 0 0 0 14.978498646558251 -2.6313461858543334 0 -2.6313461858543334 -0.34256540715859352 0 0 0 0 1920.2464021480264 955.57736578452227 0 955.57736578452227 -742.91818223329267 0 0 0 0 230.92888719399343 -643.17340943193858 0 -643.17340943193858 687.8253071777699 0 0 0 0 1144.9189592934854 -763.93897962354731 0 -763.93897962354731 646.80514324008971 0 0 0 0 3490.2984354729269 -310.97852772594911 0 -310.97852772594911 -538.34080904812106 0 0 0 0 -43.231485115014948 -588.30185634772465 0 -588.30185634772465 202.8654344828868 0 0 0 0 1305.1390554267418 -1286.8945646755387 0 -1286.8945646755387 575.68547035290442 0 0 0 0 514.01999335424625 -1323.1673815704069 0 -1323.1673815704069 637.10943399497444 0 0 0 0 14.847232281572872 -3.2766054293765166 0 -3.2766054293765166 -0.35874831699215615 0 0 0 0 1280.9785349794984 -1342.6906195791355 0 -1342.6906195791355 28.104405112273753 0 0 0 0 1630.2217317828181 -959.37437899457973 0 -959.37437899457973 250.41750010905076 0 0 0 0 1992.8240597917465 -572.3539171359597 0 -572.3539171359597 -110.18521974937201 0 0 0 0 1001.0657798513712 306.29352791643475 0 306.29352791643475 -822.28067857280701 0 0 0 0 -267.63630254934833 521.04775606604073 0 521.04775606604073 33.230672143603812 0 0 0 0 893.83236958275666 -106.87280984414424 0 -106.87280984414424 230.06317311563575 0 0 0 0 893.52906061262092 -127.71396125467554 0 -127.71396125467554 -157.0170508611985 0 0 0 0 782.81987710535032 -177.73231476803593 0 -177.73231476803593 -0.27829903607561285 0 0 0 0 345.65806507029629 -48.869318278025673 0 -48.869318278025673 173.3420000232326 0 0 0 0 88.068587371817557 -179.30677683800576 0 -179.30677683800576 242.76814507021498 0 0 0 0 0.18199901144825503 -0.041527208970393303 0 -0.041527208970393303 0.075726864119540632 0 0 0 0 -88.58662316063419 30.165801879347278 0 30.165801879347278 143.26947952000575 0 0 0 0 207.51773574831168 -86.742431047153147 0 -86.742431047153147 24.616452231066791 0 0 0 0 7.8630631554436832 9.5027716446649606 0 9.5027716446649606 -4.364562564896687 0 0 0 0 43.545470234603272 38.272066502823691 0 38.272066502823691 -70.749681606765648 0 0 0 0 70.54687372223998 23.380385458725868 0 23.380385458725868 -42.362308542420521 0 0 0 0 -16.629914632896543 -70.672035824154932 0 -70.672035824154932 302.28999392887749 0 0 0 0 186.88860058972932 144.7071098664793 0 144.7071098664793 -406.16215695561903 0 0 0 0 -92.908207729866263 109.40810095146702 0 109.40810095146702 80.073490221343661 0 0 0 0 -79.543506076974154 41.3564783190875 0 41.3564783190875 -26.372125111668311 0 0 0 0 70.158920368223903 5.5918347160643265 0 5.5918347160643265 -5.6289079651984428 0 0 0 0 -45.804951409027126 156.9301980153204 0 156.9301980153204 -70.969799546971842 0 0 0 0 743.51645592834393 171.34164332347825 0 171.34164332347825 332.39828827510667 0 0 0 0 563.60172533507284 -469.04911237942747 0 -469.04911237942747 706.11637564029081 0 0 0 0 202.72518950788799 285.03712794829141 0 285.03712794829141 -84.283111433980935 0 0 0 0 81.915546540680225 -102.13689575259843 0 -102.13689575259843 267.71300768545177 0 0 0 0 35.990856424413096 -8.5780825998225581 0 -8.5780825998225581 -13.815569640950208 0 0 0 0 485.4747333577252 -152.65535457089868 0 -152.65535457089868 -386.80811855792945 0 0 0 0 61.948202342973673 -22.724909708885207 0 -22.724909708885207 -424.25201714102275 0 0 0 0 54.401859273053788 -0.71913529956757571 0 -0.71913529956757571 -8.5504275104370713 0 0 0 0 16.594260163401486 23.759040869562796 0 23.759040869562796 -14.780271567031832 0 0 0 0 18.4333211773301 11.715777039218985 0 11.715777039218985 7.2660492929853069 0 0 0 0 49.064068600746396 64.284433214784713 0 64.284433214784713 -158.0109311792462 0 0 0 0 28.404816404743542 -7.0156191496514566 0 -7.0156191496514566 -47.647901828516297 0 0 0 0 26.009066186394193 94.936538210290109 0 94.936538210290109 -205.2786495079572 0 0 0 0 -109.6689212473575 191.20363941652431 0 191.20363941652431 -200.34484611868538 0 0 0 0 -9.2238778185419505 -6.1147005647112564 0 -6.1147005647112564 -35.089165909296753 0 0 0 0 85.49813028427161 143.19856665647012 0 143.19856665647012 -169.6586469512954 0 0 0 0 4.9318343554987223 15.373262931311729 0 15.373262931311729 -0.19444264350113372 0 0 0 0 39.155001644561708 36.323164649670389 0 36.323164649670389 -11.452975527819035 0 0 0 0 9.6627365489694057 18.987926599349066 0 18.987926599349066 -15.806863111810799 0 0 0 0 15.889031365771018 8.1320223332962769 0 8.1320223332962769 -2.451380241354741 0 0 0 0 8.3467124160727337 10.350929182665126 0 10.350929182665126 6.1840348360820112 0 0 0 0 143.09469914176589 11.190349772973832 0 11.190349772973832 -37.471493238790913 0 0 0 0 18.071099473338109 11.226655369001946 0 11.226655369001946 -4.038765222838947 0 0 0 0 15.037554345076018 11.899204560585815 0 11.899204560585815 3.7484105674018871 0 0 0 0 34.087026818076993 71.922509069471687 0 71.922509069471687 -8.346153254576393 0 0 0 0 66.320534625192522 -9.6995340421926244 0 -9.6995340421926244 -0.058398047619846238 0 0 0 0 17.858732554570452 23.038917850964765 0 23.038917850964765 -2.3424466566093542 0 0 0 0 27.530503343405144 28.305818815964585 0 28.305818815964585 -12.91580858543648 0 0 0 0 23.737590303452293 17.689431772763015 0 17.689431772763015 4.7446970951941605 0 0 0 0 20.611130882694852 13.459450503314656 0 13.459450503314656 -8.6700104478734374 0 0 0 0 28.056432696954289 10.010466101560951 0 10.010466101560951 6.9735307047063202 0 0 0 0 17.110574827828714 18.415105042143807 0 18.415105042143807 5.1077709061382848 0 0 0 0 31.00517158160801 14.622735705201649 0 14.622735705201649 1.3362275808294726 0 0 0 0 33.281773800074006 25.340050232058275 0 25.340050232058275 -3.4328991288425641 0 0 0 0 21.395148593495009 2.5796454697527054 0 2.5796454697527054 -10.69412323195696 0 0 0 0 19.060129220443351 25.365535234912301 0 25.365535234912301 -10.559969037743191 0 0 0 0 6.9460470395824814 54.316842201316895 0 54.316842201316895 -1.0743316142238655 0 0 0 0 28.047345127648441 19.778333278554783 0 19.778333278554783 -6.6079016686680916 0 0 0 0 37.251492428782512 19.671972418845598 0 19.671972418845598 -81.367447483537944 0 0 0 0 229.72232703937334 0.89481211561997043 0 0.89481211561997043 -80.892257716208633 0 0 0 0 273.77239461417776 -139.48060125315646 0 -139.48060125315646 86.173577474929516 0 0 0 0 -6.1768075046205695 7.9955962664904945 0 7.9955962664904945 -1.8249292939814221 0 0 0 0 -68.09611885913182 -36.060861666980145 0 -36.060861666980145 24.658736567049345 0 0 0 0 159.15150887370692 53.490132352752283 0 53.490132352752283 -60.100521581459702 0 0 0 0 96.673484775295947 -1.0782223454932591 0 -1.0782223454932591 -46.386233131261918 0 0 0 0 69.362484087963821 25.452871634120982 0 25.452871634120982 -53.475793052810616 0 0 0 0 120.39560066477861 -8.6695835074132219 0 -8.6695835074132219 -51.786533796599713 0 0 0 0 14.94529661793365 -1.7449146604835732 0 -1.7449146604835732 -6.9964019630674228 0 0 0 0 52.7799154552049 9.189495576146129 0 9.189495576146129 -56.451578438824981 0 0 0 0 26.976326218777103 107.56990876316871 0 107.56990876316871 -32.517378882953835 0 0 0 0 33.597617639490636 -8.0403804574038986 0 -8.0403804574038986 -1.5845716681697013 0 0 0 0 30.166358444163336 -4.7625045862350959 0 -4.7625045862350959 -6.4775436197847354 0 0 0 0 54.525701356527861 -3.1594916876159402 0 -3.1594916876159402 -3.4065242146999708 0 0 0 0 53.281502685174928 3.2767681611357773 0 3.2767681611357773 -2.5714779288561544 0 0 0 0 17.361708412669827 -1.6607752544908863 0 -1.6607752544908863 0.5059828672395037 0 0 0 0 26.242172979119545 5.6094262438333971 0 5.6094262438333971 -3.3714335825048076 0 0 0 0 149.83363464457216 -74.592706515292491 0 -74.592706515292491 17.933244792002142 0 0 0 0 48.809931941489367 -12.425039483708673 0 -12.425039483708673 -6.3279590376433728 0 0 0 0 44.402885130373761 0.93580372003992807 0 0.93580372003992807 -3.383345932066959 0 0 0 0 23.564537475777229 7.4371904273627081 0 7.4371904273627081 -5.2121814117232592 0 0 0 0 22.624101927404183 -2.8480400470734821 0 -2.8480400470734821 -5.0565283110444748 0 0 0 0 -392.33224087271083 759.3324108639888 0 759.3324108639888 -214.72420430938109 0 0 0 0 34.571548477571923 0.34499160963150644 0 0.34499160963150644 -2.2389484311743217 0 0 0 0 475.59879148248001 -490.41773926078099 0 -490.41773926078099 326.22892194714154 0 0 0 0 548.95251194902812 -712.37688451809845 0 -712.37688451809845 1064.1810780117942 0 0 0 0 2270.9765950685251 -1882.6887093921348 0 -1882.6887093921348 819.35133121017111 0 0 0 0 3431.2549121636234 -14.908643064460447 0 -14.908643064460447 -69.356095816060034 0 0 0 0 13.199146704490801 -5.1483722580911504 0 -5.1483722580911504 4.4258672282004694 0 0 0 0 3492.9237580054032 -1644.2572949572884 0 -1644.2572949572884 185.36742694432525 0 0 0 0 2555.281035548498 -1447.6147367780547 0 -1447.6147367780547 375.07602369008998 0 0 0 0 1604.1336677648651 -170.42473282853609 0 -170.42473282853609 -55.475136982283573 0 0 0 0 8.4503590170029383 -8.3584987293749862 0 -8.3584987293749862 6.1083229181159684 0 0 0 0 91.589779844587611 -421.03065418190948 0 -421.03065418190948 1203.7688762210455 0 0 0 0 -1013.4143967373348 507.03820739780298 0 507.03820739780298 376.23626910504834 0 0 0 0 876.60470058285864 -307.5685827408833 0 -307.5685827408833 -58.6965455973193 0 0 0 0 631.95175915492655 -390.94170710995286 0 -390.94170710995286 57.666886247827279 0 0 0 0 653.18857505367487 -1132.9765699674697 0 -1132.9765699674697 1517.6808375705432 0 0 0 0 3089.7396987211978 -880.94101069691817 0 -880.94101069691817 273.7893777317808 0 0 0 0 1933.9576981423306 -1718.4677482411391 0 -1718.4677482411391 782.04806096357595 0 0 0 0 2869.111414482526 -662.25296998941667 0 -662.25296998941667 890.70052246574585 0 0 0 0 2554.4731016796541 -1380.281610079566 0 -1380.281610079566 963.4444683550563 0 0 0 0 2881.2248304924578 -129.33872305469788 0 -129.33872305469788 -530.79976658125292 0 0 0 0 3503.1991035016836 -711.4696090062705 0 -711.4696090062705 -54.720910730447329 0 0 0 0 1011.9234606890968 -1269.3234267118282 0 -1269.3234267118282 585.19005201707705 0 0 0 0 1141.4402309256402 -849.25609509952915 0 -849.25609509952915 290.82981288530686 0 0 0 0 1961.7960407510982 -1022.632014197278 0 -1022.632014197278 281.22005885632672 0 0 0 0 1803.8782242554153 -878.33187788465273 0 -878.33187788465273 498.73168911290168 0 0 0 0 937.42003122923779 -1044.5189077985915 0 -1044.5189077985915 783.96281604497881 0 0 0 0 708.01161343207059 -932.390491389619 0 -932.390491389619 751.04333958222765 0 0 0 0 1006.2173017762543 -846.9364410542737 0 -846.9364410542737 525.94675269608547 0 0 0 0 946.64686891655401 -62.514209157364597 0 -62.514209157364597 140.47546685980797 0 0 0 0 3.155686549662402 -4.6321563662503706 0 -4.6321563662503706 5.5048463598351196 0 0 0 0 -398.33673484128667 -255.73797594010762 0 -255.73797594010762 -14.097532014620356 0 0 0 0 1886.1260290473074 -727.14902861149642 0 -727.14902861149642 209.27551241342007 0 0 0 0 9.597432609401519 3.0951363137305634 0 3.0951363137305634 -31.101123738441796 0 0 0 0 3.2161188577711073 -1.3907147271418268 0 -1.3907147271418268 -3.8532341320798649 0 0 0 0 -257.72870444005457 211.69161122589009 0 211.69161122589009 775.91442009037928 0 0 0 0 194.11402148587513 -41.019624212867086 0 -41.019624212867086 -47.325185366682263 0 0 0 0 41.371950429063872 -498.90985070026522 0 -498.90985070026522 8.5737283736771133 0 0 0 0 181.99707507772837 -27.044972836519378 0 -27.044972836519378 8.6477706845651028 0 0 0 0 8.0336279527852099 -3.2541742456322424 0 -3.2541742456322424 -10.413226667862332 0 0 0 0 -76.368688228176325 -166.09305790477686 0 -166.09305790477686 37.947542055872418 0 0 0 0 -209.77675400447333 -88.849444365046111 0 -88.849444365046111 1132.1812235376092 0 0 0 0 622.93071794565185 -652.36375696761161 0 -652.36375696761161 -889.71660127188716 0 0 0 0 560.34346161765279 -730.790402164027 0 -730.790402164027 885.80120162854109 0 0 0 0 -499.76103948819218 -561.78399891041931 0 -561.78399891041931 487.22449144192171 0 0 0 0 799.26402326393872 191.72275567848192 0 191.72275567848192 -3.4896702576534153 0 0 0 0 825.08706908882596 -13.150450249729602 0 -13.150450249729602 121.25850153951342 0 0 0 0 620.31126360270719 331.59026083127446 0 331.59026083127446 -71.144801635843578 0 0 0 0 84.910807788546663 -535.44256892128851 0 -535.44256892128851 17.898600150784659 0 0 0 0 110.90287098341651 -60.417228074601681 0 -60.417228074601681 -32.767948089240349 0 0 0 0 107.71707435217104 -67.502845334278959 0 -67.502845334278959 -42.234675502191863 0 0 0 0 112.2404994329263 -64.837562240580212 0 -64.837562240580212 -19.962322657363416 0 0 0 0 126.94391114044993 -49.420875419830622 0 -49.420875419830622 -4.9380839802367689 0 0 0 0 80.348668359969452 -60.077929522002037 0 -60.077929522002037 -2.828591648879069 0 0 0 0 53.136741700538551 -56.082824004078475 0 -56.082824004078475 17.819464634906353 0 0 0 0 104.53696453651355 -71.077122534673606 0 -71.077122534673606 8.5754346574229885 0 0 0 0 96.269212533487007 -81.325955311560747 0 -81.325955311560747 13.452645066030016 0 0 0 0 117.09157338610385 -90.120092766414899 0 -90.120092766414899 -10.660147035252749 0 0 0 0 77.785321743853274 -60.316524166559958 0 -60.316524166559958 36.190622608978913 0 0 0 0 97.047493997670244 -61.011942129741755 0 -61.011942129741755 0.068640718253920305 0 0 0 0 141.2289128806442 -55.228757351735368 0 -55.228757351735368 -9.7488540553139398 0 0 0 0 37.461796718052938 -62.100059653698985 0 -62.100059653698985 -0.030522317268373379 0 0 0 0 78.739098135047243 -29.740796169256001 0 -29.740796169256001 2.5583001374935179 0 0 0 0 47.002368044195464 -55.615535709127698 0 -55.615535709127698 18.836896754846407 0 0 0 0 74.030619967845269 -73.816327977148092 0 -73.816327977148092 -12.259911752320534 0 0 0 0 48.791547432461812 -50.24757092214081 0 -50.24757092214081 17.903424965131705 0 0 0 0 7.950462986036996 -10.589933194528662 0 -10.589933194528662 -0.82788411418070784 0 0 0 0 70.718841965728643 8.8836995723141605 0 8.8836995723141605 -8.0334989821599692 0 0 0 0 11.874908592825236 0.19545939204832052 0 0.19545939204832052 -0.56037540438829314 0 0 0 0 11.666015801863978 -38.574286999921007 0 -38.574286999921007 -21.027160256646468 0 0 0 0 62.54942474165 9.0586443874143594 0 9.0586443874143594 -0.0049311338212017913 0 0 0 0 133.53104983622325 -11.687402779419983 0 -11.687402779419983 -67.196765886121511 0 0 0 0 65.054787669738289 13.653140258573547 0 13.653140258573547 -11.092163588723455 0 0 0 0 71.756972896259299 9.3365401615898378 0 9.3365401615898378 -2.0125562473723071 0 0 0 0 57.839291140451678 -1.8000821434468435 0 -1.8000821434468435 -28.944852499191597 0 0 0 0 55.513036195799941 -52.094373195416125 0 -52.094373195416125 16.403768298278294 0 0 0 0 20.825362928879557 -38.642147271261251 0 -38.642147271261251 3.8958616411857507 0 0 0 0 93.809155818264117 -42.147825420857089 0 -42.147825420857089 -53.022523184192323 0 0 0 0 -58.492085393278103 -183.17335405305994 0 -183.17335405305994 -17.115716940635139 0 0 0 0 13.164243336814714 -40.899555760726258 0 -40.899555760726258 8.5891845196071213 0 0 0 0 201.59388764295727 -53.92358348187372 0 -53.92358348187372 -53.722631114855062 0 0 0 0 164.7572228132376 48.036776488938045 0 48.036776488938045 -5.7655218676491131 0 0 0 0 108.01326770683227 23.167120518767661 0 23.167120518767661 28.26953708185556 0 0 0 0 87.316155416599941 85.794906896550174 0 85.794906896550174 87.872187415841836 0 0 0 0 38.304563773315749 -7.8509742418073074 0 -7.8509742418073074 17.797432109730721 0 0 0 0 62.379447540844126 10.958048598058511 0 10.958048598058511 -1.1143015502322529 0 0 0 0 99.382545392567408 69.804422455792746 0 69.804422455792746 -85.731495815192204 0 0 0 0 57.03978220049612 19.623540791244334 0 19.623540791244334 -13.784989956796874 0 0 0 0 62.747463032443193 12.633308697717275 0 12.633308697717275 -5.424057383431645 0 0 0 0 58.797678314571385 13.481248566324631 0 13.481248566324631 -5.1152330744957144 0 0 0 0 54.974103180575185 12.860960052892656 0 12.860960052892656 -0.00056777572642072345 0 0 0 0 53.598351305852702 14.953105258639223 0 14.953105258639223 -3.1747664280782857 0 0 0 0 52.075212057199678 17.636610683676501 0 17.636610683676501 -2.2415640610215242 0 0 0 0 67.31579124100972 32.989052578904214 0 32.989052578904214 5.2526643953266037 0 0 0 0 52.67439523737994 14.693197486337505 0 14.693197486337505 -0.007120359398596782 0 0 0 0 41.123379108161316 11.354719000772411 0 11.354719000772411 0.023477553155948183 0 0 0 0 45.687214596538979 17.444059522848967 0 17.444059522848967 5.5623776464332373 0 0 0 0 43.532629055484335 41.829433123405295 0 41.829433123405295 -44.239150983618231 0 0 0 0 0.11105997751357677 -0.024457372109594644 0 -0.024457372109594644 0.13325950422962954 0 0 0 0 47.548920265297056 5.5592104817761623 0 5.5592104817761623 -86.92954802816223 0 0 0 0 44.828309855860425 -4.2047642977223063 0 -4.2047642977223063 -30.681946062849672 0 0 0 0 57.205391405928822 15.55446193344185 0 15.55446193344185 -23.914116976295617 0 0 0 0 57.167381316326271 5.4818770423786205 0 5.4818770423786205 -2.105658287111551 0 0 0 0 75.448741139320191 19.006981194452635 0 19.006981194452635 -24.579241388427693 0 0 0 0 1115.4946500949154 -124.17487893367957 0 -124.17487893367957 -452.61471014283416 0 0 0 0 33.043735007088287 0.0040331511820568267 0 0.0040331511820568267 -2.3136569433588354 0 0 0 0 47.660029614771702 67.654646732525293 0 67.654646732525293 -15.054992600323885 0 0 0 0 -16.89506702547078 10.624832461783171 0 10.624832461783171 -143.86806495161954 0 0 0 0 -2.4775577941181837 50.088238785119756 0 50.088238785119756 -237.70140866443967 0 0 0 0 129.50530963757774 -54.817062957702547 0 -54.817062957702547 6.8921316866440065 0 0 0 0 16.302436726559677 8.3584860266065135 0 8.3584860266065135 0.90690684706729741 0 0 0 0 5.8388664797229808 0.81064382433365267 0 0.81064382433365267 -4.5180410776097375 0 0 0 0 -81.503206982481061 61.673052277915303 0 61.673052277915303 -104.55445413921825 0 0 0 0 20.446923257768503 50.159718017941032 0 50.159718017941032 -211.45000690933557 0 0 0 0 -16.016749089743826 83.875215128687159 0 83.875215128687159 -201.90849286344928 0 0 0 0 -24.185444057278801 105.16184746335057 0 105.16184746335057 -240.69291666377285 0 0 0 0 5.9509106652032244 2.2257631977603225 0 2.2257631977603225 0.83501780538636972 0 0 0 0 121.93139205907937 -63.650803510057813 0 -63.650803510057813 10.562718456674702 0 0 0 0 472.06989579770016 -330.13305490512948 0 -330.13305490512948 208.95200329022282 0 0 0 0 746.81728657947679 166.34804894677677 0 166.34804894677677 -88.883362306141862 0 0 0 0 251.97206715172069 -47.294491942259924 0 -47.294491942259924 -41.376789095754248 0 0 0 0 188.33529191488924 -84.809131580082521 0 -84.809131580082521 -1.4159410153351928 0 0 0 0 135.23865896710049 -29.418512246882528 0 -29.418512246882528 -30.895212539350723 0 0 0 0 91.835368977044709 -53.966787076310084 0 -53.966787076310084 12.110216526925797 0 0 0 0 184.47952969245671 -57.515412694176121 0 -57.515412694176121 -27.980003553589512 0 0 0 0 270.23853847165901 87.276095273138296 0 87.276095273138296 3.1381232652104245 0 0 0 0 262.37588398434309 -124.48447318620151 0 -124.48447318620151 48.111602355978505 0 0 0 0 194.33076256103959 -46.499835891604107 0 -46.499835891604107 -37.034991443013951 0 0 0 0 150.94472273295833 -36.738188616750222 0 -36.738188616750222 -17.130162471275071 0 0 0 0 144.44615105664889 -98.573316850698234 0 -98.573316850698234 27.151036039283099 0 0 0 0 70.493688894792285 -69.950554120828286 0 -69.950554120828286 34.190726447904183 0 0 0 0 70.721865731997241 -72.64711927624262 0 -72.64711927624262 65.631360517645106 0 0 0 0 59.138106054302625 -127.72600421654207 0 -127.72600421654207 -4.0029515991909648 0 0 0 0 75.296091850577795 -66.737608556777559 0 -66.737608556777559 23.599315423172811 0 0 0 0 -23.27648695481912 4.7738438818205395 0 4.7738438818205395 -78.227534648116944 0 0 0 0 138.46230029295111 74.895402289142794 0 74.895402289142794 -44.397573400172405 0 0 0 0 4.2429995469137793 -75.668402989503647 0 -75.668402989503647 22.942695931268872 0 0 0 0 29.832044724615116 -102.37115278253202 0 -102.37115278253202 -203.58896229513084 0 0 0 0 -103.66807176521979 26.504327701866714 0 26.504327701866714 -11.590743457447388 0 0 0 0 -246.10402428173256 -360.15899321619281 0 -360.15899321619281 -176.4224610137062 0 0 0 0 19.970878371552374 -8.0798751928320627 0 -8.0798751928320627 2.533097932696756 0 0 0 0 -1227.8016164572764 788.0994504524042 0 788.0994504524042 368.72453775151598 0 0 0 0 338.76397582243226 291.06026519593865 0 291.06026519593865 234.20477257026278 0 0 0 0 7.6086526888111337 -2.0924360255545977 0 -2.0924360255545977 0.74836191728599211 0 0 0 0 600.13099356640669 -148.5840497549583 0 -148.5840497549583 -258.96336961187899 0 0 0 0 -419.2473519420455 5.6901768178395287 0 5.6901768178395287 520.76529002512052 0 0 0 0 -29.246572712358784 -162.3903088184789 0 -162.3903088184789 79.075059108192818 0 0 0 0 197.6622013576125 -197.69382234539808 0 -197.69382234539808 12.389976414870944 0 0 0 0 104.09498690190958 -62.707527508790207 0 -62.707527508790207 23.114397004473858 0 0 0 0 92.150000351190101 -74.174836146890243 0 -74.174836146890243 27.60845343771598 0 0 0 0 71.085684518016933 7.0116840789990249 0 7.0116840789990249 6.2074118198935935 0 0 0 0 362.49315757110526 68.952622761918747 0 68.952622761918747 -192.00076666920086 0 0 0 0 23.414794627329684 -5.1965965540065326 0 -5.1965965540065326 38.129225363085141 0 0 0 0 3.7853621766803087 -5.8590441812486631 0 -5.8590441812486631 4.4606008056691557 0 0 0 0 61.186658320873903 29.046332358126335 0 29.046332358126335 17.467423662263627 0 0 0 0 6.5058583357993456 2.9314302339260792 0 2.9314302339260792 18.747883383236854 0 0 0 0 90.791632092223153 42.055570507420839 0 42.055570507420839 4.4811387260062929 0 0 0 0 85.138565274100984 23.061131510047289 0 23.061131510047289 18.018697046259149 0 0 0 0 85.584792990579444 22.654289298928234 0 22.654289298928234 12.499496861693842 0 0 0 0 111.79514889541315 -8.0469748889839821 0 -8.0469748889839821 5.0015952926949581 0 0 0 0 99.010452867038111 27.985389551695661 0 27.985389551695661 -63.99665965435338 0 0 0 0 22.481868972020266 -36.267366423957469 0 -36.267366423957469 11.023929581250457 0 0 0 0 148.98075805784538 6.3521341129704609 0 6.3521341129704609 -18.958225561155132 0 0 0 0 81.233474362860676 20.246568296764742 0 20.246568296764742 10.724006114388569 0 0 0 0 109.36428749782499 -25.722359739324361 0 -25.722359739324361 9.4688854165153202 0 0 0 0 109.85445407866791 -29.77256603720565 0 -29.77256603720565 -74.369330466588735 0 0 0 0 98.04466938378755 -20.304640880612169 0 -20.304640880612169 -53.453026869275504 0 0 0 0 34.295350739674177 1.1989753197959203 0 1.1989753197959203 -9.5737798722442449 0 0 0 0 21.287732627191872 -0.16698058050943132 0 -0.16698058050943132 -2.7656091476426354 0 0 0 0 7.9928749691628838 3.4657637033801763 0 3.4657637033801763 -4.8676714184697776 0 0 0 0 28.621526792601799 1.1299391507598671 0 1.1299391507598671 -14.962798315296823 0 0 0 0 8.549104966827457 -4.0182643035922041 0 -4.0182643035922041 -7.3652855964602715 0 0 0 0 23.583822035812773 4.0538359167791214 0 4.0538359167791214 -7.6748152674937273 0 0 0 0 33.487214252400008 -0.31389397113825623 0 -0.31389397113825623 -0.62664973678693059 0 0 0 0 36.196338581794407 8.278074662333438 0 8.278074662333438 -9.2541691355982039 0 0 0 0 16.707873067105538 12.95601662763724 0 12.95601662763724 -6.0133494157923906 0 0 0 0 24.193048386237933 7.3061009593326389 0 7.3061009593326389 -9.5915346184133057 0 0 0 0 27.43453080188192 -1.0292495206913372 0 -1.0292495206913372 -7.3305368761603518 0 0 0 0 23.072796494841896 6.5118613998600239 0 6.5118613998600239 -14.914030741792999 0 0 0 0 14.216009681947355 5.2844129157433315 0 5.2844129157433315 -3.2175861485949167 0 0 0 0 16.187258621241199 1.3581333370185575 0 1.3581333370185575 -11.158878013134824 0 0 0 0 5.0529680829532069 -2.9442122540850733 0 -2.9442122540850733 -7.2073521458068974 0 0 0 0 18.045901128607511 -17.580390955826374 0 -17.580390955826374 10.677215965955611 0 0 0 0 12.142672604055406 -4.1392978968629563 0 -4.1392978968629563 -11.283464125532873 0 0 0 0 22.426587812798971 6.1729980819935975 0 6.1729980819935975 -11.114613952015233 0 0 0 0 2.7438651431486818 1.977895865465598 0 1.977895865465598 -0.77976544316651175 0 0 0 0 42.686334840531345 -11.177243029633587 0 -11.177243029633587 -26.013752568096038 0 0 0 0 37.665729671432928 -13.91282989873946 0 -13.91282989873946 -24.38996958673215 0 0 0 0 -1.2068720724277568 1.1467104453458461 0 1.1467104453458461 0.86594042752119682 0 0 0 0 75.46644795719476 -23.038565644261837 0 -23.038565644261837 5.8147148522255634 0 0 0 0 109.60557610851538 43.190888737826526 0 43.190888737826526 4.5033809612680216 0 0 0 0 12.609289436320978 27.181351573509595 0 27.181351573509595 46.853847723368233 0 0 0 0 -0.47191139128715776 5.0985007087382144 0 5.0985007087382144 2.7155299436270539 0 0 0 0 7.7662137876359338 3.0728305290067155 0 3.0728305290067155 2.2034743059502944 0 0 0 0 8.2145896704605548 27.955195903982371 0 27.955195903982371 -7.8621444790781538 0 0 0 0 45.395403729417012 -1.7027929285407879 0 -1.7027929285407879 -3.5924555361019657 0 0 0 0 8.0881152529982501 8.9064173817649248 0 8.9064173817649248 24.477537413037567 0 0 0 0 87.749625508542522 -60.136173945615582 0 -60.136173945615582 30.800196966645387 0 0 0 0 21.650590266395739 -15.122888944773038 0 -15.122888944773038 32.207960302058041 0 0 0 0 21.754752911604555 -7.1209609757902541 0 -7.1209609757902541 -34.579284906335261 0 0 0 0 15.641666524767061 17.833767304895218 0 17.833767304895218 -18.857538054871384 0 0 0 0 6.4155374601687072 -0.72925301413647503 0 -0.72925301413647503 1.9458429333678851 0 0 0 0 11.511187691990642 1.6006385963215308 0 1.6006385963215308 -5.7784988615596138 0 0 0 0 7.5140722223841294 10.892075429968685 0 10.892075429968685 -15.567799513064188 0 0 0 0 6.5874996689890395 9.3092434184897002 0 9.3092434184897002 -3.6541228232566141 0 0 0 0 6.2486970823118213 6.5026231295493204 0 6.5026231295493204 -5.6739049804382109 0 0 0 0 1.7654500348322131 -0.23395872034488008 0 -0.23395872034488008 -0.020196754856610877 0 0 0 0 2.4477095353649929 1.4885194724001849 0 1.4885194724001849 -6.940006961085146 0 0 0 0 5.6693283868418121 3.8783021921169905 0 3.8783021921169905 -2.3709004066938899 0 0 0 0 -3.6244439099245938 13.602656028316005 0 13.602656028316005 -0.91039487848104272 0 0 0 0 -2.9182537113811122 7.8159859817319557 0 7.8159859817319557 33.663645800717859 0 0 0 0 -0.61997421522872287 -0.0057108795662941247 0 -0.0057108795662941247 0.94417548815618524 0 0 0 0 218.69817261369462 9.3605267387872573 0 9.3605267387872573 3.0365626681577851 0 0 0 0 120.35375332258991 37.794806413673996 0 37.794806413673996 -30.611894847083022 0 0 0 0 117.02424520270142 36.405949237757795 0 36.405949237757795 29.371496522203643 0 0 0 0 132.61204033308604 69.876950058521516 0 69.876950058521516 51.101131005929346 0 0 0 0 -0.47701453974261199 -1.2704568019144844 0 -1.2704568019144844 1.3070846744050251 0 0 0 0 39.446703284542309 -84.296191037459266 0 -84.296191037459266 32.448927651439078 0 0 0 0 -5.4339278116895002 15.507262673877506 0 15.507262673877506 21.793030082288112 0 0 0 0 63.147739071966498 -43.797457500957307 0 -43.797457500957307 34.901199044202258 0 0 0 0 139.55871115210903 -86.004307297931504 0 -86.004307297931504 58.378908120941617 0 0 0 0 50.291646520825452 -48.93240367825495 0 -48.93240367825495 83.306867193609463 0 0 0 0 182.77641448762733 -53.986566285640478 0 -53.986566285640478 28.808221515562664 0 0 0 0 281.16010770292633 26.944698587904611 0 26.944698587904611 101.61170535561342 0 0 0 0 185.09942658080217 -15.580729570153158 0 -15.580729570153158 88.840114315936489 0 0 0 0 139.56395893194014 -52.081044631321859 0 -52.081044631321859 156.46628306290154 0 0 0 0 381.12190813873167 -47.194569330025615 0 -47.194569330025615 46.839506827460582 0 0 0 0 243.10669030636927 -87.609485407041518 0 -87.609485407041518 54.388971511266845 0 0 0 0 225.64606670400826 -68.573303199306338 0 -68.573303199306338 44.065564111675542 0 0 0 0 194.49787721756729 -60.070531628437038 0 -60.070531628437038 45.359383664502502 0 0 0 0 252.97372076637839 -21.207349468195844 0 -21.207349468195844 69.861506657887276 0 0 0 0 194.2444758708225 -40.668713121447354 0 -40.668713121447354 19.353785986509592 0 0 0 0 213.48870710485062 -97.773370069638077 0 -97.773370069638077 -21.624254501444739 0 0 0 0 416.74081027200009 -126.04772769920714 0 -126.04772769920714 -43.414412046704456 0 0 0 0 113.52514922605769 -61.5296597293368 0 -61.5296597293368 49.829085495594427 0 0 0 0 -59.270824898318097 -4.3938718792842337 0 -4.3938718792842337 33.550689120493189 0 0 0 0 5.7654963796840946 -1.7208334934607095 0 -1.7208334934607095 0.72338501049739978 0 0 0 0 118.29833799050175 -196.49852688289945 0 -196.49852688289945 8.1227206805160677 0 0 0 0 231.57017613299831 384.94924477101722 0 384.94924477101722 235.83539251623142 0 0 0 0 214.34939469644451 183.58105366414702 0 183.58105366414702 2.390682312025092 0 0 0 0 248.77834407647606 135.64476163270092 0 135.64476163270092 34.331190650901135 0 0 0 0 33.856611205696083 -3.7165749252203568 0 -3.7165749252203568 1.8931829339159929 0 0 0 0 92.5065862385527 68.016400695884613 0 68.016400695884613 -17.77826063020143 0 0 0 0 188.8430780212957 -191.38704586232083 0 -191.38704586232083 -328.82853654426435 0 0 0 0 241.0821914049011 79.487614278658384 0 79.487614278658384 -344.69814009268202 0 0 0 0 65.230376516652996 -2.9517717746053549 0 -2.9517717746053549 -1.917348859563007 0 0 0 0 210.73877427686966 191.63141734819305 0 191.63141734819305 -52.152400427909015 0 0 0 0 2.7724133383264586 1.2742761553092663 0 1.2742761553092663 -0.64581622856558596 0 0 0 0 39.3513725456869 -112.3153790555175 0 -112.3153790555175 -237.77073771883033 0 0 0 0 21.337167115212651 159.77170708665244 0 159.77170708665244 323.09327020860928 0 0 0 0 194.67869721451279 33.821674545898304 0 33.821674545898304 -147.42791779068193 0 0 0 0 -142.49545856032637 -28.344975274477292 0 -28.344975274477292 12.524517772359104 0 0 0 0 -80.474852190556703 -71.708930418732962 0 -71.708930418732962 41.678470927623493 0 0 0 0 80.320306037436239 2.5015625415981049 0 2.5015625415981049 34.727830968425224 0 0 0 0 60.371036434429698 13.41217350813713 0 13.41217350813713 125.37158460453429 0 0 0 0 3.2041754403368827 -2.7934357361210544 0 -2.7934357361210544 -1.7464943722698951 0 0 0 0 -101.19046565357712 63.157953391882984 0 63.157953391882984 -114.23539434989198 0 0 0 0 132.15837907767855 -57.667389066849864 0 -57.667389066849864 -57.864166412637132 0 0 0 0 187.54703415445692 84.551791469089039 0 84.551791469089039 -134.26226233674242 0 0 0 0 109.38667957234429 -11.400829145695752 0 -11.400829145695752 -175.8444383352471 0 0 0 0 103.5423380046559 82.186021334371617 0 82.186021334371617 -272.59689426854129 0 0 0 0 8.6916141852707369 -44.62506623792342 0 -44.62506623792342 21.023676369916302 0 0 0 0 20.816982010140237 164.6318596619995 0 164.6318596619995 -23.131798904074458 0 0 0 0 54.075030703963023 3.3530621536114076 0 3.3530621536114076 -1.2168327780377419 0 0 0 0 82.894297381688375 104.95720371192692 0 104.95720371192692 -172.15045791241891 0 0 0 0 221.51981438905932 130.69607201255224 0 130.69607201255224 -255.45706800833204 0 0 0 0 23.931736558413832 -89.452724124904307 0 -89.452724124904307 -11.523252326409875 0 0 0 0 6.7437187724340788 1.4936743115451527 0 1.4936743115451527 -1.0645393980520703 0 0 0 0 3.88033801423407 3.7349787899048437 0 3.7349787899048437 -1.3345845228975959 0 0 0 0 -36.469894529756857 24.169076508721446 0 24.169076508721446 -26.963127545720454 0 0 0 0 -74.223460034714662 -48.686328730523883 0 -48.686328730523883 -56.946993390288299 0 0 0 0 110.76117468945449 -34.080839681868383 0 -34.080839681868383 -307.0453138559069 0 0 0 0 -39.945021788880695 111.39965321489399 0 111.39965321489399 125.73359460029951 0 0 0 0 -15.88186256858171 -79.782622680178065 0 -79.782622680178065 -195.76968983274674 0 0 0 0 61.590876967529766 10.312521004265363 0 10.312521004265363 -95.890633320764209 0 0 0 0 69.307643750122224 38.496761792748657 0 38.496761792748657 -112.7784689719374 0 0 0 0 13.20331884243933 31.485828621381643 0 31.485828621381643 -5.5945087771647195 0 0 0 0 81.448162459404557 181.74236613721723 0 181.74236613721723 -154.11662725595033 0 0 0 0 23.911443289614169 4.9209238350058797 0 4.9209238350058797 1.0087079701984418 0 0 0 0 33.787984102527844 17.746897209440249 0 17.746897209440249 -105.31970521474977 0 0 0 0 228.61585473024752 132.89186730662095 0 132.89186730662095 -62.090109405796284 0 0 0 0 54.272185936191818 137.57588393282049 0 137.57588393282049 162.3845215747524 0 0 0 0 -67.542343011882622 85.329196460763342 0 85.329196460763342 -67.069866493433437 0 0 0 0 -42.599166138155852 -91.747575069952291 0 -91.747575069952291 -65.522003846244843 0 0 0 0 17.513744456173924 -2.7491420169736855 0 -2.7491420169736855 0.046821018782059909 0 0 0 0 91.76659233996179 -111.52016623430336 0 -111.52016623430336 -217.69358048616277 0 0 0 0 -32.116794422181556 30.867333298016092 0 30.867333298016092 39.221654762228354 0 0 0 0 60.268594932145788 32.740605126217815 0 32.740605126217815 -145.53293983884464 0 0 0 0 141.94369670102606 -99.493928559040796 0 -99.493928559040796 -68.884424770310943 0 0 0 0 101.92238255694247 86.276842153464031 0 86.276842153464031 63.603328685983797 0 0 0 0 28.749665416587959 -14.377453617895299 0 -14.377453617895299 116.12738590651315 0 0 0 0 64.377912175561505 50.79712893973624 0 50.79712893973624 30.934566468530647 0 0 0 0 132.12832436402095 79.040518502885334 0 79.040518502885334 -3.898428415996932 0 0 0 0 48.536447874015721 -17.258908996931268 0 -17.258908996931268 7.5592642235596941 0 0 0 0 2.5105359425319307 0.91611464449854907 0 0.91611464449854907 -0.5069047767307584 0 0 0 0 -32.514521635006531 -30.484181882217399 0 -30.484181882217399 117.37437128902434 0 0 0 0 13.250817442920379 16.835353755571191 0 16.835353755571191 7.3984312859520287 0 0 0 0 -1.0765711380273046 8.4744234703380812 0 8.4744234703380812 -3.7262195987724835 0 0 0 0 11.157336484793632 8.9582762152189161 0 8.9582762152189161 -4.3710902956269138 0 0 0 0 10.557840219515157 2.29232204863942 0 2.29232204863942 -4.2312216708265531 0 0 0 0 10.01337875725585 4.5357057135501009 0 4.5357057135501009 -7.9491990110459483 0 0 0 0 12.054081576803583 8.2446448697635333 0 8.2446448697635333 -5.6696411137002087 0 0 0 0 31.910778922753707 7.3052369853339485 0 7.3052369853339485 -26.587543867799468 0 0 0 0 33.148655317541852 25.108865972598778 0 25.108865972598778 -11.998452351417654 0 0 0 0 31.567002166253076 10.850554756386742 0 10.850554756386742 -0.46293460176002732 0 0 0 0 48.907334591582185 28.67301987297742 0 28.67301987297742 -44.379669652736993 0 0 0 0 -59.982895761175314 58.308877425428363 0 58.308877425428363 3.7469295462288414 0 0 0 0 6.7909904884727439 9.8760446690916979 0 9.8760446690916979 24.244177613497413 0 0 0 0 25.252351019480557 -1.9246220617316112 0 -1.9246220617316112 -170.15388838229364 0 0 0 0 3.0288212236628169 -11.789214053886099 0 -11.789214053886099 -122.90105191038947 0 0 0 0 26.721755848047906 63.289644123781727 0 63.289644123781727 72.975578872049027 0 0 0 0 1.0040840125922159 1.0146318171505939 0 1.0146318171505939 -0.67193811632163492 0 0 0 0 32.750575051729129 62.825862679165198 0 62.825862679165198 -37.751145422058926 0 0 0 0 43.683478556644303 -5.4257094566548609 0 -5.4257094566548609 -1.0843796829316936 0 0 0 0 225.19269532565522 167.93581655294486 0 167.93581655294486 -306.48147225130037 0 0 0 0 11.771747657594375 4.8686819535021293 0 4.8686819535021293 -3.1857920948192446 0 0 0 0 95.142489981328254 -65.407323566899777 0 -65.407323566899777 -38.997547578680155 0 0 0 0 37.260996559590183 -6.2044586978747134 0 -6.2044586978747134 -1.2712785737411791 0 0 0 0 1.8359334638056737 -3.742127775233687 0 -3.742127775233687 0.80993646230500671 0 0 0 0 59.177785241554375 -142.82716011318007 0 -142.82716011318007 -164.83672485486596 0 0 0 0 74.993517379552941 -256.44159078766074 0 -256.44159078766074 141.64878751319156 0 0 0 0 60.369335478069843 45.145176934429855 0 45.145176934429855 -77.612356490913044 0 0 0 0 46.306090928192134 29.196611007221918 0 29.196611007221918 -39.679831272960655 0 0 0 0 47.602578193123918 64.336275332175319 0 64.336275332175319 -36.596116905411691 0 0 0 0 76.511727457269444 51.729114137477609 0 51.729114137477609 -20.26905657563475 0 0 0 0 58.869409157079645 22.766197774843931 0 22.766197774843931 -37.363219666701454 0 0 0 0 46.085607372908271 31.639888549196712 0 31.639888549196712 -29.491281926770171 0 0 0 0 55.631278869259404 -14.78727681796272 0 -14.78727681796272 -42.343312276378811 0 0 0 0 10.252462081167828 6.6532292667036614 0 6.6532292667036614 -20.65668605322773 0 0 0 0 -6.8702840420555731 -12.397143454129719 0 -12.397143454129719 38.43715222363835 0 0 0 0 50.027106557432489 20.392511805405775 0 20.392511805405775 -40.629781273320987 0 0 0 0 2.3722369366789735 -1.7869863738247744 0 -1.7869863738247744 -0.31925516643078133 0 0 0 0 2.483621290375595 74.659907903076629 0 74.659907903076629 87.837362329246389 0 0 0 0 38.368705232216598 -43.390056477781044 0 -43.390056477781044 54.933171881764679 0 0 0 0 55.396185890887864 238.21665224563338 0 238.21665224563338 -403.55136806083215 0 0 0 0 39.495578678241145 1.0071773755466893 0 1.0071773755466893 -23.191464314462337 0 0 0 0 19.631057506914829 -4.5056526021196674 0 -4.5056526021196674 -8.402869989731645 0 0 0 0 -25.897978035987762 -40.373374304339336 0 -40.373374304339336 -17.912580149022347 0 0 0 0 4.5920093828510389 7.6007345472745413 0 7.6007345472745413 -15.231535987296112 0 0 0 0 23.360349323265837 -33.35272402015562 0 -33.35272402015562 -79.978271371388473 0 0 0 0 27.85556726536015 4.1577496708189301 0 4.1577496708189301 -15.292694535881424 0 0 0 0 42.061908563344332 2.9471464393882343 0 2.9471464393882343 -53.652567061995796 0 0 0 0 11.094856955761308 4.5064690980152022 0 4.5064690980152022 -9.5639765637522576 0 0 0 0 20.914673738169597 6.1368400182648841 0 6.1368400182648841 -12.327933854615019 0 0 0 0 29.923138327944798 3.3003340814654223 0 3.3003340814654223 -8.4236355948942219 0 0 0 0 24.64013524389884 6.5912074886650771 0 6.5912074886650771 -15.418737130430827 0 0 0 0 29.53043617882031 -6.6477679901696973 0 -6.6477679901696973 -17.105618923673319 0 0 0 0 21.343572203244548 5.5089279287691966 0 5.5089279287691966 -8.7908475550589884 0 0 0 0 10.736009448896851 4.7765285056234603 0 4.7765285056234603 -4.2335772297753227 0 0 0 0 19.540783848162391 6.9083070262201147 0 6.9083070262201147 8.9591861060550855 0 0 0 0 25.799075730501499 -8.606379452547003 0 -8.606379452547003 -19.904515360334699 0 0 0 0 34.873513263417408 32.738769458687784 0 32.738769458687784 -2.1530040947855014 0 0 0 0 16.949791627282082 5.5128401379774772 0 5.5128401379774772 -7.3754841527567736 0 0 0 0 4.0796826503842851 3.9973914926210909 0 3.9973914926210909 -1.8771235569670397 0 0 0 0 19.279786858326446 9.0828468175555201 0 9.0828468175555201 -3.4012841535218779 0 0 0 0 37.214914834155934 20.711829439019027 0 20.711829439019027 -8.0362577953851542 0 0 0 0 26.033119845727924 1.9400667500615327 0 1.9400667500615327 -1.0065316042282575 0 0 0 0 5.6561533402783084 2.0708051226014561 0 2.0708051226014561 -2.8380898862491715 0 0 0 0 11.325139630411286 2.4295309980777802 0 2.4295309980777802 -6.3884294285862779 0 0 0 0 28.45130484744368 6.3312092264721116 0 6.3312092264721116 -11.320726791240759 0 0 0 0 28.361549080655095 2.5075855608872644 0 2.5075855608872644 -8.9587788624576206 0 0 0 0 17.739974979772647 -0.47615773464131905 0 -0.47615773464131905 -5.7219353459192659 0 0 0 0 17.099164844548795 -0.48177955729897803 0 -0.48177955729897803 -2.9419343518848109 0 0 0 0 14.76469994284966 4.6670877990827506 0 4.6670877990827506 -6.0884629236790975 0 0 0 0 13.041977067390889 2.504825911199589 0 2.504825911199589 -5.0074270592609516 0 0 0 0 16.537379863583382 -2.9048640324977271 0 -2.9048640324977271 0.50528408513433742 0 0 0 0 -7.0081828415495693 0.80663218133608439 0 0.80663218133608439 12.947079185205212 0 0 0 0 20.270619986782719 -1.7196923906905539 0 -1.7196923906905539 -12.034524357294455 0 0 0 0 15.027542980278668 58.547488847067882 0 58.547488847067882 -9.9814822697701402 0 0 0 0 74.698630704493553 103.96819671986725 0 103.96819671986725 -15.616954999541122 0 0 0 0 130.71417979781108 77.991483243478797 0 77.991483243478797 -109.2650588672202 0 0 0 0 73.759291590584326 4.6336095279334586 0 4.6336095279334586 -63.223424221372625 0 0 0 0 69.072257370862644 11.930656799803273 0 11.930656799803273 -64.394678695285393 0 0 0 0 56.074799610985792 -43.979621816301915 0 -43.979621816301915 -148.62529478299939 0 0 0 0 121.16767678629549 47.144660959947089 0 47.144660959947089 -207.66948297643967 0 0 0 0 5.1931361489187111 103.56105399483295 0 103.56105399483295 146.60745551685613 0 0 0 0 124.32185675457731 282.28795961793401 0 282.28795961793401 75.575646919299743 0 0 0 0 29.364143359911395 27.010930036286481 0 27.010930036286481 386.33178039437416 0 0 0 0 10.744529932911973 53.57837076392434 0 53.57837076392434 0.3407490092382659 0 0 0 0 -31.357170075098111 46.583018832437006 0 46.583018832437006 112.04675942205813 0 0 0 0 -29.548980472893163 38.279488697216721 0 38.279488697216721 -2.3616734158370036 0 0 0 0 2406.5021059652354 -268.74591401922186 0 -268.74591401922186 -414.14867116493087 0 0 0 0 3494.3603686643255 515.88979852872058 0 515.88979852872058 -640.46245874711883 0 0 0 0 1992.9694832942623 1208.1649797969676 0 1208.1649797969676 306.22887162712539 0 0 0 0 4.1253975462756856 3.469339003792399 0 3.469339003792399 8.2635111144746034 0 0 0 0 668.01217269251356 664.94775266776526 0 664.94775266776526 496.80121067813275 0 0 0 0 3.5289269697022689 1.9234422785908265 0 1.9234422785908265 0.36974896038299399 0 0 0 0 11.167697173557826 19.170976198536096 0 19.170976198536096 -18.545684951132216 0 0 0 0 16.809993422144444 -2.2838161505854373 0 -2.2838161505854373 -1.0334429153651925 0 0 0 0 12.39509820434337 12.447094224810598 0 12.447094224810598 2.3745550956146788 0 0 0 0 55.045931134598504 6.733201279365062 0 6.733201279365062 -8.8291043077838367 0 0 0 0 38.832250064660911 2.4495630829192976 0 2.4495630829192976 0.94052317176129918 0 0 0 0 28.909993104301975 43.911628638630646 0 43.911628638630646 460.41350486366412 0 0 0 0 3496.3780080766592 2.7888259760832463 0 2.7888259760832463 2.1022026798550959 0 0 0 0 8.5884182127433348 3.5037094110588356 0 3.5037094110588356 4.7855838019129813 0 0 0 0 28.837406156031648 19.191153867280892 0 19.191153867280892 50.594636021363883 0 0 0 0 3496.3879242925468 2.7921741187221132 0 2.7921741187221132 2.1005588379114153 0 0 0 0 9.4159418236720569 0.043274045608143297 0 0.043274045608143297 -0.45547846371084955 0 0 0 0 34.840578200353775 2.0954826664643065 0 2.0954826664643065 2.5321836366243815 0 0 0 0 18.718137110770755 4.1279224197726876 0 4.1279224197726876 3.1132528020757064 0 0 0 0 30.276942431898505 8.6172451065620805 0 8.6172451065620805 0.10589436873038582 0 0 0 0 53.863491294829146 7.1882340620807668 0 7.1882340620807668 -3.1545237760681175 0 0 0 0 38.232252482757588 -5.0350041122651348 0 -5.0350041122651348 -4.4065699685066697 0 0 0 0 49.813348502830195 0.91644255587596035 0 0.91644255587596035 -4.2344869509189493 0 0 0 0 46.98547467130993 -0.17511872993532052 0 -0.17511872993532052 -6.5932865487793606 0 0 0 0 54.191159684181912 13.186513196472561 0 13.186513196472561 4.0885972077202268 0 0 0 0 54.627618302423798 17.679344231710616 0 17.679344231710616 -22.99814317514938 0 0 0 0 59.548451568203745 17.276469675475255 0 17.276469675475255 -55.409671502502533 0 0 0 0 26.503643045228728 -0.09281261511630845 0 -0.09281261511630845 -5.4637701050457235 0 0 0 0 16.243076094629942 -15.70209300968736 0 -15.70209300968736 2.1191491505328486 0 0 0 0 34.428857916878769 4.064525648314202 0 4.064525648314202 -24.544704351604196 0 0 0 0 48.408504942635773 7.6042846316379382 0 7.6042846316379382 -32.732826308341373 0 0 0 0 32.763630969173391 2.0118213820754818 0 2.0118213820754818 -36.730029481799647 0 0 0 0 34.132518363236159 -4.983040316115364 0 -4.983040316115364 -43.083526631363384 0 0 0 0 59.616337187806494 3.5690204415948301 0 3.5690204415948301 -22.266540506597721 0 0 0 0 59.944389858166687 1.0823181249700156 0 1.0823181249700156 -50.152709370333014 0 0 0 0 50.625189189828234 -7.8682780554688634 0 -7.8682780554688634 -57.748483873406258 0 0 0 0 42.089379836572334 -2.3625837731788124 0 -2.3625837731788124 -21.150755052396107 0 0 0 0 50.858624987391522 -6.3667747327622237 0 -6.3667747327622237 -29.345894681355048 0 0 0 0 8.6647073559812622 3.442484064298668 0 3.442484064298668 0.14057264793257929 0 0 0 0 33.994246737085632 7.9618882638765172 0 7.9618882638765172 -1.8191722820968153 0 0 0 0 45.069217854202179 14.246554848505539 0 14.246554848505539 -1.0171464107602333 0 0 0 0 38.630094930835185 19.460928518913875 0 19.460928518913875 3.7530260700978033 0 0 0 0 49.91602605778462 0.85136861597260349 0 0.85136861597260349 -4.2843672656372291 0 0 0 0 14.103136074563587 5.4045009010211231 0 5.4045009010211231 -0.054306141186074797 0 0 0 0 30.463594231448951 14.847130374945777 0 14.847130374945777 4.4878614790454776 0 0 0 0 28.49349713241827 19.563197737606743 0 19.563197737606743 12.281742998893606 0 0 0 0 36.461587093013804 2.3397682336922969 0 2.3397682336922969 -3.7568838938834688 0 0 0 0 26.38107463894994 14.982285656376689 0 14.982285656376689 6.0542465397834349 0 0 0 0 67.799881760016433 11.401053924538701 0 11.401053924538701 -3.9593517427578462 0 0 0 0 19.513459998873969 0.028985343103443029 0 0.028985343103443029 -7.0188729310610389 0 0 0 0 -32.469391826140054 32.428384244727681 0 32.428384244727681 15.622827010924539 0 0 0 0 18.371635933095718 15.2522971013329 0 15.2522971013329 7.0569652493347528 0 0 0 0 1.427319197784982 2.4395962272151195 0 2.4395962272151195 3.5845320080955529 0 0 0 0 11.799621325735643 6.7684972186340531 0 6.7684972186340531 12.698248024569693 0 0 0 0 16.536117776850006 13.368680287237567 0 13.368680287237567 9.1019893209565907 0 0 0 0 0.11269881101907231 5.5972144699425712 0 5.5972144699425712 7.8762472372543861 0 0 0 0 10.724807286956832 5.7191811773897427 0 5.7191811773897427 0.69346872527960168 0 0 0 0 31.609790297530708 9.0086105897316884 0 9.0086105897316884 -11.574543466837667 0 0 0 0 20.885241496828002 2.6209307885763096 0 2.6209307885763096 -4.9649782196904102 0 0 0 0 19.806467613821269 -18.787783747957334 0 -18.787783747957334 -2.351300682281817 0 0 0 0 20.385047194751678 -7.6807488144563649 0 -7.6807488144563649 -33.662908513293132 0 0 0 0 22.054145397501998 -2.5744488402028765 0 -2.5744488402028765 -25.470943084276769 0 0 0 0 45.190577413479332 34.635588025400466 0 34.635588025400466 23.397156523657486 0 0 0 0 -71.432885588088538 5.6241048675674392 0 5.6241048675674392 127.02067402949251 0 0 0 0 126.380177420564 84.986410509285633 0 84.986410509285633 -3.1833068427536091 0 0 0 0 3.39406256300785 0.055777048030321907 0 0.055777048030321907 -1.0446023373464683 0 0 0 0 10.972149187760806 7.2011135741608996 0 7.2011135741608996 31.970225655582908 0 0 0 0 3.6197229069574064 0.075436344920788656 0 0.075436344920788656 -0.43179075913881693 0 0 0 0 33.04019683200022 41.100132942850223 0 41.100132942850223 99.349753217375849 0 0 0 0 9.6644140467251418 -16.649755345337837 0 -16.649755345337837 25.331268176711944 0 0 0 0 -24.315531037267647 7.5635767569327754 0 7.5635767569327754 59.044100425776719 0 0 0 0 -0.64085979639321522 -3.8663086871080186 0 -3.8663086871080186 10.845655206593733 0 0 0 0 6.7851443495567594 1.2592067166079772 0 1.2592067166079772 2.139669303778688 0 0 0 0 302.26447416556039 -163.85344253177777 0 -163.85344253177777 85.915575742885963 0 0 0 0 116.87611175693746 -129.86436033079849 0 -129.86436033079849 89.253495802422549 0 0 0 0 -42.029346205403272 -122.36469508393998 0 -122.36469508393998 90.345423641132356 0 0 0 0 108.79566476592299 -1.5240762101865357 0 -1.5240762101865357 -12.006587728263412 0 0 0 0 28.654988231341122 29.594839882626104 0 29.594839882626104 27.797459471024467 0 0 0 0 0.25832495077233375 -0.75209913935690054 0 -0.75209913935690054 1.6036115410674485 0 0 0 0 49.8728354726627 -104.32579604185139 0 -104.32579604185139 86.849840583018249 0 0 0 0 239.34955543035176 -52.368088091100162 0 -52.368088091100162 50.826815934775027 0 0 0 0 89.982908641897666 51.187817603883559 0 51.187817603883559 15.654956481421323 0 0 0 0 0.079880268363154983 -3.0218700848354203 0 -3.0218700848354203 -2.9531155622650389 0 0 0 0 182.66207652739831 41.953170657115379 0 41.953170657115379 -356.75297726492659 0 0 0 0 23.699566482202499 -41.455521975669626 0 -41.455521975669626 -2.6049530257018887 0 0 0 0 29.755768948707555 -42.289211817189198 0 -42.289211817189198 -42.657656881979165 0 0 0 0 29.542793707019882 -5.0629275327937648 0 -5.0629275327937648 -45.712283398187992 0 0 0 0 -46.484241097390623 -97.556685742578225 0 -97.556685742578225 -44.806671755581647 0 0 0 0 158.98249172408396 -322.3905296126743 0 -322.3905296126743 123.99094397545105 0 0 0 0 392.30573597038892 -181.17941790390455 0 -181.17941790390455 -208.24843847758007 0 0 0 0 455.81783470525261 213.57596554362249 0 213.57596554362249 133.7809604924646 0 0 0 0 279.98333286380876 -209.80265499106542 0 -209.80265499106542 232.1274691712706 0 0 0 0 -180.73827783117304 -242.0359040567846 0 -242.0359040567846 257.33529429456166 0 0 0 0 3.6553534534345431 -2.9299477646881087 0 -2.9299477646881087 2.6333154530156664 0 0 0 0 182.47056130354758 23.290277839424448 0 23.290277839424448 10.21357900749183 0 0 0 0 390.93949898973824 84.901807295580952 0 84.901807295580952 -2.3099993069781704 0 0 0 0 -140.15767384698211 -39.447204155094767 0 -39.447204155094767 104.31001698609452 0 0 0 0 -217.81934708018525 -311.89241398708555 0 -311.89241398708555 -158.81262334049961 0 0 0 0 12.309768580305615 -7.9382802786355739 0 -7.9382802786355739 4.5695801853902385 0 0 0 0 166.97070839430671 149.28698644839346 0 149.28698644839346 137.79273711248698 0 0 0 0 554.75247840586781 -167.62296811220597 0 -167.62296811220597 -307.29417594036067 0 0 0 0 -178.20820560411084 57.2347772415294 0 57.2347772415294 301.71046653378971 0 0 0 0 120.83182105553715 109.72414923380984 0 109.72414923380984 85.331189311669505 0 0 0 0 16.259008628081205 -11.684698851374876 0 -11.684698851374876 5.6392615347517108 0 0 0 0 -242.55951258425193 -477.06773057022747 0 -477.06773057022747 -268.57785223871605 0 0 0 0 131.70152695076013 40.091007268563388 0 40.091007268563388 -0.51456556505854678 0 0 0 0 100.3786748514467 41.6255390552177 0 41.6255390552177 4.305211089592035 0 0 0 0 125.77409770236409 37.419071487083329 0 37.419071487083329 -101.63955230020701 0 0 0 0 65.944817628231249 12.072921107844195 0 12.072921107844195 34.055382270589689 0 0 0 0 93.347655086967279 38.59813058067482 0 38.59813058067482 22.578688303483432 0 0 0 0 172.68441891338443 -49.559457052178288 0 -49.559457052178288 -185.12833058857495 0 0 0 0 143.27647949358288 -2.0304529941373062 0 -2.0304529941373062 -149.41411262776228 0 0 0 0 175.32083578543825 141.50737207704708 0 141.50737207704708 302.41179429763145 0 0 0 0 77.365831457441288 -12.571796336017151 0 -12.571796336017151 -1.2036363584297023 0 0 0 0 68.788568619306375 -9.9939207579585485 0 -9.9939207579585485 -1.8926811989266534 0 0 0 0 385.28458996190602 259.92800542920634 0 259.92800542920634 385.48078574818066 0 0 0 0 74.864466180166346 -133.71810642109637 0 -133.71810642109637 -154.34456629507667 0 0 0 0 5.1249856359499972 -43.17629775506316 0 -43.17629775506316 -21.528305660051956 0 0 0 0 47.966462065734959 -120.79584409618906 0 -120.79584409618906 7.6011962133411544 0 0 0 0 184.75949629198294 -68.147094854665966 0 -68.147094854665966 66.939882333523656 0 0 0 0 39.470641817279102 -25.866160910982217 0 -25.866160910982217 65.385681251154551 0 0 0 0 63.100981129513457 -94.067535369059669 0 -94.067535369059669 12.310283781218004 0 0 0 0 -27.274527577530534 -32.901772758504649 0 -32.901772758504649 105.21781973986049 0 0 0 0 -17.358419447025881 -12.46449004094049 0 -12.46449004094049 69.877844682077466 0 0 0 0 -10.11315581008239 -57.286410246704662 0 -57.286410246704662 269.43688755433686 0 0 0 0 1.7306000038206832 0.50484598033422401 0 0.50484598033422401 9.8508117178141354 0 0 0 0 3499.6039946431483 -714.04319581822392 0 -714.04319581822392 -41.174022059243164 0 0 0 0 2893.6585993567351 -147.27063286258431 0 -147.27063286258431 -385.63210808552992 0 0 0 0 -46.99426048461828 19.420619897790516 0 19.420619897790516 63.834033005703077 0 0 0 0 -24.831645735386701 -23.228386643884505 0 -23.228386643884505 15.370696142533006 0 0 0 0 6.1215894984179968 -5.6136717119376414 0 -5.6136717119376414 8.6686967831831225 0 0 0 0 3349.7629531506245 -684.76567663551668 0 -684.76567663551668 179.61580255765151 0 0 0 0 -5.8123692622975796 -28.950764227490708 0 -28.950764227490708 13.05767637782742 0 0 0 0 4130.9686084189598 -351.21231731329431 0 -351.21231731329431 44.685824005953577 0 0 0 0 319.64071876812886 -536.04268055580076 0 -536.04268055580076 145.8517823184693 0 0 0 0 3503.9142621209867 -524.23605738050401 0 -524.23605738050401 806.58082466783674 0 0 0 0 4635.7593573435806 2765.8593545895847 0 2765.8593545895847 3343.9158600654432 0 0 0 0 4363.2939081205404 -1524.3977125852707 0 -1524.3977125852707 59.856637101115894 0 0 0 0 -0.080478461276612734 -0.40546332511366501 0 -0.40546332511366501 2.8501142167299065 0 0 0 0 -499.49699937031255 -13.876845525090516 0 -13.876845525090516 1640.5628560723912 0 0 0 0 9.0834907368278195 2.960899870400624 0 2.960899870400624 11.527053409147456 0 0 0 0 12.712340191465046 -68.739054855060431 0 -68.739054855060431 -31.796779951232566 0 0 0 0 52.701023235476327 -4.5089132356234529 0 -4.5089132356234529 -1.5418883634800133 0 0 0 0 514.30076914680831 211.3812146522489 0 211.3812146522489 215.11784755979468 0 0 0 0 1036.6979002872322 1386.3758770766176 0 1386.3758770766176 1230.4640507818647 0 0 0 0 190.9286948244735 381.88109027063445 0 381.88109027063445 933.21224053535411 0 0 0 0 716.53080143708212 1577.7181113965935 0 1577.7181113965935 2179.2585409971166 0 0 0 0 5525.9103884656652 2848.664341904614 0 2848.664341904614 2398.5451775913079 0 0 0 0 37.227106380159967 991.5424290922781 0 991.5424290922781 2869.8550546219476 0 0 0 0 3498.0898789979838 1695.6490138234901 0 1695.6490138234901 343.71298834041858 0 0 0 0 1577.5315299794893 909.03250745012338 0 909.03250745012338 652.20420862608637 0 0 0 0 2620.6566277513339 751.70867985881546 0 751.70867985881546 -41.322072885873112 0 0 0 0 1796.4281940647434 795.38361697871323 0 795.38361697871323 -32.918134957738943 0 0 0 0 120.55756536489207 100.62612826009303 0 100.62612826009303 637.04526603038425 0 0 0 0 458.03936485423765 282.82372574917889 0 282.82372574917889 470.28867964722326 0 0 0 0 253.79678729583247 450.91098529403206 0 450.91098529403206 635.56921703418448 0 0 0 0 123.63592679480851 492.06916710547796 0 492.06916710547796 177.3870410989266 0 0 0 0 128.19402204464859 -10.367890909577056 0 -10.367890909577056 305.50814085431313 0 0 0 0 1117.4791014848743 394.65741764902157 0 394.65741764902157 372.65992692380598 0 0 0 0 80.645778477159183 453.16636240244611 0 453.16636240244611 -124.63762659243142 0 0 0 0 -82.460917133465045 49.932554727655813 0 49.932554727655813 31.179425504087561 0 0 0 0 2660.069359641675 210.28095976252968 0 210.28095976252968 -468.25433817068756 0 0 0 0 3499.9726458974183 427.68518214374183 0 427.68518214374183 -591.87588975408175 0 0 0 0 2735.5099654368532 54.798162486800265 0 54.798162486800265 -279.8141215905589 0 0 0 0 1359.0298238094219 16.160320015248558 0 16.160320015248558 -66.891021446035552 0 0 0 0 536.31185230163828 -696.61781518589612 0 -696.61781518589612 -189.43406019846256 0 0 0 0 2685.3060586370175 -1091.8450592504273 0 -1091.8450592504273 -1296.1517472591793 0 0 0 0 4318.8610855516235 716.01285787416657 0 716.01285787416657 -871.03968412735026 0 0 0 0 3499.7548835295856 526.56512253112078 0 526.56512253112078 1644.1218604523572 0 0 0 0 3888.9802820708355 -31.111745380953337 0 -31.111745380953337 598.72462764302463 0 0 0 0 3890.9729839686279 898.03130808106107 0 898.03130808106107 -478.74173556321051 0 0 0 0 3500.1130304195576 733.42972219145156 0 733.42972219145156 134.41294968003871 0 0 0 0 1183.7527918006217 1367.0927749542707 0 1367.0927749542707 1292.7502186146348 0 0 0 0 23.514048014874675 3.2301013529433362 0 3.2301013529433362 -0.70032302980912442 0 0 0 0 3473.2862137885268 2242.2495549945302 0 2242.2495549945302 1601.5310926677648 0 0 0 0 53.315088949037388 6.6204995670623621 0 6.6204995670623621 -3.2000694584284113 0 0 0 0 292.63461607843055 71.609832704608948 0 71.609832704608948 -1332.811811001782 0 0 0 0 569.43443440140254 591.18823945542226 0 591.18823945542226 -293.70183076228511 0 0 0 0 179.91724714732118 731.48419014752642 0 731.48419014752642 210.34843583234226 0 0 0 0 900.8503765189198 1253.4696547099027 0 1253.4696547099027 687.31983055699857 0 0 0 0 478.22026154355808 539.17020200420984 0 539.17020200420984 417.60596548009494 0 0 0 0 488.68982549461361 688.27061216042523 0 688.27061216042523 104.29117656223944 0 0 0 0 328.16388119997282 1074.7869463485936 0 1074.7869463485936 135.83743298244156 0 0 0 0 212.74425181807965 1018.6936960436815 0 1018.6936960436815 274.28421146116199 0 0 0 0 734.64291529574984 1041.2944742816437 0 1041.2944742816437 92.86142019292538 0 0 0 0 133.44783369216748 1351.2779870970185 0 1351.2779870970185 -63.915192197226588 0 0 0 0 1197.2423341805479 617.55712672820221 0 617.55712672820221 -59.091427588803072 0 0 0 0 -312.85592916070891 311.74266068523252 0 311.74266068523252 -120.95186811135488 0 0 0 0 3498.8273132333597 -15.778158728831061 0 -15.778158728831061 -982.7914725808605 0 0 0 0 2129.2845891178222 327.70243547238221 0 327.70243547238221 -516.78704770083436 0 0 0 0 1814.3989817969778 180.4681832073102 0 180.4681832073102 -511.64856411269045 0 0 0 0 2423.4920636880524 1052.2391518401623 0 1052.2391518401623 -224.07169345311956 0 0 0 0 1517.8259012797134 770.08063727515889 0 770.08063727515889 -292.58306452522731 0 0 0 0 339.8646903427416 -136.54141319594822 0 -136.54141319594822 385.42512046664234 0 0 0 0 791.40269694304607 -386.55829670927079 0 -386.55829670927079 -379.02486325093867 0 0 0 0 456.90090220850743 -825.37236515102904 0 -825.37236515102904 157.95141105755545 0 0 0 0 24.300674065307341 7.0620753591122991 0 7.0620753591122991 -2.8147109940964836 0 0 0 0 66.563456426045377 48.444518441962259 0 48.444518441962259 -219.86934913532843 0 0 0 0 1601.2631581598798 -740.1586828416597 0 -740.1586828416597 657.0103758374014 0 0 0 0 1718.4723293921706 987.8321724171285 0 987.8321724171285 226.46059910506551 0 0 0 0 1236.0561746228086 658.23719746352617 0 658.23719746352617 19.281944451448908 0 0 0 0 1143.2671545726807 933.97106380646051 0 933.97106380646051 414.784103083898 0 0 0 0 636.29655583530621 1034.9261493551448 0 1034.9261493551448 458.48100958528653 0 0 0 0 745.10422972626111 888.09505828425267 0 888.09505828425267 -165.37601395103832 0 0 0 0 512.2159269188669 708.51455680395043 0 708.51455680395043 16.164578801673269 0 0 0 0 1128.6325217237445 55.53683692503148 0 55.53683692503148 -616.94897931298419 0 0 0 0 -60.288125850637698 -36.278979321913283 0 -36.278979321913283 -568.67315394281002 0 0 0 0 488.27087381114507 384.23088072598534 0 384.23088072598534 -1323.9803807163366 0 0 0 0 96.307053300262396 266.12842433625207 0 266.12842433625207 -459.543887460821 0 0 0 0 238.9515503304101 143.95392770762632 0 143.95392770762632 -725.28688465986727 0 0 0 0 58.954921721651871 6.6061164318001406 0 6.6061164318001406 -3.9489608885816625 0 0 0 0 48.625059332013748 5.0247298093459758 0 5.0247298093459758 -3.4330152692732954 0 0 0 0 588.17679363680509 271.4393563117419 0 271.4393563117419 -479.55441166921548 0 0 0 0 84.39627034219302 511.39045035193192 0 511.39045035193192 420.52901417174428 0 0 0 0 550.29461635850021 -184.99342308543373 0 -184.99342308543373 -1750.5465675143989 0 0 0 0 -373.11477191415725 -365.47341883057857 0 -365.47341883057857 -340.47753460402032 0 0 0 0 739.87718152713933 -759.96259769533231 0 -759.96259769533231 -1136.1765614850233 0 0 0 0 19.563146634153725 2.3171581814181392 0 2.3171581814181392 -0.79358714457641999 0 0 0 0 430.45682777339789 1088.3424118440639 0 1088.3424118440639 1315.9094392635534 0 0 0 0 755.45757562133804 532.90028240473225 0 532.90028240473225 322.76712236934429 0 0 0 0 23.623499131421454 -9.6490495337478208 0 -9.6490495337478208 1.6128702894779983 0 0 0 0 736.65979246512325 611.39405825334688 0 611.39405825334688 -2.9494961763512038 0 0 0 0 -35.417850282756262 -160.72919041125351 0 -160.72919041125351 50.996987747032108 0 0 0 0 548.23036304934794 1065.6013954961099 0 1065.6013954961099 983.35707479490748 0 0 0 0 9.7183445075750541 -1.9239298762488843 0 -1.9239298762488843 -0.46838261635350209 0 0 0 0 118.87682991344627 -0.49338666375706453 0 -0.49338666375706453 -131.79386396507726 0 0 0 0 58.522417603093345 -54.894361170593925 0 -54.894361170593925 51.237780010533697 0 0 0 0 -64.815793338949334 13.911915006349545 0 13.911915006349545 18.390968988732766 0 0 0 0 -80.109912198331585 245.57243091188363 0 245.57243091188363 313.24535360951677 0 0 0 0 879.99025004850409 298.0701424252087 0 298.0701424252087 156.35244014985955 0 0 0 0 52.981808692718914 474.05116478031528 0 474.05116478031528 746.41749763815528 0 0 0 0 20.612694675004605 322.23390452614814 0 322.23390452614814 527.45137186348313 0 0 0 0 142.91494205114577 326.38279390174625 0 326.38279390174625 520.26620090366816 0 0 0 0 454.03779748347733 612.21792752485248 0 612.21792752485248 410.9510161217911 0 0 0 0 134.54050055149128 312.97639367890065 0 312.97639367890065 256.00707543588237 0 0 0 0 84.968901859775002 -11.004594803631615 0 -11.004594803631615 -1.0621060027453533 0 0 0 0 111.33680414222181 32.723166313448019 0 32.723166313448019 93.608613044836602 0 0 0 0 195.29433312549008 89.367356523524393 0 89.367356523524393 27.504796347004685 0 0 0 0 352.10561041066103 313.45747508368686 0 313.45747508368686 119.91951257326605 0 0 0 0 163.10954587518791 380.6680777139527 0 380.6680777139527 399.38120390979202 0 0 0 0 78.380315178699675 162.85116087886354 0 162.85116087886354 426.45187056983877 0 0 0 0 3.5405899791047943 -1.670858650941323 0 -1.670858650941323 0.74161049492957964 0 0 0 0 19.521650090391631 -139.05421073531807 0 -139.05421073531807 105.97435142779614 0 0 0 0 -87.506348053328111 -37.43861639562715 0 -37.43861639562715 131.84924341077576 0 0 0 0 3.8020447112285183 -57.267288850859472 0 -57.267288850859472 133.05864864879368 0 0 0 0 693.74530195995249 317.25025656718213 0 317.25025656718213 64.677986274578871 0 0 0 0 97.209237646668043 -160.58886580010517 0 -160.58886580010517 50.849664979892879 0 0 0 0 408.45210713415872 -113.95270695613817 0 -113.95270695613817 -20.592188352662788 0 0 0 0 56.355607166951813 47.803777011769398 0 47.803777011769398 -38.65215505314336 0 0 0 0 160.49139216022013 -142.90154296867365 0 -142.90154296867365 -133.90932706302146 0 0 0 0 78.373417956668703 7.7713071470193684 0 7.7713071470193684 1.7362735322719787 0 0 0 0 18.232682959936326 5.9043936398351313 0 5.9043936398351313 -0.20059818883801439 0 0 0 0 67.225404135308054 21.060818062745511 0 21.060818062745511 -1.6739080997914471 0 0 0 0 36.306430278811604 107.94549669666367 0 107.94549669666367 -214.74736894323905 0 0 0 0 5.3211810652811948 -14.942457241444243 0 -14.942457241444243 -3.7679923076989059 0 0 0 0 80.344977755717991 107.84619600239603 0 107.84619600239603 -52.475814754343901 0 0 0 0 -76.887672019711317 -38.573908040703941 0 -38.573908040703941 69.829783635696458 0 0 0 0 305.80987257585366 196.74663550906985 0 196.74663550906985 160.86027390383538 0 0 0 0 325.09107794253214 59.994992534830089 0 59.994992534830089 -204.38400283481928 0 0 0 0 84.974292121014628 8.7691858050999176 0 8.7691858050999176 0.65687279079655148 0 0 0 0 35.751146791379142 20.505380976995639 0 20.505380976995639 -24.736759187477674 0 0 0 0 473.34740792492812 -232.92072002770533 0 -232.92072002770533 121.86206108215947 0 0 0 0 248.85440466171713 -58.997256987873698 0 -58.997256987873698 -3.6460025286332893 0 0 0 0 -7.2136288124314092 -70.340457486378398 0 -70.340457486378398 532.27721542270956 0 0 0 0 -8.0143184069187328 64.737110474361913 0 64.737110474361913 93.856246715290581 0 0 0 0 389.74845918286155 245.61834521161791 0 245.61834521161791 45.466937194324601 0 0 0 0 375.46089092591865 -127.2930811294716 0 -127.2930811294716 50.457703571283218 0 0 0 0 21.654057103354717 18.12245711802251 0 18.12245711802251 39.308337500209063 0 0 0 0 24.341088536013558 18.735113209122119 0 18.735113209122119 27.574038834517864 0 0 0 0 16.623348360473756 -47.172909775657445 0 -47.172909775657445 60.58318723648194 0 0 0 0 37.990418777029845 39.898754543864925 0 39.898754543864925 50.030732000634998 0 0 0 0 35.261895194176759 40.913859292187681 0 40.913859292187681 62.139617859261307 0 0 0 0 24.320147583028302 -89.135380403155978 0 -89.135380403155978 272.74145483476332 0 0 0 0 9.0464583308494184 19.179974480543024 0 19.179974480543024 30.158560677138667 0 0 0 0 36.443597077333834 -19.87893149655406 0 -19.87893149655406 -18.85029072378893 0 0 0 0 50.805857253319928 -6.2775084550842735 0 -6.2775084550842735 -5.4709215869158259 0 0 0 0 28.129002009976716 -121.20011695448824 0 -121.20011695448824 8.712693648064942 0 0 0 0 -62.311873710976215 44.263644859726242 0 44.263644859726242 -21.6704500930378 0 0 0 0 -47.816012130178024 129.59526193170893 0 129.59526193170893 180.49274742984062 0 0 0 0 -34.485606648020621 -70.331441004203498 0 -70.331441004203498 166.20243016585255 0 0 0 0 -47.571619267684582 -67.240883631515544 0 -67.240883631515544 165.73159857473252 0 0 0 0 0.2302553313633382 -1.7167576082297842 0 -1.7167576082297842 2.8806194954576054 0 0 0 0 41.521206096833339 234.2848016671403 0 234.2848016671403 117.57502467110362 0 0 0 0 277.26441898503981 -215.02048426122093 0 -215.02048426122093 -52.370225782195121 0 0 0 0 14.684091908660776 -10.463115231987331 0 -10.463115231987331 23.072272186333066 0 0 0 0 40.748640092249914 -17.341346801518043 0 -17.341346801518043 -1.7056134559882414 0 0 0 0 2.071518709344673 7.296667551449616 0 7.296667551449616 33.069007546607736 0 0 0 0 40.67598715780332 -6.1683155784849077 0 -6.1683155784849077 21.300821938915647 0 0 0 0 19.970236127002863 4.9988171455804604 0 4.9988171455804604 30.036944341527942 0 0 0 0 42.542606082781276 11.721486021632842 0 11.721486021632842 26.943534681832816 0 0 0 0 23.388702460717468 8.2678779572604526 0 8.2678779572604526 32.77006255262404 0 0 0 0 43.417726133047836 3.279683710270632 0 3.279683710270632 13.513084042475157 0 0 0 0 193.66555476435315 -36.810938828728979 0 -36.810938828728979 -90.407616865151255 0 0 0 0 58.081300086966621 10.138958970643426 0 10.138958970643426 22.88483118848103 0 0 0 0 59.487283658891101 1.8911732911527679 0 1.8911732911527679 18.806231111011357 0 0 0 0 44.167870523873717 0.68901091878680631 0 0.68901091878680631 22.460051056459974 0 0 0 0 53.491612550140417 5.0195008495833235 0 5.0195008495833235 17.860592199207588 0 0 0 0 54.674665302212816 1.161204607348111 0 1.161204607348111 25.01783643191493 0 0 0 0 50.781826532285777 -11.280773375963349 0 -11.280773375963349 14.866072461690067 0 0 0 0 53.149879137636162 -0.13034037559214084 0 -0.13034037559214084 -4.703643703366879 0 0 0 0 47.131371096933435 5.7974367530641757 0 5.7974367530641757 10.934316936129619 0 0 0 0 51.074074772493987 -2.6377435594812368 0 -2.6377435594812368 2.2273258361435637 0 0 0 0 52.703326395116164 5.1042445585549103 0 5.1042445585549103 -3.4057742046254589 0 0 0 0 9.5055774916846119 2.5535764500377738 0 2.5535764500377738 -5.2223951412886596 0 0 0 0 176.96026288992653 37.188076764627738 0 37.188076764627738 -83.373617078775851 0 0 0 0 53.577117617613112 9.8005497647787934 0 9.8005497647787934 -1.5377336167091471 0 0 0 0 47.241817976991115 5.7806123075785827 0 5.7806123075785827 7.2046341156518565 0 0 0 0 18.415091567178024 -54.567883568585756 0 -54.567883568585756 7.1089261908638548 0 0 0 0 51.478303155854519 -111.76133546109435 0 -111.76133546109435 -119.12110362106202 0 0 0 0 45.660815470531816 34.488932555397696 0 34.488932555397696 39.789759499174238 0 0 0 0 191.3584353123988 79.337402018042553 0 79.337402018042553 -3.3693618850797975 0 0 0 0 225.02578225152683 61.629373734015189 0 61.629373734015189 -14.67957492223195 0 0 0 0 44.989995754498523 -34.111608917455669 0 -34.111608917455669 40.84717893966581 0 0 0 0 60.62447958984194 30.954389766265695 0 30.954389766265695 23.031952959581776 0 0 0 0 62.702246137861948 46.090030256177201 0 46.090030256177201 31.407527755368417 0 0 0 0 -0.47152142037716516 -0.54498695595892599 0 -0.54498695595892599 -2.564526862499517 0 0 0 0 42.855001707219344 14.193006326379967 0 14.193006326379967 10.099205377771078 0 0 0 0 159.45765038150785 -155.58008689763369 0 -155.58008689763369 -64.342288583749905 0 0 0 0 101.15458517013758 -122.44043549131032 0 -122.44043549131032 -10.009110834506998 0 0 0 0 214.42085681260869 -81.325492228283167 0 -81.325492228283167 -58.478099213733458 0 0 0 0 141.7678561747889 29.857028586624892 0 29.857028586624892 -51.868054251315243 0 0 0 0 -188.5130310354798 -39.540837456068033 0 -39.540837456068033 71.79451496215961 0 0 0 0 -20.083910893754364 18.668528209467752 0 18.668528209467752 6.7447658899241105 0 0 0 0 4.7522369281294417 0.96405492971715034 0 0.96405492971715034 -2.4340239437891569 0 0 0 0 52.500648317311899 -0.82864941415431304 0 -0.82864941415431304 -14.647194031350494 0 0 0 0 71.026937168302538 9.7344356961493759 0 9.7344356961493759 -35.993649799265313 0 0 0 0 -67.732172047421045 -87.68634735716455 0 -87.68634735716455 158.96501485793988 0 0 0 0 82.491146775559173 111.24606290089969 0 111.24606290089969 60.556118266795693 0 0 0 0 14.161710147762236 -3.4601358112180378 0 -3.4601358112180378 4.533869857953869 0 0 0 0 92.15726522147088 17.022752271464469 0 17.022752271464469 -21.694081287402241 0 0 0 0 70.051844819048711 -48.611178357753261 0 -48.611178357753261 -67.2647993938632 0 0 0 0 160.5692822375313 149.9327639792732 0 149.9327639792732 157.46039110418087 0 0 0 0 -1.4851443141955087 0.38600875511046695 0 0.38600875511046695 4.8401226326988098 0 0 0 0 -20.237286100025813 -116.60800756599781 0 -116.60800756599781 184.53537509054331 0 0 0 0 219.97938073039404 44.323483722911533 0 44.323483722911533 17.139114672193955 0 0 0 0 140.03476024928386 -108.3268629966658 0 -108.3268629966658 122.32717369286388 0 0 0 0 -26.099910259804346 11.136819971850386 0 11.136819971850386 43.010323328818231 0 0 0 0 70.086055996172945 15.066974748497614 0 15.066974748497614 16.546933066751095 0 0 0 0 105.37447276883177 3.3845922488999349 0 3.3845922488999349 -63.145429363049516 0 0 0 0 47.336366983944941 -15.934802933892243 0 -15.934802933892243 -1.3328421326534292 0 0 0 0 62.357587611695635 57.054646412295128 0 57.054646412295128 25.093172948876514 0 0 0 0 62.781056466323207 6.4394984195074585 0 6.4394984195074585 23.99882880021255 0 0 0 0 50.807894751378626 -43.213499173524497 0 -43.213499173524497 -46.898674779323187 0 0 0 0 16.082704292774082 -2.0263372935903448 0 -2.0263372935903448 3.7528577533215763 0 0 0 0 53.845090544709819 74.348778017987712 0 74.348778017987712 22.235936846225286 0 0 0 0 65.327808190277722 0.37184622266407175 0 0.37184622266407175 -0.3328796256171852 0 0 0 0 55.884676563073299 49.398685914495729 0 49.398685914495729 34.486002296864001 0 0 0 0 7.8042854233352728 -6.0729936063656602 0 -6.0729936063656602 -4.4293289829674896 0 0 0 0 98.276669828483136 9.8942307883839931 0 9.8942307883839931 21.611763869733295 0 0 0 0 58.684894611353229 7.2299370863774826 0 7.2299370863774826 30.638584065260517 0 0 0 0 61.59891473792959 2.8550875536040508 0 2.8550875536040508 36.186759512393905 0 0 0 0 67.765183964947937 0.64593900330010001 0 0.64593900330010001 23.655649134459679 0 0 0 0 52.706541117092456 -0.81062442233351817 0 -0.81062442233351817 28.367921599081797 0 0 0 0 84.706118454298121 24.01717699070204 0 24.01717699070204 54.545402705827996 0 0 0 0 71.048302030365448 -4.4566263660996128 0 -4.4566263660996128 30.636882939466261 0 0 0 0 65.406913731560053 -37.384768843059192 0 -37.384768843059192 -11.751002383256655 0 0 0 0 73.017411354587239 -13.623140915752856 0 -13.623140915752856 -12.152886898244105 0 0 0 0 113.5732994029313 -12.773145376740558 0 -12.773145376740558 -11.106053309910294 0 0 0 0 65.627228023571661 -23.814804141761499 0 -23.814804141761499 58.641222518432187 0 0 0 0 65.38315574531407 20.216412789707988 0 20.216412789707988 85.583500065331691 0 0 0 0 75.78331510314456 -15.131887066739893 0 -15.131887066739893 104.8024608387658 0 0 0 0 13.874233411596535 5.4891440511330813 0 5.4891440511330813 -5.3129087987675367 0 0 0 0 71.878525264386553 1.6829794543142498 0 1.6829794543142498 37.727959660296108 0 0 0 0 19.027282149716484 32.431085066039714 0 32.431085066039714 -34.295727378559263 0 0 0 0 167.94673027211684 -47.863497537669559 0 -47.863497537669559 93.772476327268123 0 0 0 0 30.797416711942255 -5.4093297338960937 0 -5.4093297338960937 -7.923601183018528 0 0 0 0 163.32846845089807 -68.518674230474289 0 -68.518674230474289 50.897964762722495 0 0 0 0 204.65652311408667 66.148061483030858 0 66.148061483030858 -67.846902829354349 0 0 0 0 25.257926614242372 2.8920877361468058 0 2.8920877361468058 -11.864684490571138 0 0 0 0 54.393882114580492 8.3950116339093981 0 8.3950116339093981 -10.602363037671239 0 0 0 0 65.616098617287207 23.02745081473347 0 23.02745081473347 0.82417251980814399 0 0 0 0 59.715125522016024 8.4202941088433363 0 8.4202941088433363 -2.4046319645749463 0 0 0 0 43.88207385752267 6.6463763741207558 0 6.6463763741207558 -1.4991080466965827 0 0 0 0 24.479187178587885 -3.2552166166581955 0 -3.2552166166581955 -24.555067735597717 0 0 0 0 65.754087298897502 5.4442570167657323 0 5.4442570167657323 -32.991229656059659 0 0 0 0 70.678413529149111 16.076039959015361 0 16.076039959015361 -12.244791347689898 0 0 0 0 28.89442862392994 -1.8444580746876156 0 -1.8444580746876156 -10.059866442485706 0 0 0 0 67.242537687190634 20.553679392111007 0 20.553679392111007 -0.90609586796654185 0 0 0 0 79.110861346212914 27.201534740787793 0 27.201534740787793 8.5492428820580244 0 0 0 0 77.286552626181219 20.229580866783181 0 20.229580866783181 -13.093612226860046 0 0 0 0 92.174499897668284 7.788869205462106 0 7.788869205462106 -40.091235101430357 0 0 0 0 64.101729823010828 -1.6804088528155035 0 -1.6804088528155035 -37.789417002863047 0 0 0 0 49.157531913191633 10.780878394482215 0 10.780878394482215 -4.6830234906389023 0 0 0 0 31.376371372419271 -17.906420155283399 0 -17.906420155283399 -50.013785194413231 0 0 0 0 -0.41533218523245807 0.18576803501692041 0 0.18576803501692041 0.052908314796871636 0 0 0 0 117.10314356294111 13.427156989611831 0 13.427156989611831 -2.143885420676952 0 0 0 0 72.116977680410784 13.950055475115931 0 13.950055475115931 -2.4689639064612252 0 0 0 0 17.296155726612444 6.6788926604654399 0 6.6788926604654399 1.5873643118052776 0 0 0 0 72.320278310526191 11.499156734750386 0 11.499156734750386 -7.8603044662986576 0 0 0 0 102.04815991480336 23.746203944420131 0 23.746203944420131 -2.523525653253273 0 0 0 0 69.473268730394921 28.099283655186809 0 28.099283655186809 6.1480053184659482 0 0 0 0 64.349595915857208 4.6849342504822289 0 4.6849342504822289 1.6163288289253614 0 0 0 0 59.444857383573122 12.882318226630746 0 12.882318226630746 -4.3829189725573734 0 0 0 0 64.16498760812101 7.4116304581173154 0 7.4116304581173154 5.6327148984632913 0 0 0 0 70.711857375619729 8.020264515890176 0 8.020264515890176 -2.6499307284461793 0 0 0 0 68.24097001820337 2.7215144111594327 0 2.7215144111594327 -8.8583935253795971 0 0 0 0 61.87541127431723 -0.15815505479224612 0 -0.15815505479224612 -23.780886819712805 0 0 0 0 60.027559088659473 3.3606668800237003 0 3.3606668800237003 -8.7956284812083823 0 0 0 0 54.383525655248377 -0.12844735785120065 0 -0.12844735785120065 -14.408302357038536 0 0 0 0 53.712256513202192 -1.6101445708379458 0 -1.6101445708379458 0.91896602603219435 0 0 0 0 60.788933508633704 -5.1799679917569819 0 -5.1799679917569819 -11.135235260876016 0 0 0 0 58.598275077385551 -7.0703817423028568 0 -7.0703817423028568 -13.240730737898957 0 0 0 0 79.587130584710394 37.835514168593591 0 37.835514168593591 -54.514978020113858 0 0 0 0 55.367414294727119 -0.024984449027622091 0 -0.024984449027622091 -1.3159996572552868 0 0 0 0 68.812910394929531 -0.44522003836451063 0 -0.44522003836451063 -9.8670812915584065 0 0 0 0 61.970455024737262 2.4916494257975894 0 2.4916494257975894 0.44890073853811296 0 0 0 0 37.723536374927789 9.9358170141711071 0 9.9358170141711071 -15.379300395540952 0 0 0 0 48.755846254764037 -8.3073877083257912 0 -8.3073877083257912 -5.1993183009058157 0 0 0 0 49.453685824409831 -3.4634928527752891 0 -3.4634928527752891 7.370591391967082 0 0 0 0 55.452580632885656 2.6542053147725255 0 2.6542053147725255 5.5664461656430717 0 0 0 0 48.701920307285036 5.8395863845153144 0 5.8395863845153144 -4.7236797019456844 0 0 0 0 47.502224560927971 23.620131600807269 0 23.620131600807269 13.159174691030785 0 0 0 0 49.517901923732097 2.0815788648090461 0 2.0815788648090461 12.337347970934843 0 0 0 0 42.451769931460149 41.091719002908349 0 41.091719002908349 -20.009769183346748 0 0 0 0 53.507455144163032 24.996147562769238 0 24.996147562769238 -11.487286446600365 0 0 0 0 49.565213364388455 24.380363838881465 0 24.380363838881465 -10.784833451383065 0 0 0 0 52.235553624765089 10.404280534594704 0 10.404280534594704 -0.016159020276518277 0 0 0 0 52.219997928012162 12.393434911358554 0 12.393434911358554 -11.820150847082715 0 0 0 0 59.132877879971602 15.332717348436177 0 15.332717348436177 -20.376179532144533 0 0 0 0 57.529510641092202 21.067773864815422 0 21.067773864815422 -37.103144725860602 0 0 0 0 61.164816421536671 35.290073951312024 0 35.290073951312024 -35.102697317858429 0 0 0 0 50.61901359652984 32.680015113429135 0 32.680015113429135 -29.698226154401368 0 0 0 0 60.802384591337614 28.708671170771936 0 28.708671170771936 -36.350096189261649 0 0 0 0 63.700121604788364 30.856439483883719 0 30.856439483883719 -40.753041967867716 0 0 0 0 65.821416985625547 25.707700455242843 0 25.707700455242843 -73.453896659954808 0 0 0 0 57.749192002871496 21.268622668863713 0 21.268622668863713 -37.383888474091805 0 0 0 0 29.815511391402708 12.475568570466304 0 12.475568570466304 -1.5334196712015551 0 0 0 0 474.12253040993164 530.31799478894891 0 530.31799478894891 25.427356078469273 0 0 0 0 -410.36312464333605 -515.67426479617643 0 -515.67426479617643 -184.3467043865121 0 0 0 0 28.748307377296442 8.182457310879272 0 8.182457310879272 -9.0224415345983289 0 0 0 0 -1565.4360146085819 -429.9082094422356 0 -429.9082094422356 -149.04763520544566 0 0 0 0 35.321153261468702 9.1349228151495403 0 9.1349228151495403 -2.8171576141843175 0 0 0 0 11.460484056680102 22.254365783200853 0 22.254365783200853 -4.1648534837406004 0 0 0 0 549.55752435129762 454.70369664481439 0 454.70369664481439 -407.45703258534877 0 0 0 0 625.97047695760193 -412.80721686244124 0 -412.80721686244124 -674.34145146036394 0 0 0 0 1327.2121673878573 -217.06846395363254 0 -217.06846395363254 -638.44693164787043 0 0 0 0 1466.9340913088017 809.95549527824369 0 809.95549527824369 -269.95323861618544 0 0 0 0 1016.5993654169288 1435.1195246491682 0 1435.1195246491682 66.44377544729241 0 0 0 0 573.99111544170955 -778.56077426769048 0 -778.56077426769048 1483.2869784416766 0 0 0 0 34.470907035770097 -10.025940786025256 0 -10.025940786025256 3.6292556542738428 0 0 0 0 80.89818594805547 -30.640712605969554 0 -30.640712605969554 12.965761483738191 0 0 0 0 732.02886050083544 -483.68986231426845 0 -483.68986231426845 -536.74956499460404 0 0 0 0 335.04848290617156 -304.80807993812414 0 -304.80807993812414 -403.85630688895333 0 0 0 0 167.84264493135561 50.971464769334837 0 50.971464769334837 7.9127489913982458 0 0 0 0 13.855608556703373 47.089023633290935 0 47.089023633290935 1.7733493210871529 0 0 0 0 2.0095896564295472 32.202817352477162 0 32.202817352477162 -7.5230861512978473 0 0 0 0 -0.68043721313389938 8.8634475948414142 0 8.8634475948414142 0.96561870939699657 0 0 0 0 -2.4397720299602952 34.277368617574894 0 34.277368617574894 9.41068874449644 0 0 0 0 165.2877905511632 40.841793294126546 0 40.841793294126546 -82.07335383226291 0 0 0 0 59.575184597000771 2.4800081157723071 0 2.4800081157723071 -24.107979940831001 0 0 0 0 54.540350681261771 8.0591060790527536 0 8.0591060790527536 -16.033925733358956 0 0 0 0 67.262602230579574 6.7126145632720196 0 6.7126145632720196 -3.5748457894451917 0 0 0 0 55.67432361144165 -3.3356928686919218 0 -3.3356928686919218 -17.261131056501881 0 0 0 0 69.206400631919678 12.152250243907929 0 12.152250243907929 -42.472958541887238 0 0 0 0 76.35651203272937 -8.5672480600380823 0 -8.5672480600380823 -61.370029885925305 0 0 0 0 65.700620431132847 -29.02344512884531 0 -29.02344512884531 -46.924224456200932 0 0 0 0 52.625971700530499 -3.9194933073508764 0 -3.9194933073508764 -5.6282501524692066 0 0 0 0 17.768551056673459 26.787908061808025 0 26.787908061808025 11.401304946934033 0 0 0 0 97.295461409765267 32.925076834318361 0 32.925076834318361 48.390316386810099 0 0 0 0 8.5189705530649604 1.6421233742128365 0 1.6421233742128365 1.2224128222111403 0 0 0 0 197.51411769778315 -9.9826539671385035 0 -9.9826539671385035 8.3321596933118371 0 0 0 0 29.20737201099837 15.205455438286663 0 15.205455438286663 15.484649407095731 0 0 0 0 224.96789125933719 107.35151730155758 0 107.35151730155758 -0.32195147697439097 0 0 0 0 224.96789125927899 107.35151730156667 0 107.35151730156667 -0.32195147697541415 0 0 0 0 7.1669860818833726 4.4518643709083179 0 4.4518643709083179 -0.059754359920435984 0 0 0 0 11.796068986200183 13.725423106375228 0 13.725423106375228 2.6480275611749673 0 0 0 0 146.60701606826842 -30.760265033398355 0 -30.760265033398355 36.035418673335244 0 0 0 0 224.96789125928626 107.35151730155712 0 107.35151730155712 -0.32195147696802451 0 0 0 0 198.34055110697682 -7.3892620888982776 0 -7.3892620888982776 9.8791090746349255 0 0 0 0 54.849219208428622 17.740428469497488 0 17.740428469497488 9.4412873895348639 0 0 0 0 94.436855289439336 -19.073378316135177 0 -19.073378316135177 35.960548584396292 0 0 0 0 57.672837048665315 -7.8044117149939893 0 -7.8044117149939893 42.420806370123501 0 0 0 0 67.016034684093029 31.949341453945408 0 31.949341453945408 26.007408700906126 0 0 0 0 47.126270203747936 -29.743231544994075 0 -29.743231544994075 -44.144713807196695 0 0 0 0 74.10327988471181 39.557963622360148 0 39.557963622360148 -7.9924912539189563 0 0 0 0 119.71777793698311 31.832723260347962 0 31.832723260347962 4.2199168236943478 0 0 0 0 110.68493977794719 -78.014168393240709 0 -78.014168393240709 -30.320050816151252 0 0 0 0 75.533315530195978 -56.231404176789965 0 -56.231404176789965 -41.266522478757679 0 0 0 0 76.293683131403668 -53.618302671922265 0 -53.618302671922265 -73.405256155081588 0 0 0 0 46.446293181223155 -50.160320194346696 0 -50.160320194346696 33.426446990360319 0 0 0 0 53.561262289299066 -34.487714877254263 0 -34.487714877254263 -40.665146655190711 0 0 0 0 44.605214100103694 15.726537322158833 0 15.726537322158833 -39.300276054628512 0 0 0 0 31.714232141276625 3.0835297130852268 0 3.0835297130852268 0.4776365132806859 0 0 0 0 52.626225691643413 -37.230834467570673 0 -37.230834467570673 -34.541590091075932 0 0 0 0 51.864492932338635 -108.86303099332696 0 -108.86303099332696 -34.378178071121283 0 0 0 0 74.467402237079114 141.71781781460183 0 141.71781781460183 300.24816873590953 0 0 0 0 29.413840276920382 -80.741405125469782 0 -80.741405125469782 242.67506791422852 0 0 0 0 83.841182537515124 64.798219261184158 0 64.798219261184158 84.118355720604512 0 0 0 0 26.87386553160286 -52.972865488333014 0 -52.972865488333014 153.54374783270123 0 0 0 0 45.905330561248775 -54.15784983770925 0 -54.15784983770925 -20.886082372028113 0 0 0 0 27.648568840776079 -30.191546391849329 0 -30.191546391849329 -29.123749520770389 0 0 0 0 -91.013134174272636 18.323503638253726 0 18.323503638253726 0.80099290919611121 0 0 0 0 53.325485360455787 36.027905311672725 0 36.027905311672725 -71.63618299720963 0 0 0 0 0.18252830946602394 0.44744738704937248 0 0.44744738704937248 -0.57253313883116697 0 0 0 0 183.14425034998339 -31.426838063945823 0 -31.426838063945823 -52.74390766691613 0 0 0 0 49.297142532608632 20.040157216931107 0 20.040157216931107 -18.599379958779878 0 0 0 0 -1.3845339356921613 -76.527046715756342 0 -76.527046715756342 -12.135925135266007 0 0 0 0 -6.7323900329965909 -41.295598308322667 0 -41.295598308322667 14.214476936683013 0 0 0 0 16.796330110721101 61.423921880709372 0 61.423921880709372 23.722325983274082 0 0 0 0 -24.921094936988311 63.747450710335713 0 63.747450710335713 68.252128965411202 0 0 0 0 0.36486796823628165 1.2570466590352041 0 1.2570466590352041 -1.0814248437657077 0 0 0 0 100.51494244804235 77.139033825948729 0 77.139033825948729 -68.652829942622475 0 0 0 0 23.997186106444133 146.02276892178838 0 146.02276892178838 -112.33819437490001 0 0 0 0 -8.8029669893003302 75.82141656656637 0 75.82141656656637 -23.045501123689235 0 0 0 0 9.3625670120636642 44.947049525782106 0 44.947049525782106 -10.793387219150731 0 0 0 0 186.55092254267583 42.88154276542312 0 42.88154276542312 -59.625652057282224 0 0 0 0 29.600159295929188 80.586920194644563 0 80.586920194644563 9.7098424878678884 0 0 0 0 45.026373185206467 121.97966951819228 0 121.97966951819228 109.46096712945257 0 0 0 0 51.88606850263227 49.161233229968971 0 49.161233229968971 102.79375180556053 0 0 0 0 69.06125024037101 175.13322474296274 0 175.13322474296274 -57.4782221665794 0 0 0 0 26.841993987094611 34.81996595906395 0 34.81996595906395 92.971813768085326 0 0 0 0 75.162511308242188 22.603789718005842 0 22.603789718005842 -40.816022891645389 0 0 0 0 56.636477876827485 45.855095896399121 0 45.855095896399121 -46.575264852484679 0 0 0 0 77.632228569354993 33.338324152820292 0 33.338324152820292 -51.538495342370197 0 0 0 0 74.159821769815039 29.970305529055679 0 29.970305529055679 -54.77311431323119 0 0 0 0 71.869281662071444 53.893657178546619 0 53.893657178546619 -99.006526258704071 0 0 0 0 55.316501792429335 41.022313667260363 0 41.022313667260363 -25.62312997126719 0 0 0 0 26.861937614303315 70.267094270781627 0 70.267094270781627 -47.294263886776662 0 0 0 0 55.4495266726708 29.618191915822251 0 29.618191915822251 -20.023402634248441 0 0 0 0 27.123366841234031 42.93480926265876 0 42.93480926265876 -8.232355362140197 0 0 0 0 -63.064203661098873 100.5019137822361 0 100.5019137822361 -44.960910754381302 0 0 0 0 -94.587617493678408 88.621965615916508 0 88.621965615916508 7.533983703927106 0 0 0 0 86.956841743360201 23.26445860288527 0 23.26445860288527 -183.50116981780548 0 0 0 0 -1.6186113018425523 1.2221329437199877 0 1.2221329437199877 -0.62831630903601354 0 0 0 0 65.709863354317349 49.895660580795237 0 49.895660580795237 -15.441642045102071 0 0 0 0 5.3489068784983829 46.036697559979075 0 46.036697559979075 24.732962924193544 0 0 0 0 21.540799963626409 6.7488008866246751 0 6.7488008866246751 -3.4085762075749453 0 0 0 0 97.588489343756009 21.033346497690786 0 21.033346497690786 -28.382795041391006 0 0 0 0 74.795838049580198 7.4385573691279205 0 7.4385573691279205 -63.333270392006909 0 0 0 0 78.487832600118054 28.181613379395912 0 28.181613379395912 -27.65992795954071 0 0 0 0 79.82281492113907 26.421327989018891 0 26.421327989018891 -24.221412807135948 0 0 0 0 73.040489368340786 7.5687924811780931 0 7.5687924811780931 -46.393480942975089 0 0 0 0 64.898345973727601 84.106131860294283 0 84.106131860294283 -57.672361561754769 0 0 0 0 78.262467425363866 8.1730143865052014 0 8.1730143865052014 -12.772370732790819 0 0 0 0 81.949132985009982 16.926696633339123 0 16.926696633339123 -7.896191711095863 0 0 0 0 47.251843767993932 40.481206173004864 0 40.481206173004864 -41.356879283483067 0 0 0 0 74.202625392294067 13.315579288086752 0 13.315579288086752 -38.206898275506774 0 0 0 0 76.339536198823197 11.024262630465097 0 11.024262630465097 -5.9001231219909478 0 0 0 0 115.36493258257048 86.368283284147708 0 86.368283284147708 -60.946614191789422 0 0 0 0 109.70751558529719 48.180708743725859 0 48.180708743725859 -40.408684173532947 0 0 0 0 2.4795649849675101 66.967565358440993 0 66.967565358440993 0.56688046365774269 0 0 0 0 52.688237725453291 70.633190147404434 0 70.633190147404434 0.42467258924239104 0 0 0 0 -4.2155471145353616 6.5539595307009115 0 6.5539595307009115 -16.086991942412084 0 0 0 0 82.247650730474561 14.763451016587851 0 14.763451016587851 -50.530811119955956 0 0 0 0 17.191151099165694 16.679769097290553 0 16.679769097290553 -27.139812208093836 0 0 0 0 86.095123535912535 31.404263706870097 0 31.404263706870097 -51.861076967748886 0 0 0 0 61.827702356966256 51.017735981123906 0 51.017735981123906 -41.293122405451413 0 0 0 0 15.089171362551497 62.364008456656862 0 62.364008456656862 -16.347992876988073 0 0 0 0 87.831202314463553 31.166408794212202 0 31.166408794212202 -65.400148637527309 0 0 0 0 68.955524789425667 29.152184020426663 0 29.152184020426663 4.950979663936196 0 0 0 0 98.47566291558951 2.9802015757220488 0 2.9802015757220488 -55.092591109473233 0 0 0 0 116.41175341785765 33.967839485314698 0 33.967839485314698 -69.265508058338128 0 0 0 0 67.135445913823787 33.213254965155556 0 33.213254965155556 -59.97646550211266 0 0 0 0 75.779875126258048 33.597880974744385 0 33.597880974744385 0.53429562323435675 0 0 0 0 122.07695233735785 53.151513382145225 0 53.151513382145225 14.627474982869444 0 0 0 0 147.93305886034841 118.23103867366473 0 118.23103867366473 75.979012944085298 0 0 0 0 83.069714084565931 42.109880936897071 0 42.109880936897071 -0.98822820752857865 0 0 0 0 66.770267720797165 178.41255561805025 0 178.41255561805025 321.61014900894526 0 0 0 0 326.57620901291193 212.50211538375373 0 212.50211538375373 99.600893966933029 0 0 0 0 5.3425873752748885 17.500484865576368 0 17.500484865576368 -0.7868051451307565 0 0 0 0 272.42422474875093 -34.347874979102379 0 -34.347874979102379 -22.416025898254617 0 0 0 0 69.944852971715591 171.38202769444521 0 171.38202769444521 352.2312850530385 0 0 0 0 18.679215287310399 -55.47813681432018 0 -55.47813681432018 -47.807052424197536 0 0 0 0 125.38838392506295 -30.651040763732709 0 -30.651040763732709 -81.559017314443281 0 0 0 0 157.95748739503688 59.51547420090219 0 59.51547420090219 -30.246540347398422 0 0 0 0 -298.00745366071533 50.876293031953935 0 50.876293031953935 21.81096870420015 0 0 0 0 -122.94171672102675 -174.58908199277744 0 -174.58908199277744 -93.532091020853613 0 0 0 0 -0.84514850879568471 1.8918940207996542 0 1.8918940207996542 -5.4565478428567733 0 0 0 0 82.705323011228757 136.23842274598007 0 136.23842274598007 -311.96315145870494 0 0 0 0 51.248081315501622 346.20679089535747 0 346.20679089535747 -60.984103847752351 0 0 0 0 270.664328476847 0.85053374896125433 0 0.85053374896125433 -209.85923878455014 0 0 0 0 110.03584705847061 134.40047435485576 0 134.40047435485576 22.675847987348334 0 0 0 0 18.428640389568749 6.8614953012978042 0 6.8614953012978042 4.6899022862963893 0 0 0 0 275.95570148444858 182.97835521623256 0 182.97835521623256 -322.49356321086998 0 0 0 0 147.2587183231044 78.956110991365421 0 78.956110991365421 -254.47933796619961 0 0 0 0 39.85355395751855 3.4608498163120274 0 3.4608498163120274 1.6603790211683582 0 0 0 0 -19.264093254621457 -30.880274409691879 0 -30.880274409691879 -2.5831050726333444 0 0 0 0 275.62526454911585 -3.5132135354414231 0 -3.5132135354414231 -82.590019449520128 0 0 0 0 32.050114878494647 -1.8207950067308327 0 -1.8207950067308327 -1.0552157719978823 0 0 0 0 -41.805121786429254 -3.0288179286367267 0 -3.0288179286367267 68.651374886469739 0 0 0 0 -7.5089037567322521 110.72509885452158 0 110.72509885452158 -127.80748518810164 0 0 0 0 120.55488607443249 -50.95069655434115 0 -50.95069655434115 -502.45028683819635 0 0 0 0 118.74765690732556 101.89477074067267 0 101.89477074067267 -110.95826336708717 0 0 0 0 44.832952144752198 73.190377916137408 0 73.190377916137408 -100.99818941665066 0 0 0 0 117.87491565778691 109.75460844184551 0 109.75460844184551 -177.77421359092835 0 0 0 0 57.724709756002994 155.61775848678388 0 155.61775848678388 -212.7193530302047 0 0 0 0 0.26886738031915502 0.88716879987336839 0 0.88716879987336839 -0.52830611918775516 0 0 0 0 260.11834615371845 83.449834943240276 0 83.449834943240276 -146.1406112812561 0 0 0 0 177.36111181060005 150.5228938344469 0 150.5228938344469 -164.34867719156807 0 0 0 0 190.36347080853375 99.834733621162769 0 99.834733621162769 -214.26868140405344 0 0 0 0 -132.00128297995616 147.00801398281592 0 147.00801398281592 -34.32809318810574 0 0 0 0 1.5456349759697332 -2.8192095245547222 0 -2.8192095245547222 -109.8295487332804 0 0 0 0 62.880270310628163 21.740735648170556 0 21.740735648170556 7.8413993795155594 0 0 0 0 53.225233156485046 91.581984629870021 0 91.581984629870021 -57.03540704376428 0 0 0 0 67.456533537435462 74.715561827937108 0 74.715561827937108 -108.08995895304361 0 0 0 0 25.631305120214165 63.008154093014582 0 63.008154093014582 -59.045824476145754 0 0 0 0 49.233416689418391 19.613144661442675 0 19.613144661442675 -72.8305002895695 0 0 0 0 130.45883117999983 47.080658286121235 0 47.080658286121235 -214.96044847161471 0 0 0 0 4.3206199027880281 15.298035442715348 0 15.298035442715348 1.7937041353033676 0 0 0 0 24.03633305344556 88.208124093466665 0 88.208124093466665 -116.4000744655622 0 0 0 0 -8.2463742176114465 -65.401542051455181 0 -65.401542051455181 -325.03103228168811 0 0 0 0 -133.26669450462759 19.503282989064246 0 19.503282989064246 -52.153702087687634 0 0 0 0 -106.49000743662191 106.79522692368801 0 106.79522692368801 -73.330506279116889 0 0 0 0 46.505857855463546 183.85432555740772 0 183.85432555740772 -160.47683887763742 0 0 0 0 81.199694907571939 4.568362305501978 0 4.568362305501978 156.07632662663582 0 0 0 0 49.671581884173065 99.003584248392144 0 99.003584248392144 -77.421489733423186 0 0 0 0 16.60167779420226 -1.90603932315571 0 -1.90603932315571 -49.996763348090496 0 0 0 0 -44.713371225960145 48.524676560774992 0 48.524676560774992 144.86582735056527 0 0 0 0 45.057717629899344 71.934365855355395 0 71.934365855355395 124.10216277843773 0 0 0 0 20.53027722986576 110.32468557951475 0 110.32468557951475 340.29238452511663 0 0 0 0 122.82316076470215 104.99121098394198 0 104.99121098394198 166.07767947463526 0 0 0 0 84.900606077348129 42.64797146707815 0 42.64797146707815 -58.178430590649896 0 0 0 0 33.961714113434937 10.290344799368768 0 10.290344799368768 -48.482840292511924 0 0 0 0 29.001484819023972 18.223762228600435 0 18.223762228600435 42.777947572874837 0 0 0 0 19.771060592345748 74.533759985510585 0 74.533759985510585 132.49869891185267 0 0 0 0 73.973896781531948 92.210191675132819 0 92.210191675132819 98.30834041859498 0 0 0 0 36.172184732822643 111.14763537725827 0 111.14763537725827 193.8981642047936 0 0 0 0 2.5495041981912436 94.002827170082753 0 94.002827170082753 219.53716736858883 0 0 0 0 40.629946411901074 98.199276350640503 0 98.199276350640503 139.00028666475612 0 0 0 0 26.275119918986093 103.47783428020438 0 103.47783428020438 194.06749317148393 0 0 0 0 274.64057448292624 258.16205391704955 0 258.16205391704955 221.17181023026615 0 0 0 0 90.388330166650121 147.00604756940277 0 147.00604756940277 186.0065894972401 0 0 0 0 97.929137751459166 134.42327268719396 0 134.42327268719396 136.85240236799712 0 0 0 0 526.77091595354682 -39.520436379851716 0 -39.520436379851716 22.737389074051009 0 0 0 0 345.82549511749676 -97.447048588914186 0 -97.447048588914186 5.0672527525914575 0 0 0 0 207.38228764150244 132.39651454739646 0 132.39651454739646 100.26120508743264 0 0 0 0 657.99536448055005 352.83061138768574 0 352.83061138768574 241.89458180972679 0 0 0 0 307.51982169461462 117.72847581911799 0 117.72847581911799 102.16712606036651 0 0 0 0 117.47096410272025 153.68645162985376 0 153.68645162985376 643.01475121430576 0 0 0 0 -40.977671774842015 328.4596673794444 0 328.4596673794444 157.28239254273899 0 0 0 0 389.40276178560498 -143.06171987291327 0 -143.06171987291327 -282.88960874315671 0 0 0 0 289.93418743579514 -125.974397850684 0 -125.974397850684 248.59377238075922 0 0 0 0 244.24034848079646 51.098167303928221 0 51.098167303928221 -252.85131999828604 0 0 0 0 -395.34688656675712 269.22892003126572 0 269.22892003126572 888.76141315816187 0 0 0 0 4.0096864395531462 5.2580695254895389 0 5.2580695254895389 4.1628123611953667 0 0 0 0 216.13547885128764 56.116541146029249 0 56.116541146029249 23.017871153032075 0 0 0 0 -447.41316650260922 788.25248997504787 0 788.25248997504787 478.01183781174336 0 0 0 0 -540.58927998106208 611.68043323241 0 611.68043323241 700.3476660873398 0 0 0 0 -1.0090224119278037 2.643471632967946 0 2.643471632967946 5.5123659881652065 0 0 0 0 243.33571079515696 -149.76566009880315 0 -149.76566009880315 199.61648899475563 0 0 0 0 481.1644274267353 106.00421369361274 0 106.00421369361274 -554.73345838880618 0 0 0 0 414.68054371389962 -280.3853151351222 0 -280.3853151351222 -87.316918976296449 0 0 0 0 460.00930729833362 245.67242450082199 0 245.67242450082199 -400.47452398188227 0 0 0 0 445.8505099539272 -56.524658963945797 0 -56.524658963945797 187.75985686050439 0 0 0 0 355.82971106041668 408.91832492978585 0 408.91832492978585 434.13564887097743 0 0 0 0 481.37044588121728 257.81819443634475 0 257.81819443634475 574.92486233831119 0 0 0 0 43.556438715804688 -25.41810193410754 0 -25.41810193410754 268.91958398051798 0 0 0 0 711.04083967070505 724.40566609973371 0 724.40566609973371 569.47453478148134 0 0 0 0 1285.0259499843396 -840.45590010261662 0 -840.45590010261662 -225.46862077369241 0 0 0 0 14.007507811822133 -0.29614823320359784 0 -0.29614823320359784 0.01660324175583211 0 0 0 0 187.9119773329594 211.88440967892876 0 211.88440967892876 -219.50565828466881 0 0 0 0 1511.9780150433919 -420.39657804760895 0 -420.39657804760895 442.51386875320838 0 0 0 0 1057.2223840715696 -141.8986173549697 0 -141.8986173549697 550.55956404244307 0 0 0 0 1951.8940270232474 123.94945198145624 0 123.94945198145624 127.98691607512123 0 0 0 0 1453.5735482234431 -264.87573637739769 0 -264.87573637739769 178.23899691797817 0 0 0 0 969.31645144410049 158.78662568023259 0 158.78662568023259 128.3777882246909 0 0 0 0 1618.0901811715175 -208.51086249602119 0 -208.51086249602119 -43.927507972725664 0 0 0 0 1101.9426189801006 -97.348587967743413 0 -97.348587967743413 -54.593868084496421 0 0 0 0 1114.3207586986027 -75.053556125758803 0 -75.053556125758803 -17.800937314470225 0 0 0 0 1550.6440964809301 -232.52305239957684 0 -232.52305239957684 -141.50503850729689 0 0 0 0 1647.7522477572757 -113.13862908919836 0 -113.13862908919836 1.9142350357572013 0 0 0 0 1605.2631555996702 -56.834640771317623 0 -56.834640771317623 109.46643010227318 0 0 0 0 1896.712162992206 85.939132611882002 0 85.939132611882002 57.726395994084669 0 0 0 0 3498.1500424863843 -78.357748771535967 0 -78.357748771535967 -417.54185221834535 0 0 0 0 2459.1511157670257 11.605682836361865 0 11.605682836361865 -358.3841206362834 0 0 0 0 4.9396160490616356 -2.1263032655638243 0 -2.1263032655638243 0.13925359909101087 0 0 0 0 3499.7107848151563 425.18168421446393 0 425.18168421446393 -249.6598579967187 0 0 0 0 3.4409934336976304 -0.62197459961821799 0 -0.62197459961821799 -0.067932516952006861 0 0 0 0 2121.2051853429698 630.73529943420363 0 630.73529943420363 -254.17888814410435 0 0 0 0 3499.4624673455373 1183.0122325292466 0 1183.0122325292466 -265.41364837412584 0 0 0 0 1308.839509561079 -183.66886644518513 0 -183.66886644518513 237.21828315742357 0 0 0 0 1404.1114191501329 85.065653126256962 0 85.065653126256962 93.672094752792447 0 0 0 0 1671.7995353258309 269.18507620335623 0 269.18507620335623 218.96778149590355 0 0 0 0 851.25227517309213 365.01707709017779 0 365.01707709017779 274.95688583900528 0 0 0 0 1246.8996920230074 -43.359908743798627 0 -43.359908743798627 166.6759817217355 0 0 0 0 909.92667080458887 21.26796632307493 0 21.26796632307493 -154.02967867297502 0 0 0 0 549.33252355014679 -37.507326950283257 0 -37.507326950283257 175.30399695759041 0 0 0 0 666.87060304470288 322.47113639269713 0 322.47113639269713 265.14027870403169 0 0 0 0 731.47194412069803 373.73052752825987 0 373.73052752825987 113.77218132299771 0 0 0 0 246.8876896830443 401.05192454803398 0 401.05192454803398 -449.45712380934265 0 0 0 0 314.20686710992231 75.059683724182605 0 75.059683724182605 -42.595758063910012 0 0 0 0 322.97316127258148 760.26612228336239 0 760.26612228336239 43.427773875586581 0 0 0 0 -531.52728089152333 512.58102144167344 0 512.58102144167344 -294.30312135080476 0 0 0 0 -112.44910888370759 -256.60558128798766 0 -256.60558128798766 -954.93541062092982 0 0 0 0 -173.30889022707015 400.85170915680311 0 400.85170915680311 -743.31325626371893 0 0 0 0 362.42346090959074 -305.28959869315412 0 -305.28959869315412 -344.32284500697079 0 0 0 0 1758.1135018586119 1264.338458043258 0 1264.338458043258 -217.14082346836798 0 0 0 0 1229.2719685217726 521.31030291244997 0 521.31030291244997 7.8861543304135466 0 0 0 0 1318.3091621092892 1511.0531026951992 0 1511.0531026951992 187.2029868554516 0 0 0 0 198.14515825486524 380.16403646152673 0 380.16403646152673 -300.55419964110581 0 0 0 0 647.16493023287785 942.14570024520094 0 942.14570024520094 -570.71869465824739 0 0 0 0 -73.353382721081289 967.49845598066941 0 967.49845598066941 -566.06466192946527 0 0 0 0 434.19545399481467 828.94400588638609 0 828.94400588638609 273.42879861795757 0 0 0 0 3495.2256539025057 2521.7852536193882 0 2521.7852536193882 64.305444763427602 0 0 0 0 994.57265318577993 1085.3328551512673 0 1085.3328551512673 5.4983334866169571 0 0 0 0 -32.447909799993795 -325.96247353222816 0 -325.96247353222816 -224.13141803806047 0 0 0 0 14.767646195182053 3.1188737896018885 0 3.1188737896018885 -0.27686415811438847 0 0 0 0 2056.7399646316335 -2094.6234047144599 0 -2094.6234047144599 2138.7040494241164 0 0 0 0 -1242.7699964964195 1028.1950753444585 0 1028.1950753444585 2434.4987349962253 0 0 0 0 327.38467772773674 2546.9170392878782 0 2546.9170392878782 2064.7559486475866 0 0 0 0 3009.9905604950782 -951.3613955577448 0 -951.3613955577448 -696.43804755525514 0 0 0 0 3496.9038143765683 -2279.196920025392 0 -2279.196920025392 417.43572895429571 0 0 0 0 1661.8883502228691 -615.83855398860624 0 -615.83855398860624 -285.67848805466701 0 0 0 0 -0.29074854332364453 1.1727971855401433 0 1.1727971855401433 -0.99872217826013965 0 0 0 0 352.79823162841058 -2202.5408410171067 0 -2202.5408410171067 2093.1337925489047 0 0 0 0 132.40083019800659 -34.372249734229172 0 -34.372249734229172 -170.10562604879669 0 0 0 0 42.016655254395829 17.380377450796693 0 17.380377450796693 2.6187587271959289 0 0 0 0 2.4643733553847511 -9.2279354512885448 0 -9.2279354512885448 -10.168091848409349 0 0 0 0 694.75177016330963 615.23314682543867 0 615.23314682543867 -1360.4255826845711 0 0 0 0 1572.0910783302106 233.00890344642153 0 233.00890344642153 -929.42561820224546 0 0 0 0 -57.481516379464665 676.85355751346026 0 676.85355751346026 -923.66440785641112 0 0 0 0 1131.8579783595633 -775.5079014608973 0 -775.5079014608973 -281.31822961679859 0 0 0 0 1302.9563082585696 -462.20885236633586 0 -462.20885236633586 -838.36240163184675 0 0 0 0 2124.9672657714545 -436.44232065372239 0 -436.44232065372239 -845.32901022149065 0 0 0 0 436.15840575917537 299.54133847094016 0 299.54133847094016 -1865.1535373099359 0 0 0 0 46.971878746063858 12.18641465363207 0 12.18641465363207 0.75712965051781955 0 0 0 0 218.49820129977525 15.961647571229378 0 15.961647571229378 -294.34230887031492 0 0 0 0 -74.321700956443237 -149.2552096848608 0 -149.2552096848608 149.27845282826502 0 0 0 0 4.2657331429514045 -0.63923089483946427 0 -0.63923089483946427 -3.6123133861582488 0 0 0 0 230.59307183577084 -254.00853302425952 0 -254.00853302425952 132.89838561424722 0 0 0 0 1.5925788870315074 1.3985130457229715 0 1.3985130457229715 0.22584587871073136 0 0 0 0 714.82383876393214 1222.4275431946803 0 1222.4275431946803 1006.5094851145145 0 0 0 0 310.40774893122091 959.59341967175271 0 959.59341967175271 1024.3059821426227 0 0 0 0 1087.5094039042633 839.82879463950258 0 839.82879463950258 699.47835116947522 0 0 0 0 2037.8870170884366 862.58109260699803 0 862.58109260699803 590.83671914851607 0 0 0 0 1783.9818103397629 -904.50908014624974 0 -904.50908014624974 -618.54094807814249 0 0 0 0 21.830048583411163 4.7443866845788936 0 4.7443866845788936 0.76854498371124702 0 0 0 0 187.39318369346256 -815.72418201859364 0 -815.72418201859364 -281.64244218021003 0 0 0 0 1540.4782501312948 1187.9566059757935 0 1187.9566059757935 738.86230690975526 0 0 0 0 2991.8152596258151 -273.64011384649666 0 -273.64011384649666 -899.229603313643 0 0 0 0 2306.8260553532564 13.265117874721454 0 13.265117874721454 -545.90819512633925 0 0 0 0 3449.222230757885 -62.170514611685576 0 -62.170514611685576 -806.66693827471499 0 0 0 0 2830.531931874094 416.30488658872525 0 416.30488658872525 144.69965807691779 0 0 0 0 3625.8051742874986 811.44219223717084 0 811.44219223717084 -87.267998415614784 0 0 0 0 3037.7483683490354 -543.81523523815395 0 -543.81523523815395 4203.4666455477891 0 0 0 0 3950.7943134676825 285.82989923283321 0 285.82989923283321 913.97044066961735 0 0 0 0 2250.3771917491395 1074.6914742180347 0 1074.6914742180347 715.52824036221568 0 0 0 0 -32.103860213411735 17.055781734676259 0 17.055781734676259 486.80992607374355 0 0 0 0 637.09507744154689 907.14788287472425 0 907.14788287472425 183.92833183385301 0 0 0 0 3379.9462009533636 -941.05952895670089 0 -941.05952895670089 426.247329997517 0 0 0 0 9.5180120642693069 2.0950565888892676 0 2.0950565888892676 -0.35176533918209696 0 0 0 0 63.116647228854163 -162.83096193796882 0 -162.83096193796882 -63.982787523274396 0 0 0 0 1283.1408595251287 470.006343357628 0 470.006343357628 162.16673840481087 0 0 0 0 1967.9890742666248 1057.3270817936695 0 1057.3270817936695 401.47329096324717 0 0 0 0 514.16714852585881 185.64959894589754 0 185.64959894589754 58.373654032109243 0 0 0 0 1630.6363956148252 -34.718621004853276 0 -34.718621004853276 -139.05607052605137 0 0 0 0 496.83104931911294 55.612446826855603 0 55.612446826855603 75.17752789681299 0 0 0 0 156.29959916153609 -188.83998262233732 0 -188.83998262233732 -48.73116177721937 0 0 0 0 1998.6054480622947 -303.02995392446201 0 -303.02995392446201 -601.41928250945989 0 0 0 0 985.22808822915249 -498.96732866152752 0 -498.96732866152752 -441.37384380332196 0 0 0 0 1626.0703696231922 91.364209000327818 0 91.364209000327818 82.058804890883749 0 0 0 0 1694.5866390125314 -426.74268521675469 0 -426.74268521675469 -626.52244598092102 0 0 0 0 1766.0142487436879 -278.44776841703526 0 -278.44776841703526 -562.68647489329169 0 0 0 0 1690.7724247845251 -405.61679351853962 0 -405.61679351853962 -713.89393555992262 0 0 0 0 184.09449650427996 153.291200517363 0 153.291200517363 123.4980492127529 0 0 0 0 133.24438213211306 132.99256935014819 0 132.99256935014819 137.50534022025749 0 0 0 0 208.30157064670948 264.03478890756469 0 264.03478890756469 364.76143656626937 0 0 0 0 126.35339495807148 117.5743736937942 0 117.5743736937942 225.61446687144053 0 0 0 0 67.562434543774998 39.134615220958267 0 39.134615220958267 121.77354997699081 0 0 0 0 126.4427665135136 -68.013505359643659 0 -68.013505359643659 90.035140010977557 0 0 0 0 181.92563231419177 -40.832273109271796 0 -40.832273109271796 77.392995998417064 0 0 0 0 201.74516080404601 -56.889033393794989 0 -56.889033393794989 90.299986065282155 0 0 0 0 218.67901517306154 63.92268741533735 0 63.92268741533735 125.41894933286312 0 0 0 0 366.0847698118107 -28.492994509205346 0 -28.492994509205346 75.313053084139028 0 0 0 0 254.64163716410815 -158.82737817613429 0 -158.82737817613429 152.64268163141969 0 0 0 0 288.25157968548979 63.389352384889889 0 63.389352384889889 55.518552653174083 0 0 0 0 372.20730761556342 -9.0998822089877649 0 -9.0998822089877649 92.572729575523681 0 0 0 0 363.11298860707211 133.1130868151763 0 133.1130868151763 33.523753365043376 0 0 0 0 255.61651850639055 65.213648517892125 0 65.213648517892125 102.66883284996493 0 0 0 0 226.46429147762319 132.09577515208503 0 132.09577515208503 28.709411689679655 0 0 0 0 154.66752455890219 100.63743450170887 0 100.63743450170887 83.817960063924147 0 0 0 0 156.41415890646022 106.87441691037611 0 106.87441691037611 25.349251521466613 0 0 0 0 -13.239137825647049 97.46197500260314 0 97.46197500260314 117.4425264167603 0 0 0 0 -46.990255902750505 -7.8306875116959418 0 -7.8306875116959418 65.710580401055267 0 0 0 0 12.678966631029652 60.094695572416185 0 60.094695572416185 53.896605285415717 0 0 0 0 -35.849199697054246 -9.0479840186908405 0 -9.0479840186908405 3.3583360425745923 0 0 0 0 1.0448185712920077 4.0656337296414442 0 4.0656337296414442 6.6681224930630236 0 0 0 0 -2.2770200469130941 12.698928241167778 0 12.698928241167778 1.2880544716845179 0 0 0 0 24.687804026036247 10.51366411926233 0 10.51366411926233 -13.271868969667139 0 0 0 0 1.1590971995808665 3.3857141544152682 0 3.3857141544152682 5.5770214557831324 0 0 0 0 -44.030179720538854 43.79599697521337 0 43.79599697521337 -1.389097188719461 0 0 0 0 46.92410272955749 75.52213736757767 0 75.52213736757767 40.318377658519012 0 0 0 0 64.247247290366431 13.365759315202922 0 13.365759315202922 8.9021328956650905 0 0 0 0 104.9451142270409 -30.383528449131518 0 -30.383528449131518 -37.461957582338073 0 0 0 0 -35.260645268339431 -15.98753144295415 0 -15.98753144295415 50.60918275165568 0 0 0 0 4.3458035174255896 1.1079745053114181 0 1.1079745053114181 -6.5361522502324192 0 0 0 0 28.941053526851647 3.8379283998970095 0 3.8379283998970095 -9.545262980892403 0 0 0 0 14.714585621984043 1.3887427397203282 0 1.3887427397203282 1.9845473902996673 0 0 0 0 22.660175392980818 2.5884118193259837 0 2.5884118193259837 0.70824909684233717 0 0 0 0 52.650998633795098 33.913251461592154 0 33.913251461592154 66.518747513611743 0 0 0 0 447.44419665234454 -186.49406494160303 0 -186.49406494160303 14.896565198701524 0 0 0 0 170.19219629369303 -70.933041713173935 0 -70.933041713173935 75.075974687008511 0 0 0 0 -0.31838741523502684 1.326476346263215 0 1.326476346263215 -1.7909458397768638 0 0 0 0 27.245512432846596 -7.7544499247849448 0 -7.7544499247849448 -18.350359573798414 0 0 0 0 92.336569049161881 -66.885741862893155 0 -66.885741862893155 35.03129911789074 0 0 0 0 101.85238223871511 78.848302486139801 0 78.848302486139801 213.18449301255669 0 0 0 0 671.16217421737747 -76.287305024943407 0 -76.287305024943407 154.47345632656788 0 0 0 0 480.32220575808287 -255.57845644552219 0 -255.57845644552219 10.281877650106253 0 0 0 0 205.52027224564358 33.916579388842592 0 33.916579388842592 -18.810356883979694 0 0 0 0 102.819132946629 50.263708490032968 0 50.263708490032968 -40.798360991274649 0 0 0 0 -92.669121374461156 -39.285634318028087 0 -39.285634318028087 261.71476957554319 0 0 0 0 436.79139229496468 202.2389115250653 0 202.2389115250653 66.810667860017816 0 0 0 0 0.90389739641091005 2.0399528298550891 0 2.0399528298550891 2.1481226614831055 0 0 0 0 268.17944480473898 93.692858184790111 0 93.692858184790111 232.09968363684789 0 0 0 0 157.60051025793246 25.539680689461193 0 25.539680689461193 408.81442444331196 0 0 0 0 90.263744095705079 153.51260118595712 0 153.51260118595712 400.99777289452652 0 0 0 0 222.4833354217335 129.95390995267968 0 129.95390995267968 393.16770876425221 0 0 0 0 292.16274519182844 63.813889420685769 0 63.813889420685769 280.45041942702517 0 0 0 0 139.294472638152 69.157815877857047 0 69.157815877857047 297.28078393201747 0 0 0 0 757.42663120022007 -269.8408056981034 0 -269.8408056981034 203.07443844559521 0 0 0 0 375.0566916963121 16.619289116981292 0 16.619289116981292 343.39843279001775 0 0 0 0 232.39003716702518 -88.000817673888946 0 -88.000817673888946 282.41951633137489 0 0 0 0 291.14543273180789 56.234913884302671 0 56.234913884302671 400.93027310892626 0 0 0 0 582.95313922074274 -68.678025314982278 0 -68.678025314982278 333.68748179376456 0 0 0 0 742.38033838789261 125.67974833745544 0 125.67974833745544 397.28180450289119 0 0 0 0 744.08648560264191 -104.83022054448321 0 -104.83022054448321 406.12107328588473 0 0 0 0 565.73238596200099 45.082249235846206 0 45.082249235846206 342.98212527390649 0 0 0 0 505.26427615175817 -82.274263621950723 0 -82.274263621950723 313.23716563238003 0 0 0 0 322.80439064643122 13.784294508506701 0 13.784294508506701 297.36822832272981 0 0 0 0 457.7033972627305 -124.63883343722904 0 -124.63883343722904 197.45780834746373 0 0 0 0 327.27709255038008 -21.577842848513939 0 -21.577842848513939 131.4427349754088 0 0 0 0 490.07414866222007 -0.95735252212831767 0 -0.95735252212831767 224.04413924936256 0 0 0 0 688.49054447080016 -104.68996649951059 0 -104.68996649951059 249.13618807629612 0 0 0 0 234.51000115181796 37.125832368461943 0 37.125832368461943 161.16448330804758 0 0 0 0 163.57660431991735 -70.044572801594256 0 -70.044572801594256 218.01740627928726 0 0 0 0 313.87782782844647 -49.500990412410829 0 -49.500990412410829 227.06799790168702 0 0 0 0 218.93834259053983 49.854438674607877 0 49.854438674607877 330.95865229441972 0 0 0 0 269.41121344108797 -128.3991445352622 0 -128.3991445352622 138.82477401435975 0 0 0 0 228.21341583712274 13.727635540321558 0 13.727635540321558 188.12401609332318 0 0 0 0 135.07582915104058 -8.3862520963871816 0 -8.3862520963871816 94.632550480034865 0 0 0 0 143.69773986308792 -167.98290051291042 0 -167.98290051291042 40.594037132440974 0 0 0 0 48.489712883874745 -65.343182540630892 0 -65.343182540630892 -56.921391850886778 0 0 0 0 -125.91870122510409 -167.28809438553475 0 -167.28809438553475 -12.46896344690213 0 0 0 0 -130.04662193609011 -69.281212054725529 0 -69.281212054725529 92.619689278325041 0 0 0 0 64.278891217984665 -123.09837077586343 0 -123.09837077586343 86.51225968805602 0 0 0 0 39.785795828704522 40.210109451838321 0 40.210109451838321 172.00114389308351 0 0 0 0 161.40375927163541 -20.901122244301575 0 -20.901122244301575 184.42353638950271 0 0 0 0 44.9984793127188 -66.02613637863827 0 -66.02613637863827 53.772273044595522 0 0 0 0 -56.679941829095696 8.9939971093929216 0 8.9939971093929216 206.79414803646023 0 0 0 0 59.053412618827622 -2.046021988930363 0 -2.046021988930363 177.16577842065726 0 0 0 0 95.533825174929916 120.13407623578019 0 120.13407623578019 266.85382434093481 0 0 0 0 125.61150833426531 -90.049476773879405 0 -90.049476773879405 116.69540701882374 0 0 0 0 -75.795090654976391 -173.90211938837876 0 -173.90211938837876 87.844621170065238 0 0 0 0 7.0128936371763757 -103.56848386211772 0 -103.56848386211772 65.443653243082281 0 0 0 0 -113.06362843348163 -395.26281639228296 0 -395.26281639228296 -199.74877014951358 0 0 0 0 -87.487056321561852 -134.83219007828876 0 -134.83219007828876 -133.3005481109293 0 0 0 0 -236.94221050705346 -105.33419572131191 0 -105.33419572131191 87.471547015123946 0 0 0 0 -346.38821239927529 -220.0499704013435 0 -220.0499704013435 -58.201234225534151 0 0 0 0 -783.74001295465121 -546.45390962618694 0 -546.45390962618694 -109.81090568680455 0 0 0 0 -358.51653933306443 -180.2647657959489 0 -180.2647657959489 -187.47325188722229 0 0 0 0 797.61803407995376 -273.23315512164015 0 -273.23315512164015 -101.35965845288848 0 0 0 0 1163.4085482600544 383.1978823863119 0 383.1978823863119 -135.9397394959326 0 0 0 0 2.6089189972285736 -2.6600742511313027 0 -2.6600742511313027 0.10032585679250372 0 0 0 0 247.23918991740265 -200.05559200706364 0 -200.05559200706364 51.627936427243526 0 0 0 0 290.78668845315042 -48.572534155415951 0 -48.572534155415951 -17.033315289452162 0 0 0 0 488.89755544924287 52.813303087454273 0 52.813303087454273 -158.51948183778626 0 0 0 0 106.4977094896019 -60.550924534298048 0 -60.550924534298048 -47.369904526595633 0 0 0 0 159.47528657199564 -136.94041311682315 0 -136.94041311682315 34.177315105923981 0 0 0 0 -43.435872860190102 -42.344273740252731 0 -42.344273740252731 -43.242822453019187 0 0 0 0 36.403678254065198 -149.37509406833965 0 -149.37509406833965 -20.460981595434475 0 0 0 0 -136.99061862847066 -123.30367308212465 0 -123.30367308212465 57.728521804678621 0 0 0 0 116.24848757995139 -96.258809888948605 0 -96.258809888948605 20.42308008873033 0 0 0 0 103.55061299218426 -143.93186699894386 0 -143.93186699894386 30.093509437903549 0 0 0 0 146.57813299580175 -134.81046984271171 0 -134.81046984271171 29.262917450025384 0 0 0 0 148.79842602141821 -136.0467703818706 0 -136.0467703818706 29.788879037046627 0 0 0 0 149.84803911789345 -133.75744183642996 0 -133.75744183642996 14.656578782219754 0 0 0 0 182.36199015826148 -143.26227981031286 0 -143.26227981031286 8.6667504447750616 0 0 0 0 175.35931776594504 -186.85343558533009 0 -186.85343558533009 -49.214148641095335 0 0 0 0 212.7632261586059 -122.92071501394457 0 -122.92071501394457 16.505822509688073 0 0 0 0 514.81395274971692 75.482733710752626 0 75.482733710752626 -121.69267632395942 0 0 0 0 1113.7205125886503 -148.21862901043124 0 -148.21862901043124 -46.679963692997362 0 0 0 0 355.54320081239985 -89.233752314996082 0 -89.233752314996082 -45.458753655948811 0 0 0 0 399.06822310701227 -116.71569432175642 0 -116.71569432175642 -44.207230240525398 0 0 0 0 366.00043306305474 -248.83837431391231 0 -248.83837431391231 22.563385794417627 0 0 0 0 337.87824118878325 -207.13024291543331 0 -207.13024291543331 113.23370725295115 0 0 0 0 -236.58689163712143 -47.436501148952743 0 -47.436501148952743 59.126474709444665 0 0 0 0 -0.88610752718979668 0.89572879875420242 0 0.89572879875420242 -0.046936786493113836 0 0 0 0 149.76869250872005 -129.42206240745372 0 -129.42206240745372 -3.2640817969204363 0 0 0 0 149.71651735203295 -132.84763624498794 0 -132.84763624498794 21.764924918588349 0 0 0 0 217.01520100601829 -109.21803349737309 0 -109.21803349737309 -18.630873522958609 0 0 0 0 265.59088954098024 -192.27944566109477 0 -192.27944566109477 28.246508687832204 0 0 0 0 239.91707670929736 -45.627780613618597 0 -45.627780613618597 -51.691919161328826 0 0 0 0 239.09453905493228 -47.398792514831825 0 -47.398792514831825 -54.283628001874831 0 0 0 0 174.72176606103676 -18.0454710103254 0 -18.0454710103254 -67.105958302522822 0 0 0 0 164.83912361728198 73.309814775782797 0 73.309814775782797 -59.786623876253771 0 0 0 0 76.758116480526269 -3.0549451304522108 0 -3.0549451304522108 -37.731324859888446 0 0 0 0 106.42030605605487 58.995962028106533 0 58.995962028106533 -103.7637039338988 0 0 0 0 67.147660620119595 9.5423678395568743 0 9.5423678395568743 -11.358946647272766 0 0 0 0 145.70784885518151 -43.49421281662535 0 -43.49421281662535 -38.410322441461176 0 0 0 0 68.084295443382871 -5.5631018649569342 0 -5.5631018649569342 -50.319173811657492 0 0 0 0 15.273932892157392 1.6235757873671215 0 1.6235757873671215 0.018873581688698238 0 0 0 0 142.42257828837319 -35.815268092744645 0 -35.815268092744645 25.920410043236188 0 0 0 0 119.32032700904165 -55.967901638287003 0 -55.967901638287003 -38.413089013383797 0 0 0 0 143.82918528593245 -97.498261360864603 0 -97.498261360864603 12.356589745416386 0 0 0 0 132.45322676312071 -104.49067804694414 0 -104.49067804694414 14.148161604395568 0 0 0 0 114.81464141254128 -48.143957400943691 0 -48.143957400943691 33.264804947169068 0 0 0 0 105.25463018540313 -33.005770604266672 0 -33.005770604266672 32.494960938685381 0 0 0 0 84.673435867136959 -47.96095187798619 0 -47.96095187798619 40.656845803493525 0 0 0 0 38.051476259224117 15.737887046522131 0 15.737887046522131 1.2851064366898441 0 0 0 0 8.8892718305799967 15.44093115756354 0 15.44093115756354 -33.696867711241822 0 0 0 0 54.159890068963705 28.316306984230778 0 28.316306984230778 -43.415244172151688 0 0 0 0 72.736969339570351 30.020207719224913 0 30.020207719224913 -43.721011543573582 0 0 0 0 72.853978298784114 24.827094584791695 0 24.827094584791695 -31.445414323548221 0 0 0 0 85.315170697158464 24.468345714207658 0 24.468345714207658 -41.361066652154705 0 0 0 0 73.168050480591774 25.766875685838954 0 25.766875685838954 -42.373251777005635 0 0 0 0 70.049467285622086 20.149583369410152 0 20.149583369410152 -41.921784842721706 0 0 0 0 155.95799448339108 -107.23608692760763 0 -107.23608692760763 71.783792326722278 0 0 0 0 161.71692330800482 -124.93847099776656 0 -124.93847099776656 106.87901678969502 0 0 0 0 116.43579298887425 -150.06630499889434 0 -150.06630499889434 65.262842853171605 0 0 0 0 135.53910862726434 -117.48753821302967 0 -117.48753821302967 56.205247715570749 0 0 0 0 130.53701259896565 -130.70374356897469 0 -130.70374356897469 116.83445175507404 0 0 0 0 120.18539640398876 -103.63399043887148 0 -103.63399043887148 46.055416141266051 0 0 0 0 99.988177894143064 -82.841708284625383 0 -82.841708284625383 105.38260686802073 0 0 0 0 90.240267039835999 -82.535292907301027 0 -82.535292907301027 108.80780545758535 0 0 0 0 30.041521925578081 10.057441624360784 0 10.057441624360784 3.5179042089918919 0 0 0 0 97.167001636319355 -86.451067395050359 0 -86.451067395050359 110.90768490298842 0 0 0 0 131.37966782183025 -134.24438869863206 0 -134.24438869863206 180.6282092784013 0 0 0 0 187.67434968124644 -93.318118338706881 0 -93.318118338706881 100.85662426181091 0 0 0 0 178.09563339533076 -127.81512869955441 0 -127.81512869955441 165.44757137577653 0 0 0 0 36.21625146353017 61.680220768897016 0 61.680220768897016 -56.862863380672479 0 0 0 0 23.543863646918226 29.407796047458305 0 29.407796047458305 33.127394075740995 0 0 0 0 20.051632048810866 6.418706465078218 0 6.418706465078218 1.7337075062679155 0 0 0 0 172.52152070107502 -140.44650130628293 0 -140.44650130628293 179.3087333284484 0 0 0 0 11.006894171318891 24.676612010624922 0 24.676612010624922 -19.73728888808273 0 0 0 0 29.011237518822782 18.499628757131404 0 18.499628757131404 -47.047446708022107 0 0 0 0 45.860472352881516 31.742838198481877 0 31.742838198481877 -79.567906282788499 0 0 0 0 51.88569313584054 18.884847738374958 0 18.884847738374958 -47.061184370588308 0 0 0 0 45.982708932312534 68.378150942355177 0 68.378150942355177 23.121324990792345 0 0 0 0 57.2168371372004 33.649741228182165 0 33.649741228182165 37.927375962659426 0 0 0 0 25.066260082593544 137.20013706874852 0 137.20013706874852 179.24427860250398 0 0 0 0 0.54065152350032974 -0.45835269078682117 0 -0.45835269078682117 0.4148571058198911 0 0 0 0 110.23815540994474 127.11942479071377 0 127.11942479071377 40.157570652994764 0 0 0 0 64.481077470814398 22.563131748294836 0 22.563131748294836 -71.854816300598941 0 0 0 0 48.681071458702718 71.620972610373883 0 71.620972610373883 -57.391366554542401 0 0 0 0 60.950805969179839 125.30330628214949 0 125.30330628214949 111.03260662252342 0 0 0 0 217.37747496032125 128.34003604342888 0 128.34003604342888 -65.723347044384752 0 0 0 0 60.371336815993345 26.340338267224126 0 26.340338267224126 -37.911694826823805 0 0 0 0 85.119791918930787 44.310215691712528 0 44.310215691712528 -17.718924490559857 0 0 0 0 96.530759165227209 36.357282704460886 0 36.357282704460886 -59.952366233966814 0 0 0 0 76.066687505583104 24.456174987209806 0 24.456174987209806 -41.087004396346515 0 0 0 0 -6.3239122767842666 14.422491521318765 0 14.422491521318765 -33.004681216164002 0 0 0 0 98.270727710906613 32.439461369858236 0 32.439461369858236 -40.097392389179845 0 0 0 0 82.807852367135183 36.074025006918191 0 36.074025006918191 -32.771121025243474 0 0 0 0 82.972526456816922 38.647593773119979 0 38.647593773119979 -29.616517644299392 0 0 0 0 13.60763408746061 21.749237037243802 0 21.749237037243802 -27.824116689033872 0 0 0 0 63.477732003198639 25.643177841311172 0 25.643177841311172 -37.602538763518169 0 0 0 0 27.747870148619768 17.218341154841255 0 17.218341154841255 -29.652179942883777 0 0 0 0 41.172002245137264 1.4509234669230864 0 1.4509234669230864 -71.248060368772713 0 0 0 0 -0.71218773670261726 -33.850785616023131 0 -33.850785616023131 -85.600286107788179 0 0 0 0 19.512147834201642 95.444731449301798 0 95.444731449301798 10.956106148092658 0 0 0 0 42.253448535910138 17.559264503865052 0 17.559264503865052 102.86452372656186 0 0 0 0 66.242529179507528 52.618956426682871 0 52.618956426682871 -48.744444328202007 0 0 0 0 -0.37531842168755247 54.938671919446278 0 54.938671919446278 31.766606929173577 0 0 0 0 5.8696653524060594 3.5656132543737868 0 3.5656132543737868 -3.4999962712423294 0 0 0 0 -5.4437017069649301 77.182917044825444 0 77.182917044825444 -7.0836175177246332 0 0 0 0 37.368799948402412 0.77297702515430444 0 0.77297702515430444 -5.3605900911559665 0 0 0 0 -1.1072654842866072 13.476348832271301 0 13.476348832271301 0.33894595851583054 0 0 0 0 45.46840668648656 2.7902115420174596 0 2.7902115420174596 -62.4236198846138 0 0 0 0 45.188470766314822 2.1037705350081524 0 2.1037705350081524 -39.91043319344999 0 0 0 0 22.420567500574862 19.222380176927118 0 19.222380176927118 -52.424856862258821 0 0 0 0 61.0458416218612 16.32060952818847 0 16.32060952818847 -53.690462765302073 0 0 0 0 1.5342288125072336 15.450523176476201 0 15.450523176476201 -31.888628139252532 0 0 0 0 78.755437168820208 36.590116764572258 0 36.590116764572258 -18.855466367533609 0 0 0 0 77.000012594872715 38.342765470064364 0 38.342765470064364 -15.389247717556827 0 0 0 0 72.495506587511045 23.478187205218092 0 23.478187205218092 -37.099372564356599 0 0 0 0 7.6932569219025027 8.7367079741925409 0 8.7367079741925409 -3.8247783875849564 0 0 0 0 26.55695435644418 20.532414165281217 0 20.532414165281217 -11.816444572463642 0 0 0 0 15.609392847371055 18.027772292138252 0 18.027772292138252 -13.835097160674195 0 0 0 0 15.413712864117979 17.149860897347445 0 17.149860897347445 -18.663397932410881 0 0 0 0 30.145126539311605 15.07079902872465 0 15.07079902872465 -26.48240687246107 0 0 0 0 40.596996458755058 11.557426738040476 0 11.557426738040476 -4.7424095775492674 0 0 0 0 30.381336443184409 12.599912700312416 0 12.599912700312416 -21.276611404136929 0 0 0 0 38.552467132728111 13.816758392708611 0 13.816758392708611 -7.8832321834302377 0 0 0 0 29.764869503708567 6.0928446248703558 0 6.0928446248703558 -3.8707737684849532 0 0 0 0 20.556816343566425 5.4120519029274874 0 5.4120519029274874 -10.573329128086698 0 0 0 0 57.980097445635586 13.963747389350033 0 13.963747389350033 -8.3179224028481187 0 0 0 0 72.94009506097791 11.716362336005432 0 11.716362336005432 -48.63060546498491 0 0 0 0 50.710885831264022 10.476894424823968 0 10.476894424823968 -41.269602597385528 0 0 0 0 34.109737971870345 -16.548270540332851 0 -16.548270540332851 -36.962083570782852 0 0 0 0 40.608704130197324 7.0377839524577261 0 7.0377839524577261 -24.661610157480322 0 0 0 0 3.1681823124677351 -0.52005018977551565 0 -0.52005018977551565 -6.7239710131676578 0 0 0 0 69.593021573964506 20.515374472008261 0 20.515374472008261 -42.994887609271075 0 0 0 0 88.014097324423346 34.647485314959567 0 34.647485314959567 -10.180976855626994 0 0 0 0 70.798453367058755 9.3652366394168212 0 9.3652366394168212 -30.715347333689806 0 0 0 0 46.092905412377149 12.331476956415827 0 12.331476956415827 5.5552529753782665 0 0 0 0 8.8837890894760818 12.998934792164853 0 12.998934792164853 0.83078762029225928 0 0 0 0 82.562659653005539 60.818960664127417 0 60.818960664127417 21.961270098541718 0 0 0 0 135.97034459915631 80.57062784637219 0 80.57062784637219 -10.793551624653901 0 0 0 0 74.421782938145043 35.859507182317429 0 35.859507182317429 -2.9856132963145683 0 0 0 0 88.080970333892765 48.534471442841095 0 48.534471442841095 -11.139879892761087 0 0 0 0 79.694602837576895 38.46109964014363 0 38.46109964014363 -20.839421995055545 0 0 0 0 28.555679576093098 -53.961366119460308 0 -53.961366119460308 -58.420003293225591 0 0 0 0 138.4667365239693 13.120482833932783 0 13.120482833932783 -41.606120669712254 0 0 0 0 99.153934906400536 4.1421334857604961 0 4.1421334857604961 -102.75958433199048 0 0 0 0 78.009794979076105 -1.6511176435155903 0 -1.6511176435155903 -34.560722869884557 0 0 0 0 51.145991707147914 -0.5159453415990356 0 -0.5159453415990356 19.267233749169463 0 0 0 0 -20.386154050132063 -79.352603083993245 0 -79.352603083993245 -61.983375557267209 0 0 0 0 52.974797826838767 20.636135866321183 0 20.636135866321183 -14.836756069158582 0 0 0 0 11.761158730128678 0.17376114590514646 0 0.17376114590514646 -1.8161925848779461 0 0 0 0 65.368409863760462 -35.407847233215762 0 -35.407847233215762 -90.43098969404673 0 0 0 0 130.6384375739508 -128.80393954828651 0 -128.80393954828651 -55.225169689051654 0 0 0 0 39.558527702463834 78.720296599817857 0 78.720296599817857 107.34687965500052 0 0 0 0 -30.439733197974419 -6.5514379761312966 0 -6.5514379761312966 61.333647965824639 0 0 0 0 304.61127649575792 114.9138940673829 0 114.9138940673829 16.355572333112377 0 0 0 0 108.8252150168355 152.34597621229932 0 152.34597621229932 167.11755656756168 0 0 0 0 -0.51586560896393507 2.8753659609130757 0 2.8753659609130757 2.5856177518910775 0 0 0 0 228.77957678282837 -86.007081523632223 0 -86.007081523632223 16.390507823886765 0 0 0 0 21.745230081053705 85.748663409778601 0 85.748663409778601 -106.17641708830695 0 0 0 0 36.169843376381323 5.7539377612065437 0 5.7539377612065437 -112.6327892579975 0 0 0 0 151.35313630510245 139.4897669870445 0 139.4897669870445 -122.53525996987992 0 0 0 0 304.24881779306816 51.429347104564386 0 51.429347104564386 -126.06955450547139 0 0 0 0 55.852046988055093 14.83837440486408 0 14.83837440486408 -2.010427681694658 0 0 0 0 53.4179316389218 127.094069257515 0 127.094069257515 -64.709531685617094 0 0 0 0 -25.515582734704367 43.362577127511884 0 43.362577127511884 16.354533938873828 0 0 0 0 6.929375812982471 0.15815313826374222 0 0.15815313826374222 -53.608810050424722 0 0 0 0 49.574609936673781 -0.49526522960150032 0 -0.49526522960150032 -22.527388704724601 0 0 0 0 38.831177073795061 -11.299437164014023 0 -11.299437164014023 -27.256650715881733 0 0 0 0 43.261388379632535 -41.05868119454388 0 -41.05868119454388 16.056513424136938 0 0 0 0 4.3485742822699933 4.3724629067187131 0 4.3724629067187131 -4.6672854060865046 0 0 0 0 88.173524249265029 15.235371051607217 0 15.235371051607217 -8.8687951616877854 0 0 0 0 75.216463683849724 2.781639779244415 0 2.781639779244415 -6.865993399227591 0 0 0 0 70.933148290874669 10.605565476809716 0 10.605565476809716 -13.263960043446787 0 0 0 0 61.72903571721119 -6.5230857548451198 0 -6.5230857548451198 -18.666674464914145 0 0 0 0 121.32609197544298 14.281112580111198 0 14.281112580111198 -38.665447608130222 0 0 0 0 174.73688001572009 36.618603402115127 0 36.618603402115127 -30.409268578622232 0 0 0 0 108.38813456291973 47.169392215701009 0 47.169392215701009 -6.8740861901176231 0 0 0 0 109.8396375716311 52.452632666506815 0 52.452632666506815 12.22146089961916 0 0 0 0 73.296875457133865 30.395768054590235 0 30.395768054590235 -1.0844934235260553 0 0 0 0 127.84151805153306 29.229847828895117 0 29.229847828895117 -13.228593347665594 0 0 0 0 101.16984418898355 25.207860746977197 0 25.207860746977197 -4.8352999222874651 0 0 0 0 -107.37624373901053 -187.74512237233137 0 -187.74512237233137 612.17799733901666 0 0 0 0 196.4025810414023 33.223664337388414 0 33.223664337388414 6.9968112103013027 0 0 0 0 -0.87974942845882254 2.3474520632361191 0 2.3474520632361191 -0.31747987370996533 0 0 0 0 -101.54124039062299 -106.3801821816669 0 -106.3801821816669 85.353021851697122 0 0 0 0 74.790244444885218 12.092379304446503 0 12.092379304446503 -8.0867403764842294 0 0 0 0 203.1939784445276 78.609532715551609 0 78.609532715551609 183.41078395531645 0 0 0 0 -12.066062099678675 -207.64590888375636 0 -207.64590888375636 -33.7703911900077 0 0 0 0 70.066962803364731 8.0163336694779446 0 8.0163336694779446 -15.071282483042296 0 0 0 0 62.504269981469406 -10.068695669282306 0 -10.068695669282306 -2.6064487858629946 0 0 0 0 96.567191177133282 113.26426939643534 0 113.26426939643534 146.06027877266752 0 0 0 0 225.14701199956676 284.19164298796665 0 284.19164298796665 63.745354112843415 0 0 0 0 136.61741496009563 162.11149291245965 0 162.11149291245965 27.023187460203189 0 0 0 0 95.619540644569497 46.71978779021083 0 46.71978779021083 40.130336489877209 0 0 0 0 157.47654664379911 72.848644632100331 0 72.848644632100331 -132.94703750813278 0 0 0 0 173.66240447303881 135.93550760686594 0 135.93550760686594 -64.034727595775621 0 0 0 0 110.46535348817633 31.964934125007858 0 31.964934125007858 -82.150140779239337 0 0 0 0 64.611675429065144 21.21440830179381 0 21.21440830179381 -138.37825241880637 0 0 0 0 33.051958377793198 77.039776337334843 0 77.039776337334843 -95.502147989095647 0 0 0 0 84.504931313944326 66.858860251753867 0 66.858860251753867 -212.00111620294047 0 0 0 0 24.552893272155643 -45.912072551949677 0 -45.912072551949677 -322.86218183068559 0 0 0 0 42.789561085361129 39.623851113638011 0 39.623851113638011 -153.73011781843525 0 0 0 0 83.817804681818416 108.20015387326293 0 108.20015387326293 -66.368376692108541 0 0 0 0 221.94676617158348 123.3110543956127 0 123.3110543956127 -110.99836032210601 0 0 0 0 4.0018703602385646 1.0132421405494805 0 1.0132421405494805 -2.4780934185441197 0 0 0 0 38.848467000113942 -40.49359934505037 0 -40.49359934505037 -131.65102111461738 0 0 0 0 45.8554161574516 40.608623276423714 0 40.608623276423714 -87.322990616247807 0 0 0 0 1.5533383783476893 73.068127006475834 0 73.068127006475834 -51.818336234514163 0 0 0 0 40.239393206483868 11.854128776134555 0 11.854128776134555 -8.1049643272756242 0 0 0 0 -15.271191493943938 33.576169318537559 0 33.576169318537559 -20.254480713323268 0 0 0 0 280.39603186529348 114.93156679408639 0 114.93156679408639 121.21111803553686 0 0 0 0 55.631711518612974 128.28453946040645 0 128.28453946040645 60.226152750008623 0 0 0 0 -2.6399834898602812 2.767701658976975 0 2.767701658976975 -0.41173952049269857 0 0 0 0 209.5428186540048 333.92858423401776 0 333.92858423401776 184.22194021334872 0 0 0 0 359.65983657863035 67.802444866130827 0 67.802444866130827 -61.079827016852505 0 0 0 0 207.65566255627709 -15.09040521065981 0 -15.09040521065981 71.492172691210726 0 0 0 0 130.59687103621582 121.71905366594547 0 121.71905366594547 -87.711089549977117 0 0 0 0 80.846798864140169 24.267456387595548 0 24.267456387595548 -1.1412806610802981 0 0 0 0 92.312305109939189 30.409009949158644 0 30.409009949158644 -28.099234087563673 0 0 0 0 128.9398369440205 62.335934835387889 0 62.335934835387889 5.9895995765000407 0 0 0 0 78.254988211177988 36.50222046962881 0 36.50222046962881 -15.488066232803249 0 0 0 0 119.05347129315123 24.901026246876427 0 24.901026246876427 -8.9561695433658315 0 0 0 0 90.861540181511373 68.051863420907466 0 68.051863420907466 -67.499771188829072 0 0 0 0 200.68898397184967 64.117339745102072 0 64.117339745102072 -69.224577302568832 0 0 0 0 184.65917149240158 86.393351122193963 0 86.393351122193963 -49.320260570522805 0 0 0 0 232.13893712372374 123.70784810771511 0 123.70784810771511 -94.490809317068397 0 0 0 0 111.64255435088489 108.81278729323458 0 108.81278729323458 -96.094282540956101 0 0 0 0 15.231659322174892 18.953923581497293 0 18.953923581497293 -98.13056894554029 0 0 0 0 85.789698354991742 60.184043454265748 0 60.184043454265748 -86.393485919261366 0 0 0 0 86.091909847931674 24.010527712675866 0 24.010527712675866 -5.5384790305633942 0 0 0 0 88.109126610829662 30.264824107898676 0 30.264824107898676 -22.55790572341175 0 0 0 0 90.113817340483365 13.159953668694698 0 13.159953668694698 -6.6489484808953421 0 0 0 0 104.1331378804316 17.530995353991784 0 17.530995353991784 -20.497631792486118 0 0 0 0 91.333389636725769 26.655711598568814 0 26.655711598568814 -27.061231274164129 0 0 0 0 92.585649279746576 24.599927321327414 0 24.599927321327414 -59.406041934955283 0 0 0 0 11.873180914984118 17.13200395865168 0 17.13200395865168 -7.8355355958336599 0 0 0 0 62.214219068482635 -9.7499290892847057 0 -9.7499290892847057 -98.229097889245168 0 0 0 0 86.162322110016248 23.701253564770013 0 23.701253564770013 -11.033707675681399 0 0 0 0 95.371048040637106 22.467738254784308 0 22.467738254784308 -32.353186534735869 0 0 0 0 91.105628993813298 22.291298610533886 0 22.291298610533886 -16.823923462995481 0 0 0 0 79.557704376638867 16.914476806432504 0 16.914476806432504 -17.645952751862751 0 0 0 0 45.498391396962688 22.209721041246667 0 22.209721041246667 -21.56712493334453 0 0 0 0 81.132459468542947 29.374561256654488 0 29.374561256654488 -20.133707878973382 0 0 0 0 -36.058861590994638 2.0701621257721854 0 2.0701621257721854 -177.08654643517616 0 0 0 0 49.047087259811633 40.551802311330221 0 40.551802311330221 -20.361079241707557 0 0 0 0 12.768081164550892 1.1650626300646536 0 1.1650626300646536 6.6423939092390398 0 0 0 0 56.137780771983671 33.007849915100451 0 33.007849915100451 -7.7323622726607937 0 0 0 0 63.884076533715415 40.59775793752442 0 40.59775793752442 -20.408679204697364 0 0 0 0 34.307024909954634 7.7121841806056182 0 7.7121841806056182 -39.727480782912608 0 0 0 0 -38.842056348439655 -288.59735134017319 0 -288.59735134017319 -92.228947437189163 0 0 0 0 73.572920402979435 -98.00361312334644 0 -98.00361312334644 -198.96126891848689 0 0 0 0 96.45995384336311 -62.029794701935316 0 -62.029794701935316 -245.4361224493332 0 0 0 0 56.43965906193602 -5.2678175706500543 0 -5.2678175706500543 0.5507990824836746 0 0 0 0 -8.0018693906235967 -66.738862484996844 0 -66.738862484996844 -140.59352874485921 0 0 0 0 76.475506893944839 -18.900163246402371 0 -18.900163246402371 -113.7247202817598 0 0 0 0 73.168627618991195 -23.459041186144532 0 -23.459041186144532 -108.15731006860733 0 0 0 0 56.025458366675593 -73.464044386149908 0 -73.464044386149908 -156.19291156476538 0 0 0 0 102.54419479777061 -28.276920902782877 0 -28.276920902782877 -128.31476920206114 0 0 0 0 113.32506423421364 -77.183521047418253 0 -77.183521047418253 -214.44323703764894 0 0 0 0 120.99474013792496 -37.762764695351507 0 -37.762764695351507 -216.20995742621767 0 0 0 0 106.72825494906647 -29.170361402677372 0 -29.170361402677372 -161.05605743346314 0 0 0 0 95.469157913070376 -57.671792821656709 0 -57.671792821656709 -155.12752708011249 0 0 0 0 127.08570960656471 -4.5031091854252736 0 -4.5031091854252736 -155.17869700356823 0 0 0 0 96.456724025872973 -14.337708259157807 0 -14.337708259157807 -176.13449097463672 0 0 0 0 84.757999880344869 -10.033082194964663 0 -10.033082194964663 -147.88247574138541 0 0 0 0 125.07113504178596 44.070718427525208 0 44.070718427525208 -129.61339283010602 0 0 0 0 124.9902007210103 70.618370815413982 0 70.618370815413982 -38.680344497748592 0 0 0 0 127.1123741390802 8.3561015516424959 0 8.3561015516424959 -87.903614464183192 0 0 0 0 135.40631863063572 20.077861396075605 0 20.077861396075605 -70.220112893912301 0 0 0 0 105.6182224006734 39.211028330304543 0 39.211028330304543 -25.184719044777012 0 0 0 0 141.35475453887921 28.146850178727618 0 28.146850178727618 -21.785677404506714 0 0 0 0 96.037445319747349 17.188526524390909 0 17.188526524390909 -66.223993888572295 0 0 0 0 102.54843910369163 -30.136697412139256 0 -30.136697412139256 -126.26406228588166 0 0 0 0 100.18426842342524 3.5122657636820804 0 3.5122657636820804 -79.716305666763219 0 0 0 0 -53.03683178886422 -114.02094619137461 0 -114.02094619137461 -239.58831343027123 0 0 0 0 -92.880281163466861 -54.041756913591598 0 -54.041756913591598 -190.65911290542135 0 0 0 0 -3.6662127248273464 -43.22249421828019 0 -43.22249421828019 -222.10425490224588 0 0 0 0 41.876150249117927 0.10712202239665203 0 0.10712202239665203 -223.34615062789817 0 0 0 0 38.727856469229664 23.141215786883549 0 23.141215786883549 -170.85621727205216 0 0 0 0 91.858962192081435 -39.517419013469862 0 -39.517419013469862 -218.72395800760569 0 0 0 0 -64.292018598078357 -8.3652061712855357 0 -8.3652061712855357 -193.73074398218523 0 0 0 0 -116.006827461184 -566.53093468785301 0 -566.53093468785301 302.42014652781631 0 0 0 0 24.402342505169145 3.2561752658439218 0 3.2561752658439218 -241.91045653054243 0 0 0 0 -355.11755205523514 -451.5869945539489 0 -451.5869945539489 1318.757558616986 0 0 0 0 573.77707211660163 530.71908585686469 0 530.71908585686469 82.030470514053377 0 0 0 0 413.54677122813882 613.08802282655961 0 613.08802282655961 451.08077090578445 0 0 0 0 681.02164286497646 706.74699853154016 0 706.74699853154016 178.76025894902705 0 0 0 0 312.499525567604 -76.212717038202754 0 -76.212717038202754 7.4757550019630798 0 0 0 0 391.30533576098605 -252.2687201058734 0 -252.2687201058734 58.478710729280692 0 0 0 0 536.41217391186365 43.401517450372921 0 43.401517450372921 -248.68302516408221 0 0 0 0 565.04981927423069 108.12197177279268 0 108.12197177279268 -135.36240606677893 0 0 0 0 -0.40263590332366306 5.3901934170864081 0 5.3901934170864081 5.0251194809406465 0 0 0 0 221.01429406435636 365.09699337073653 0 365.09699337073653 750.45056982688038 0 0 0 0 573.57769042739164 135.96448166392656 0 135.96448166392656 -45.591306043552322 0 0 0 0 496.25294933866826 -34.910589175842688 0 -34.910589175842688 0.90668103473581141 0 0 0 0 472.03894534517894 -101.83116714321295 0 -101.83116714321295 -150.04814396308939 0 0 0 0 -45.494439031317597 -4.2546143891304382 0 -4.2546143891304382 186.14533048361591 0 0 0 0 128.60442814638373 85.314612395664881 0 85.314612395664881 231.24537901634244 0 0 0 0 377.30180544601899 -86.554036232003455 0 -86.554036232003455 -265.2554302109902 0 0 0 0 53.811536411206362 -14.460540510968009 0 -14.460540510968009 -17.260787421206622 0 0 0 0 240.95186105986795 -297.88921001688141 0 -297.88921001688141 667.02307683917388 0 0 0 0 437.65759592450559 -253.44808706113145 0 -253.44808706113145 -200.18486162931731 0 0 0 0 87.852856322970183 -0.58801251629256512 0 -0.58801251629256512 -44.025487283444818 0 0 0 0 491.85498200060101 -24.015641069767298 0 -24.015641069767298 -309.94928736556903 0 0 0 0 417.22376886899292 -115.14173829019819 0 -115.14173829019819 -181.32428745250945 0 0 0 0 4.3750418134321691 4.0881915290271067 0 4.0881915290271067 2.5100353661982986 0 0 0 0 472.02527053550261 -100.10588533640359 0 -100.10588533640359 -222.79211371496058 0 0 0 0 444.91688282195537 -88.021243586903438 0 -88.021243586903438 -263.80222416921151 0 0 0 0 369.12002677607961 -186.62551056098187 0 -186.62551056098187 -299.81543849420996 0 0 0 0 365.10758771108522 -170.9199984223269 0 -170.9199984223269 -240.83127944621083 0 0 0 0 404.43135924706439 -145.02254698058459 0 -145.02254698058459 -337.82488288090099 0 0 0 0 442.73431682598311 -89.378113846967608 0 -89.378113846967608 -199.49351378219944 0 0 0 0 61.263546594243962 -82.219244927851832 0 -82.219244927851832 -63.695202002238148 0 0 0 0 20.346214554955758 -4.1074975518867625 0 -4.1074975518867625 -5.7407450871538526 0 0 0 0 -420.63134690487641 296.01068367892367 0 296.01068367892367 -447.72138638537581 0 0 0 0 56.404826187033905 -17.472832001577444 0 -17.472832001577444 10.692363309636448 0 0 0 0 63.010567953221653 -41.01709623965337 0 -41.01709623965337 -151.8824319411433 0 0 0 0 41.373957079311367 3.3499517879245104 0 3.3499517879245104 -108.31969066584861 0 0 0 0 65.892480273395961 1.7085417133827638 0 1.7085417133827638 -12.780849663353397 0 0 0 0 68.420122734590024 -0.76691399991668519 0 -0.76691399991668519 -7.9898212057493323 0 0 0 0 183.66906622578699 140.86007873135077 0 140.86007873135077 -371.13369570392388 0 0 0 0 69.090461820844212 -47.406281483930798 0 -47.406281483930798 -59.662826696624506 0 0 0 0 37.408212359893199 -22.122456702539651 0 -22.122456702539651 -10.5034809171348 0 0 0 0 85.298854951675011 0.26721868115679825 0 0.26721868115679825 -11.067785127034334 0 0 0 0 -30.297383995562996 47.288985773220702 0 47.288985773220702 -47.183766096580257 0 0 0 0 -26.427832395351288 83.118303445091442 0 83.118303445091442 -199.34749404867398 0 0 0 0 -157.60568270590556 78.902896572912141 0 78.902896572912141 -23.768227156724606 0 0 0 0 -135.41075277937307 185.6855802306618 0 185.6855802306618 32.826415490280851 0 0 0 0 -134.91453772403656 424.45580381326454 0 424.45580381326454 917.47325925548921 0 0 0 0 120.72795339393269 145.9204383598676 0 145.9204383598676 -197.37229359772027 0 0 0 0 155.05841606937975 234.14766523362778 0 234.14766523362778 -134.96500789907805 0 0 0 0 347.12414698971406 266.23465912370375 0 266.23465912370375 -144.0738261927072 0 0 0 0 43.595504606400937 341.87885836770783 0 341.87885836770783 161.75806804073 0 0 0 0 -631.95574587311421 -1128.8921938156127 0 -1128.8921938156127 158.7963745709697 0 0 0 0 1685.2224222588375 700.56140112283356 0 700.56140112283356 -1452.1144649189519 0 0 0 0 311.38325685591553 594.87651430603364 0 594.87651430603364 3.2997815854978398 0 0 0 0 691.36566732438223 855.51813771091838 0 855.51813771091838 -534.93985420595709 0 0 0 0 334.69459710764932 501.37809839741385 0 501.37809839741385 88.733378992936196 0 0 0 0 73.068773914270423 -67.737431836325413 0 -67.737431836325413 -458.65121892218485 0 0 0 0 29.571043240026771 -1.5551384471237668 0 -1.5551384471237668 -2.4816027851043891 0 0 0 0 498.69354758619011 -183.65887774519433 0 -183.65887774519433 -1248.8122462130868 0 0 0 0 241.74095395575569 288.96834359064815 0 288.96834359064815 -6.5765589762741001 0 0 0 0 44.954955738572608 -115.23426342801758 0 -115.23426342801758 -381.90491889737677 0 0 0 0 167.90328870678786 297.67298132355245 0 297.67298132355245 114.53080517811759 0 0 0 0 -79.968587220100744 24.294721484864567 0 24.294721484864567 201.83131738244992 0 0 0 0 74.143933942330477 238.52093532494837 0 238.52093532494837 553.36883653489713 0 0 0 0 236.18229241699737 377.08002729160216 0 377.08002729160216 314.90215851067478 0 0 0 0 240.17151378369454 355.65614293251201 0 355.65614293251201 160.88761265653011 0 0 0 0 110.61005800351268 264.53935500371881 0 264.53935500371881 288.21348748102537 0 0 0 0 15.906864085812337 3.8526735046263747 0 3.8526735046263747 -12.841967886418352 0 0 0 0 -179.78449980315781 -90.025145886565952 0 -90.025145886565952 103.03313484766113 0 0 0 0 -119.74511937996067 -352.83241907842785 0 -352.83241907842785 -297.09066063369391 0 0 0 0 -194.78294068009927 -149.05085863519616 0 -149.05085863519616 63.17003466397 0 0 0 0 5.8176928956381744 114.11792904786489 0 114.11792904786489 77.266356114880182 0 0 0 0 70.864066563837696 64.20600748918514 0 64.20600748918514 88.057228843128541 0 0 0 0 390.2040951261788 246.4429262926169 0 246.4429262926169 -148.96578094593133 0 0 0 0 108.04623010051728 200.22593913111632 0 200.22593913111632 -56.324701505407575 0 0 0 0 169.17824413475319 307.58907683040161 0 307.58907683040161 89.434504655691853 0 0 0 0 -46.393602326061227 -132.72922040040066 0 -132.72922040040066 -186.71448177618004 0 0 0 0 275.45349786094448 138.42867483007649 0 138.42867483007649 -250.49161100098718 0 0 0 0 14.277898710296498 -8.3107419941873317 0 -8.3107419941873317 -1.5351666238037627 0 0 0 0 -36.773807840116206 -147.90093801662624 0 -147.90093801662624 18.092968359056613 0 0 0 0 89.226421981266384 -8.8479943271678003 0 -8.8479943271678003 -4.903767774632307 0 0 0 0 155.70252263751172 -119.00952343285462 0 -119.00952343285462 -122.1507504671722 0 0 0 0 10.300429942559276 -13.108306190608346 0 -13.108306190608346 1.3869438942765555 0 0 0 0 98.805640946593485 57.247307148832988 0 57.247307148832988 -119.05300956824249 0 0 0 0 30.38024216533276 6.5269013656601942 0 6.5269013656601942 -1.1322529972606752 0 0 0 0 57.433679251508551 34.623093811646626 0 34.623093811646626 -9.4268323686866751 0 0 0 0 165.85372113885023 195.9717831069629 0 195.9717831069629 -297.78194183789674 0 0 0 0 182.91881781827078 42.629436770618668 0 42.629436770618668 -133.14484010712295 0 0 0 0 8.2668767500990725 97.574965397688175 0 97.574965397688175 -149.72707618496679 0 0 0 0 742.91800519185836 456.32041445567756 0 456.32041445567756 -6.019332550496074 0 0 0 0 357.9191469321504 -283.50851250210872 0 -283.50851250210872 -512.17935325658254 0 0 0 0 34.682816632038339 101.98676376500225 0 101.98676376500225 -256.71421553000118 0 0 0 0 304.30123535951225 145.0005353158549 0 145.0005353158549 76.572184529866945 0 0 0 0 441.36545919695982 -201.68464536399915 0 -201.68464536399915 -31.248469001060585 0 0 0 0 401.76279047414528 131.26553717181923 0 131.26553717181923 31.802266018083174 0 0 0 0 297.69337219588351 -100.92068361892098 0 -100.92068361892098 -431.65378571972724 0 0 0 0 292.40081419460239 -194.11521731242738 0 -194.11521731242738 19.302147677556775 0 0 0 0 9.9332803216911998 9.5403983145679376 0 9.5403983145679376 -136.06903856390272 0 0 0 0 61.603451091166789 92.194268928569727 0 92.194268928569727 -166.57134666300954 0 0 0 0 54.096746949523549 0.87696500780157294 0 0.87696500780157294 -253.23132538066784 0 0 0 0 47.346931594018315 43.522251546126427 0 43.522251546126427 -315.38912053424974 0 0 0 0 -51.417262279330316 58.794569659436092 0 58.794569659436092 -403.32189849025963 0 0 0 0 90.865368892807055 -0.4796323673963343 0 -0.4796323673963343 -379.21783930873062 0 0 0 0 -110.90763600868104 -59.863904221700977 0 -59.863904221700977 -257.93219397201392 0 0 0 0 7.9721884849877824 -88.387337374000708 0 -88.387337374000708 -131.39990412405314 0 0 0 0 -182.12697783479962 -28.891522393407286 0 -28.891522393407286 -267.37777393871511 0 0 0 0 80.76737989985304 -265.26663363253647 0 -265.26663363253647 -471.61333712520536 0 0 0 0 5.9250428389209375 0.99919065326339762 0 0.99919065326339762 -0.85534843090154489 0 0 0 0 111.34605940950132 -42.98191231137389 0 -42.98191231137389 -260.72185717922002 0 0 0 0 224.9289150880868 -134.06107867378523 0 -134.06107867378523 -124.50662073684589 0 0 0 0 234.24198720272625 -104.59424569352177 0 -104.59424569352177 -71.631514988375784 0 0 0 0 148.99520260225927 49.150968508826736 0 49.150968508826736 -74.486926621246312 0 0 0 0 115.49392678539607 -1.3707044235889043 0 -1.3707044235889043 -135.5823953921813 0 0 0 0 146.33501738625819 78.39736556148091 0 78.39736556148091 -166.75129464180463 0 0 0 0 169.48320181801432 -0.63256156072566228 0 -0.63256156072566228 -27.704862621567372 0 0 0 0 272.83450938779697 53.159777344596478 0 53.159777344596478 -18.959689619029973 0 0 0 0 771.33605213123519 -26.008610704621788 0 -26.008610704621788 -12.248876736551892 0 0 0 0 433.37215113551156 -323.49560883431013 0 -323.49560883431013 253.79689460173813 0 0 0 0 430.33351999463207 -195.78075819744413 0 -195.78075819744413 -37.967653764128045 0 0 0 0 298.65654367574825 -202.71021300259054 0 -202.71021300259054 -9.5911206884065905 0 0 0 0 216.58357621134246 -116.05576770498942 0 -116.05576770498942 7.3478464438030642 0 0 0 0 202.95890312309621 -141.84660078025718 0 -141.84660078025718 2.0106441938492026 0 0 0 0 -5.7025984195443016 -54.336874059715228 0 -54.336874059715228 85.559262181488521 0 0 0 0 284.99966055281311 -171.09287529626818 0 -171.09287529626818 104.36488573113093 0 0 0 0 279.8088181822086 -204.23409398824651 0 -204.23409398824651 43.279442944163748 0 0 0 0 261.95352162718791 -61.259076978039502 0 -61.259076978039502 57.576191638897399 0 0 0 0 126.5210282006849 -65.42118040169089 0 -65.42118040169089 29.911816815467319 0 0 0 0 120.23197863330824 -71.303314095374844 0 -71.303314095374844 226.34256586360425 0 0 0 0 -55.344833172774088 -88.22496538973428 0 -88.22496538973428 89.9333150371084 0 0 0 0 11.988665808289625 44.728598642909674 0 44.728598642909674 100.5485295104645 0 0 0 0 146.90981604064837 47.364420332120972 0 47.364420332120972 -31.421028379038034 0 0 0 0 58.703142220705558 10.724065982392858 0 10.724065982392858 54.627807257289533 0 0 0 0 146.7003844339512 45.434032205204545 0 45.434032205204545 217.15209625242642 0 0 0 0 718.7047197977372 97.430086970784032 0 97.430086970784032 85.27258505771988 0 0 0 0 552.94503249978379 -369.85152888972061 0 -369.85152888972061 313.68445382985283 0 0 0 0 169.52772387061464 265.79123861253993 0 265.79123861253993 198.95469849469555 0 0 0 0 7.7027638959286291 1.8987090321678721 0 1.8987090321678721 0.6389390778054036 0 0 0 0 286.21037461304968 44.327267093447972 0 44.327267093447972 505.54715145088267 0 0 0 0 -44.160967378424175 -13.355230375851534 0 -13.355230375851534 35.901114865506315 0 0 0 0 1.4664870130282726 -10.159901892824696 0 -10.159901892824696 6.9611228575145176 0 0 0 0 -8.5303991124128515 -3.9846503317821771 0 -3.9846503317821771 -7.4513526585524232 0 0 0 0 -4.1299118718152386 14.056074869875829 0 14.056074869875829 33.431794113770593 0 0 0 0 -11.644443735422101 -59.839143660182344 0 -59.839143660182344 42.808151164033916 0 0 0 0 -7.1246153415550353 1.3270232243327946 0 1.3270232243327946 1.1427920278067845 0 0 0 0 -22.521971384153652 6.2589815635012513 0 6.2589815635012513 53.170415083945954 0 0 0 0 32.027176771822269 -50.514918377368303 0 -50.514918377368303 -73.254027956172649 0 0 0 0 -4.11271390274851 -21.178328557775785 0 -21.178328557775785 -13.923521824899581 0 0 0 0 23.675124130232483 -6.8027123902599023 0 -6.8027123902599023 -0.65477632526710794 0 0 0 0 4.6711489721133539 -0.3848012070172615 0 -0.3848012070172615 0.88144787508478784 0 0 0 0 4.3457425270296035 -9.7127743096052761 0 -9.7127743096052761 4.5266990831024323 0 0 0 0 -3.2004091814042113 -1.8837676672887937 0 -1.8837676672887937 1.9280457214772468 0 0 0 0 -12.481413165354752 6.186032517311105 0 6.186032517311105 1.2607856798335888 0 0 0 0 -0.017928899701338707 -0.18182399226732393 0 -0.18182399226732393 1.5816728815972145 0 0 0 0 43.360160445581641 -4.0479039795482095 0 -4.0479039795482095 28.377142914410797 0 0 0 0 -208.91264437680547 13.058293102529205 0 13.058293102529205 46.661781108277864 0 0 0 0 -21.4940054363542 -28.45506421443315 0 -28.45506421443315 85.001243782426627 0 0 0 0 4.398066380274031 -43.075706349633037 0 -43.075706349633037 1.2134669900492554 0 0 0 0 -86.09289033110872 -95.266863619899596 0 -95.266863619899596 21.6467060933428 0 0 0 0 7.434889175774515 100.29598984474796 0 100.29598984474796 -69.507701897560764 0 0 0 0 -83.576724237304006 -79.768904162030594 0 -79.768904162030594 -61.364318639294595 0 0 0 0 -197.91052197945237 79.697258272590261 0 79.697258272590261 37.07295639070071 0 0 0 0 -0.51079696283130183 -0.74022314820282276 0 -0.74022314820282276 -1.7653217100294327 0 0 0 0 -38.335920924501806 56.138810120684752 0 56.138810120684752 -15.136783341024056 0 0 0 0 37.919696115837723 -21.945121513792401 0 -21.945121513792401 13.855823741796485 0 0 0 0 9.8185498346374516 4.6831192294366701 0 4.6831192294366701 0.28990657109534368 0 0 0 0 70.249935456816274 -35.685199350349649 0 -35.685199350349649 -3.9600499545795174 0 0 0 0 1.5833010819507258 1.6951606572308613 0 1.6951606572308613 0.25245743891366601 0 0 0 0 11.672828541218223 -83.590041906969418 0 -83.590041906969418 -19.599385957168124 0 0 0 0 -64.22141465643324 -1.1293944785791155 0 -1.1293944785791155 -0.28307908556780603 0 0 0 0 66.980438554419379 24.21797932186746 0 24.21797932186746 84.096589696817318 0 0 0 0 -0.29386884155476878 -4.521364801698887 0 -4.521364801698887 -3.2257353774282542 0 0 0 0 -59.57016394967377 -18.729955785074708 0 -18.729955785074708 27.985129964505177 0 0 0 0 -25.515908030054561 -26.152989628528303 0 -26.152989628528303 8.9774221526354268 0 0 0 0 9.7300007824878776 -16.461651483577043 0 -16.461651483577043 5.9010202449353528 0 0 0 0 -24.538189034769857 0.82375039365615521 0 0.82375039365615521 27.520290656120778 0 0 0 0 33.401206151955193 -0.89823032271488046 0 -0.89823032271488046 -28.832740543675754 0 0 0 0 -52.973724609235433 -46.712664375449094 0 -46.712664375449094 43.120885968962966 0 0 0 0 4.0373107089849292 -6.817552964127473 0 -6.817552964127473 3.4562949171883055 0 0 0 0 -50.557082770397756 -47.446768010396227 0 -47.446768010396227 -8.1002711209093832 0 0 0 0 -9.1889612904924434 -7.3124130632686501 0 -7.3124130632686501 62.869587001212494 0 0 0 0 5.6481563222805562 -33.247268520040052 0 -33.247268520040052 17.718958751276659 0 0 0 0 3.1091415431765199 13.351624091950725 0 13.351624091950725 4.9207860226506455 0 0 0 0 -4.8569198559895881 -9.9232164503657287 0 -9.9232164503657287 -8.2876970136949808 0 0 0 0 -11.270979688717489 -60.890169007783697 0 -60.890169007783697 -24.882299510365556 0 0 0 0 -5.8236034886358539 -24.604949514206965 0 -24.604949514206965 -32.412534490700637 0 0 0 0 3.4204539501947266 -11.953808561222544 0 -11.953808561222544 3.4898197448593571 0 0 0 0 -147.7532066230051 -22.267385264422046 0 -22.267385264422046 -4.9429277279477901 0 0 0 0 -29.378999281463621 -10.263086414081044 0 -10.263086414081044 -6.8529163687294385 0 0 0 0 33.458454230811185 105.24959640478482 0 105.24959640478482 -40.045013430812105 0 0 0 0 -384.03864707311237 55.81913605501461 0 55.81913605501461 5.7670398934860714 0 0 0 0 0.21250571579333091 -0.17127216257379985 0 -0.17127216257379985 -0.061479787173752243 0 0 0 0 -33.368770311899425 -9.8985413745576807 0 -9.8985413745576807 18.631047446397133 0 0 0 0 -11.48455070127784 -61.515105056796529 0 -61.515105056796529 31.985895552657894 0 0 0 0 -33.459842436430336 -10.516747417786974 0 -10.516747417786974 81.563629298700107 0 0 0 0 -128.45449945754081 -19.380607584535028 0 -19.380607584535028 -9.2548235257363558 0 0 0 0 2.6411860141679639 -0.036714572037297444 0 -0.036714572037297444 -1.2628508423998674 0 0 0 0 -97.85607465247449 71.875529760505742 0 71.875529760505742 -44.008225073795074 0 0 0 0 40.061044427551678 -79.242566025089218 0 -79.242566025089218 -58.320641189209027 0 0 0 0 96.565407410449552 71.137076231008905 0 71.137076231008905 -64.304169839881069 0 0 0 0 99.461381471363495 -71.633864904790457 0 -71.633864904790457 16.081494750860656 0 0 0 0 6.7945820254105911 -40.539516030700071 0 -40.539516030700071 24.884318772379629 0 0 0 0 32.5643335354398 -8.6217781183481748 0 -8.6217781183481748 -8.3095378361504117 0 0 0 0 18.683961933152204 -82.679133642198394 0 -82.679133642198394 -51.471807721567529 0 0 0 0 4.8497694663672242 -13.558447973542847 0 -13.558447973542847 -15.032812235362947 0 0 0 0 -15.727097409299859 -42.269596242539592 0 -42.269596242539592 22.47057585292896 0 0 0 0 71.267587928502877 -9.3020390436048288 0 -9.3020390436048288 -8.6455128581708216 0 0 0 0 70.616565654221631 14.60382483758076 0 14.60382483758076 -16.841241751603775 0 0 0 0 43.625133096084028 17.119530623007449 0 17.119530623007449 -14.255867301415492 0 0 0 0 1.6751249853198935 -1.8229808209344966 0 -1.8229808209344966 2.4971136320421223 0 0 0 0 281.92983110655177 -62.053505372420773 0 -62.053505372420773 -55.249920727630524 0 0 0 0 -18.281660267727602 67.913135822725053 0 67.913135822725053 245.09509130022707 0 0 0 0 -5.2753033980670807 -38.612146267398657 0 -38.612146267398657 -16.462718213513654 0 0 0 0 -33.996041821838844 -54.504362383057014 0 -54.504362383057014 42.243378071304051 0 0 0 0 79.636787786523854 -12.993558814374207 0 -12.993558814374207 -6.350009690870646 0 0 0 0 -62.150209535249815 -227.19253369429407 0 -227.19253369429407 -119.72100714314092 0 0 0 0 1.5214064015963231 -30.601201435660187 0 -30.601201435660187 -127.33317750314563 0 0 0 0 144.0402286928886 -275.06238896173898 0 -275.06238896173898 130.84567268964929 0 0 0 0 84.144093699030776 -16.457795108647382 0 -16.457795108647382 -5.5178840040782049 0 0 0 0 21.407461102820307 -425.52883605626522 0 -425.52883605626522 -309.74637112417804 0 0 0 0 215.73084692937846 -263.27508420101003 0 -263.27508420101003 -288.28833445487135 0 0 0 0 156.159354860436 -308.57056136827305 0 -308.57056136827305 -118.9981988384352 0 0 0 0 212.57240986933175 18.348099554292276 0 18.348099554292276 -235.68508740321522 0 0 0 0 -12.044663168951956 -24.013612954790915 0 -24.013612954790915 -58.677234615819543 0 0 0 0 521.44339805226446 -163.3888765421284 0 -163.3888765421284 -22.30691542655768 0 0 0 0 3.9998946358391123 2.1526801712801067 0 2.1526801712801067 0.57252202193504953 0 0 0 0 50.049090981967311 -212.0211330097145 0 -212.0211330097145 399.61181147672687 0 0 0 0 432.4616775012546 -27.152335491584381 0 -27.152335491584381 -112.04802222970102 0 0 0 0 78.62056655883498 90.565422471761849 0 90.565422471761849 -165.19268393820357 0 0 0 0 49.058703384442197 0.68088633260958886 0 0.68088633260958886 159.25473079368021 0 0 0 0 19.896332941625587 21.655743683175046 0 21.655743683175046 6.0137228052553837 0 0 0 0 41.946722058484738 -15.894756055016842 0 -15.894756055016842 -29.448803647912428 0 0 0 0 15.711918512584816 -9.0095960710605141 0 -9.0095960710605141 -8.0640131235704757 0 0 0 0 75.685817280216725 1.2460540155516355 0 1.2460540155516355 -25.194030183371069 0 0 0 0 65.322380990750389 7.2105513559326937 0 7.2105513559326937 -10.734230746202229 0 0 0 0 30.673283454547345 -3.12641746141162 0 -3.12641746141162 -13.608382833808719 0 0 0 0 73.120032279392035 91.912740583489722 0 91.912740583489722 -0.092708565513021313 0 0 0 0 48.263000006059883 23.490729287021168 0 23.490729287021168 -6.2611485034321959 0 0 0 0 -52.793501005886355 79.857312256268415 0 79.857312256268415 8.6330292577872569 0 0 0 0 209.04676140869196 288.98109278174479 0 288.98109278174479 151.84569422930326 0 0 0 0 -6.7141299323629937 -29.640335587308073 0 -29.640335587308073 -31.506468959931226 0 0 0 0 -54.735576573941216 -2.2310279270595856 0 -2.2310279270595856 -1.5858686086821763 0 0 0 0 67.6488892064379 -11.253801398702986 0 -11.253801398702986 -23.830916360699202 0 0 0 0 87.383018545413506 12.831679648621503 0 12.831679648621503 -26.360896463543213 0 0 0 0 86.789954194784514 76.112633587410528 0 76.112633587410528 51.162519988905842 0 0 0 0 153.65882438742119 36.058242604738552 0 36.058242604738552 -20.124413974223444 0 0 0 0 94.378201494204404 -39.018111738121661 0 -39.018111738121661 -5.6772309282041533 0 0 0 0 76.410388649626583 -16.456340292354746 0 -16.456340292354746 -19.715091045811846 0 0 0 0 124.53841703599028 32.165109158444466 0 32.165109158444466 -23.232884970428131 0 0 0 0 100.42821019225812 24.273778340400895 0 24.273778340400895 13.560186481046912 0 0 0 0 57.307357189016528 -18.984856808156437 0 -18.984856808156437 -41.788582734630211 0 0 0 0 123.19678890554155 -62.684003243734495 0 -62.684003243734495 -32.950795333901624 0 0 0 0 2.4435273844719632 -169.29763815963997 0 -169.29763815963997 -135.38739914585676 0 0 0 0 -0.20063868755639191 -8.7595140917847409 0 -8.7595140917847409 -8.5287957413891906 0 0 0 0 112.9466615015117 -93.11866168303095 0 -93.11866168303095 -167.3336913754647 0 0 0 0 -106.38199555081883 -68.062157946950265 0 -68.062157946950265 4.5159671973742661 0 0 0 0 127.90710149194638 19.214232156577964 0 19.214232156577964 -33.122311406728386 0 0 0 0 126.61466287135772 10.347157029267123 0 10.347157029267123 -20.395633919968532 0 0 0 0 52.614565916923766 -30.89676050043272 0 -30.89676050043272 -34.128334981574071 0 0 0 0 -77.343978647637414 24.930170112562337 0 24.930170112562337 59.135461576857779 0 0 0 0 20.077589829335921 -133.38656493470262 0 -133.38656493470262 -115.77401397882204 0 0 0 0 -155.66815470351139 -239.54444566398342 0 -239.54444566398342 -37.047547843241773 0 0 0 0 -27.64630330260843 -73.070666444968083 0 -73.070666444968083 98.033163867581607 0 0 0 0 102.20529387507122 -71.110515925560321 0 -71.110515925560321 -25.688427490254981 0 0 0 0 90.139032686303835 8.4678360544858151 0 8.4678360544858151 -17.847474858064459 0 0 0 0 126.82166668200807 18.858184546368648 0 18.858184546368648 -2.7011546700580311 0 0 0 0 96.587002905645932 -4.0065281992956443 0 -4.0065281992956443 -10.038290929530831 0 0 0 0 95.654817188598827 0.0054383218225666496 0 0.0054383218225666496 -27.305091666970839 0 0 0 0 75.65116307016433 -16.714622514761686 0 -16.714622514761686 -17.333485537603337 0 0 0 0 81.811952114298037 93.778702813960763 0 93.778702813960763 -7.8337617320012214 0 0 0 0 183.11488982351875 -100.53531269239829 0 -100.53531269239829 -516.5914423602826 0 0 0 0 79.545657438329755 -15.84425253372325 0 -15.84425253372325 -22.406762551701263 0 0 0 0 73.625947806373006 -5.2436079272156348 0 -5.2436079272156348 -17.429771367503008 0 0 0 0 81.762514163048763 -23.620237445154999 0 -23.620237445154999 -37.822640485510419 0 0 0 0 -32.748674078167824 457.98536862482433 0 457.98536862482433 1284.5210261247485 0 0 0 0 6.5654540162504418 -467.99889488673944 0 -467.99889488673944 -15.932658832159404 0 0 0 0 925.29742570039889 878.57063686089714 0 878.57063686089714 -426.58034506916374 0 0 0 0 -50.435708061457262 168.30252940846731 0 168.30252940846731 296.87180080128837 0 0 0 0 7.1954026300670932 6.0870308171469745 0 6.0870308171469745 3.3831261142423799 0 0 0 0 -146.82292685478751 29.646080684213302 0 29.646080684213302 214.19572395157593 0 0 0 0 16.815101406245958 64.463350463327515 0 64.463350463327515 -4.1788395306648454 0 0 0 0 46.904175205581851 24.991985829351506 0 24.991985829351506 -86.602231439657771 0 0 0 0 70.305543190508615 49.716140430100495 0 49.716140430100495 -98.126326222871285 0 0 0 0 87.053019195067463 30.452870958286439 0 30.452870958286439 -73.311416262778948 0 0 0 0 87.921486691622704 82.410697658358913 0 82.410697658358913 -23.164451859049223 0 0 0 0 121.10714889933297 55.800293479158427 0 55.800293479158427 -97.903952696164993 0 0 0 0 116.28444376016341 134.11559154932183 0 134.11559154932183 87.353689913265953 0 0 0 0 282.74213223458355 99.030820775399661 0 99.030820775399661 -59.017802373403356 0 0 0 0 53.015076316805789 73.787917204936093 0 73.787917204936093 -12.694390878457853 0 0 0 0 62.524711209589441 60.443646536979031 0 60.443646536979031 -12.972639450023053 0 0 0 0 67.728555457987284 -17.91386413166061 0 -17.91386413166061 -15.026225961096889 0 0 0 0 80.947589407966007 -120.62407952569811 0 -120.62407952569811 -122.71832983668901 0 0 0 0 158.46280577227299 8.2560319589338178 0 8.2560319589338178 -132.26907638734701 0 0 0 0 67.195266033995722 -43.545517593322074 0 -43.545517593322074 -83.588310172393903 0 0 0 0 292.88341485129786 -64.366299162282303 0 -64.366299162282303 -95.156566892809678 0 0 0 0 112.4686165357416 -134.59986487667015 0 -134.59986487667015 58.136746517411666 0 0 0 0 -2.9756330046984658 -104.62147606324356 0 -104.62147606324356 -24.040048560575087 0 0 0 0 20.949184054883517 -126.62402811089873 0 -126.62402811089873 -9.4915386764914729 0 0 0 0 63.679408655552834 -56.145550619027745 0 -56.145550619027745 -47.365307384288826 0 0 0 0 8.1393913606734714 -79.747638150554849 0 -79.747638150554849 -36.301688736599317 0 0 0 0 139.29783199448138 13.533479283822544 0 13.533479283822544 2.8608477306041777 0 0 0 0 143.97278409016144 -76.11467260888503 0 -76.11467260888503 -109.87318273342134 0 0 0 0 25.643849491490982 -39.369058235075499 0 -39.369058235075499 -21.592554539143748 0 0 0 0 6.0024452420961865 -3.6656045209082322 0 -3.6656045209082322 -2.7493612482373901 0 0 0 0 388.928082187884 223.90370738052306 0 223.90370738052306 20.111531304815117 0 0 0 0 173.13221483647794 174.87147480156409 0 174.87147480156409 106.18345547778108 0 0 0 0 178.80072471669087 214.25517228649829 0 214.25517228649829 -95.068099296051969 0 0 0 0 18.253932916131276 -33.120180164529813 0 -33.120180164529813 -21.069464114989106 0 0 0 0 203.40943472141225 -14.982584674038662 0 -14.982584674038662 -46.349312396557025 0 0 0 0 134.60984091504361 -20.095206682115986 0 -20.095206682115986 65.955774883889262 0 0 0 0 31.93816537319799 -81.308651753207414 0 -81.308651753207414 69.378148303100716 0 0 0 0 72.589536188676064 -11.927364739729171 0 -11.927364739729171 -25.289312014111559 0 0 0 0 79.383552471503208 -21.398227790832607 0 -21.398227790832607 -49.078937873837276 0 0 0 0 48.315975729121419 0.5148868344604125 0 0.5148868344604125 -15.063384386847702 0 0 0 0 38.667158625787124 15.406933439891418 0 15.406933439891418 134.75448483082619 0 0 0 0 368.72131446950698 -54.525656911110829 0 -54.525656911110829 -39.70627644229171 0 0 0 0 75.794709234191544 -7.0680011210777067 0 -7.0680011210777067 -10.773378287997861 0 0 0 0 75.33754444330296 -0.86228606460564805 0 -0.86228606460564805 -30.107321219387973 0 0 0 0 64.980852693945053 -22.126228046663527 0 -22.126228046663527 -57.199433554113057 0 0 0 0 184.53825179672532 -86.006980678471535 0 -86.006980678471535 -18.730962729179737 0 0 0 0 77.83122872099193 -7.5812600943563666 0 -7.5812600943563666 -14.984677447333524 0 0 0 0 66.675205455328978 1.3119796061964735 0 1.3119796061964735 -21.933291325466598 0 0 0 0 293.16987518802489 256.22216538259272 0 256.22216538259272 -409.98800844073412 0 0 0 0 76.435778554266307 10.667349331936514 0 10.667349331936514 0.35422956545800588 0 0 0 0 277.0456698758062 -0.022972855305852136 0 -0.022972855305852136 -391.19296653040965 0 0 0 0 9.2643446648289682 8.4661413873595848 0 8.4661413873595848 -170.05003944013424 0 0 0 0 757.82410795840406 23.833042082153497 0 23.833042082153497 -172.03482580711898 0 0 0 0 92.961088946765813 -217.92969106712417 0 -217.92969106712417 405.74846756242459 0 0 0 0 -16.054171474992472 241.49149942205054 0 241.49149942205054 329.85152563622387 0 0 0 0 186.13340132585654 48.713904849551909 0 48.713904849551909 -0.90380474719404447 0 0 0 0 4.9377497408422641 -131.16985365912115 0 -131.16985365912115 -152.22864510212821 0 0 0 0 98.039052049706072 -10.910443276589106 0 -10.910443276589106 -27.465701370778746 0 0 0 0 -8.323485778975737 -153.23700159619239 0 -153.23700159619239 -96.493155233907601 0 0 0 0 110.28355958183238 -211.09705837190177 0 -211.09705837190177 -134.68919773558446 0 0 0 0 41.62802656981512 -136.19441759989422 0 -136.19441759989422 16.413594055498834 0 0 0 0 22.340941470101825 -65.948024030698434 0 -65.948024030698434 -163.93877678704951 0 0 0 0 111.31347558794795 -25.363650375543145 0 -25.363650375543145 -29.441671270207578 0 0 0 0 116.16861066865386 -213.20122542110403 0 -213.20122542110403 -171.65142987515173 0 0 0 0 74.014400252810447 -59.664720472204863 0 -59.664720472204863 -38.216959388460054 0 0 0 0 9.18497978214873 -112.28717670651804 0 -112.28717670651804 24.417949191147272 0 0 0 0 15.742740359011805 -31.232616549832528 0 -31.232616549832528 -51.059330694320124 0 0 0 0 166.18558418266548 -24.38476577106303 0 -24.38476577106303 -150.39013301409977 0 0 0 0 5.8396440120704938 -11.364191249162104 0 -11.364191249162104 81.724597819897554 0 0 0 0 19.357549442980655 -2.9856723240336045 0 -2.9856723240336045 0.98233358739994703 0 0 0 0 101.52600480070032 107.93001582732916 0 107.93001582732916 -26.079450618726696 0 0 0 0 313.37511388852727 139.84328512522507 0 139.84328512522507 -62.688807030481257 0 0 0 0 19.387451876173145 -45.449601272771361 0 -45.449601272771361 -39.359735659042599 0 0 0 0 182.72664969367906 -15.871172660388311 0 -15.871172660388311 -37.326254833087319 0 0 0 0 419.5550280790485 139.23201866028739 0 139.23201866028739 -111.44148305241879 0 0 0 0 87.032046865882876 -223.24209552334162 0 -223.24209552334162 91.27300895055123 0 0 0 0 7.0004748757284005 -0.48100150746811465 0 -0.48100150746811465 0.15499018926497676 0 0 0 0 305.57013719982933 262.9178232500285 0 262.9178232500285 60.511370677056448 0 0 0 0 317.87419181360747 109.75035177671907 0 109.75035177671907 -115.89591848437863 0 0 0 0 16.588562336110044 10.323685651874257 0 10.323685651874257 2.2399617223095447 0 0 0 0 12.859331535764795 7.7624540728266993 0 7.7624540728266993 2.9782131212195964 0 0 0 0 13.142523178466945 5.6220101093467747 0 5.6220101093467747 1.3038176047543857 0 0 0 0 0.94924609331039278 -0.19760637550521665 0 -0.19760637550521665 -5.3034680069073872 0 0 0 0 3.4800378052887027 -1.2401329352835262 0 -1.2401329352835262 -2.5701151964420887 0 0 0 0 16.298891418031417 7.0472963227753098 0 7.0472963227753098 -6.8712591353714743 0 0 0 0 29.338503015518654 -0.43673804872582878 0 -0.43673804872582878 -19.345780795778438 0 0 0 0 -5.9915051652496913 -17.236593229072241 0 -17.236593229072241 -16.869670756278651 0 0 0 0 2.3278860710415756 3.9101742988700607 0 3.9101742988700607 -8.6828350040814257 0 0 0 0 0.2308293701137103 -0.89412634237714883 0 -0.89412634237714883 0.33041175896651609 0 0 0 0 746.57267731396132 110.84573376572234 0 110.84573376572234 -79.148231529946315 0 0 0 0 201.82822958602674 149.29989751131725 0 149.29989751131725 196.20557565409035 0 0 0 0 540.37817270080268 241.34562255887613 0 241.34562255887613 1.1446374992506207 0 0 0 0 171.27528461927432 -100.18306001804831 0 -100.18306001804831 48.509952243879525 0 0 0 0 1.3066740465001203 1.7430709503428261 0 1.7430709503428261 -3.0754606254195096 0 0 0 0 1.9944873652571005 -3.8477442578859069 0 -3.8477442578859069 -2.9078362608558876 0 0 0 0 13.236820108410029 -8.805920145005075 0 -8.805920145005075 -3.7958370864253084 0 0 0 0 -1.4556981635396369 -9.9757730586516118 0 -9.9757730586516118 -8.0737288993659604 0 0 0 0 -66.081945611331321 9.4791083457612331 0 9.4791083457612331 103.9853070843219 0 0 0 0 161.9479190785496 102.5423946100218 0 102.5423946100218 -27.948460153938868 0 0 0 0 125.32146697622375 8.3362971743335947 0 8.3362971743335947 -50.359439066100094 0 0 0 0 -4.1183948640799599 3.8876326275810129 0 3.8876326275810129 1.015806502435634 0 0 0 0 -0.62101441574355398 -1.9589440127423927 0 -1.9589440127423927 -3.4347855270694083 0 0 0 0 0.62186870047298726 -3.4334596943672295 0 -3.4334596943672295 -5.7370144690648885 0 0 0 0 1.1483255682396702 -1.3781462831539102 0 -1.3781462831539102 -1.9862533425839501 0 0 0 0 -5.6009307235837014 5.3370806404613944 0 5.3370806404613944 0.4952386603775274 0 0 0 0 -4.0388361520231211 -5.9190432808487685 0 -5.9190432808487685 -0.95738079521783703 0 0 0 0 43.813416338325624 -4.9486248581556538 0 -4.9486248581556538 165.68035160113868 0 0 0 0 31.667904799629468 -59.49793948088336 0 -59.49793948088336 -12.461744325555287 0 0 0 0 -3.5720445442857454 9.7087163937503647 0 9.7087163937503647 17.467712879297324 0 0 0 0 -158.48359375068685 49.643847232662665 0 49.643847232662665 -9.7073715368751436 0 0 0 0 7.3423098494903911 -2.5219462537468331 0 -2.5219462537468331 -4.2324033782246531 0 0 0 0 -0.018044920863705904 -5.4336697762346944 0 -5.4336697762346944 0.74551658585478009 0 0 0 0 -105.51979119102361 -50.191355158801343 0 -50.191355158801343 122.4166392162515 0 0 0 0 29.700829844848158 2.1037608976726005 0 2.1037608976726005 -19.654442885970639 0 0 0 0 39.05507658814895 -3.0269766531819187 0 -3.0269766531819187 69.523451796518202 0 0 0 0 -132.460340607322 -72.196442270239459 0 -72.196442270239459 14.303689672551627 0 0 0 0 -8.4542948267243219 -7.1527973314572932 0 -7.1527973314572932 -2.3323411736410229 0 0 0 0 63.84982431267288 -33.543610266876058 0 -33.543610266876058 -24.71086288012178 0 0 0 0 -35.568635209856438 -31.181295514402336 0 -31.181295514402336 -18.6844459001004 0 0 0 0 100.60632584379346 -8.1434077465914925 0 -8.1434077465914925 8.1437880293397029 0 0 0 0 87.733901912559872 4.3831631101913544 0 4.3831631101913544 -7.0070327598019659 0 0 0 0 -70.060847179294797 81.891687768766133 0 81.891687768766133 44.092636759686684 0 0 0 0 -70.25332015400636 74.522967772516949 0 74.522967772516949 -44.132749317297566 0 0 0 0 6.7949657019367464 5.0141090198761589 0 5.0141090198761589 -13.194753006849005 0 0 0 0 23.547580553844455 4.2989181492139323 0 4.2989181492139323 -6.775587598957344 0 0 0 0 -9.1564589409681503 12.666119414810055 0 12.666119414810055 37.444974385633657 0 0 0 0 5.1487629925541114 27.527039842493593 0 27.527039842493593 15.261862642307392 0 0 0 0 189.48634097407194 -28.839810661418255 0 -28.839810661418255 7.9654090487183566 0 0 0 0 28.434661316219717 -42.485279354489876 0 -42.485279354489876 82.335440737825365 0 0 0 0 16.155515465332428 4.570736059383421 0 4.570736059383421 61.466138814354963 0 0 0 0 207.48519752596621 79.969999799296943 0 79.969999799296943 15.893477218065073 0 0 0 0 20.656771812375212 -17.012484636809035 0 -17.012484636809035 12.276154563381853 0 0 0 0 20.864279393084871 -54.452961021305441 0 -54.452961021305441 21.356828513211724 0 0 0 0 108.49321242121368 -85.53453174246215 0 -85.53453174246215 -146.47348066681116 0 0 0 0 0.67815704959743073 3.673848755991088 0 3.673848755991088 -4.1938802768450527 0 0 0 0 180.97090852788824 131.41828500715792 0 131.41828500715792 90.13362788510949 0 0 0 0 136.80143691651756 -31.514853952319982 0 -31.514853952319982 3.1302426169570481 0 0 0 0 -0.019660430335989076 -0.68810783956406141 0 -0.68810783956406141 0.48931044004262603 0 0 0 0 230.39664821034785 0.59036603658091735 0 0.59036603658091735 -166.83776132842104 0 0 0 0 -134.17770121895592 -9.2753883927935021 0 -9.2753883927935021 95.741907766288023 0 0 0 0 169.55243547791179 20.841607358762076 0 20.841607358762076 4.2704825840401099 0 0 0 0 171.27188637357904 23.365095988516998 0 23.365095988516998 -24.08081226558761 0 0 0 0 202.8641349634363 36.759580393946983 0 36.759580393946983 -22.857826101641422 0 0 0 0 137.94567119039129 -19.10797623780536 0 -19.10797623780536 -13.916336253279951 0 0 0 0 200.58061895638821 5.9221394168903316 0 5.9221394168903316 -55.969105916335593 0 0 0 0 231.19375344202854 29.267998313955438 0 29.267998313955438 -43.045047422896708 0 0 0 0 214.21228205156513 50.568000172354346 0 50.568000172354346 -21.070542254780776 0 0 0 0 127.04450098100278 -81.995058972413773 0 -81.995058972413773 -69.851096550568627 0 0 0 0 61.106574857782107 -185.82059766873908 0 -185.82059766873908 -8.793792156939503 0 0 0 0 -12.990724380651955 -133.16875674120115 0 -133.16875674120115 -46.187224014906633 0 0 0 0 226.99793857351415 -40.262392197657832 0 -40.262392197657832 -54.706714845087845 0 0 0 0 168.77914784126915 -14.639021213575916 0 -14.639021213575916 28.734494217492056 0 0 0 0 342.63068089599255 84.963931626758495 0 84.963931626758495 16.077846606548377 0 0 0 0 6.3004926841190638 -6.1988332197690852 0 -6.1988332197690852 6.2929031986632671 0 0 0 0 -52.356659764584037 -189.28229021889825 0 -189.28229021889825 -2.0682417066823291 0 0 0 0 475.03412576341361 97.004054283748701 0 97.004054283748701 -20.450221107499146 0 0 0 0 433.25209612585604 -36.69820219369285 0 -36.69820219369285 -60.552559320350156 0 0 0 0 364.15263297106139 0.41981222517483729 0 0.41981222517483729 -37.406248495290392 0 0 0 0 162.80794671351759 67.470061200213991 0 67.470061200213991 -37.519410075833548 0 0 0 0 326.34119528802694 -42.815229581015501 0 -42.815229581015501 -53.826417642279921 0 0 0 0 269.28959681939159 -77.527571817348303 0 -77.527571817348303 -4.2060771117694458 0 0 0 0 680.27104762727686 -363.13173335455201 0 -363.13173335455201 148.65915729674998 0 0 0 0 -268.24659174488625 -164.41271918145321 0 -164.41271918145321 590.29603388813848 0 0 0 0 -217.24957933503902 -239.81403597896997 0 -239.81403597896997 481.97058052064403 0 0 0 0 72.701967014567316 0.14750004058756616 0 0.14750004058756616 -7.1249094986482842 0 0 0 0 56.706752803613199 24.932624720196145 0 24.932624720196145 -19.089905970302425 0 0 0 0 904.93735552510771 415.10748974504645 0 415.10748974504645 -1054.770815433315 0 0 0 0 113.04514231250505 -544.60697223241743 0 -544.60697223241743 -491.18067964566535 0 0 0 0 35.429574704009866 11.80456176583013 0 11.80456176583013 -19.050403670640325 0 0 0 0 68.652905537615879 9.9082305113815892 0 9.9082305113815892 -1.5410904901204958 0 0 0 0 68.887175032069734 23.989772386963757 0 23.989772386963757 6.5992014082281631 0 0 0 0 86.344236945755256 10.218736059836374 0 10.218736059836374 -2.5822546102822344 0 0 0 0 -91.800386557195452 336.52526043632133 0 336.52526043632133 -98.160293121552741 0 0 0 0 29.502454052097164 -18.973449128834545 0 -18.973449128834545 6.4544022482173204 0 0 0 0 210.11411101015256 76.550716242695557 0 76.550716242695557 -155.73704997224218 0 0 0 0 368.64415815154734 217.91607064205564 0 217.91607064205564 158.90562771398186 0 0 0 0 136.93692704479326 91.662849328582411 0 91.662849328582411 120.09889430030444 0 0 0 0 -0.6085735954301299 -0.99366736078398787 0 -0.99366736078398787 -0.11578995420953708 0 0 0 0 349.99322259551263 -42.927986495136793 0 -42.927986495136793 -30.72191405264175 0 0 0 0 315.83276378902519 -32.441024967695228 0 -32.441024967695228 -11.367779901780978 0 0 0 0 429.80949436081573 -16.703043387779189 0 -16.703043387779189 -41.353278728950954 0 0 0 0 381.9655639128905 -216.617231306793 0 -216.617231306793 48.162719407082477 0 0 0 0 182.98004659962771 -78.037757283567473 0 -78.037757283567473 -28.502077147549926 0 0 0 0 565.00184384988097 107.40083066903273 0 107.40083066903273 -126.32763483886401 0 0 0 0 84.852701060990512 -214.8473395180124 0 -214.8473395180124 -311.95918319217526 0 0 0 0 56.80303619170445 108.23047940584934 0 108.23047940584934 -45.628983343261552 0 0 0 0 72.413718067575246 -1.2749611409476529 0 -1.2749611409476529 41.81820276835299 0 0 0 0 98.804874372872291 -44.418859090561966 0 -44.418859090561966 86.328372139437306 0 0 0 0 320.30256786363316 77.301507114960486 0 77.301507114960486 -149.54558252242671 0 0 0 0 39.481353406241396 110.31720369839172 0 110.31720369839172 -108.88093117269773 0 0 0 0 69.910785400301393 84.656310439740764 0 84.656310439740764 -91.405921367616429 0 0 0 0 116.739543114345 24.557321676860283 0 24.557321676860283 -230.84772649551428 0 0 0 0 11.534127459773174 11.922493354590408 0 11.922493354590408 -2.2669019174101521 0 0 0 0 13.630708034292184 136.63560408599801 0 136.63560408599801 7.6337547133864518 0 0 0 0 92.302456802845668 30.866698722984754 0 30.866698722984754 5.1708931901663284 0 0 0 0 103.31755810469986 -1.3245034159006082 0 -1.3245034159006082 38.057425715848694 0 0 0 0 105.8408497712735 8.5024801369086163 0 8.5024801369086163 -6.0349689505137576 0 0 0 0 91.897134954248031 23.01219931019196 0 23.01219931019196 16.545702210732884 0 0 0 0 92.706220306773048 40.79865103131084 0 40.79865103131084 -6.4846742443996845 0 0 0 0 95.824524373252643 13.113922224640419 0 13.113922224640419 -6.6124141568714094 0 0 0 0 93.425238508791153 23.5031618844082 0 23.5031618844082 12.900351651720939 0 0 0 0 128.88795391047097 15.125005926687209 0 15.125005926687209 14.471730744034858 0 0 0 0 101.57375883863369 58.211134113674348 0 58.211134113674348 50.379043077863798 0 0 0 0 76.435730095250307 11.242153776999277 0 11.242153776999277 -15.555693586974179 0 0 0 0 60.881565963398316 -8.4158848598563054 0 -8.4158848598563054 -25.052184645328566 0 0 0 0 66.849535340079456 26.171113113703086 0 26.171113113703086 28.758514894660948 0 0 0 0 89.234887265583893 51.182710172872021 0 51.182710172872021 -4.6429071190650575 0 0 0 0 -6.4921822121395962 60.762149382676398 0 60.762149382676398 -1.3435069265019592 0 0 0 0 137.47464450240659 80.906662193008742 0 80.906662193008742 -212.52368517850573 0 0 0 0 70.303334701435645 -11.135243824051873 0 -11.135243824051873 -18.929570542178329 0 0 0 0 -32.233285411472025 60.133878869113232 0 60.133878869113232 350.73738390946392 0 0 0 0 -7.3577780295172488 562.70129224423113 0 562.70129224423113 56.90974732475479 0 0 0 0 82.833820918291167 -8.955116859307509 0 -8.955116859307509 -24.107584044257692 0 0 0 0 48.481613875472163 -16.690746597596629 0 -16.690746597596629 -16.597584819730955 0 0 0 0 -34.421840820868965 -50.164849504320955 0 -50.164849504320955 -71.084384545815738 0 0 0 0 60.978660932583267 5.6216677969120123 0 5.6216677969120123 -3.2014194874427631 0 0 0 0 32.546803496934757 -23.21674618506195 0 -23.21674618506195 -15.017422469578973 0 0 0 0 78.210656414659752 17.847795335446108 0 17.847795335446108 -12.107270153328614 0 0 0 0 -71.009198390769598 -85.575486794617973 0 -85.575486794617973 2.217555637184887 0 0 0 0 -42.127313424025488 -164.81259025442137 0 -164.81259025442137 -141.43651896562915 0 0 0 0 -191.59887259989046 -41.975124509805937 0 -41.975124509805937 -8.0734081645086917 0 0 0 0 5.4443124166291454 -5.1361816432694809 0 -5.1361816432694809 -3.9431889305454746 0 0 0 0 43.221543096802634 57.692884804330617 0 57.692884804330617 -56.806613780237967 0 0 0 0 50.619387091133945 9.3615723123522301 0 9.3615723123522301 -4.4617983230642944 0 0 0 0 69.691148274287116 4.201805543324781 0 4.201805543324781 -24.499593971462609 0 0 0 0 -141.53292200913347 -204.6773771155986 0 -204.6773771155986 -122.14436627305076 0 0 0 0 22.870973863131439 75.624599403116491 0 75.624599403116491 -61.059836059399458 0 0 0 0 8.560374682306076 1.6450537163685937 0 1.6450537163685937 -7.7249632294502693 0 0 0 0 -191.15417313668877 123.02241001197274 0 123.02241001197274 -17.864491782643995 0 0 0 0 62.407664241618477 28.266648157072723 0 28.266648157072723 -92.63937339034851 0 0 0 0 -40.351723913801834 124.62045782261862 0 124.62045782261862 162.54417110106732 0 0 0 0 1.0286873154909699 12.053041934683279 0 12.053041934683279 -198.91151057136085 0 0 0 0 -201.09904231561814 -46.049589247615586 0 -46.049589247615586 6.2918473582885781 0 0 0 0 -100.92643715474333 -111.17919261417296 0 -111.17919261417296 -224.87090935986816 0 0 0 0 17.181059936039318 -4.903224504077329 0 -4.903224504077329 6.9766936155274237 0 0 0 0 282.63337282535213 55.266454467176118 0 55.266454467176118 -196.63239012637905 0 0 0 0 153.19760670246615 78.047464116403717 0 78.047464116403717 53.33074497384041 0 0 0 0 188.44133803022851 234.97390779356215 0 234.97390779356215 -12.461830771139375 0 0 0 0 6.7912323665732401 19.04219813275429 0 19.04219813275429 -42.561860006498172 0 0 0 0 -535.67609774396988 157.6733410455239 0 157.6733410455239 128.22097952581595 0 0 0 0 152.84041038234136 -171.31149965408372 0 -171.31149965408372 -280.79161695274365 0 0 0 0 33.284587989543354 3.3391271982408739 0 3.3391271982408739 0.97257936155017477 0 0 0 0 -134.38473293238349 -160.14147673922074 0 -160.14147673922074 301.41824938306638 0 0 0 0 55.540356141653319 8.8024753206182229 0 8.8024753206182229 5.2296068733743315 0 0 0 0 30.026642563312976 3.7204668813135555 0 3.7204668813135555 -1.6050697834842786 0 0 0 0 14.984392720199821 -8.7271643075932985 0 -8.7271643075932985 -1.7500313541505921 0 0 0 0 56.552241762452468 7.8966675706322276 0 7.8966675706322276 -1.4510688680182842 0 0 0 0 26.391175627848497 -63.825696217615814 0 -63.825696217615814 -40.6760307894383 0 0 0 0 38.730799191282131 -0.36250586696905884 0 -0.36250586696905884 -5.8030043427254441 0 0 0 0 42.06917192169692 -5.9430315513513818 0 -5.9430315513513818 -13.286616134833508 0 0 0 0 51.701736143854077 -2.9437026732538634 0 -2.9437026732538634 -15.160052596068883 0 0 0 0 26.326467591454275 -74.953798779204135 0 -74.953798779204135 -158.52874521780905 0 0 0 0 4.8567976727747464 -19.90456919729656 0 -19.90456919729656 -8.1103770546415852 0 0 0 0 29.002774493587879 -9.1824799262244881 0 -9.1824799262244881 -4.3231869653287571 0 0 0 0 24.271799488922625 -82.24876865314917 0 -82.24876865314917 -65.937927880939242 0 0 0 0 20.955048102530782 -50.971895470386812 0 -50.971895470386812 -47.91748705748978 0 0 0 0 -58.413660034901113 -60.659384362005085 0 -60.659384362005085 -11.616434431646212 0 0 0 0 2.4798028484886032 -13.01931157323574 0 -13.01931157323574 -19.278054085755887 0 0 0 0 61.086118229170097 -49.252948386942137 0 -49.252948386942137 -17.314023549224657 0 0 0 0 30.300377846971969 -14.146415154521492 0 -14.146415154521492 -0.12959098083319986 0 0 0 0 21.320160242088605 -22.402382058180592 0 -22.402382058180592 -39.679443000446099 0 0 0 0 59.158685478614643 48.782846980990143 0 48.782846980990143 63.876173097924038 0 0 0 0 30.144391965174407 -16.370316152753187 0 -16.370316152753187 -9.594495892519209 0 0 0 0 47.273937706762808 -2.6838756627151952 0 -2.6838756627151952 -14.967209419886331 0 0 0 0 55.581895156108942 -19.664730854099787 0 -19.664730854099787 -23.001774913929246 0 0 0 0 29.504798239306979 8.3227786056905302 0 8.3227786056905302 4.5486045807209381 0 0 0 0 21.269929776113713 -30.538623053276751 0 -30.538623053276751 -45.342165015426872 0 0 0 0 53.053635866539707 -13.913224024317628 0 -13.913224024317628 -22.167071764172253 0 0 0 0 -0.016205422747006537 -1.0462467822802921 0 -1.0462467822802921 0.84883960276935844 0 0 0 0 350.37929448400973 204.93274926872215 0 204.93274926872215 5.9474745987985784 0 0 0 0 357.31052910076687 21.712000467581788 0 21.712000467581788 -187.77620472881216 0 0 0 0 -357.31558519792816 -186.36569302450511 0 -186.36569302450511 115.03599972651114 0 0 0 0 -75.492973009910202 -21.073732722049613 0 -21.073732722049613 204.2792904333833 0 0 0 0 61.466997922950213 -19.959697887675105 0 -19.959697887675105 -11.770153439565078 0 0 0 0 142.43466543621616 -186.93135049505793 0 -186.93135049505793 -113.10980773627051 0 0 0 0 132.75364819029346 1.2720386061610043 0 1.2720386061610043 86.67568183954063 0 0 0 0 -1.012277723173554 -2.1626503175852747 0 -2.1626503175852747 4.0081897112821618 0 0 0 0 16.722326107871339 -12.739037647957332 0 -12.739037647957332 12.285122352543047 0 0 0 0 102.67458919028286 107.96208755636371 0 107.96208755636371 0.98110114237920243 0 0 0 0 250.21692979365616 65.40751880022799 0 65.40751880022799 -93.356779622463364 0 0 0 0 139.58338824786188 59.835050345937816 0 59.835050345937816 57.818119567026088 0 0 0 0 23.30069379516317 -42.253736418367382 0 -42.253736418367382 -10.143032923171404 0 0 0 0 193.55784859818959 -43.582434421082326 0 -43.582434421082326 -48.259610765140678 0 0 0 0 11.114004643051885 -24.361204051428331 0 -24.361204051428331 -18.560525597418973 0 0 0 0 -204.54653205676004 -300.85467188678336 0 -300.85467188678336 -69.884576349756259 0 0 0 0 25.932976682918451 2.8382684455103231 0 2.8382684455103231 0.99209470470439509 0 0 0 0 69.076071792798899 -19.300688933252644 0 -19.300688933252644 -11.986055967799816 0 0 0 0 -143.20492049590393 -112.7353692557802 0 -112.7353692557802 -91.724923500416935 0 0 0 0 192.0285092817212 -246.10833953107007 0 -246.10833953107007 -92.86685676400225 0 0 0 0 -63.097965207893139 -168.41094328832338 0 -168.41094328832338 53.269062456920665 0 0 0 0 -53.317360701563302 -155.87833113008008 0 -155.87833113008008 -203.16231452062476 0 0 0 0 -317.32788051653188 -18.984886204282589 0 -18.984886204282589 45.540088609827194 0 0 0 0 69.186934540368384 -138.37988502873139 0 -138.37988502873139 -3.923140456295954 0 0 0 0 -172.17753651009116 -123.51944511828515 0 -123.51944511828515 288.50676127034717 0 0 0 0 -43.15129330761556 107.90859028586385 0 107.90859028586385 154.78040421374405 0 0 0 0 -80.536571544180333 25.647157837819634 0 25.647157837819634 13.470340312671055 0 0 0 0 -227.86198743175191 -24.398396084323622 0 -24.398396084323622 198.13026565262408 0 0 0 0 -172.13071503377432 -103.35096279605071 0 -103.35096279605071 85.45085044517873 0 0 0 0 59.585760431771632 0.23158207105507245 0 0.23158207105507245 229.09213211566498 0 0 0 0 -189.4436227203405 -150.03220090566947 0 -150.03220090566947 35.412818614935532 0 0 0 0 70.622784641105682 -145.32527692277097 0 -145.32527692277097 -2.115830630392793 0 0 0 0 31.907715381908929 35.57595109232637 0 35.57595109232637 86.86241442194013 0 0 0 0 8.8335526651214309 2.0898738827873977 0 2.0898738827873977 2.4145109835502803 0 0 0 0 -39.404050096403807 -31.254875529536491 0 -31.254875529536491 -111.47419470287423 0 0 0 0 3.37243826686462 -1.4351424855790498 0 -1.4351424855790498 1.8832225762678334 0 0 0 0 90.359654953514109 239.09397847323555 0 239.09397847323555 -139.26532952113905 0 0 0 0 493.22212764353026 -281.39585325738727 0 -281.39585325738727 -66.443241696337168 0 0 0 0 37.587436930771219 -1.8362153513679544 0 -1.8362153513679544 117.61163344899668 0 0 0 0 8.806406910851365 38.687320756864509 0 38.687320756864509 80.14513494639003 0 0 0 0 25.049629251414444 101.15265646398106 0 101.15265646398106 285.08586181257903 0 0 0 0 3.4758016884944141 1.1450340323203623 0 1.1450340323203623 0.18424820959012544 0 0 0 0 15.331830683368025 -110.92710133488015 0 -110.92710133488015 253.01143002902961 0 0 0 0 636.20461470923328 -125.45228114771356 0 -125.45228114771356 -27.184748566046437 0 0 0 0 5.042240454124709 2.6577865149019431 0 2.6577865149019431 1.5354995573579782 0 0 0 0 161.62461675603117 273.84870191965842 0 273.84870191965842 302.33682803081336 0 0 0 0 -43.838177067660581 81.671915387202375 0 81.671915387202375 402.73666233994686 0 0 0 0 677.29646028759453 -51.57174733402212 0 -51.57174733402212 -107.40734822728392 0 0 0 0 219.75361536927085 -26.476299768089817 0 -26.476299768089817 -87.628461892171117 0 0 0 0 156.94201024439826 -332.90377731289618 0 -332.90377731289618 358.43251826241271 0 0 0 0 849.43207415375946 49.118939479885157 0 49.118939479885157 -78.884854446213296 0 0 0 0 257.41845118288074 -21.521699198381128 0 -21.521699198381128 -142.76458056250908 0 0 0 0 116.0553934796917 -86.602525981883332 0 -86.602525981883332 -196.88544621806363 0 0 0 0 114.24514638617984 -110.70521991250871 0 -110.70521991250871 -133.10559029387605 0 0 0 0 210.07310783279536 -18.064924637806939 0 -18.064924637806939 -121.94861920475432 0 0 0 0 137.58754923738888 14.765424066457399 0 14.765424066457399 -85.374749501051994 0 0 0 0 371.47018198578735 102.54455716629298 0 102.54455716629298 -77.051607330948514 0 0 0 0 196.79164893192501 65.483106970264885 0 65.483106970264885 -70.711153198902593 0 0 0 0 153.10712740261806 200.68614648991078 0 200.68614648991078 140.83619976935984 0 0 0 0 -0.3967913245287491 81.349014342102734 0 81.349014342102734 132.70824223857369 0 0 0 0 70.353547344057006 98.821693778012559 0 98.821693778012559 39.7925415231839 0 0 0 0 77.501579540752573 83.598514058766057 0 83.598514058766057 67.767411831047298 0 0 0 0 123.9136648903077 86.507862857755754 0 86.507862857755754 38.653235911910855 0 0 0 0 104.39879904378904 56.875861117573322 0 56.875861117573322 -6.2803719944774912 0 0 0 0 102.75029701372841 36.423135669595922 0 36.423135669595922 63.537421130211015 0 0 0 0 104.71122520630888 19.35070395114451 0 19.35070395114451 0.18163590335598201 0 0 0 0 71.361057314650679 74.469303568013288 0 74.469303568013288 57.540989034634407 0 0 0 0 41.409963546891959 2.5620226182473544 0 2.5620226182473544 1.4260715171963056 0 0 0 0 40.628022689845238 -9.3524781442331459 0 -9.3524781442331459 -23.859926938859644 0 0 0 0 28.396964490355458 53.598982941578015 0 53.598982941578015 -28.925246691435859 0 0 0 0 36.999016440699052 10.629632498979262 0 10.629632498979262 13.878935119430253 0 0 0 0 12.819170971043974 6.7191039978990901 0 6.7191039978990901 3.5219311485559679 0 0 0 0 59.555490547174486 42.216101643757305 0 42.216101643757305 -30.194788370056699 0 0 0 0 18.741097420170718 8.6319074173866852 0 8.6319074173866852 2.3003722967880664 0 0 0 0 39.574557465533871 10.357300486925851 0 10.357300486925851 -45.92845188384581 0 0 0 0 7.5132391404622467 23.392234785164419 0 23.392234785164419 -8.1887326833012253 0 0 0 0 21.684730313660111 -11.777422837934068 0 -11.777422837934068 -127.37506792980003 0 0 0 0 89.439170290977927 10.777924089197995 0 10.777924089197995 -136.61913577208327 0 0 0 0 82.690761385892984 -50.405573241557704 0 -50.405573241557704 -88.65170053048962 0 0 0 0 83.384892098343698 10.687237203827863 0 10.687237203827863 -118.52864683231985 0 0 0 0 45.746807443298167 -35.991724672874284 0 -35.991724672874284 -169.42298483961204 0 0 0 0 86.751301743439399 45.061281891012413 0 45.061281891012413 -195.52416616891261 0 0 0 0 -39.575095864041941 -54.389884500211281 0 -54.389884500211281 -2.6631945259822771 0 0 0 0 21.37380991016488 -1.8356446817306349 0 -1.8356446817306349 -1.1920239685394076 0 0 0 0 68.351684641896355 -12.185458125575323 0 -12.185458125575323 -7.7559951909276643 0 0 0 0 110.39737528891601 23.250200491155795 0 23.250200491155795 4.7995605738274207 0 0 0 0 86.31555708241649 42.857982861095252 0 42.857982861095252 -33.358318592675687 0 0 0 0 84.947276356661661 25.245686992682678 0 25.245686992682678 4.6605083946371444 0 0 0 0 104.92104872163327 10.948203355108035 0 10.948203355108035 19.081136783010152 0 0 0 0 18.752128747923564 9.2799755121255032 0 9.2799755121255032 -8.0559350456938681 0 0 0 0 107.8015337029974 22.507307931096193 0 22.507307931096193 5.0084557076011151 0 0 0 0 107.68341885131667 24.136638760269534 0 24.136638760269534 -2.0160398494640503 0 0 0 0 116.06638835680496 29.892045102764996 0 29.892045102764996 -3.2461096721968943 0 0 0 0 115.34059211133354 26.601580400281364 0 26.601580400281364 -17.582302648232144 0 0 0 0 120.38805535460415 42.535952364964487 0 42.535952364964487 -1.1695990796289379 0 0 0 0 137.95621364865656 32.614431663877781 0 32.614431663877781 -46.79974622593727 0 0 0 0 90.092899955481698 -9.9942411241352147 0 -9.9942411241352147 -32.526948692801852 0 0 0 0 107.65318135304551 15.00769674447406 0 15.00769674447406 -1.6645544750199406 0 0 0 0 153.18734448889154 -37.83155975124842 0 -37.83155975124842 -167.96935179030572 0 0 0 0 158.75413778015354 -270.48376287343399 0 -270.48376287343399 -110.26493185882528 0 0 0 0 102.22098170458412 -25.897928066334941 0 -25.897928066334941 -77.981852683605211 0 0 0 0 69.790918519149244 -22.935721837734761 0 -22.935721837734761 -7.3255808228268036 0 0 0 0 180.04815956161474 -127.18345439978725 0 -127.18345439978725 118.76563345391295 0 0 0 0 495.88411026573158 -112.32612588394147 0 -112.32612588394147 -53.278137091507347 0 0 0 0 113.41249099126435 11.379315067788639 0 11.379315067788639 -74.328590224295567 0 0 0 0 112.31087266697432 8.371049495933562 0 8.371049495933562 -65.228805897437041 0 0 0 0 74.419218295655526 -25.577475746725952 0 -25.577475746725952 -5.8721587789083038 0 0 0 0 258.37906656539417 -31.933941051311422 0 -31.933941051311422 -114.87727343547965 0 0 0 0 88.816506293442217 -162.76510149890942 0 -162.76510149890942 -178.33059926262359 0 0 0 0 11.564943462217343 -67.230683560433363 0 -67.230683560433363 -91.249725151438497 0 0 0 0 -47.24859332019696 -206.84803551970765 0 -206.84803551970765 6.6072937521713584 0 0 0 0 506.73184427301749 239.83183453546593 0 239.83183453546593 -51.44312873471938 0 0 0 0 556.61687963322038 -445.32964516977108 0 -445.32964516977108 188.77973034768547 0 0 0 0 2.4461647652237843 -2.0272123119603975 0 -2.0272123119603975 1.7231283132988922 0 0 0 0 -15.458087708066159 499.89711089263307 0 499.89711089263307 102.75412377416001 0 0 0 0 -1.1932530727287372 -0.048444441268884475 0 -0.048444441268884475 -0.63035741901662312 0 0 0 0 -9.3252615936216898 -148.05589587512318 0 -148.05589587512318 34.328892311772393 0 0 0 0 10.137819467228837 317.05380797781481 0 317.05380797781481 147.93681344500919 0 0 0 0 551.97927818025346 -155.35292453787912 0 -155.35292453787912 -53.515185639332799 0 0 0 0 464.7760667084076 -248.09641327662402 0 -248.09641327662402 -59.167033309721631 0 0 0 0 133.29533865919802 -274.30007398714525 0 -274.30007398714525 30.05227747131363 0 0 0 0 245.32219122585957 -146.09656107354502 0 -146.09656107354502 -94.541411743836505 0 0 0 0 110.42802634931286 23.303166410004792 0 23.303166410004792 -9.0023406630340901 0 0 0 0 563.69936734687508 144.96294977392995 0 144.96294977392995 -334.64721167544201 0 0 0 0 353.87912566174055 -256.48358515281728 0 -256.48358515281728 197.80463253171212 0 0 0 0 71.108770768041722 23.56827845354411 0 23.56827845354411 124.91489001198636 0 0 0 0 60.918039383395808 -11.067170406526685 0 -11.067170406526685 12.535122954208418 0 0 0 0 -41.983452166217376 43.144614213340219 0 43.144614213340219 64.792596312430646 0 0 0 0 22.288361421160516 134.94193918608642 0 134.94193918608642 -249.29282010429273 0 0 0 0 88.594056737187202 1.8491212065089258 0 1.8491212065089258 1.1557681588639639 0 0 0 0 10.655288686065035 4.1454130518403005 0 4.1454130518403005 1.0740062509705681 0 0 0 0 82.538221710157814 -1.0305833440779679 0 -1.0305833440779679 12.424628708522448 0 0 0 0 168.86484741385357 -115.11324086511752 0 -115.11324086511752 27.965366994765986 0 0 0 0 303.8029561645817 -227.90306671342546 0 -227.90306671342546 118.42075714199461 0 0 0 0 290.232064743308 124.92668037637094 0 124.92668037637094 17.85781998942241 0 0 0 0 423.78092301692232 -54.015561244635933 0 -54.015561244635933 -42.946045129636474 0 0 0 0 3.5069975226579118 -4.0073819789609146 0 -4.0073819789609146 1.952773048672384 0 0 0 0 24.240246344939806 64.328769575605719 0 64.328769575605719 48.144118404705154 0 0 0 0 -17.571510960668093 27.112299358439174 0 27.112299358439174 34.959009972110124 0 0 0 0 34.36645398940891 4.8811487487216993 0 4.8811487487216993 2.5828459134673238 0 0 0 0 39.250217200664338 18.7348091137886 0 18.7348091137886 -2.5449673914152982 0 0 0 0 94.833219625877973 -24.669620696243101 0 -24.669620696243101 -5.885138652833291 0 0 0 0 178.96628301645978 -10.034754957225402 0 -10.034754957225402 -8.9687590568487963 0 0 0 0 162.71896573484992 -45.351692715248944 0 -45.351692715248944 -30.445949753167437 0 0 0 0 252.23855899066257 -99.689249813254548 0 -99.689249813254548 -20.581599504757392 0 0 0 0 60.231300966173876 -91.584206735946054 0 -91.584206735946054 9.1183752958284572 0 0 0 0 104.45537675070227 -107.80154376321718 0 -107.80154376321718 -0.30574951837706976 0 0 0 0 -17.012936291575897 -121.97736947557325 0 -121.97736947557325 13.838484417972154 0 0 0 0 0.00072068432928062975 -15.686417716774599 0 -15.686417716774599 -34.915225597252174 0 0 0 0 -10.99586694095342 -18.682167792199834 0 -18.682167792199834 -4.8591912979553626 0 0 0 0 -92.412354829895776 5.6254147291992922 0 5.6254147291992922 -39.360004855441957 0 0 0 0 -2.6348383061267668 -2.8393610216506886 0 -2.8393610216506886 -103.33408203928229 0 0 0 0 -127.45968132410781 -74.119572681229897 0 -74.119572681229897 0.52756622050947044 0 0 0 0 262.59742906983593 -205.25727365827782 0 -205.25727365827782 57.961728175465566 0 0 0 0 7.5650751263431175 -7.2339395330955369 0 -7.2339395330955369 6.2711210281692136 0 0 0 0 21.02539988351154 6.1687305563838493 0 6.1687305563838493 -4.1349329600528808 0 0 0 0 146.72190496861003 192.50521644114454 0 192.50521644114454 90.291612620180757 0 0 0 0 -26.848464207985671 -63.560026692228462 0 -63.560026692228462 -72.166496420028579 0 0 0 0 -25.497100828637485 -37.018894232687785 0 -37.018894232687785 -16.053053042139254 0 0 0 0 20.769515110718203 -24.023168269823373 0 -24.023168269823373 -56.267056951843529 0 0 0 0 -6.1418935261754086 -16.596705315673148 0 -16.596705315673148 -33.518553764921762 0 0 0 0 28.793281983031193 11.451016842136482 0 11.451016842136482 -45.824106813866806 0 0 0 0 14.458379582312773 3.7540416385032778 0 3.7540416385032778 -6.3402977210905078 0 0 0 0 46.631324454254354 -2.0865920041800337 0 -2.0865920041800337 -19.369010153360364 0 0 0 0 13.254416358522576 -1.5130063760786641 0 -1.5130063760786641 -8.8355643199896576 0 0 0 0 33.680451317261031 -51.057462581731528 0 -51.057462581731528 -3.9821029509352002 0 0 0 0 21.847209843751443 -14.998882201920637 0 -14.998882201920637 1.7509916266016035 0 0 0 0 29.205182277961285 -125.71999590596147 0 -125.71999590596147 6.4835251212034564 0 0 0 0 -3.4050626942158573 -4.11887308948738 0 -4.11887308948738 -8.1959661204488228 0 0 0 0 71.964447743539495 -38.914934150262596 0 -38.914934150262596 -51.515148209702716 0 0 0 0 -200.39831045130995 26.155061037602934 0 26.155061037602934 156.90935868111092 0 0 0 0 43.842102424818222 -365.8221725611225 0 -365.8221725611225 98.3548799348725 0 0 0 0 -85.399261318321805 -73.18849878749495 0 -73.18849878749495 121.99478042877962 0 0 0 0 19.474209760315716 -106.5612244722215 0 -106.5612244722215 -102.52059004130626 0 0 0 0 20.650886970586726 -69.543757507450195 0 -69.543757507450195 40.908070543196523 0 0 0 0 -95.74277681359672 -43.329489959483624 0 -43.329489959483624 37.80566837759266 0 0 0 0 -7.5900638592429459 -16.757014911949213 0 -16.757014911949213 8.2129827605307568 0 0 0 0 -21.598518576400238 -8.1185174578071955 0 -8.1185174578071955 27.505759592557986 0 0 0 0 -82.214909624803113 21.116241511562862 0 21.116241511562862 22.430977306234809 0 0 0 0 -21.665633947675815 24.843291523292294 0 24.843291523292294 -30.33113164249869 0 0 0 0 160.41351360424596 17.474348757455942 0 17.474348757455942 -17.002523527254851 0 0 0 0 1.1971196174905856 -1.2934460595360804 0 -1.2934460595360804 1.3895790169568323 0 0 0 0 151.36726189916953 45.325830985960849 0 45.325830985960849 -18.367135827494856 0 0 0 0 152.81093414686256 37.92306330500957 0 37.92306330500957 19.541138082030699 0 0 0 0 252.78569673144375 64.602144956399911 0 64.602144956399911 -25.138290120378372 0 0 0 0 198.78756661222724 -22.563344166904585 0 -22.563344166904585 -5.0211685736956291 0 0 0 0 5.3858102746899021 -41.24486294215675 0 -41.24486294215675 14.953217685343574 0 0 0 0 3.2179906210471358 -3.2155255739599937 0 -3.2155255739599937 2.5061875320433904 0 0 0 0 10.623717289374326 12.294592369114831 0 12.294592369114831 23.591717996159986 0 0 0 0 1.4163984189588064 -0.06589269767752981 0 -0.06589269767752981 0.05013740369330489 0 0 0 0 -10.654410930808808 10.586765970097183 0 10.586765970097183 16.083568659794103 0 0 0 0 56.506878524567583 -38.108243101378861 0 -38.108243101378861 24.35782455367605 0 0 0 0 245.0339889283714 3.2784313646513521 0 3.2784313646513521 -10.472659669238634 0 0 0 0 134.28007230140065 6.5394466620928684 0 6.5394466620928684 -0.0024414763655215971 0 0 0 0 69.347739960183389 39.443041572402329 0 39.443041572402329 15.854695020733647 0 0 0 0 132.56265430019994 80.54039770445327 0 80.54039770445327 32.263346978230736 0 0 0 0 -5.7263836826314218 1.9776922583827186 0 1.9776922583827186 21.239076410179052 0 0 0 0 22.91425089470431 -7.8027390154028797 0 -7.8027390154028797 -18.967496232396513 0 0 0 0 13.319556497015583 -5.6485804197847518 0 -5.6485804197847518 0.035156151645299845 0 0 0 0 -1.893596871450427 -0.14100612157115844 0 -0.14100612157115844 2.7258627311612376 0 0 0 0 -5.8852010912669357 -7.1081115904934471 0 -7.1081115904934471 3.4946127054692986 0 0 0 0 101.11265396321687 -218.15455180394417 0 -218.15455180394417 -172.80971771416546 0 0 0 0 4.8053754076923383 -2.1124786896123169 0 -2.1124786896123169 0.69870596970151078 0 0 0 0 -16.36750075109012 83.277320806791948 0 83.277320806791948 -81.112051648825286 0 0 0 0 3.2768463446259375 -0.71787709449023751 0 -0.71787709449023751 0.054175788787056235 0 0 0 0 -8.1277123499457957 6.0149860834423876 0 6.0149860834423876 -4.1455790721574592 0 0 0 0 -142.98707562055006 81.47232689415992 0 81.47232689415992 240.76268212231003 0 0 0 0 -139.82641560702177 -184.96442099657503 0 -184.96442099657503 -27.738431177855865 0 0 0 0 362.48456871221424 -176.44725345995118 0 -176.44725345995118 -205.10885323305007 0 0 0 0 329.38554535008552 146.77936526711184 0 146.77936526711184 -93.295968023996579 0 0 0 0 4.7071265784099978 0.92024936051508632 0 0.92024936051508632 0.023640840401345287 0 0 0 0 45.147807480068877 254.09589074948713 0 254.09589074948713 -49.841373306144106 0 0 0 0 -39.30948048299615 101.34305651938894 0 101.34305651938894 -45.755929864235668 0 0 0 0 112.03445794891013 7.8898866798084555 0 7.8898866798084555 -183.37570835214638 0 0 0 0 403.5044466755935 60.617960518120768 0 60.617960518120768 -4.166959087005921 0 0 0 0 141.23962691235829 -18.347760412051912 0 -18.347760412051912 -27.416797834187776 0 0 0 0 184.59169876030501 178.64457194274644 0 178.64457194274644 -20.40512365851248 0 0 0 0 30.155745485317311 100.72285674016086 0 100.72285674016086 102.78709231475554 0 0 0 0 32.530271956056822 121.57527630466365 0 121.57527630466365 -61.212516491062836 0 0 0 0 5.457207772293259 -0.46896658656731915 0 -0.46896658656731915 -0.26435518260905527 0 0 0 0 20.387538681621663 7.2255482913869749 0 7.2255482913869749 -2.8738205654531654 0 0 0 0 -5.760867727255345 -11.47680891295094 0 -11.47680891295094 -4.4585413913936218 0 0 0 0 1.8500335887114829 -0.0090511249547517991 0 -0.0090511249547517991 -0.14484621711688961 0 0 0 0 -5.9970910260672099 -4.6520090345968228 0 -4.6520090345968228 -0.014261221018118591 0 0 0 0 -1.1198025690628128 -4.1709973233591704 0 -4.1709973233591704 -4.7449967747181958 0 0 0 0 0.55947184879687484 -0.2178113499299883 0 -0.2178113499299883 0.076749877802462896 0 0 0 0 355.72935457102722 13.575449399314447 0 13.575449399314447 -20.24325096324015 0 0 0 0 354.04578706126631 20.241977042845374 0 20.241977042845374 -1.2448019499711762 0 0 0 0 128.32843547701486 222.99138690193786 0 222.99138690193786 241.65513551483238 0 0 0 0 2.0560994589688448 0.38616210793975725 0 0.38616210793975725 -0.0068535302360944964 0 0 0 0 366.3790299654429 42.597849923235756 0 42.597849923235756 -3.3583736091054845 0 0 0 0 364.30859118286753 33.265182033568209 0 33.265182033568209 -24.978736706307089 0 0 0 0 19.896628465399885 -37.537580228246327 0 -37.537580228246327 39.921757572068252 0 0 0 0 263.64025590114034 68.110322783210762 0 68.110322783210762 122.63082705087257 0 0 0 0 292.11126185346802 -21.869155321003358 0 -21.869155321003358 0.0066104876041159664 0 0 0 0 167.62046342072426 -14.383717317732334 0 -14.383717317732334 70.660103996636252 0 0 0 0 170.58286784399388 -16.585550795021014 0 -16.585550795021014 24.39827492631855 0 0 0 0 102.46005502839398 -68.806018690258753 0 -68.806018690258753 60.274239906085398 0 0 0 0 170.76729767366487 -79.047852106547325 0 -79.047852106547325 2.7328614553800321 0 0 0 0 107.37998148861516 -57.480846633210547 0 -57.480846633210547 -4.2952255525835881 0 0 0 0 143.10085387823347 -72.46153310727135 0 -72.46153310727135 113.84390974569331 0 0 0 0 64.541064947901759 49.472280181278279 0 49.472280181278279 -60.541700311534612 0 0 0 0 152.48965343072632 -55.582692336796157 0 -55.582692336796157 -121.37857315405824 0 0 0 0 101.16768364486779 -81.537740265208868 0 -81.537740265208868 -26.949222007507274 0 0 0 0 109.78655209006683 -39.47982262929969 0 -39.47982262929969 -86.041711353519531 0 0 0 0 -25.670572859235108 162.88499456003797 0 162.88499456003797 -155.21078823413956 0 0 0 0 898.09111999451125 643.73235006549203 0 643.73235006549203 -790.03952299817502 0 0 0 0 21.901800793754092 13.78535328437021 0 13.78535328437021 3.5826450129766165 0 0 0 0 -95.99245589205384 89.769988318055908 0 89.769988318055908 -38.908668160089292 0 0 0 0 7.4973567420678933 0.19005021977434922 0 0.19005021977434922 -0.44531688952095094 0 0 0 0 30.617187530786339 5.3435125387681666 0 5.3435125387681666 -1.1271633912967474 0 0 0 0 36.554851726745255 15.408268246350474 0 15.408268246350474 -15.4719115128445 0 0 0 0 35.523435823444743 23.430882356488269 0 23.430882356488269 -17.008056609169216 0 0 0 0 37.681248414941365 22.816565422025803 0 22.816565422025803 -1.8583876732360523 0 0 0 0 39.717253645867459 19.256797902834862 0 19.256797902834862 -13.561874329492184 0 0 0 0 36.147169306146679 18.133203187149661 0 18.133203187149661 -15.847736004574482 0 0 0 0 4.4185351000008808 3.1904513383033475 0 3.1904513383033475 -0.68948148001171661 0 0 0 0 30.37251126699266 15.588269475391563 0 15.588269475391563 4.485007386987899 0 0 0 0 30.415412660207949 15.609353836997961 0 15.609353836997961 -0.52185044138231262 0 0 0 0 35.654596403495816 23.086355088434619 0 23.086355088434619 13.436377398408382 0 0 0 0 1241.195387358317 1499.4193682717366 0 1499.4193682717366 750.14318124282727 0 0 0 0 766.24424960978467 -1371.266585955256 0 -1371.266585955256 1183.4760363331129 0 0 0 0 -626.87076121570863 -345.08762512032536 0 -345.08762512032536 524.89761643514748 0 0 0 0 -418.69746103206126 454.53268015377034 0 454.53268015377034 154.06395891294801 0 0 0 0 -325.42440498885117 820.64598167170288 0 820.64598167170288 1457.969914480462 0 0 0 0 1376.3058388311183 951.3926603650491 0 951.3926603650491 509.77879254298887 0 0 0 0 1325.2501818740784 497.11466814972113 0 497.11466814972113 2.5674464463749587 0 0 0 0 870.42747447281727 777.77239883741083 0 777.77239883741083 927.84594736990562 0 0 0 0 8.1020332050431421 6.801445746717981 0 6.801445746717981 3.8655982464491938 0 0 0 0 692.87164831420523 -142.18350783335305 0 -142.18350783335305 -249.30470528997617 0 0 0 0 -135.98698424856411 165.40441586990065 0 165.40441586990065 169.42565256362798 0 0 0 0 18.170266715111211 -70.59398047011797 0 -70.59398047011797 111.87902473605573 0 0 0 0 337.52850073692389 168.63245906338625 0 168.63245906338625 126.63606150803957 0 0 0 0 574.7688693596283 59.158034210591495 0 59.158034210591495 34.217289917368376 0 0 0 0 962.26806820287311 320.62121765592769 0 320.62121765592769 88.648225073092362 0 0 0 0 0.42145833263626642 -1.5386817402448401 0 -1.5386817402448401 0.70532509595291515 0 0 0 0 868.79312938834028 306.9112104613281 0 306.9112104613281 147.31533034307267 0 0 0 0 -15.87970797636126 -4.4713986645247559 0 -4.4713986645247559 50.642677821545931 0 0 0 0 16.060571207941393 18.258990115587835 0 18.258990115587835 3.0690468747764044 0 0 0 0 -14.314571564151265 -33.168670065895071 0 -33.168670065895071 33.143370667462477 0 0 0 0 1.8920949366196567 -0.43533957345326257 0 -0.43533957345326257 -3.6423791986237184 0 0 0 0 -35.469804247069987 21.139171891269143 0 21.139171891269143 44.963864647445007 0 0 0 0 -33.903527637390653 36.704475697859209 0 36.704475697859209 23.726789368073469 0 0 0 0 -30.997373078753299 23.859621819567437 0 23.859621819567437 -7.0786943644600342 0 0 0 0 -41.106644165200123 46.202425666367731 0 46.202425666367731 -1.0645577727932505 0 0 0 0 60.209701170577318 59.355103630263955 0 59.355103630263955 -97.817040183626887 0 0 0 0 0.9727838788239751 30.943013583689044 0 30.943013583689044 -12.956525788558565 0 0 0 0 6.2123803613547182 2.2192346884858409 0 2.2192346884858409 -5.3542931685915534 0 0 0 0 9.6722919676540187 26.378495205816961 0 26.378495205816961 -11.302549861684838 0 0 0 0 -4.3635916280327365 20.092059492251337 0 20.092059492251337 16.187225206395851 0 0 0 0 16.531042553193402 7.8081254701246507 0 7.8081254701246507 -0.47541601329658079 0 0 0 0 14.378615816060801 3.6540239990919621 0 3.6540239990919621 1.4651455635108732 0 0 0 0 6.7048325701009617 -2.0786841480807823 0 -2.0786841480807823 -2.7632152509821779 0 0 0 0 14.482955794708687 8.1886551979137039 0 8.1886551979137039 1.426487461078068 0 0 0 0 28.505747238305048 -33.413366996808975 0 -33.413366996808975 -13.236115750063789 0 0 0 0 174.43232970323152 216.91168522452051 0 216.91168522452051 174.76030954401517 0 0 0 0 223.17837952211266 -81.28559191967588 0 -81.28559191967588 38.647979482409937 0 0 0 0 7.0755522334001739 -4.0377856715744258 0 -4.0377856715744258 3.7604520021170744 0 0 0 0 28.530196728155715 1.7693009223270622 0 1.7693009223270622 -29.855707483592312 0 0 0 0 19.612208471779013 8.3192572872483765 0 8.3192572872483765 0.79962942983985386 0 0 0 0 29.415312347991858 6.2308892778585232 0 6.2308892778585232 -22.027697959674697 0 0 0 0 18.472148472006666 3.6128884595797217 0 3.6128884595797217 0.54754088260455092 0 0 0 0 16.910043547814723 3.0737326016452684 0 3.0737326016452684 0.76154814738916532 0 0 0 0 27.120560015988303 25.790121767191522 0 25.790121767191522 -38.924000480858467 0 0 0 0 8.2085589219678639 0.20551167670777204 0 0.20551167670777204 -3.9141512181152009 0 0 0 0 87.789106685755542 -22.964675688835541 0 -22.964675688835541 316.09877726323407 0 0 0 0 353.70592218151432 -155.20898853575193 0 -155.20898853575193 42.097777007302739 0 0 0 0 101.54482270171866 28.135677417378588 0 28.135677417378588 -3.4652492971952142 0 0 0 0 527.37246405011683 187.13160218240625 0 187.13160218240625 -79.749836144889855 0 0 0 0 4.0406647597964138 1.2519067089635811 0 1.2519067089635811 2.1011355752776399 0 0 0 0 567.03852318029385 -171.19149291697681 0 -171.19149291697681 60.927903510823739 0 0 0 0 671.67446848951477 205.05620445782779 0 205.05620445782779 24.216535818394277 0 0 0 0 449.22860003155074 91.181609702420076 0 91.181609702420076 -29.724332020702263 0 0 0 0 291.26915373962765 -90.830755451450258 0 -90.830755451450258 -125.40220959189128 0 0 0 0 293.36001952429069 -91.537662711656594 0 -91.537662711656594 -231.08458357123209 0 0 0 0 116.38171709479138 27.856983483887653 0 27.856983483887653 274.01739633689306 0 0 0 0 280.84591282467591 159.09937733176858 0 159.09937733176858 -174.32305303942829 0 0 0 0 280.96073642978445 11.334957053142489 0 11.334957053142489 -278.12041804814436 0 0 0 0 281.69222265626013 28.165119935383899 0 28.165119935383899 -1.5864484883388741 0 0 0 0 282.85145271505462 179.6322754332902 0 179.6322754332902 -46.202712080791905 0 0 0 0 496.46556027804036 -124.65760247043569 0 -124.65760247043569 151.95967323252637 0 0 0 0 857.36992094457673 173.01163167358081 0 173.01163167358081 -94.734286090297815 0 0 0 0 612.24588119807595 62.617980713994768 0 62.617980713994768 -105.52233047273319 0 0 0 0 -66.577101740418584 -69.430995036504711 0 -69.430995036504711 72.514709185856645 0 0 0 0 1.9760228926413674 -1.6580472928089875 0 -1.6580472928089875 1.570428162428426 0 0 0 0 578.56097060661705 46.726857004982648 0 46.726857004982648 -76.127607417746717 0 0 0 0 288.69702627300285 -192.95204233913927 0 -192.95204233913927 61.976914008276637 0 0 0 0 -0.35016854547154708 -0.97943126935163605 0 -0.97943126935163605 -1.0576204604229866 0 0 0 0 161.19337002481916 13.455032712020644 0 13.455032712020644 3.6003138476718277 0 0 0 0 64.536268010255299 175.65675352199929 0 175.65675352199929 158.52428416272122 0 0 0 0 102.7033516583906 -14.238717133894852 0 -14.238717133894852 236.92730216881495 0 0 0 0 40.310029011481674 17.152045285226166 0 17.152045285226166 8.1954048519762637 0 0 0 0 59.241263059841003 10.019124289848236 0 10.019124289848236 -26.090807382984536 0 0 0 0 35.725725624302868 20.953060971359008 0 20.953060971359008 1.9976750635880762 0 0 0 0 45.106194102292648 15.870206053947243 0 15.870206053947243 -15.565983779064609 0 0 0 0 29.362462881603278 15.663231259384247 0 15.663231259384247 -21.108961761705245 0 0 0 0 31.896075943950564 8.6226444562067854 0 8.6226444562067854 -23.645816174936954 0 0 0 0 30.668746112845838 11.734165574456938 0 11.734165574456938 -16.352035608834939 0 0 0 0 36.675226211198606 12.999890380363468 0 12.999890380363468 -24.079139829150336 0 0 0 0 32.828340270847548 19.016063191085209 0 19.016063191085209 -30.632267865536846 0 0 0 0 24.687858572986443 -7.5494665422368712 0 -7.5494665422368712 -55.48052299301844 0 0 0 0 38.539172443619464 -2.2145528365501548 0 -2.2145528365501548 -29.945946218247741 0 0 0 0 42.466290745273 0.99969887330277629 0 0.99969887330277629 -39.401319472277692 0 0 0 0 16.092653899846482 -33.347196480195095 0 -33.347196480195095 -48.284982948046149 0 0 0 0 54.289428633259377 8.4653866232445978 0 8.4653866232445978 -43.896130496628892 0 0 0 0 39.851672506309114 -4.9977218722880252 0 -4.9977218722880252 5.7316470687448771 0 0 0 0 66.352474241162895 5.7318292194539557 0 5.7318292194539557 9.0523212311103407 0 0 0 0 87.014335369924083 -47.332697066229585 0 -47.332697066229585 62.531918514142184 0 0 0 0 131.39791368262377 -46.806400839723771 0 -46.806400839723771 17.035631976536532 0 0 0 0 67.709007090190426 -140.81113617892663 0 -140.81113617892663 107.30430589332329 0 0 0 0 70.572986381928786 7.6081509363562461 0 7.6081509363562461 12.476646134251808 0 0 0 0 49.921305879513966 -1.170239724880247 0 -1.170239724880247 14.560648566377125 0 0 0 0 53.562021806312259 14.27968354282747 0 14.27968354282747 -0.15599332074913619 0 0 0 0 142.96670232192264 -8.6315093883001701 0 -8.6315093883001701 12.518503690241632 0 0 0 0 67.174713468592017 -12.061988571052522 0 -12.061988571052522 34.768006694142869 0 0 0 0 155.80746425083998 -61.446948434110098 0 -61.446948434110098 19.265524841027727 0 0 0 0 279.83212438967894 -9.0818070514328362 0 -9.0818070514328362 -11.347953015537835 0 0 0 0 175.10174931031361 -22.670766662608958 0 -22.670766662608958 -6.4989960594139005 0 0 0 0 172.17339229625577 3.4245104176282544 0 3.4245104176282544 -7.5837281673747761 0 0 0 0 73.30905868964328 9.9515141142080914 0 9.9515141142080914 19.607148855661599 0 0 0 0 249.1028551805648 60.972961186955523 0 60.972961186955523 12.869392041961865 0 0 0 0 250.53404069498356 38.056624423501262 0 38.056624423501262 -60.826643747286127 0 0 0 0 212.0197750453226 2.496693131911444 0 2.496693131911444 24.119758147741791 0 0 0 0 220.76393323072261 -3.4244505138212897 0 -3.4244505138212897 -7.6876632260884969 0 0 0 0 213.35075626873004 -9.7507579854593924 0 -9.7507579854593924 -5.8164371412898275 0 0 0 0 177.44334150598297 28.165453955926758 0 28.165453955926758 -13.428099325689466 0 0 0 0 218.54601511512737 -4.0379123567150463 0 -4.0379123567150463 -0.036567873757927541 0 0 0 0 137.88745794984425 -13.224900211985698 0 -13.224900211985698 10.713142920412018 0 0 0 0 177.09053206137469 16.015566939583564 0 16.015566939583564 26.896047740565315 0 0 0 0 514.74499345500953 60.066871530563454 0 60.066871530563454 0.10667146133380691 0 0 0 0 808.66838922622264 198.37883076504423 0 198.37883076504423 0.085123676963157938 0 0 0 0 536.9332246180893 197.16346576169715 0 197.16346576169715 239.26895788993821 0 0 0 0 571.84544037700834 25.305494351557016 0 25.305494351557016 -66.068894425385508 0 0 0 0 851.41727648176675 259.55653360264552 0 259.55653360264552 -133.96699009903278 0 0 0 0 997.69644373544725 311.26256388688489 0 311.26256388688489 -68.355531846091026 0 0 0 0 0.40678757258690723 1.3292899447537536 0 1.3292899447537536 1.9691360024506219 0 0 0 0 833.75090994495258 229.4560222628858 0 229.4560222628858 94.164502061890175 0 0 0 0 476.62138877849793 529.01615546467713 0 529.01615546467713 -78.346871951168964 0 0 0 0 1636.5309821248429 1256.4702325271605 0 1256.4702325271605 -146.27676027935922 0 0 0 0 -1.7591904853817226 2.4530392072390157 0 2.4530392072390157 6.959195694246759 0 0 0 0 55.541873397436575 -8.1486151888874403 0 -8.1486151888874403 27.761190475657287 0 0 0 0 63.653640801181609 13.106909981886677 0 13.106909981886677 2.3533812034249166 0 0 0 0 -660.39192584967896 -23.980208974210996 0 -23.980208974210996 68.200820571855729 0 0 0 0 -560.62891066727752 1081.168283503378 0 1081.168283503378 -816.94888484171815 0 0 0 0 1629.6061316849646 -283.3809847602991 0 -283.3809847602991 -205.58276986820033 0 0 0 0 14.865569294709303 10.727483598267767 0 10.727483598267767 7.2418742938766396 0 0 0 0 18.203057794453343 1405.703260954996 0 1405.703260954996 864.62084563275266 0 0 0 0 527.81246370410372 -38.433768989714849 0 -38.433768989714849 -249.67577634697392 0 0 0 0 195.79008734931995 73.063716213920941 0 73.063716213920941 -165.37408994908566 0 0 0 0 41.818141332571031 25.930269062865761 0 25.930269062865761 13.1884077447114 0 0 0 0 7.7769923951418605 24.599787860166202 0 24.599787860166202 -243.15670377080801 0 0 0 0 259.26178797053217 236.16750058653821 0 236.16750058653821 -351.73332437389342 0 0 0 0 236.68243934926431 197.60944280883581 0 197.60944280883581 -120.1751483496453 0 0 0 0 389.6544540823088 150.49680693104017 0 150.49680693104017 -0.27877179066504304 0 0 0 0 110.25924355122697 -35.994851789794652 0 -35.994851789794652 -78.001900173288618 0 0 0 0 -46.369196837913478 17.618282327796056 0 17.618282327796056 0.50635028865737008 0 0 0 0 42.311665634275414 95.385407342827804 0 95.385407342827804 -118.32517684888168 0 0 0 0 746.73394185479992 512.84632170717487 0 512.84632170717487 -196.19096098823903 0 0 0 0 -256.17960892293559 515.16495182645872 0 515.16495182645872 -194.76075493811331 0 0 0 0 -46.445946300096693 344.03450782193192 0 344.03450782193192 -472.94843982649064 0 0 0 0 189.47496538193809 -28.551071806635612 0 -28.551071806635612 -313.27945842123665 0 0 0 0 395.36381544410858 77.52961759577191 0 77.52961759577191 -179.23428662457991 0 0 0 0 403.94498350793071 -488.22179317267194 0 -488.22179317267194 1034.4074108303371 0 0 0 0 2138.0857534848474 -172.17625962345852 0 -172.17625962345852 -0.81250522873506381 0 0 0 0 1049.5146620669548 1846.1851263912986 0 1846.1851263912986 345.11482896455414 0 0 0 0 1933.2900341179193 -2397.6300193340335 0 -2397.6300193340335 188.64620612217823 0 0 0 0 24.820797980955092 7.737389695387705 0 7.737389695387705 0.94426234648242025 0 0 0 0 56.296132289760862 778.3026638745564 0 778.3026638745564 -1673.6682811136636 0 0 0 0 77.568289127407297 15.296530003938397 0 15.296530003938397 -1.1807052167043914 0 0 0 0 992.62210219026019 1004.5140065635956 0 1004.5140065635956 -1736.4487417782702 0 0 0 0 11.789832068359829 -366.57677594536108 0 -366.57677594536108 -623.00434718745237 0 0 0 0 558.04120163251355 -133.61393082141785 0 -133.61393082141785 -523.72504796777912 0 0 0 0 -387.65410226070526 30.22285559097827 0 30.22285559097827 -169.51342755063069 0 0 0 0 345.9973459901812 1041.719995371207 0 1041.719995371207 -409.77823438567611 0 0 0 0 1060.7367589999194 81.090332582359224 0 81.090332582359224 -47.725005026351482 0 0 0 0 32.548686137903132 238.73056876473174 0 238.73056876473174 -69.611055246390151 0 0 0 0 49.417199710853481 24.323554183033892 0 24.323554183033892 8.0609555548045471 0 0 0 0 3658.4911440997967 2616.7025734104864 0 2616.7025734104864 -473.62789957935638 0 0 0 0 1496.8855385041534 -1429.8175289370929 0 -1429.8175289370929 -1184.4150717649372 0 0 0 0 75.569962398862117 -1727.3863107373127 0 -1727.3863107373127 -9.7695681382383555 0 0 0 0 36.479427272438215 4.7888164543515259 0 4.7888164543515259 -0.94062506125589795 0 0 0 0 1325.319248694228 1222.3898226649935 0 1222.3898226649935 -788.97718043235773 0 0 0 0 3576.6707307343167 279.32333138464173 0 279.32333138464173 -1178.8980908871526 0 0 0 0 1745.7446839980112 601.72945763064308 0 601.72945763064308 -395.64205869907073 0 0 0 0 1235.9750347101944 -48.735412315946633 0 -48.735412315946633 -1209.8923178669979 0 0 0 0 971.07550203693972 255.77758423086243 0 255.77758423086243 -473.35454855056219 0 0 0 0 925.79988521784981 -236.79768844227669 0 -236.79768844227669 -421.49267260542274 0 0 0 0 1016.7252645788103 99.665333562512387 0 99.665333562512387 -207.11265047076063 0 0 0 0 -496.40708395313413 -1225.5881691881673 0 -1225.5881691881673 -295.610022213908 0 0 0 0 112.47074010586221 147.9897775198466 0 147.9897775198466 1162.5216546038032 0 0 0 0 408.57963059950634 -211.22532789478976 0 -211.22532789478976 212.98734764669643 0 0 0 0 638.41469123078423 399.97107180314879 0 399.97107180314879 313.22172574724351 0 0 0 0 830.9037234390853 123.63085288041877 0 123.63085288041877 682.78343886137623 0 0 0 0 618.05722288289689 140.7201376532588 0 140.7201376532588 683.09112465124065 0 0 0 0 835.19204849330708 113.76421994437897 0 113.76421994437897 279.01875937791556 0 0 0 0 855.02000186099031 321.872237289145 0 321.872237289145 1192.5070038132594 0 0 0 0 872.5433133328188 542.34084903728808 0 542.34084903728808 321.90613594931528 0 0 0 0 1526.1396171671804 429.57303598709495 0 429.57303598709495 212.44904996239939 0 0 0 0 1031.0256581243466 -840.42942505009046 0 -840.42942505009046 261.43262443838466 0 0 0 0 1170.9470959807659 735.96979653322137 0 735.96979653322137 260.8578151223785 0 0 0 0 1843.750519411893 307.2165821100765 0 307.2165821100765 -277.68751205666842 0 0 0 0 1234.5412731235701 -501.81971062001588 0 -501.81971062001588 810.51053156219825 0 0 0 0 1372.9324225057644 136.98992477683169 0 136.98992477683169 -316.44423678899352 0 0 0 0 754.19388586976856 132.44076487040741 0 132.44076487040741 -312.04502921669882 0 0 0 0 3.5755349639053833 -1.8590411147047661 0 -1.8590411147047661 -5.4677159517066301 0 0 0 0 612.86137875824352 60.975184715180148 0 60.975184715180148 -92.725533620629903 0 0 0 0 667.6881409221096 269.5061015468691 0 269.5061015468691 87.998462659588768 0 0 0 0 1411.7156656017687 168.07318636487025 0 168.07318636487025 -81.874378406235337 0 0 0 0 1450.8126154749516 233.56539523476113 0 233.56539523476113 -65.481848341471505 0 0 0 0 1576.2289589124994 187.70189533733719 0 187.70189533733719 -154.51137044490952 0 0 0 0 1414.0539609648404 237.34020424201299 0 237.34020424201299 -65.86945380775046 0 0 0 0 1517.7118912940787 343.1810441005473 0 343.1810441005473 39.42138640156918 0 0 0 0 1079.0692083646863 318.08095788114906 0 318.08095788114906 81.053805148642439 0 0 0 0 935.49167562970251 325.66163087143934 0 325.66163087143934 325.54525900219403 0 0 0 0 1235.1566147943522 176.00772604403201 0 176.00772604403201 -39.479095571609236 0 0 0 0 1064.6656282871991 345.21474417843967 0 345.21474417843967 80.320435810931755 0 0 0 0 1030.1985976665019 -119.55910600018333 0 -119.55910600018333 109.58496560062281 0 0 0 0 136.58822295222853 156.11627694573463 0 156.11627694573463 -204.20041147556503 0 0 0 0 181.45642432673412 -164.9360914678058 0 -164.9360914678058 -678.87179844081265 0 0 0 0 81.288678845063259 -41.160526195767261 0 -41.160526195767261 -151.26471982602743 0 0 0 0 68.05357947722689 -19.460028187550595 0 -19.460028187550595 4.7224328447095179 0 0 0 0 17.753149502925226 -159.50121495293388 0 -159.50121495293388 -229.16560339532407 0 0 0 0 545.14784215114196 308.52686490272208 0 308.52686490272208 -74.591206657226849 0 0 0 0 296.86692029041296 259.7377395156966 0 259.7377395156966 -22.961072073151854 0 0 0 0 331.32631429606408 64.508458727910465 0 64.508458727910465 -176.26717374026884 0 0 0 0 609.72393309679319 378.13606317393192 0 378.13606317393192 -124.75342660181877 0 0 0 0 658.33662182784246 237.77708323237175 0 237.77708323237175 24.071741419906175 0 0 0 0 644.27324557765678 292.57253982886596 0 292.57253982886596 -128.20660644771283 0 0 0 0 785.6384917999967 214.36735808822391 0 214.36735808822391 -115.81902135032226 0 0 0 0 55.272683530420181 162.14931059628157 0 162.14931059628157 -12.110564557694261 0 0 0 0 495.26703450612695 560.19488904649063 0 560.19488904649063 217.26005726937592 0 0 0 0 270.96436485602317 -59.381811552470822 0 -59.381811552470822 -524.15918519569414 0 0 0 0 49.010609684494199 -11.942154176742065 0 -11.942154176742065 2.2551005335246028 0 0 0 0 127.17955119883118 -104.04862905077698 0 -104.04862905077698 -134.35494254564014 0 0 0 0 301.2904373267811 -547.12124524279625 0 -547.12124524279625 803.70511525871211 0 0 0 0 19.484011900213289 -2.9001046621691984 0 -2.9001046621691984 0.85806659827378073 0 0 0 0 -48.861836290143401 17.9688317372852 0 17.9688317372852 141.47961718401621 0 0 0 0 257.91389321966562 -331.21504302468384 0 -331.21504302468384 275.24515706155557 0 0 0 0 61.916187188511685 -128.70972042426604 0 -128.70972042426604 97.683670051836998 0 0 0 0 63.977964218633133 -61.591727650540179 0 -61.591727650540179 10.59111314124425 0 0 0 0 91.758217302645789 -55.579670390191495 0 -55.579670390191495 5.7626164701059679 0 0 0 0 22.598579296362004 -5.0561250965176896 0 -5.0561250965176896 -23.857553320713123 0 0 0 0 46.19706133121872 -23.758370493855864 0 -23.758370493855864 -3.4868003340479845 0 0 0 0 118.89540075710102 -44.764206894159543 0 -44.764206894159543 2.1427341898388477 0 0 0 0 186.74516964532086 -72.87460699289295 0 -72.87460699289295 -81.42333257736027 0 0 0 0 65.512853631633334 -84.805234647876205 0 -84.805234647876205 -27.631714995425682 0 0 0 0 189.4068849516334 -105.13120905031747 0 -105.13120905031747 -46.437362329057578 0 0 0 0 60.133644575813378 -70.654061300275316 0 -70.654061300275316 38.461669668638024 0 0 0 0 70.531900360425425 -68.968703688033088 0 -68.968703688033088 -55.968295016725278 0 0 0 0 -830.50986830089823 -86.959175105918803 0 -86.959175105918803 -6.8722308185010661 0 0 0 0 904.49038758053211 -13.028360378217258 0 -13.028360378217258 -321.70476883892707 0 0 0 0 104.17537422197529 -199.72457953621347 0 -199.72457953621347 -196.98379185919475 0 0 0 0 708.42923023269032 -382.96401474636684 0 -382.96401474636684 -43.804548189803427 0 0 0 0 647.15270615939517 -556.06505013197989 0 -556.06505013197989 66.267262026067328 0 0 0 0 60.550528634950751 -687.73718553628123 0 -687.73718553628123 60.276073576566887 0 0 0 0 266.64442473497184 -212.84079846076793 0 -212.84079846076793 16.752460903180236 0 0 0 0 406.98329749697587 -132.0271590152804 0 -132.0271590152804 -241.95875729486033 0 0 0 0 228.2946580410935 350.74486347527227 0 350.74486347527227 -675.01246737124393 0 0 0 0 1645.6421711047005 -180.46528551392112 0 -180.46528551392112 -480.39892609255958 0 0 0 0 938.23689921032928 -1137.8932053159638 0 -1137.8932053159638 206.47134363508121 0 0 0 0 -1138.4012050070596 297.44619755264102 0 297.44619755264102 1247.8178156937081 0 0 0 0 -587.20269041901338 36.157533822586146 0 36.157533822586146 -71.858584515280512 0 0 0 0 2345.299746488563 -780.38303248319676 0 -780.38303248319676 -1393.2897164961319 0 0 0 0 67.360200822779404 10.209061302583983 0 10.209061302583983 -1.1160448080511842 0 0 0 0 -132.57882802715176 -819.73715997549198 0 -819.73715997549198 1144.0854740495388 0 0 0 0 26.059872263578427 0.57781636567015937 0 0.57781636567015937 -1.0987626724153126 0 0 0 0 -367.23654658639862 483.25141262859796 0 483.25141262859796 -523.10399463102124 0 0 0 0 -312.22778217387531 239.47103786076147 0 239.47103786076147 -402.66419793706194 0 0 0 0 -464.10760004498297 169.74097462624579 0 169.74097462624579 -49.157979187073522 0 0 0 0 -366.29381834020023 240.35265704203812 0 240.35265704203812 0.88936260319773452 0 0 0 0 -623.90917910933786 490.91016090895153 0 490.91016090895153 -166.07670437723067 0 0 0 0 63.975648814031786 6.8922875591082899 0 6.8922875591082899 -1.7056036962309777 0 0 0 0 2301.1414560717094 -966.20615341906364 0 -966.20615341906364 -1283.1841361831716 0 0 0 0 1376.831975979876 177.56939384772159 0 177.56939384772159 -402.81867999099222 0 0 0 0 184.06134098615439 -732.79120227829526 0 -732.79120227829526 -472.85445248808537 0 0 0 0 -27.64375136437593 -910.83853671300869 0 -910.83853671300869 1181.6497547097897 0 0 0 0 25.767978221904855 0.61836342423625723 0 0.61836342423625723 -0.93351486669478745 0 0 0 0 -158.14966566509975 -9.3486621931960379 0 -9.3486621931960379 -0.94742152510015443 0 0 0 0 2277.1125435369613 -1294.5614521108846 0 -1294.5614521108846 952.2826419263497 0 0 0 0 936.03002502689196 163.58519682114263 0 163.58519682114263 -460.3481811039685 0 0 0 0 277.56509043709957 143.58079899066755 0 143.58079899066755 0.69869165295129976 0 0 0 0 -334.29899326349914 1240.116716318603 0 1240.116716318603 -725.80636625874274 0 0 0 0 -653.32641675634659 1142.8395756950379 0 1142.8395756950379 1009.6169551388623 0 0 0 0 221.50067304109689 -85.923499594068744 0 -85.923499594068744 -298.27307279039633 0 0 0 0 -473.46582574582135 188.65965497645357 0 188.65965497645357 -51.912437025116105 0 0 0 0 68.333793959179616 12.783794049102472 0 12.783794049102472 0.67683283133006977 0 0 0 0 7.1492067004300566 -2.7163474279899162 0 -2.7163474279899162 0.87833577889684111 0 0 0 0 192.37339189815975 25.604283976747865 0 25.604283976747865 -349.95812923649578 0 0 0 0 110.69854637289245 -142.2029522960529 0 -142.2029522960529 -21.976559955885932 0 0 0 0 12.875262731700786 15.159691587959287 0 15.159691587959287 -145.99145330313377 0 0 0 0 -115.11227929871529 -26.519005163922309 0 -26.519005163922309 -43.138240532652063 0 0 0 0 -6.4423950619238894 86.144913482744712 0 86.144913482744712 -133.0844138562922 0 0 0 0 -264.71345030915836 102.79430232774097 0 102.79430232774097 -0.24573573823693537 0 0 0 0 54.128866043001892 8.1285224552724102 0 8.1285224552724102 -1.5927916432947962 0 0 0 0 48.744539887426072 -23.37676731878264 0 -23.37676731878264 -69.714384168876904 0 0 0 0 5.7439213689941084 -6.516769627664921 0 -6.516769627664921 -1.5333510441345815 0 0 0 0 22.81036087218672 -5.0471565794732847 0 -5.0471565794732847 -0.0089434218192995206 0 0 0 0 15.831334885202338 1.0522356407254279 0 1.0522356407254279 -1.0524747879175766 0 0 0 0 -3.1812906127379392 -13.040751541322095 0 -13.040751541322095 -10.199602778080134 0 0 0 0 27.324971847090637 -21.696933212246222 0 -21.696933212246222 -26.657183022152822 0 0 0 0 71.246459692152712 3.5242806539821459 0 3.5242806539821459 -40.357290860833018 0 0 0 0 16.091788337309453 -12.074838455461077 0 -12.074838455461077 -16.656878308221103 0 0 0 0 23.259811853875362 -37.495837205665168 0 -37.495837205665168 -41.294568783722752 0 0 0 0 33.623989252606407 -24.550383874901854 0 -24.550383874901854 -39.85034651307069 0 0 0 0 29.028114066779381 -30.696563148389032 0 -30.696563148389032 -36.299495043871502 0 0 0 0 24.516574402048718 -28.538376758813683 0 -28.538376758813683 -36.960399656962636 0 0 0 0 131.71459436049918 270.38851196234828 0 270.38851196234828 -187.07964142349465 0 0 0 0 33.036115646202234 -21.161785830127883 0 -21.161785830127883 -52.706556876792092 0 0 0 0 23.809818231646204 -21.482497887014688 0 -21.482497887014688 -40.489174250924407 0 0 0 0 -863.64709822082659 -245.79068384325183 0 -245.79068384325183 573.65124592199209 0 0 0 0 33.099725130225124 -34.909235494592394 0 -34.909235494592394 -49.105475797223335 0 0 0 0 37.785379647044465 -30.986434905585156 0 -30.986434905585156 -58.36596723860066 0 0 0 0 320.28236250460031 -466.1749495405943 0 -466.1749495405943 -189.72356786793716 0 0 0 0 29.340978946014957 -17.382703509947611 0 -17.382703509947611 -2.0995393276427299 0 0 0 0 30.836315175925847 -32.231940609421144 0 -32.231940609421144 -35.687521421156816 0 0 0 0 15.344550945403171 -60.336979101304223 0 -60.336979101304223 -29.195809905995702 0 0 0 0 -1.6682845153343919 -13.079195263303717 0 -13.079195263303717 -5.5416786312452109 0 0 0 0 -53.837810760363936 -72.237160755696095 0 -72.237160755696095 -308.93769198531299 0 0 0 0 -35.835549196228385 -50.972559277656956 0 -50.972559277656956 -17.627233763322693 0 0 0 0 195.16943682359124 -254.51662934013757 0 -254.51662934013757 27.659410903454955 0 0 0 0 -152.22437418339541 -162.33402550930487 0 -162.33402550930487 7.1883550444094908 0 0 0 0 1.6926958996234021 -1.4759984516643243 0 -1.4759984516643243 0.85879764482331566 0 0 0 0 381.47969286619264 62.963193149689687 0 62.963193149689687 17.860678598115101 0 0 0 0 154.8922040953039 -113.77376704713879 0 -113.77376704713879 85.871138047109071 0 0 0 0 38.763210439443355 -68.722333177698602 0 -68.722333177698602 139.95855125889284 0 0 0 0 30.091939638747135 50.01138852614713 0 50.01138852614713 47.563691864798216 0 0 0 0 126.65693161607487 -14.671874678287168 0 -14.671874678287168 42.252866165641592 0 0 0 0 205.95165880450168 34.772098127324625 0 34.772098127324625 -25.061884872046903 0 0 0 0 85.128551689442247 7.2718312372949185 0 7.2718312372949185 -26.286695143482547 0 0 0 0 2.4115133945379057 117.57642438576249 0 117.57642438576249 5.2581925614804277 0 0 0 0 312.14761139693292 221.39609404470298 0 221.39609404470298 39.257033397297164 0 0 0 0 7.6242928199208109 -54.792554567407933 0 -54.792554567407933 33.46482377781922 0 0 0 0 -10.385952996418382 -46.092477593593685 0 -46.092477593593685 -76.328659710023203 0 0 0 0 180.26509332202841 -27.821460163159827 0 -27.821460163159827 -394.4487135526806 0 0 0 0 23.12998005930703 -6.8097655873359244 0 -6.8097655873359244 2.7052335537288412 0 0 0 0 -123.75050289847422 -88.207982159056371 0 -88.207982159056371 3.5272232072800591 0 0 0 0 -27.349913860547531 -89.44610415720642 0 -89.44610415720642 0.070756501135181907 0 0 0 0 -67.234549806729774 -49.470153219890932 0 -49.470153219890932 -18.823246177817623 0 0 0 0 -98.578910100412031 -79.731804406489843 0 -79.731804406489843 -0.01497648874485985 0 0 0 0 -114.15426358481636 -134.29620642949311 0 -134.29620642949311 -63.335389940692949 0 0 0 0 0.53214049902493343 -2.179799737063604 0 -2.179799737063604 3.2257776589381941 0 0 0 0 -2.6580847324985371 7.6776292119047014 0 7.6776292119047014 40.806704769405542 0 0 0 0 -16.800163425708888 -21.147566267607431 0 -21.147566267607431 0.2004043385467611 0 0 0 0 -84.725416312023299 -60.217056353225423 0 -60.217056353225423 -36.069747663200822 0 0 0 0 2.1484726969237613 -3.4211864690709461 0 -3.4211864690709461 3.9835654549610937 0 0 0 0 -103.36532053534756 -35.324164065120279 0 -35.324164065120279 -5.5241913272166592 0 0 0 0 14.966527566139121 -6.7600291318683992 0 -6.7600291318683992 0.22365627955953638 0 0 0 0 -1.5468962451996049 -14.86083016923817 0 -14.86083016923817 -8.6852704556641243 0 0 0 0 -2.106553502031602 -9.06168437510064 0 -9.06168437510064 1.5086502773667689 0 0 0 0 0.24259940680349246 -1.3081801277793572 0 -1.3081801277793572 0.00069248539014302494 0 0 0 0 -0.081595118524376176 -0.26413611156621641 0 -0.26413611156621641 1.7743732994764569 0 0 0 0 0.027554010183735045 -1.6193247914717688 0 -1.6193247914717688 -3.6156398125884182 0 0 0 0 1.8023090476017387 -28.716666486377747 0 -28.716666486377747 -3.846570887805683 0 0 0 0 0.78025041059299838 -22.222468187896879 0 -22.222468187896879 -23.250988404001646 0 0 0 0 17.021476322443846 -10.26603505514197 0 -10.26603505514197 -28.237176007677199 0 0 0 0 17.229409052291885 -26.870708143658362 0 -26.870708143658362 -28.249110741821596 0 0 0 0 17.679544151236769 -31.472986979873667 0 -31.472986979873667 -19.193224037057917 0 0 0 0 5.311309043871006 -51.532606726261463 0 -51.532606726261463 -37.514369486160831 0 0 0 0 55.598621298682701 -54.804886105658738 0 -54.804886105658738 -39.662369851042513 0 0 0 0 31.31828606199997 -20.872446592426513 0 -20.872446592426513 -39.529719123177074 0 0 0 0 -8.2069853719302728 -16.637109368902955 0 -16.637109368902955 -4.4984682571339958 0 0 0 0 54.923713018128183 -92.482224955850825 0 -92.482224955850825 -137.63164312850705 0 0 0 0 -70.654744217623374 -16.409754129681062 0 -16.409754129681062 -97.517041892073394 0 0 0 0 35.030333464166745 -33.074757101046231 0 -33.074757101046231 -27.285009187701739 0 0 0 0 -31.432617923681391 -70.663899143745311 0 -70.663899143745311 5.3564214045279641 0 0 0 0 -27.770996397855924 -117.57815869525939 0 -117.57815869525939 -84.673144812246619 0 0 0 0 -0.40557784653157114 -14.326326894759987 0 -14.326326894759987 -2.0110022964283227 0 0 0 0 -104.22452824233915 -78.169561611844415 0 -78.169561611844415 -6.7064936192518871 0 0 0 0 -12.735645711371035 -48.422390970044688 0 -48.422390970044688 -10.472982475662775 0 0 0 0 -13.741938221355667 -49.694307624120597 0 -49.694307624120597 -6.0570646371766088 0 0 0 0 -7.9076131472247653 -50.141289022750811 0 -50.141289022750811 -7.8795725271328365 0 0 0 0 -62.621482412301702 -37.623212310052281 0 -37.623212310052281 50.160774768881282 0 0 0 0 -81.22793511996133 -6.6510971662965943 0 -6.6510971662965943 -33.553300449347489 0 0 0 0 14.786434553592699 -189.24793411758583 0 -189.24793411758583 -282.50267273512139 0 0 0 0 -104.51639749102469 -206.64423779407673 0 -206.64423779407673 110.23046871848001 0 0 0 0 -8.0951028099288678 102.31801495972749 0 102.31801495972749 161.52268433478241 0 0 0 0 -53.936173708905699 -141.00599316045603 0 -141.00599316045603 -130.57465207706912 0 0 0 0 0.25762962075992846 -0.7290953139548435 0 -0.7290953139548435 1.0004230052019103 0 0 0 0 -17.69734892174165 -186.52899670473562 0 -186.52899670473562 107.73699793136302 0 0 0 0 59.51112653427117 -77.010133350655792 0 -77.010133350655792 -175.0453749818339 0 0 0 0 -19.966571594413836 -92.519161582295055 0 -92.519161582295055 -93.697377525586489 0 0 0 0 84.16052578912786 -16.988850641505678 0 -16.988850641505678 45.415811496739934 0 0 0 0 12.45428855290811 -24.989504647178137 0 -24.989504647178137 4.7597160709337913 0 0 0 0 4.1994302908956342 -2.8845080252719342 0 -2.8845080252719342 2.4163859542214334 0 0 0 0 -100.28425682087254 -33.065552303406321 0 -33.065552303406321 28.419818145510362 0 0 0 0 -67.578802385323797 -26.536366031816215 0 -26.536366031816215 163.8167830399841 0 0 0 0 -78.877007869188674 -166.15811925743219 0 -166.15811925743219 -99.784568743627915 0 0 0 0 4.046554405182178 -188.25111695353729 0 -188.25111695353729 -101.53222091018961 0 0 0 0 129.6296508313244 -24.285441591988501 0 -24.285441591988501 -83.590183565341476 0 0 0 0 -26.647171591503138 -103.0837833487584 0 -103.0837833487584 -48.074067495066174 0 0 0 0 58.12233130425011 -3.7887267155408608 0 -3.7887267155408608 -74.996513194830186 0 0 0 0 24.468560532258891 -29.832307777935199 0 -29.832307777935199 -29.615855652549449 0 0 0 0 -10.399831144604832 -74.533999939691739 0 -74.533999939691739 -7.5525560077230693 0 0 0 0 -37.699497456778772 -26.323472534206758 0 -26.323472534206758 1.5498681860162833 0 0 0 0 35.265751799895952 -54.75756937843687 0 -54.75756937843687 -53.270166205155874 0 0 0 0 4.8210192790538713 -64.135734233750213 0 -64.135734233750213 -36.508741057730731 0 0 0 0 14.065414290368182 -5.9745842901298545 0 -5.9745842901298545 1.1712083010593375 0 0 0 0 86.691335694355075 12.846628934597447 0 12.846628934597447 -36.439268496278601 0 0 0 0 11.408619733510932 -36.112058846462048 0 -36.112058846462048 -11.617988440801128 0 0 0 0 109.46328925556008 1.1514148488108731 0 1.1514148488108731 9.9303068029093993 0 0 0 0 95.29402679100167 -111.6012613954872 0 -111.6012613954872 45.815354478763538 0 0 0 0 29.849237314228958 56.800040710876146 0 56.800040710876146 35.516606737424809 0 0 0 0 -28.601726934910403 12.971310668220667 0 12.971310668220667 93.788505708089076 0 0 0 0 27.944437411388208 -80.919118894476469 0 -80.919118894476469 60.599845900234868 0 0 0 0 1.4071025946690838 -9.9350293604972375 0 -9.9350293604972375 3.2514512241179574 0 0 0 0 38.269717613130339 -24.218455582889774 0 -24.218455582889774 8.1449972454722577 0 0 0 0 41.145421668683412 -29.494002656644625 0 -29.494002656644625 -12.828634740859258 0 0 0 0 34.081065515041701 -31.499145908913022 0 -31.499145908913022 -10.672044231450172 0 0 0 0 40.858667353720136 -22.684990461748399 0 -22.684990461748399 1.9813294737460903 0 0 0 0 7.8389649351495336 -1.1557043758646586 0 -1.1557043758646586 -4.636627007685167 0 0 0 0 69.238769454488647 -24.176204658189818 0 -24.176204658189818 -16.600063518691059 0 0 0 0 43.404252333805033 -13.753583876442548 0 -13.753583876442548 -8.2345787514579403 0 0 0 0 55.293357689792174 -24.831778379878415 0 -24.831778379878415 -6.1305883471156903 0 0 0 0 36.744697278467356 -32.119589601066309 0 -32.119589601066309 -16.544178330130308 0 0 0 0 41.181745118941706 -21.393650622970853 0 -21.393650622970853 -6.3747596671522659 0 0 0 0 48.29477620722173 -30.870380653255609 0 -30.870380653255609 -20.775464077570632 0 0 0 0 50.79399826109875 -27.725568252609264 0 -27.725568252609264 -16.844943438192331 0 0 0 0 48.6871546258877 -15.999899435689926 0 -15.999899435689926 -9.6822744595120049 0 0 0 0 9.7086266083787152 0.5609598649609211 0 0.5609598649609211 -1.4264905490056341 0 0 0 0 139.07616151199909 6.0510985248969575 0 6.0510985248969575 -12.28486168234349 0 0 0 0 30.446913728696842 -29.909131174029227 0 -29.909131174029227 -26.215758197607322 0 0 0 0 61.109000256608454 -18.464986023165466 0 -18.464986023165466 -17.100667298456898 0 0 0 0 42.719902491051471 -33.729231491375003 0 -33.729231491375003 -41.328207678702711 0 0 0 0 20.204812359153777 -28.069308737511946 0 -28.069308737511946 0.33424246222723369 0 0 0 0 -18.538183770535397 -134.10902585532745 0 -134.10902585532745 -225.50248560751811 0 0 0 0 -121.50632772257086 -125.769880189432 0 -125.769880189432 -131.9411078155249 0 0 0 0 17.586405602058448 -5.3683488657304395 0 -5.3683488657304395 -1.6543870926479118 0 0 0 0 -41.792971171991667 -107.09119088637385 0 -107.09119088637385 -170.96762577379286 0 0 0 0 57.278376061150496 -17.821679557911494 0 -17.821679557911494 -6.0776132669916505 0 0 0 0 130.5450112028484 -2.3450475557237951 0 -2.3450475557237951 -54.53150033275233 0 0 0 0 15.505638440761686 -34.073601675430012 0 -34.073601675430012 61.959809307898468 0 0 0 0 28.962510522267884 -5.9417840520206511 0 -5.9417840520206511 -6.4166775562660447 0 0 0 0 32.038794208303443 -15.302961821002555 0 -15.302961821002555 -22.744242296729226 0 0 0 0 81.569853528519161 -212.11620370037326 0 -212.11620370037326 -101.76934683194361 0 0 0 0 73.779958926972881 -13.281203970361959 0 -13.281203970361959 -3.6047745324360907 0 0 0 0 232.93947416677838 -22.620180907639224 0 -22.620180907639224 -57.813493665766146 0 0 0 0 103.92420433889492 -12.429587641283433 0 -12.429587641283433 -57.890145433424095 0 0 0 0 61.639680524662253 -39.259724937410283 0 -39.259724937410283 -3.8088123375600844 0 0 0 0 -9.9085081833763979 -172.90480795648273 0 -172.90480795648273 -196.98017802772392 0 0 0 0 -52.611854417598806 -139.41628385475087 0 -139.41628385475087 -78.277454806788228 0 0 0 0 -32.07923778249824 -184.52852849716513 0 -184.52852849716513 -153.32173558855629 0 0 0 0 -50.8136675642927 -58.265689332338042 0 -58.265689332338042 -164.94480962501211 0 0 0 0 129.95365910567853 -2.7389932080519657 0 -2.7389932080519657 -53.36781124814388 0 0 0 0 97.951988168613752 -18.214830720291047 0 -18.214830720291047 -7.8370406359697427 0 0 0 0 76.363109406360309 -23.891680788688063 0 -23.891680788688063 -60.194762828954026 0 0 0 0 50.500160257361131 -51.114202553824271 0 -51.114202553824271 -42.542795156002967 0 0 0 0 106.85492653479741 -26.863033672184429 0 -26.863033672184429 -62.827614138035642 0 0 0 0 76.65384183266724 7.9024137062606314 0 7.9024137062606314 -10.87564883174673 0 0 0 0 70.912132842524443 -27.775252421508412 0 -27.775252421508412 23.095652645657538 0 0 0 0 183.69882375115412 -6.5020609978382709 0 -6.5020609978382709 -21.269041206654038 0 0 0 0 82.10826255424945 -20.02881635720172 0 -20.02881635720172 74.382729268188996 0 0 0 0 140.3185285723448 45.354518842932066 0 45.354518842932066 50.630030819326976 0 0 0 0 -50.415398016775725 -94.556946434557631 0 -94.556946434557631 -81.967148505577654 0 0 0 0 -40.444159588667389 -8.8876622260320346 0 -8.8876622260320346 -72.442321633753636 0 0 0 0 2.3885715818690585 -3.5649868167917447 0 -3.5649868167917447 4.0114475126223663 0 0 0 0 159.80773158901138 71.612337915542412 0 71.612337915542412 18.192777308295263 0 0 0 0 88.468968974426389 39.589123515052052 0 39.589123515052052 37.20013230988161 0 0 0 0 144.34781935391948 13.345575259349516 0 13.345575259349516 9.0507651887592147 0 0 0 0 121.21930276419153 3.6287021264329269 0 3.6287021264329269 -36.252223054533715 0 0 0 0 105.3687281061575 20.518834077881365 0 20.518834077881365 11.840895864575032 0 0 0 0 114.57733431494853 -21.797340784715743 0 -21.797340784715743 -72.2216857557396 0 0 0 0 100.02187721845985 -18.07960951917994 0 -18.07960951917994 -98.008823451146782 0 0 0 0 93.037901397379756 0.14574523290457364 0 0.14574523290457364 -31.2643072039873 0 0 0 0 78.896325221867301 -30.473445666324551 0 -30.473445666324551 -67.113495711999349 0 0 0 0 78.416245005864766 -17.679358848843094 0 -17.679358848843094 -71.851884948686575 0 0 0 0 84.047200719840475 20.776142281256398 0 20.776142281256398 -43.757173833469096 0 0 0 0 82.492437615888775 1.2657267050817609 0 1.2657267050817609 -15.027753116449276 0 0 0 0 66.952450620548916 17.49516253827278 0 17.49516253827278 -26.800966345329925 0 0 0 0 61.524748836087213 -21.463622465749303 0 -21.463622465749303 1.8655345769574532 0 0 0 0 68.755431419122033 -47.884529101889711 0 -47.884529101889711 -34.244961429922114 0 0 0 0 36.859860196663391 -10.645979734190828 0 -10.645979734190828 2.518444342706764 0 0 0 0 52.246178226494521 -76.539929856770186 0 -76.539929856770186 17.279740927182502 0 0 0 0 -2.0700867612904403 -90.589986682993185 0 -90.589986682993185 18.740779097003269 0 0 0 0 -31.299421506980252 -7.9331218947105526 0 -7.9331218947105526 316.88239720552883 0 0 0 0 79.339830014294591 -18.363516577561548 0 -18.363516577561548 -2.6871579367884739 0 0 0 0 202.81118507898645 -784.51576573956845 0 -784.51576573956845 -196.68046135629243 0 0 0 0 12.531630608589467 -4.4358886079581401 0 -4.4358886079581401 0.90226107707139303 0 0 0 0 199.6243410850002 -299.28195942555703 0 -299.28195942555703 -629.93732599937903 0 0 0 0 235.0260488405911 -452.05994828912571 0 -452.05994828912571 -64.579749181544685 0 0 0 0 18.361684738643817 -332.57713979252003 0 -332.57713979252003 -35.054204761576329 0 0 0 0 -3.3702836248266976 -311.9479008379426 0 -311.9479008379426 -746.92588822500431 0 0 0 0 148.69829068891704 -122.15972952701418 0 -122.15972952701418 -912.96985392929446 0 0 0 0 -89.983264602378767 -242.72474704126512 0 -242.72474704126512 -103.86747496308453 0 0 0 0 -33.002381182974204 -486.282541125428 0 -486.282541125428 539.9006512620399 0 0 0 0 -102.66663999130833 -148.55783013554719 0 -148.55783013554719 -81.916118309973172 0 0 0 0 -413.33495009600301 232.2252672950035 0 232.2252672950035 738.09134211085984 0 0 0 0 1100.1030403419863 67.879767521226768 0 67.879767521226768 -3532.601092396013 0 0 0 0 -290.36764166367357 340.29878486968846 0 340.29878486968846 36.660380606766466 0 0 0 0 1.7548144479731604 -22.238383806286858 0 -22.238383806286858 3.0587396720333477 0 0 0 0 105.26765811123187 -46.721178177826914 0 -46.721178177826914 -114.57498950708532 0 0 0 0 75.507878034009082 -39.234029236758062 0 -39.234029236758062 -64.035884005425032 0 0 0 0 81.675906469412467 -25.345099393176074 0 -25.345099393176074 5.9834823066965424 0 0 0 0 92.508580507565057 -41.034150376250636 0 -41.034150376250636 -65.949448614953326 0 0 0 0 66.740255552605959 -7.2879347816115114 0 -7.2879347816115114 -71.40610654567854 0 0 0 0 -69.975087162772979 -132.74790042066024 0 -132.74790042066024 -213.84842126617423 0 0 0 0 47.963151981064584 -317.93175698366986 0 -317.93175698366986 -441.26696297239414 0 0 0 0 258.18979948331253 -137.2577513697679 0 -137.2577513697679 -242.68502298597923 0 0 0 0 -1.0313416165117815 -159.5699064399023 0 -159.5699064399023 141.78082727565379 0 0 0 0 149.96555573146179 -296.26895986405361 0 -296.26895986405361 241.03282044703974 0 0 0 0 63.342345961515093 -2.7574552230526024 0 -2.7574552230526024 422.29044354923099 0 0 0 0 -28.986962381357444 -97.275556276292264 0 -97.275556276292264 182.01759598081662 0 0 0 0 12.555054461096006 -47.614006244441043 0 -47.614006244441043 165.99292979250367 0 0 0 0 38.658678360123304 -221.54702321706282 0 -221.54702321706282 4.8167209539433316 0 0 0 0 63.381024688693287 -194.37186324963841 0 -194.37186324963841 -69.277445973471913 0 0 0 0 110.94717810249131 -286.24096958295377 0 -286.24096958295377 -222.1936536426856 0 0 0 0 80.416987371114374 -170.64233153445912 0 -170.64233153445912 -169.84699275906496 0 0 0 0 75.712544523383258 -178.40892569507969 0 -178.40892569507969 -169.92398611007957 0 0 0 0 74.20206483307993 -37.6010025257292 0 -37.6010025257292 -454.69783324896707 0 0 0 0 6.8871075014467351 -34.837403400971198 0 -34.837403400971198 -190.15762662287375 0 0 0 0 -1.7394893216260243 -70.832091348826907 0 -70.832091348826907 -55.071973589322624 0 0 0 0 101.99374521558639 -195.70753018261075 0 -195.70753018261075 -544.41711020013463 0 0 0 0 -132.54290752024099 -197.14613664703575 0 -197.14613664703575 -292.91548393430458 0 0 0 0 -134.44298147787049 -13.103916116890105 0 -13.103916116890105 -191.19991075538746 0 0 0 0 -58.8701013927639 -119.87923079763186 0 -119.87923079763186 -37.207990922055615 0 0 0 0 84.464270696014864 -35.374829699885595 0 -35.374829699885595 -236.20752280912984 0 0 0 0 50.895162780638202 80.44094611777291 0 80.44094611777291 156.71575741088509 0 0 0 0 -62.369653460603786 -91.093872577208913 0 -91.093872577208913 358.6351725715158 0 0 0 0 -44.223357509828929 -21.962964468392784 0 -21.962964468392784 130.97336320524232 0 0 0 0 -38.031074507118319 -98.871230343694151 0 -98.871230343694151 107.4478496259926 0 0 0 0 -1.7667014843245852 -34.263951185263977 0 -34.263951185263977 313.07689153047249 0 0 0 0 -58.410906743818487 -80.787964050807204 0 -80.787964050807204 320.49193766989083 0 0 0 0 117.92526199218628 -177.32010054436478 0 -177.32010054436478 291.83392245809046 0 0 0 0 18.985141377666878 -68.214475538896295 0 -68.214475538896295 190.39904880949143 0 0 0 0 17.694781582787499 -5.3699783022772056 0 -5.3699783022772056 5.4788148625365398 0 0 0 0 -35.142305818932073 -53.058966650665752 0 -53.058966650665752 2.2621579326478241 0 0 0 0 12.900210372877098 -3.4398153982273332 0 -3.4398153982273332 0.76691315614386113 0 0 0 0 -30.424942232079047 -14.271285715485647 0 -14.271285715485647 75.488421938591273 0 0 0 0 -10.576304328591505 -191.91895921752803 0 -191.91895921752803 -107.29016296440568 0 0 0 0 -12.80234891084001 -153.40875169495541 0 -153.40875169495541 219.52165647586298 0 0 0 0 -46.266148680042534 4.3458809632438715 0 4.3458809632438715 488.17484584625299 0 0 0 0 2.8471134114770393 -97.464411551932699 0 -97.464411551932699 354.86718879483851 0 0 0 0 66.042616734655809 -12.979694953729059 0 -12.979694953729059 2.9497753856825693 0 0 0 0 178.1495453496027 -72.35446873834303 0 -72.35446873834303 -12.491393462516498 0 0 0 0 123.74237127075321 -24.759127221493713 0 -24.759127221493713 -54.12691388953408 0 0 0 0 120.35421614523875 32.602528454576259 0 32.602528454576259 169.99115369914944 0 0 0 0 16.037969122480625 0.71851426571507204 0 0.71851426571507204 -0.99297070272012711 0 0 0 0 58.644381100883038 -15.953522730486156 0 -15.953522730486156 5.3056853807484003 0 0 0 0 51.842517712459085 -55.410636296711345 0 -55.410636296711345 63.127348093317778 0 0 0 0 83.81047678476898 -98.662107383210241 0 -98.662107383210241 -76.602057381856866 0 0 0 0 60.518905504126451 -79.166403261154301 0 -79.166403261154301 12.666185333648173 0 0 0 0 256.86921046240604 -78.862120819324446 0 -78.862120819324446 -102.51201167198951 0 0 0 0 91.870366799106705 -106.92322588564457 0 -106.92322588564457 88.618243601706354 0 0 0 0 54.437715847820073 -5.9197076446155279 0 -5.9197076446155279 5.1844210331000795 0 0 0 0 228.16411514163428 98.322628735756382 0 98.322628735756382 23.623283331679886 0 0 0 0 -1.4583831622736625 -6.9631204733958683 0 -6.9631204733958683 2.5668995293827956 0 0 0 0 109.59697364847671 31.166512703431181 0 31.166512703431181 -4.20318915241387 0 0 0 0 54.935171217402967 -24.995283729047969 0 -24.995283729047969 0.74345933910808526 0 0 0 0 19.374401510522716 -34.112685449716679 0 -34.112685449716679 6.5154624332009456 0 0 0 0 55.44420688853279 -67.569156294192339 0 -67.569156294192339 47.175535827437443 0 0 0 0 25.796705212289552 -21.307163665814414 0 -21.307163665814414 9.8582074566288966 0 0 0 0 26.863555831834674 -19.256911204163771 0 -19.256911204163771 24.368845802382566 0 0 0 0 21.018787650142571 -26.736797358840207 0 -26.736797358840207 11.20436476602308 0 0 0 0 75.639880535148649 -31.709752773389567 0 -31.709752773389567 2.388848892046127 0 0 0 0 8.9407498575068303 -20.725850728187773 0 -20.725850728187773 3.3703000542459325 0 0 0 0 65.813473954913206 -26.481602974927227 0 -26.481602974927227 -89.926401498534688 0 0 0 0 -98.237377654520969 -150.9313155661057 0 -150.9313155661057 57.99939551366424 0 0 0 0 -277.15856988879386 -86.646817042532348 0 -86.646817042532348 36.493508066376307 0 0 0 0 -77.969012211280642 -163.01198547806985 0 -163.01198547806985 -22.498699962688988 0 0 0 0 55.885141072457884 -20.427563620386302 0 -20.427563620386302 0.83006024395990696 0 0 0 0 -21.202060765688657 -143.11725784995724 0 -143.11725784995724 -173.00084734871234 0 0 0 0 102.78856478494708 -3.2512320107116466 0 -3.2512320107116466 -80.981636323245766 0 0 0 0 12.50580498715135 -198.31512408738763 0 -198.31512408738763 -221.54517327101166 0 0 0 0 -25.79783354569372 -148.36991857233852 0 -148.36991857233852 -98.851514721907733 0 0 0 0 4.5387378384330077 -225.09194185155229 0 -225.09194185155229 -146.06890798771019 0 0 0 0 57.470829688369122 -13.154728567954407 0 -13.154728567954407 -349.81674900849976 0 0 0 0 4.3401432048958668 -158.69642632342084 0 -158.69642632342084 -142.76983043607106 0 0 0 0 283.04220258312125 -50.123873292693133 0 -50.123873292693133 -126.77770547207467 0 0 0 0 -74.022039107316232 -109.4668490210579 0 -109.4668490210579 413.61089191637075 0 0 0 0 171.72939743770985 -356.63586435500201 0 -356.63586435500201 95.325124069515368 0 0 0 0 3.4208525655637771 -1.0940877742337989 0 -1.0940877742337989 6.8412595663762659 0 0 0 0 147.11240321112564 61.524445888368518 0 61.524445888368518 47.473250177406953 0 0 0 0 62.767450484599976 123.55347176337227 0 123.55347176337227 190.15869950781416 0 0 0 0 9.7495809211452809 -1.6972195109085968 0 -1.6972195109085968 4.1138163419042968 0 0 0 0 72.941163883639092 21.809433083238218 0 21.809433083238218 26.686900859192974 0 0 0 0 11.288585923924984 56.787088509553541 0 56.787088509553541 74.528109569156868 0 0 0 0 -19.666540329402778 -6.1547477592166615 0 -6.1547477592166615 73.681684150385991 0 0 0 0 -4.8418190729862545 24.85375310893869 0 24.85375310893869 66.82905691175074 0 0 0 0 -134.94100858012825 74.215483451157525 0 74.215483451157525 136.18969452947931 0 0 0 0 17.176541339329454 -21.991654053691875 0 -21.991654053691875 17.982354206160245 0 0 0 0 62.840229897054087 -106.18132204933863 0 -106.18132204933863 24.114698333323759 0 0 0 0 25.390345473628258 -23.538572857449708 0 -23.538572857449708 32.362511737257591 0 0 0 0 -94.365686824123259 -165.06100441284616 0 -165.06100441284616 -102.83469628017701 0 0 0 0 -239.1098953782639 -104.08912473292003 0 -104.08912473292003 66.821713545119565 0 0 0 0 17.176702429627202 -3.362728059115085 0 -3.362728059115085 -1.1435980818093867 0 0 0 0 -49.06377779757895 -102.17363106206631 0 -102.17363106206631 -19.333592712533573 0 0 0 0 -65.297731302533066 -93.134036252769874 0 -93.134036252769874 78.349669784030993 0 0 0 0 -130.181443606416 -37.49555406507352 0 -37.49555406507352 104.08702279485806 0 0 0 0 -140.39564753192826 -121.51949678106212 0 -121.51949678106212 70.193256687194662 0 0 0 0 -116.21930214783424 -105.86284909122696 0 -105.86284909122696 -21.013257924256322 0 0 0 0 -41.159393704270769 -11.415718135846873 0 -11.415718135846873 82.395007742143207 0 0 0 0 -78.191454809362767 -16.781428257167136 0 -16.781428257167136 106.69728060572515 0 0 0 0 38.327434964870918 -74.923124069295227 0 -74.923124069295227 -15.57042269993326 0 0 0 0 -40.353402097069193 7.5403271706800297 0 7.5403271706800297 29.074723112760694 0 0 0 0 8.4383774297455929 -20.529835783419472 0 -20.529835783419472 24.94388947699214 0 0 0 0 -503.07466928741451 -133.45101700099517 0 -133.45101700099517 253.06648970566175 0 0 0 0 56.065841861251101 -18.329694430790369 0 -18.329694430790369 17.168718132710865 0 0 0 0 7.1221691639589331 -4.9814667834357778 0 -4.9814667834357778 24.852191197863341 0 0 0 0 -144.29383551554929 -282.16218051927899 0 -282.16218051927899 146.94577966324027 0 0 0 0 72.756632346770857 -13.829159663618043 0 -13.829159663618043 13.32252054017772 0 0 0 0 -440.87221991038496 186.21622070588364 0 186.21622070588364 200.65186302004093 0 0 0 0 277.15714428630599 152.33053589167321 0 152.33053589167321 -83.670008136148908 0 0 0 0 17.135837142654829 -0.28883237426904884 0 -0.28883237426904884 17.688897716110297 0 0 0 0 33.494233727658866 1.5547153723973679 0 1.5547153723973679 33.823506914244717 0 0 0 0 53.797583764258889 -27.839655496492924 0 -27.839655496492924 15.080507968882102 0 0 0 0 15.099194733782497 -9.9089487480675871 0 -9.9089487480675871 16.199653314778061 0 0 0 0 4.0129306278802659 -20.377987952793148 0 -20.377987952793148 14.185366088859865 0 0 0 0 30.535899806156522 -22.780772873301203 0 -22.780772873301203 22.72786981092122 0 0 0 0 19.635345094667827 -11.520295103707241 0 -11.520295103707241 12.840984541136935 0 0 0 0 249.06432371404662 -186.82239818384232 0 -186.82239818384232 -84.274529788468953 0 0 0 0 -21.17741941218992 125.67186595997055 0 125.67186595997055 280.74563718223362 0 0 0 0 3.3192577553404163 -13.344932761705323 0 -13.344932761705323 27.75563308461615 0 0 0 0 -3.296945627706009 -96.33759702019438 0 -96.33759702019438 -115.97894102885994 0 0 0 0 4.1394863782026157 -12.88113915404081 0 -12.88113915404081 24.876279418891365 0 0 0 0 376.71331171243219 24.628496503788483 0 24.628496503788483 -393.24674787376716 0 0 0 0 -3.0291153749385558 -9.7547406328317265 0 -9.7547406328317265 79.758405940473494 0 0 0 0 3.1764444560508593 -0.72408027394967611 0 -0.72408027394967611 -0.1623566702865471 0 0 0 0 -19.962773695864598 97.064711759981947 0 97.064711759981947 123.91542658633807 0 0 0 0 16.539482472515374 -25.327224643506725 0 -25.327224643506725 29.985816160602553 0 0 0 0 -17.511657251160955 -39.011276281074345 0 -39.011276281074345 41.582605066012547 0 0 0 0 16.797377705806866 -24.297368496596391 0 -24.297368496596391 -2.9775729052344104 0 0 0 0 37.747860188886989 -22.152618805843304 0 -22.152618805843304 7.3068429947161349 0 0 0 0 26.293315631337464 3.616108844478731 0 3.616108844478731 37.827303924410444 0 0 0 0 43.160947131415014 -7.9448664324427227 0 -7.9448664324427227 24.533969512282056 0 0 0 0 25.18142003275716 -16.30291133548144 0 -16.30291133548144 36.406878016703558 0 0 0 0 15.278162055036546 2.289299439815295 0 2.289299439815295 35.280457408227448 0 0 0 0 14.742127721176075 -7.624026808310191 0 -7.624026808310191 39.832868540622712 0 0 0 0 13.444313204046921 1.3477681910562751 0 1.3477681910562751 34.824318620709164 0 0 0 0 14.774462866171234 6.4549814894835436 0 6.4549814894835436 38.677625966733103 0 0 0 0 21.356942237100156 -0.21194501495574514 0 -0.21194501495574514 36.308446783732506 0 0 0 0 23.552885650933604 5.3105990948006365 0 5.3105990948006365 34.677799071858317 0 0 0 0 23.313289621099102 6.2120701034223202 0 6.2120701034223202 38.389336509599161 0 0 0 0 17.524749660864472 0.98787045097583359 0 0.98787045097583359 28.080296656831251 0 0 0 0 16.167766483785272 3.1050664900073901 0 3.1050664900073901 3.8869295920664406 0 0 0 0 1.4504723348291009 22.35758978540548 0 22.35758978540548 24.991447367394358 0 0 0 0 32.248223881622835 8.6662943557203107 0 8.6662943557203107 35.972655818046405 0 0 0 0 23.404294888017859 15.642328612140787 0 15.642328612140787 9.6279966437308691 0 0 0 0 16.267322603715513 11.109593065514581 0 11.109593065514581 10.727617447217991 0 0 0 0 31.234696039089613 12.520866917253443 0 12.520866917253443 21.420655165828066 0 0 0 0 46.584522645382094 0.57936047300245264 0 0.57936047300245264 20.415873415695387 0 0 0 0 31.632606140890857 -1.1204791771497185 0 -1.1204791771497185 38.285079760464214 0 0 0 0 14.006080037230277 0.83721964624396605 0 0.83721964624396605 11.924669629584059 0 0 0 0 6.137354789650999 -3.9806522110966398 0 -3.9806522110966398 33.922446206855057 0 0 0 0 0.21281340835199103 2.5137981074479967 0 2.5137981074479967 4.8687405153337195 0 0 0 0 6.4036125346742239 -0.34453462607642393 0 -0.34453462607642393 11.787144309352184 0 0 0 0 3.1821763184925658 14.173025175608018 0 14.173025175608018 -3.0653948401620248 0 0 0 0 7.5465712136600871 0.63236080375126136 0 0.63236080375126136 10.382715420815771 0 0 0 0 15.980411492630083 6.8952281534768645 0 6.8952281534768645 15.288045328462431 0 0 0 0 42.865756285988027 8.3426182738915031 0 8.3426182738915031 22.850885218576252 0 0 0 0 18.403768613876309 5.30499276649698 0 5.30499276649698 14.719147797887217 0 0 0 0 25.208189161811902 2.4981789838122381 0 2.4981789838122381 4.9665404887980635 0 0 0 0 21.545858331107276 5.2392051387331975 0 5.2392051387331975 11.708140676558894 0 0 0 0 21.189554887878487 -8.5954935125418288 0 -8.5954935125418288 4.4225301114687277 0 0 0 0 47.486315425248904 -10.198810171871287 0 -10.198810171871287 10.527094377933736 0 0 0 0 12.319208156899549 -49.054905109646739 0 -49.054905109646739 23.190993334743908 0 0 0 0 29.637026138108922 6.2533576986706976 0 6.2533576986706976 9.8481143424328366 0 0 0 0 28.105195582669694 8.2423651093973263 0 8.2423651093973263 10.478434251241197 0 0 0 0 77.419444347647854 -1.8942013964302902 0 -1.8942013964302902 -2.0604336268687433 0 0 0 0 24.153545550594316 1.887320067631693 0 1.887320067631693 16.430149556730189 0 0 0 0 81.669644313209574 -95.752622980690347 0 -95.752622980690347 -92.475293469075382 0 0 0 0 77.455902975780191 -91.217263327714022 0 -91.217263327714022 -45.226715435428105 0 0 0 0 61.094586870990298 -6.3152656578695527 0 -6.3152656578695527 5.4563364404900332 0 0 0 0 21.840526533480443 0.63527008701782961 0 0.63527008701782961 0.66411595389490685 0 0 0 0 53.554043249664829 -8.4541738618810847 0 -8.4541738618810847 -2.787217097567015 0 0 0 0 42.68429104025563 -12.487877925024691 0 -12.487877925024691 11.071203034525752 0 0 0 0 5.7654959707297841 -2.2257314888691013 0 -2.2257314888691013 11.198506326596611 0 0 0 0 8.7301716403904948 -16.609524185058916 0 -16.609524185058916 2.754443540725525 0 0 0 0 5.5331464077899 112.2599155377975 0 112.2599155377975 148.23823790557435 0 0 0 0 -52.978821974538732 -1.032461336830238 0 -1.032461336830238 196.57530477261389 0 0 0 0 -34.793732301935961 58.159831955563277 0 58.159831955563277 102.64104554757432 0 0 0 0 82.833992275511264 90.389759143510673 0 90.389759143510673 45.095156214032613 0 0 0 0 -115.20659501446062 117.5503798852842 0 117.5503798852842 -103.99598890864581 0 0 0 0 -2.9848751850475352 1.9210864160878032 0 1.9210864160878032 0.42096219144812608 0 0 0 0 -548.69334617310233 118.6713066960001 0 118.6713066960001 285.89306578331343 0 0 0 0 -112.74899670499508 -43.768771618236315 0 -43.768771618236315 277.93627185056539 0 0 0 0 -68.25126359998103 6.9854135752757429 0 6.9854135752757429 310.91761779443186 0 0 0 0 -24.308000789065773 -41.454770458598887 0 -41.454770458598887 93.232101603534829 0 0 0 0 -42.882004196879279 6.8513281530922541 0 6.8513281530922541 89.267280979114275 0 0 0 0 -55.985288449206564 -42.362028179769368 0 -42.362028179769368 77.374035964152426 0 0 0 0 2.5903356820249073 2.02560484582105 0 2.02560484582105 33.241254217797547 0 0 0 0 -18.483904403496126 -14.671171575490007 0 -14.671171575490007 41.589095582225127 0 0 0 0 9.4166810937240371 4.983076961847928 0 4.983076961847928 37.997424189587036 0 0 0 0 13.825454437741428 4.990597213678484 0 4.990597213678484 37.110201192257591 0 0 0 0 0.87115174843317078 13.613074689555688 0 13.613074689555688 48.478070465619126 0 0 0 0 -33.00391108742042 48.762810908783649 0 48.762810908783649 81.166771727697778 0 0 0 0 -48.046530428913684 -5.8097610242712108 0 -5.8097610242712108 59.782842174088728 0 0 0 0 -34.175420986088284 53.948409624794294 0 53.948409624794294 67.763404713194177 0 0 0 0 -41.418383472286223 68.222969770895361 0 68.222969770895361 39.779992471618243 0 0 0 0 -25.351784361404981 32.940013358570454 0 32.940013358570454 3.4762338701777544 0 0 0 0 7.4799812015007774 11.454269836081949 0 11.454269836081949 43.328955166056403 0 0 0 0 14.510041301153251 13.231134073744215 0 13.231134073744215 42.716671886389577 0 0 0 0 28.220470631605366 3.6164318355798661 0 3.6164318355798661 7.6432897843087311 0 0 0 0 56.402961390733253 4.0851412555130082 0 4.0851412555130082 34.54784337916044 0 0 0 0 46.287718716805102 13.533752445351638 0 13.533752445351638 27.835888100848479 0 0 0 0 56.445135768182809 34.153941212980953 0 34.153941212980953 46.094600068139698 0 0 0 0 -65.754265997071343 60.774379423979553 0 60.774379423979553 41.268736917545539 0 0 0 0 28.149345740148107 47.106123231667866 0 47.106123231667866 30.446189511402903 0 0 0 0 82.52910625622826 84.312489823571696 0 84.312489823571696 62.278429316203983 0 0 0 0 -83.435603430123592 48.422556903265104 0 48.422556903265104 43.126366509607578 0 0 0 0 -32.775440508165048 26.534478720621337 0 26.534478720621337 52.119075819248792 0 0 0 0 -42.01304643383628 26.812009246687012 0 26.812009246687012 62.109718935407727 0 0 0 0 44.724908978132589 38.161029544766279 0 38.161029544766279 4.3101351703226101 0 0 0 0 -18.932071796103088 20.204470106169396 0 20.204470106169396 -4.5646292755497484 0 0 0 0 -914.11639212202863 -742.73262847692604 0 -742.73262847692604 -99.394144356938341 0 0 0 0 -4.5046350406868569 6.0903919607303578 0 6.0903919607303578 33.014347249376968 0 0 0 0 -1126.8301186817844 197.50489395475188 0 197.50489395475188 731.02614309098135 0 0 0 0 -3.017879592561826 2.3413793836627192 0 2.3413793836627192 5.0086295402350132 0 0 0 0 -78.351799403280893 -3.1283058521094063 0 -3.1283058521094063 52.476157825103655 0 0 0 0 -25.814504312951613 9.7206229758548943 0 9.7206229758548943 45.781361030080006 0 0 0 0 54.658128942464828 -201.56552876932892 0 -201.56552876932892 -204.84746063874627 0 0 0 0 499.65981196515349 636.20934648222647 0 636.20934648222647 1156.5468411018628 0 0 0 0 1762.0315355261482 -490.40019907086753 0 -490.40019907086753 410.78601575702123 0 0 0 0 1919.6823761287524 -1204.009147525443 0 -1204.009147525443 340.74605853586036 0 0 0 0 411.29590569289576 -383.91988279801626 0 -383.91988279801626 -733.61283569565785 0 0 0 0 385.57170276703255 -672.37636702468262 0 -672.37636702468262 177.31306523174658 0 0 0 0 307.30475270507304 -206.52688481283803 0 -206.52688481283803 189.5063810140382 0 0 0 0 460.51663698338052 -54.525276604570763 0 -54.525276604570763 67.121842602879042 0 0 0 0 -573.31400413381652 -515.19444804218813 0 -515.19444804218813 235.57302217170945 0 0 0 0 2815.8776741442089 726.30598245885358 0 726.30598245885358 15.542491091877309 0 0 0 0 1358.4511727476638 -228.3136370930149 0 -228.3136370930149 -150.16545787069481 0 0 0 0 1314.4011393894998 -77.077203982800711 0 -77.077203982800711 -64.293865989890037 0 0 0 0 643.03666092084313 320.00039287944128 0 320.00039287944128 78.893385896500604 0 0 0 0 844.45908801581027 623.19136806631695 0 623.19136806631695 71.771431589542772 0 0 0 0 484.43939939250413 -760.6546350191511 0 -760.6546350191511 -320.65632380507304 0 0 0 0 24.82216468695313 -17.58931477095642 0 -17.58931477095642 0.83433501059082005 0 0 0 0 -98.946208191860933 -160.51758431476992 0 -160.51758431476992 216.43210527618749 0 0 0 0 950.41304218736332 -248.87753191989032 0 -248.87753191989032 -379.19159226138981 0 0 0 0 -103.62007840845035 -531.5966913428947 0 -531.5966913428947 -26.937227369680841 0 0 0 0 6.051823336832939 -1.8846197523829318 0 -1.8846197523829318 -4.6438368042039926 0 0 0 0 1511.293160025074 -13.595242027588029 0 -13.595242027588029 -82.317803980782628 0 0 0 0 1125.0567205276166 33.440868004401636 0 33.440868004401636 -94.064678060702136 0 0 0 0 1855.7767593780882 401.47777028466226 0 401.47777028466226 -1145.7903941936675 0 0 0 0 2973.6525495543938 2030.0250527040507 0 2030.0250527040507 356.91858192543441 0 0 0 0 3574.5211159677128 -289.53105403861991 0 -289.53105403861991 360.28624019558993 0 0 0 0 -50.15382543628948 1031.8956961870863 0 1031.8956961870863 64.171597681386629 0 0 0 0 -685.73503423360671 -1681.004796596475 0 -1681.004796596475 1309.9757089168197 0 0 0 0 11.570050512920787 -8.8047134329121448 0 -8.8047134329121448 3.5028468179948504 0 0 0 0 2805.0344001813792 870.06291427109682 0 870.06291427109682 833.47728922839087 0 0 0 0 722.41130566224456 -363.86214669365199 0 -363.86214669365199 2487.308907777704 0 0 0 0 1413.9481154561145 -745.65531869131337 0 -745.65531869131337 340.03098272273201 0 0 0 0 3590.4516228133034 218.85465080666381 0 218.85465080666381 -487.5762884920623 0 0 0 0 27.003637929660499 -1.3913558890107609 0 -1.3913558890107609 1.0148548630790337 0 0 0 0 527.94456541050022 -430.65382280664562 0 -430.65382280664562 141.7743072645244 0 0 0 0 2516.1967552251881 -1333.4404027708133 0 -1333.4404027708133 38.563303163904493 0 0 0 0 254.85938437681762 238.88723748429584 0 238.88723748429584 -22.586273349203111 0 0 0 0 321.28660534442315 137.78122560923111 0 137.78122560923111 -460.17483401020581 0 0 0 0 70.192579487505995 6.7063464755794229 0 6.7063464755794229 -1.697853707435085 0 0 0 0 212.02923025333439 209.13175587222213 0 209.13175587222213 -35.844446852381225 0 0 0 0 -25.744161287373572 136.9126063538788 0 136.9126063538788 -49.258354298502127 0 0 0 0 67.578903110799729 -43.430506055166916 0 -43.430506055166916 -53.934466530230111 0 0 0 0 30.591430769996421 11.699698812412905 0 11.699698812412905 10.035877865819742 0 0 0 0 53.585629275397878 368.42175491893613 0 368.42175491893613 -378.98174079706951 0 0 0 0 2840.7385072289908 660.33056990169644 0 660.33056990169644 35.565100775022984 0 0 0 0 1699.9847259514936 1784.1947475860397 0 1784.1947475860397 1759.6928234222182 0 0 0 0 2410.2232171273718 1601.4926073917177 0 1601.4926073917177 56.898727649368084 0 0 0 0 -29.482495139549428 -88.236752184055149 0 -88.236752184055149 321.40156527826912 0 0 0 0 63.35612974435935 27.400162188219838 0 27.400162188219838 -23.954457014070613 0 0 0 0 70.605246934823299 35.089799456069613 0 35.089799456069613 3.7800231503424584 0 0 0 0 26.15696959215596 8.5867792239887493 0 8.5867792239887493 -12.678883662442047 0 0 0 0 60.653115845489083 16.011117796402687 0 16.011117796402687 -29.814151760908317 0 0 0 0 -34.19536328314598 187.17498355422288 0 187.17498355422288 -6.1280184486531653 0 0 0 0 62.725166053518677 27.651976864494401 0 27.651976864494401 -6.2288364840207748 0 0 0 0 111.96429728037037 -94.216478444242966 0 -94.216478444242966 -129.21963422165572 0 0 0 0 243.96127382272971 101.95045808475697 0 101.95045808475697 -313.0602167841389 0 0 0 0 91.636145007416417 36.388530303449443 0 36.388530303449443 -328.91963575089903 0 0 0 0 55.035110506395682 34.925749605287706 0 34.925749605287706 0.93388653701049673 0 0 0 0 118.85773165464343 -59.727448082627234 0 -59.727448082627234 -279.32936683177286 0 0 0 0 68.097621674324188 13.121213492522031 0 13.121213492522031 -16.334477650361116 0 0 0 0 260.27021615919512 28.607833890007896 0 28.607833890007896 -81.30815621081274 0 0 0 0 106.28073395940737 -118.34064036419841 0 -118.34064036419841 -5.043973161104077 0 0 0 0 452.59535050521299 297.65044287588444 0 297.65044287588444 235.43652521321201 0 0 0 0 351.5970493076893 -57.105183764278991 0 -57.105183764278991 -2.1948022717115236 0 0 0 0 184.08815323458111 -31.980338007917453 0 -31.980338007917453 22.100476579202223 0 0 0 0 679.76130031952925 183.38177708629064 0 183.38177708629064 161.3716230189093 0 0 0 0 726.747696714825 128.10526800800108 0 128.10526800800108 62.720802176152574 0 0 0 0 273.28888089832617 54.024349447496206 0 54.024349447496206 172.22987600381748 0 0 0 0 318.33745309837104 -26.741160705771108 0 -26.741160705771108 -26.974861072440035 0 0 0 0 285.37204504404508 32.482412379480593 0 32.482412379480593 86.049906357789951 0 0 0 0 105.44685586725609 -95.678498431324442 0 -95.678498431324442 122.72560315507144 0 0 0 0 2393.6324058801038 1054.6810283867817 0 1054.6810283867817 -144.32788942086336 0 0 0 0 2120.5496642405778 72.508373693994145 0 72.508373693994145 0.37373465217388002 0 0 0 0 1524.7453116368433 1030.3607987701826 0 1030.3607987701826 994.14372397098487 0 0 0 0 0.57319818437281356 6.0448250661958127 0 6.0448250661958127 12.693474848133278 0 0 0 0 -310.0863156586056 767.17475886405737 0 767.17475886405737 898.15859707407799 0 0 0 0 1499.4822085682681 1419.9014365161347 0 1419.9014365161347 584.87148828177851 0 0 0 0 382.1891743925371 134.6160055071723 0 134.6160055071723 -386.10757209260436 0 0 0 0 566.17771763032943 850.43913075648197 0 850.43913075648197 324.53591764209341 0 0 0 0 1565.9995845300582 877.65192465214932 0 877.65192465214932 116.05143049505568 0 0 0 0 633.71050060653943 296.51696132746292 0 296.51696132746292 98.466930755868816 0 0 0 0 974.9481255091232 609.03858505078824 0 609.03858505078824 47.21959125894864 0 0 0 0 1064.9399194971629 489.53774927489212 0 489.53774927489212 134.47501596705524 0 0 0 0 1625.4314493342536 731.74115408217403 0 731.74115408217403 -106.16030962466175 0 0 0 0 1592.4125440059106 821.69763064792005 0 821.69763064792005 -210.52346775621845 0 0 0 0 1639.7608794343396 713.72219904793747 0 713.72219904793747 -165.07398557419947 0 0 0 0 175.48769075276505 -32.0758140608541 0 -32.0758140608541 -234.4071289645799 0 0 0 0 1550.9958042566068 601.20224914332448 0 601.20224914332448 -73.244898371925956 0 0 0 0 23.60217307123564 -13.051884271945454 0 -13.051884271945454 -6.1261756931526747 0 0 0 0 1550.424912155635 560.44710210818084 0 560.44710210818084 219.01076401024329 0 0 0 0 1510.9265675143979 758.13421604515497 0 758.13421604515497 -15.254600878868587 0 0 0 0 1619.0759743372473 553.03497351991246 0 553.03497351991246 8.846133822498814 0 0 0 0 1199.1782008253213 464.94247590804207 0 464.94247590804207 193.82703219553332 0 0 0 0 12.475662383218094 -4.8608894927977531 0 -4.8608894927977531 -5.31718683810006 0 0 0 0 1607.6719719059984 950.11975482385196 0 950.11975482385196 791.48355908117082 0 0 0 0 2737.8933766438713 1463.946605827733 0 1463.946605827733 367.87119522839885 0 0 0 0 1980.222535689878 500.65576903290003 0 500.65576903290003 5.9113476015554625 0 0 0 0 -229.04920995379325 -393.48011994927674 0 -393.48011994927674 -33.335707067524709 0 0 0 0 -12.15643494942924 160.03145376832526 0 160.03145376832526 92.116488816343917 0 0 0 0 166.66129040680244 -103.73162445954404 0 -103.73162445954404 -146.50829102712669 0 0 0 0 255.90748991213331 92.35178480345985 0 92.35178480345985 -8.3864023174937756 0 0 0 0 105.65265709819505 -108.31775035069495 0 -108.31775035069495 115.1779913819737 0 0 0 0 324.02529529523599 -39.969791265121785 0 -39.969791265121785 178.55239160363271 0 0 0 0 769.88162177530467 100.31649925218881 0 100.31649925218881 69.028639245286286 0 0 0 0 785.76592935131339 51.489645951671264 0 51.489645951671264 211.80640174706423 0 0 0 0 1290.1032770596357 281.0474711707775 0 281.0474711707775 56.099381530888422 0 0 0 0 1297.9521148572967 361.65443951560519 0 361.65443951560519 476.90100289038401 0 0 0 0 1295.2139005256031 430.73952004273178 0 430.73952004273178 93.239879891661985 0 0 0 0 445.0691936409421 -0.029884833585128945 0 -0.029884833585128945 -69.817073822485327 0 0 0 0 1039.2542412282564 46.876323317032075 0 46.876323317032075 -89.984062303945393 0 0 0 0 257.56131711800117 -12.48284621190578 0 -12.48284621190578 210.18768046439982 0 0 0 0 430.79480420835353 206.35692203633894 0 206.35692203633894 350.37913407969609 0 0 0 0 1097.5342948762118 496.26874146252703 0 496.26874146252703 98.103218310011698 0 0 0 0 1408.699245656906 446.81067813970321 0 446.81067813970321 462.76325311154505 0 0 0 0 1257.7650594923107 217.457098339514 0 217.457098339514 217.81638368677795 0 0 0 0 1206.9287869859618 451.41396485749965 0 451.41396485749965 93.941648404796979 0 0 0 0 1515.900540347704 460.30895809901619 0 460.30895809901619 24.405709659854438 0 0 0 0 886.11914326803526 462.35154150242192 0 462.35154150242192 165.03293244486304 0 0 0 0 595.54412926484656 139.2909024195942 0 139.2909024195942 102.31844299251134 0 0 0 0 433.46859265740932 -416.00513394470181 0 -416.00513394470181 -234.80050105374903 0 0 0 0 257.96600519023923 231.78997866393115 0 231.78997866393115 -77.230762890609185 0 0 0 0 12.771642483807454 -8.6585296302896353 0 -8.6585296302896353 -0.76524587477281258 0 0 0 0 3.5331409634018058 3.6412933222394201 0 3.6412933222394201 -16.633662189395338 0 0 0 0 160.62176658679527 -64.426492076032901 0 -64.426492076032901 -106.21746329130656 0 0 0 0 2599.4637226753985 236.86993497144294 0 236.86993497144294 18.904896001883571 0 0 0 0 1949.4499802235368 321.12434506706995 0 321.12434506706995 -161.52706251183406 0 0 0 0 1937.3010315579959 309.75758957701692 0 309.75758957701692 36.806312229408832 0 0 0 0 1488.1475913902796 203.23187535938376 0 203.23187535938376 122.71141929689475 0 0 0 0 2.2982289714911133 0.48593341134758816 0 0.48593341134758816 -11.6148666040766 0 0 0 0 -149.24347655358724 -34.629834797604644 0 -34.629834797604644 91.257071980337969 0 0 0 0 310.72169345465954 -157.54640927149649 0 -157.54640927149649 -9.1221666345954873 0 0 0 0 6.0038943882618696 -2.8211476440881853 0 -2.8211476440881853 -1.0759742846727818 0 0 0 0 761.22026470325363 314.8140978324127 0 314.8140978324127 9.1233652774863003 0 0 0 0 707.97563114829245 322.68572694043269 0 322.68572694043269 52.377076332108118 0 0 0 0 714.21192747473833 296.67539630269755 0 296.67539630269755 -26.171973463176982 0 0 0 0 556.81735501785442 275.62169027781601 0 275.62169027781601 17.907636478317727 0 0 0 0 612.34922095315414 289.16522243045597 0 289.16522243045597 -1.3880164677739231 0 0 0 0 545.64094245758315 329.38862070071264 0 329.38862070071264 91.666204765436305 0 0 0 0 610.07422857433266 295.09787275647977 0 295.09787275647977 47.711960747743433 0 0 0 0 711.13072866729635 240.80030641654957 0 240.80030641654957 72.969694330651691 0 0 0 0 568.59880935156252 283.72079546705572 0 283.72079546705572 121.24169910336968 0 0 0 0 527.01646604452981 290.4653989835424 0 290.4653989835424 130.5605224342853 0 0 0 0 566.23529714786309 305.43014163978648 0 305.43014163978648 115.85661144201367 0 0 0 0 572.98236075429304 304.05546598610636 0 304.05546598610636 114.7286728139934 0 0 0 0 644.23465254707844 198.24621736972222 0 198.24621736972222 191.18583085450973 0 0 0 0 527.9058359019109 297.61894206524539 0 297.61894206524539 135.06513583219203 0 0 0 0 454.56480842847668 230.0469750862394 0 230.0469750862394 -111.66399836429628 0 0 0 0 563.26252945093438 263.45009463094357 0 263.45009463094357 22.944285369236241 0 0 0 0 411.41424205092335 248.49470006110232 0 248.49470006110232 45.291092845527601 0 0 0 0 378.30837402541511 57.089482290973137 0 57.089482290973137 -228.50558631507818 0 0 0 0 295.63367262861721 87.397592709568926 0 87.397592709568926 -3.9433305053953518 0 0 0 0 103.09141689776516 -88.384108467602346 0 -88.384108467602346 7.2199964258106775 0 0 0 0 503.36721698541805 -26.036547898470417 0 -26.036547898470417 6.7713890669286201 0 0 0 0 643.08239097262413 147.55150424617023 0 147.55150424617023 -0.47973456790020919 0 0 0 0 376.74827516394726 -27.705770812165156 0 -27.705770812165156 201.2674420120693 0 0 0 0 984.63755534921074 -52.886917767393243 0 -52.886917767393243 187.40148307336904 0 0 0 0 679.7163982401471 0.11632365628793195 0 0.11632365628793195 419.07905182345166 0 0 0 0 175.4619106621758 -285.20418180165461 0 -285.20418180165461 1000.6277871942948 0 0 0 0 5.8372120458423638 0.45622423812789314 0 0.45622423812789314 0.071871378155277554 0 0 0 0 572.02322739928059 7.3117239505800171 0 7.3117239505800171 -284.22434567868549 0 0 0 0 968.80418452469894 -122.65223080143096 0 -122.65223080143096 219.32519192025211 0 0 0 0 764.21150314326951 -392.72711404217353 0 -392.72711404217353 70.230936143593681 0 0 0 0 964.46006202896388 -96.727454685442353 0 -96.727454685442353 114.5201207985956 0 0 0 0 1538.5691136644509 505.46737027211242 0 505.46737027211242 124.2850088437408 0 0 0 0 1165.2352163313335 91.620813853633081 0 91.620813853633081 176.80109333317523 0 0 0 0 520.78258462231315 317.26242707833444 0 317.26242707833444 282.77928085361418 0 0 0 0 850.94309692106617 378.63926394717782 0 378.63926394717782 219.98473224776535 0 0 0 0 6.2638915515203593 -2.5796199927449663 0 -2.5796199927449663 -4.1699177252116328 0 0 0 0 10.669648337757067 -3.6159375231533915 0 -3.6159375231533915 -9.7807299294956564 0 0 0 0 43.871520897322625 20.206968702401355 0 20.206968702401355 -207.3878868001384 0 0 0 0 171.71773391848546 -83.198392199468799 0 -83.198392199468799 -229.11053820498637 0 0 0 0 -136.85360320124892 -12.91485422678852 0 -12.91485422678852 -213.42877854101243 0 0 0 0 162.34368671957054 10.148614590275429 0 10.148614590275429 -344.10521855018305 0 0 0 0 516.86150268253891 210.65797770188203 0 210.65797770188203 185.63640342389772 0 0 0 0 545.8744617012926 323.04517048512389 0 323.04517048512389 131.5863936243768 0 0 0 0 573.29506258058245 304.38236271883579 0 304.38236271883579 104.09907244813439 0 0 0 0 591.25257130020327 265.22801366895783 0 265.22801366895783 179.76395536367272 0 0 0 0 580.84270056475361 316.6594352158736 0 316.6594352158736 134.44663405434767 0 0 0 0 745.18353129331808 210.32788327458661 0 210.32788327458661 140.83521669894981 0 0 0 0 751.38546385019436 178.17973584354877 0 178.17973584354877 200.21670123655667 0 0 0 0 752.12474702233158 291.54034091454923 0 291.54034091454923 159.49506837152148 0 0 0 0 2675.2425541436314 545.98788372455488 0 545.98788372455488 63.391841153405579 0 0 0 0 3500.6401017841417 555.2190952511977 0 555.2190952511977 -60.564370207824204 0 0 0 0 3499.2868861540119 1046.0466028967862 0 1046.0466028967862 331.71295788503869 0 0 0 0 4.6307953013847367 0.42816376406483414 0 0.42816376406483414 1.9220659833573173 0 0 0 0 2458.3249319315073 1240.3185825204255 0 1240.3185825204255 621.84037142610714 0 0 0 0 2180.8278275170596 1049.8682041101915 0 1049.8682041101915 505.82382193432193 0 0 0 0 43.012298090152797 -32.795611512693299 0 -32.795611512693299 5.6527994768790499 0 0 0 0 1899.5217699277127 948.84788988112894 0 948.84788988112894 378.23763605242152 0 0 0 0 4.4022725773587297 0.79007505067778538 0 0.79007505067778538 3.2439572963378267 0 0 0 0 1896.0436313135287 859.11230401324258 0 859.11230401324258 516.19057818721285 0 0 0 0 1908.4551602109204 697.72131661993842 0 697.72131661993842 226.76436477268507 0 0 0 0 2144.7753061670592 308.25151053964146 0 308.25151053964146 391.9675254488443 0 0 0 0 2120.7267869256102 171.23737062015766 0 171.23737062015766 -96.696684571020498 0 0 0 0 3492.2637608075529 -318.85648425612078 0 -318.85648425612078 -154.03927617282898 0 0 0 0 1285.9629435188544 -1083.6990970715981 0 -1083.6990970715981 -25.591730698001932 0 0 0 0 703.88672331519774 279.57759936053412 0 279.57759936053412 392.34821192932418 0 0 0 0 15.705255571077345 -3.47819341484049 0 -3.47819341484049 -0.085939149746135896 0 0 0 0 1771.4038857006854 164.60970448145108 0 164.60970448145108 -92.750911573935667 0 0 0 0 3492.3770693449042 1578.6348119678721 0 1578.6348119678721 113.73715056203808 0 0 0 0 668.04697106644744 45.684072145909575 0 45.684072145909575 0.90222967971054113 0 0 0 0 13.692697888932457 -1.2082721425503422 0 -1.2082721425503422 -1.485235760308028 0 0 0 0 783.76531319539572 -74.300723793262691 0 -74.300723793262691 -345.44406036960697 0 0 0 0 26.867815522657054 -6.5992216010003943 0 -6.5992216010003943 -2.1571695548990277 0 0 0 0 1183.7256984149431 950.86723074251313 0 950.86723074251313 536.95853959370152 0 0 0 0 2822.2424664259888 1965.6201605718688 0 1965.6201605718688 1033.7938790362339 0 0 0 0 2146.8653777881409 997.55018552168099 0 997.55018552168099 118.54998390292116 0 0 0 0 1127.6088646036078 278.65818683220232 0 278.65818683220232 -141.6334527494441 0 0 0 0 1587.3966812440558 1037.2269187964744 0 1037.2269187964744 -35.479840934339677 0 0 0 0 3.0754688093425244 0.33831725459731388 0 0.33831725459731388 0.98691314251290496 0 0 0 0 1251.0532963244987 854.7168778232508 0 854.7168778232508 254.37895455377139 0 0 0 0 3458.1868902488914 3349.1841320773387 0 3349.1841320773387 1025.0631006960994 0 0 0 0 5027.4362525343895 1052.45815731517 0 1052.45815731517 3955.2530990894447 0 0 0 0 1790.0008539899718 763.9051856876589 0 763.9051856876589 179.04992961216843 0 0 0 0 43.235927600544912 -32.892371270774575 0 -32.892371270774575 13.894105011712565 0 0 0 0 1729.7713831325236 729.49004098825651 0 729.49004098825651 188.45180947633287 0 0 0 0 2106.760364156522 590.35223175266083 0 590.35223175266083 86.044417838599657 0 0 0 0 3155.9236952818464 1269.2418453554717 0 1269.2418453554717 -0.9185069610910388 0 0 0 0 1792.8123223057009 352.05773725456982 0 352.05773725456982 -8.9121603978373116 0 0 0 0 1941.3455310946738 813.58401823391318 0 813.58401823391318 225.59890547519376 0 0 0 0 2004.2853296108296 234.21799063806617 0 234.21799063806617 240.88082758246409 0 0 0 0 3178.6834662207402 636.62334831542216 0 636.62334831542216 -60.410218167299035 0 0 0 0 11.508188920056938 -3.8811527451851191 0 -3.8811527451851191 -0.14579160460125845 0 0 0 0 749.48651019921817 90.817206409039244 0 90.817206409039244 1.9489872819036298 0 0 0 0 1466.1557119144927 698.95086014080789 0 698.95086014080789 243.65454960566447 0 0 0 0 3317.4589565078568 2158.213109949666 0 2158.213109949666 976.7495318066575 0 0 0 0 2224.0011762114664 564.34001591918116 0 564.34001591918116 474.49064112245304 0 0 0 0 1122.401242758584 203.18950401506197 0 203.18950401506197 198.01491374842414 0 0 0 0 3130.0145464058842 1922.6625024238426 0 1922.6625024238426 653.60563323932001 0 0 0 0 25.836806170305636 -16.668015085269303 0 -16.668015085269303 2.364839638400138 0 0 0 0 1634.7645542742684 1031.803265000277 0 1031.803265000277 972.67784545931227 0 0 0 0 867.16284434334375 1129.9474905900988 0 1129.9474905900988 1186.9980494381907 0 0 0 0 2899.901941936434 1312.9255283338134 0 1312.9255283338134 681.48451484307589 0 0 0 0 1613.7693277699946 1136.681249021824 0 1136.681249021824 701.94609787507034 0 0 0 0 1068.7182563652714 -127.64695186336712 0 -127.64695186336712 29.424791060340795 0 0 0 0 744.74333884110092 26.349758158870827 0 26.349758158870827 -366.4209323644609 0 0 0 0 308.19086532149959 -59.659083936986463 0 -59.659083936986463 -202.84245415223086 0 0 0 0 1287.1705003651005 302.59604790450885 0 302.59604790450885 27.768935419046102 0 0 0 0 464.29563605381554 322.52641600210791 0 322.52641600210791 227.65053433967478 0 0 0 0 395.18234997791296 16.020137995997175 0 16.020137995997175 -709.89781459418737 0 0 0 0 115.73398996106698 -263.61471660891857 0 -263.61471660891857 -451.84782107251885 0 0 0 0 30.234945752275991 47.955488994064737 0 47.955488994064737 47.410086025361004 0 0 0 0 -126.2617977886548 488.1008412233241 0 488.1008412233241 -662.61698032835557 0 0 0 0 419.29914937882859 108.979836339965 0 108.979836339965 -868.166435600353 0 0 0 0 -817.34367947993451 425.3632465928149 0 425.3632465928149 627.99782783124465 0 0 0 0 1320.9771767791972 1149.0839006207407 0 1149.0839006207407 577.53361699609741 0 0 0 0 -1043.6661856666651 1979.8874751296628 0 1979.8874751296628 1395.9980999458803 0 0 0 0 637.55947938882673 2997.2897201094256 0 2997.2897201094256 1951.7738462891284 0 0 0 0 10269.395335643188 1388.5375887577829 0 1388.5375887577829 -3514.7205189915221 0 0 0 0 11.67382729890241 13.53236402684351 0 13.53236402684351 21.252569326108407 0 0 0 0 1752.800228453314 838.66124625897191 0 838.66124625897191 488.92884872367131 0 0 0 0 46.133013899802805 -37.686627693855215 0 -37.686627693855215 17.984839398278972 0 0 0 0 2044.7860626724287 1023.4479665947362 0 1023.4479665947362 447.7100208278444 0 0 0 0 3059.0100180688751 -249.80329833060409 0 -249.80329833060409 564.26433674343025 0 0 0 0 3355.6606767344401 1323.7207001174295 0 1323.7207001174295 590.59427038696049 0 0 0 0 1693.7078752653033 472.67953115620116 0 472.67953115620116 589.65406389081272 0 0 0 0 2091.6251410356963 553.53590899887979 0 553.53590899887979 -46.063980920782797 0 0 0 0 1803.9333111419292 63.48849846907649 0 63.48849846907649 -24.112880721699185 0 0 0 0 2119.3551470385646 971.99116935014672 0 971.99116935014672 246.40675056703003 0 0 0 0 1814.095334537953 665.02840621208497 0 665.02840621208497 518.00164298798893 0 0 0 0 1675.6565182845225 450.76069117492727 0 450.76069117492727 -55.798896063297207 0 0 0 0 1371.5423747417371 685.66765957220593 0 685.66765957220593 485.03178402564117 0 0 0 0 1420.9530934981162 -7.3145413192183071 0 -7.3145413192183071 -78.059555563403592 0 0 0 0 1437.5846065969672 403.60445734520181 0 403.60445734520181 172.57003689504768 0 0 0 0 1126.7388187202887 197.88314503758863 0 197.88314503758863 74.592775556035235 0 0 0 0 1529.2677130026823 219.11987779141941 0 219.11987779141941 -49.926380127219545 0 0 0 0 837.30497848769301 -39.884122681811505 0 -39.884122681811505 -18.335174929152458 0 0 0 0 34.828822472615329 30.672793775141884 0 30.672793775141884 3.7809133839876221 0 0 0 0 164.83882881751924 83.641660427421812 0 83.641660427421812 164.81079422913535 0 0 0 0 752.87255992509745 -114.26917537872646 0 -114.26917537872646 51.042955716517099 0 0 0 0 873.40501106384909 159.13639713085922 0 159.13639713085922 27.712846349570441 0 0 0 0 563.06092927738791 -3.080671957008235 0 -3.080671957008235 78.977768528480283 0 0 0 0 456.00113808171591 81.883369086283665 0 81.883369086283665 -4.037856172724787 0 0 0 0 441.86460818324849 28.808981338502349 0 28.808981338502349 -115.8362833270694 0 0 0 0 495.52991768703214 -105.17081815124652 0 -105.17081815124652 -42.666784773582549 0 0 0 0 105.71053755785397 -140.97504473987362 0 -140.97504473987362 -45.548571906535699 0 0 0 0 -13.565617011197901 43.394450138177262 0 43.394450138177262 11.651667545237615 0 0 0 0 94.3267979863449 128.9745505026367 0 128.9745505026367 80.687163690728994 0 0 0 0 92.444879465270787 -3.9298861274037336 0 -3.9298861274037336 -19.345553378958357 0 0 0 0 119.76541653522872 34.056524606117819 0 34.056524606117819 1.6789323251850874 0 0 0 0 5.4143042005254074 -4.5467641952460696 0 -4.5467641952460696 -3.7109901926976896 0 0 0 0 182.05474741815124 -0.2023967407640157 0 -0.2023967407640157 -28.914944036856468 0 0 0 0 190.61854043818312 126.19954573123141 0 126.19954573123141 116.83573452520795 0 0 0 0 94.257796047852025 58.007331242565215 0 58.007331242565215 3.405739146113774 0 0 0 0 8.9980506633291952 -16.196450577270298 0 -16.196450577270298 -6.7673077301333251 0 0 0 0 44.643480234177787 35.774439983116402 0 35.774439983116402 -17.921292357376721 0 0 0 0 111.01373708895699 132.97545573675234 0 132.97545573675234 -513.21386643342703 0 0 0 0 54.591854612503141 5.1583075332414028 0 5.1583075332414028 -8.2706889495038922 0 0 0 0 40.909200621958007 26.294846212306311 0 26.294846212306311 -40.445229922915132 0 0 0 0 1567.3468647404152 -107.53905037320419 0 -107.53905037320419 55.156193455628454 0 0 0 0 487.5755223499873 -430.69145116316122 0 -430.69145116316122 15.033359667697368 0 0 0 0 1025.1423684910114 25.423054683792543 0 25.423054683792543 61.120191616041666 0 0 0 0 15.496570462394516 20.127609397098798 0 20.127609397098798 1.4722060039095588 0 0 0 0 1087.511505671966 -169.76937626992071 0 -169.76937626992071 -82.094316774873732 0 0 0 0 141.60581512391218 -208.69978829083948 0 -208.69978829083948 241.88172862281317 0 0 0 0 750.34759784537164 215.38897007851585 0 215.38897007851585 -434.81188005522199 0 0 0 0 91.324866671144264 -740.62540141912746 0 -740.62540141912746 43.08374317552267 0 0 0 0 117.43564532818709 50.771826475029002 0 50.771826475029002 -22.484896290187862 0 0 0 0 -1.3644473256681096 17.603050051062084 0 17.603050051062084 1.7676831916079028 0 0 0 0 54.602180570901197 49.520045586712115 0 49.520045586712115 41.098053546316805 0 0 0 0 -906.16019424855767 -218.1284075754952 0 -218.1284075754952 205.15246416655282 0 0 0 0 142.60485819533642 83.186078142713086 0 83.186078142713086 1.1015306802059968 0 0 0 0 -859.15099101420856 7.9398925665448132 0 7.9398925665448132 519.17671334413899 0 0 0 0 1.5861839483022351 17.935247489062931 0 17.935247489062931 1.626042681139019 0 0 0 0 41.747728729707887 458.14651469312503 0 458.14651469312503 94.296908587584767 0 0 0 0 -350.58295131108025 -10.826824006763673 0 -10.826824006763673 -455.28207350133562 0 0 0 0 1392.8149896833734 -523.73950691070343 0 -523.73950691070343 -137.49316711818665 0 0 0 0 440.78633833758067 215.68044741834092 0 215.68044741834092 33.234573401603484 0 0 0 0 87.764872401732646 179.03099077934564 0 179.03099077934564 197.0715885610789 0 0 0 0 1354.0644811376987 257.68058320015189 0 257.68058320015189 -25.754541027150481 0 0 0 0 -132.78197420929791 546.48303437382219 0 546.48303437382219 581.69273437062247 0 0 0 0 586.57296993298223 -597.85715264542159 0 -597.85715264542159 1137.5133827802783 0 0 0 0 15.380976873446912 -0.26535654432729672 0 -0.26535654432729672 -0.22752252034622389 0 0 0 0 322.40026616422983 -323.70674912038976 0 -323.70674912038976 789.28202192329172 0 0 0 0 1167.6858106792206 -755.06018606868747 0 -755.06018606868747 -207.63044370715397 0 0 0 0 -171.36198262765538 -190.26223973154401 0 -190.26223973154401 -13.873118118352977 0 0 0 0 16.514937547806767 212.2811080851518 0 212.2811080851518 -125.86976476455857 0 0 0 0 62.639591780481169 -237.10515285181179 0 -237.10515285181179 -461.16337514241104 0 0 0 0 107.28708774859842 598.17172515864752 0 598.17172515864752 -324.40444455845136 0 0 0 0 493.35527420467406 560.12730602516785 0 560.12730602516785 -837.73036414711964 0 0 0 0 336.31458416345595 289.45538733044918 0 289.45538733044918 -49.259056631989552 0 0 0 0 968.89403074613438 237.85968646946128 0 237.85968646946128 -299.60883140816168 0 0 0 0 471.72423184064974 794.52674787816875 0 794.52674787816875 724.31155038691611 0 0 0 0 8.5098485384069704 -1.0651116303526393 0 -1.0651116303526393 0.60080001292163954 0 0 0 0 60.534988389765203 51.768182029510029 0 51.768182029510029 1.5952184413487203 0 0 0 0 310.81056575616822 -305.02024726404238 0 -305.02024726404238 6.6693962909465085 0 0 0 0 -492.72781049743935 -690.20468157550113 0 -690.20468157550113 -246.46291711246522 0 0 0 0 15.13692663418658 7.9435374403686581 0 7.9435374403686581 -41.674977367946198 0 0 0 0 83.157440702372696 36.485999942993317 0 36.485999942993317 -102.21962937723151 0 0 0 0 343.9743129056742 341.18145132794564 0 341.18145132794564 -208.39758921866678 0 0 0 0 26.584023638597444 -2.9403922815087924 0 -2.9403922815087924 -7.2384326906762242 0 0 0 0 58.059719050393369 18.43236120349815 0 18.43236120349815 -33.162915573622342 0 0 0 0 172.94720298814354 -318.97773702290942 0 -318.97773702290942 -678.23773999096466 0 0 0 0 -132.45215239547542 -132.79922085099133 0 -132.79922085099133 -366.97652816390018 0 0 0 0 290.35740692796389 -476.25072738928884 0 -476.25072738928884 -232.62478025353994 0 0 0 0 231.30649180673936 148.8986989519874 0 148.8986989519874 230.43769882499532 0 0 0 0 291.04508507715946 -185.59769001952714 0 -185.59769001952714 -540.09412654036146 0 0 0 0 3.2130309352967288 -3.4054956647929941 0 -3.4054956647929941 -19.863333560211917 0 0 0 0 -1061.6965065456461 -756.1888904888076 0 -756.1888904888076 165.71069529721649 0 0 0 0 115.61741752248054 147.64775120142804 0 147.64775120142804 -345.83774895013585 0 0 0 0 1812.5788635047647 950.1218313417196 0 950.1218313417196 261.02907420720862 0 0 0 0 438.79285456687649 -378.49585645151103 0 -378.49585645151103 415.51326996858825 0 0 0 0 2839.5410769952014 658.45910024662885 0 658.45910024662885 -150.06337901431334 0 0 0 0 701.80040910941898 -173.46652538762243 0 -173.46652538762243 4.4753988335278638 0 0 0 0 222.85286536527565 -211.26599595935181 0 -211.26599595935181 -32.508953311159559 0 0 0 0 649.35233506718396 68.243565925700096 0 68.243565925700096 -104.64912376564229 0 0 0 0 118.93285978595668 -115.54894797924752 0 -115.54894797924752 -1.0257842212410386 0 0 0 0 2.1542742360969669 -2.2718768217695242 0 -2.2718768217695242 -4.8699439771242012 0 0 0 0 1030.2328842655625 -14.597961265697847 0 -14.597961265697847 -106.48382650005584 0 0 0 0 -1319.1705852584419 -726.22046826785743 0 -726.22046826785743 315.98333843507783 0 0 0 0 686.16800553871872 -202.27925683831484 0 -202.27925683831484 -32.336126006526968 0 0 0 0 661.9310392174084 -5.279556726877388 0 -5.279556726877388 -48.585122274917637 0 0 0 0 337.72647250189766 -92.677898093310603 0 -92.677898093310603 59.547136873808086 0 0 0 0 401.62138591629628 -29.905123595636866 0 -29.905123595636866 -26.609035921075474 0 0 0 0 819.55126030088286 -107.01415051457332 0 -107.01415051457332 -113.02782841152862 0 0 0 0 754.73967193100725 216.48929594826794 0 216.48929594826794 177.1049958890344 0 0 0 0 317.07925389727461 -20.244502494770586 0 -20.244502494770586 49.244887860955345 0 0 0 0 310.33819531186418 -50.852524563037122 0 -50.852524563037122 60.05987086844118 0 0 0 0 655.93119885548458 -56.088497916111123 0 -56.088497916111123 3.4180817522474172 0 0 0 0 366.85471003236307 -43.044977683775585 0 -43.044977683775585 47.423238669475111 0 0 0 0 337.48069737723563 -86.031824886074247 0 -86.031824886074247 -3.4267679654627727 0 0 0 0 284.33051730151055 -31.775520870882616 0 -31.775520870882616 -2.5990989161044808 0 0 0 0 290.79861398992944 -32.710759373823599 0 -32.710759373823599 -0.24689351457878805 0 0 0 0 386.00384761873283 -93.915840201291445 0 -93.915840201291445 0.16477906814783072 0 0 0 0 249.86437896356438 -93.755182645073234 0 -93.755182645073234 -0.10147791780935685 0 0 0 0 103.64439675760514 -53.00027256397675 0 -53.00027256397675 36.508383188111054 0 0 0 0 99.023203195916722 -32.129641130955143 0 -32.129641130955143 -46.055894891647199 0 0 0 0 111.35880222618289 -42.2250732900348 0 -42.2250732900348 2.5056019772040372 0 0 0 0 -54.751579224003194 -103.6833969611673 0 -103.6833969611673 40.102184007098742 0 0 0 0 130.56518438005878 -92.65972717414985 0 -92.65972717414985 67.360756677336042 0 0 0 0 28.169264564145124 -209.72814937350756 0 -209.72814937350756 31.153716051041187 0 0 0 0 -62.462681557452015 30.419461135821734 0 30.419461135821734 525.90763758933349 0 0 0 0 1.0845473134206145 -1.8861498314237153 0 -1.8861498314237153 0.96667759472985937 0 0 0 0 68.495158108544274 -97.454696212733438 0 -97.454696212733438 -394.01790746274219 0 0 0 0 28.248451215855312 -275.72074322632534 0 -275.72074322632534 316.02227714923015 0 0 0 0 244.64339787203062 -225.80453937321306 0 -225.80453937321306 -193.22637253945595 0 0 0 0 95.564625153048837 -144.10983320446684 0 -144.10983320446684 45.742553015119711 0 0 0 0 74.23398811394145 -118.82397838059023 0 -118.82397838059023 188.58056015113073 0 0 0 0 86.048691997144488 -220.90017201445085 0 -220.90017201445085 90.383386768357695 0 0 0 0 133.48511199539644 9.5938232258255312 0 9.5938232258255312 451.34379032890212 0 0 0 0 235.68668464643997 -382.01704148249655 0 -382.01704148249655 133.56976870224889 0 0 0 0 129.82307135902738 -28.73105827475257 0 -28.73105827475257 -337.23761443165267 0 0 0 0 -46.671833235770464 -294.9151912889522 0 -294.9151912889522 -66.699590557075453 0 0 0 0 272.20620748210058 64.771868461684107 0 64.771868461684107 -1122.238877689575 0 0 0 0 -181.52437452609593 -283.76141675099279 0 -283.76141675099279 -488.81146890587274 0 0 0 0 343.04091653009527 54.697791389357917 0 54.697791389357917 -1232.4062927428263 0 0 0 0 -63.330634805941372 44.64772309194359 0 44.64772309194359 288.68804787751247 0 0 0 0 41.188731905932855 -4.2058291520363333 0 -4.2058291520363333 -1.4071756831983351 0 0 0 0 123.26127533581166 -100.02022472003409 0 -100.02022472003409 -67.719000525287811 0 0 0 0 -0.052976688064518385 -103.47367738658545 0 -103.47367738658545 214.8843504958877 0 0 0 0 59.871092639319841 -8.0667100746608469 0 -8.0667100746608469 -1.8801247032645545 0 0 0 0 116.33448564230639 -70.830395929840051 0 -70.830395929840051 8.4855568113771369 0 0 0 0 74.877580533517175 12.007931515161999 0 12.007931515161999 23.145235636826328 0 0 0 0 471.56507700216025 -565.49155591501449 0 -565.49155591501449 -434.85103862198093 0 0 0 0 71.045401797383818 -10.795681351671101 0 -10.795681351671101 -1.440704357009468 0 0 0 0 55.094182454107795 -66.43387225558763 0 -66.43387225558763 62.905199953800775 0 0 0 0 62.62240121079958 -45.812833332461196 0 -45.812833332461196 30.05658829481763 0 0 0 0 -124.17405205819523 110.3956792658816 0 110.3956792658816 333.52509999377298 0 0 0 0 5.5651350545917921 -1.0618154339646217 0 -1.0618154339646217 -0.36043927585158475 0 0 0 0 243.96288204578013 -60.865203118200725 0 -60.865203118200725 -659.81652797277866 0 0 0 0 -285.71330129529815 401.85975499898586 0 401.85975499898586 -228.53688685774523 0 0 0 0 179.50372763792984 -275.72599307448218 0 -275.72599307448218 -193.24543748246276 0 0 0 0 177.29275361353939 -295.07777029132103 0 -295.07777029132103 -293.91695667828071 0 0 0 0 262.89249689498683 199.04867818663087 0 199.04867818663087 -378.61295775799101 0 0 0 0 60.431900116354569 4.1319996076084635 0 4.1319996076084635 -0.24439275653962511 0 0 0 0 75.15610776610265 -18.916667758347558 0 -18.916667758347558 -43.961345637679642 0 0 0 0 66.416539378798916 -47.094039252481025 0 -47.094039252481025 -0.87670787791284965 0 0 0 0 50.593650432900176 -48.139907820724147 0 -48.139907820724147 29.936824376762729 0 0 0 0 44.196369400335243 -12.728394190719655 0 -12.728394190719655 -22.84114525102359 0 0 0 0 101.40660263255268 0.3857477461185681 0 0.3857477461185681 -156.96349913055519 0 0 0 0 43.429850937638548 -87.556901101608219 0 -87.556901101608219 -42.80829702065239 0 0 0 0 -25.417816968987609 50.314923543257009 0 50.314923543257009 -89.756993457478529 0 0 0 0 37.372760476763887 -1.4596110588436488 0 -1.4596110588436488 -2.6221733931612334 0 0 0 0 144.1765864768895 59.005794866390715 0 59.005794866390715 -306.19168494635687 0 0 0 0 283.58380566605774 -365.04762527954108 0 -365.04762527954108 285.44612114062056 0 0 0 0 338.58822706802312 -181.20037789670494 0 -181.20037789670494 -50.870469259526089 0 0 0 0 53.233092815586161 1.3268934690943297 0 1.3268934690943297 -2.7454283226800982 0 0 0 0 86.669876875519549 -364.27995577263363 0 -364.27995577263363 745.96592828003804 0 0 0 0 39.286307779486947 8.4072890721150273 0 8.4072890721150273 -0.28407206159331011 0 0 0 0 -1.4043756929149822 96.597306125514137 0 96.597306125514137 -223.94858104468472 0 0 0 0 59.336727362664533 211.30685198574633 0 211.30685198574633 -490.64073504450107 0 0 0 0 102.54493280929455 39.191066448151446 0 39.191066448151446 -241.47187092744457 0 0 0 0 111.3568183859461 130.50518547002901 0 130.50518547002901 -234.60700693744866 0 0 0 0 85.497525991378097 -23.708666570465425 0 -23.708666570465425 -101.39113145963506 0 0 0 0 27.201597179897362 31.568633633287618 0 31.568633633287618 -321.94133120893844 0 0 0 0 -167.61198835425603 244.510131438592 0 244.510131438592 -288.69041133494466 0 0 0 0 104.94076585963194 118.16423002041847 0 118.16423002041847 -236.97707528886235 0 0 0 0 55.235623747525096 195.19196156467396 0 195.19196156467396 -195.10493238978597 0 0 0 0 -187.7938141374616 323.72729364534007 0 323.72729364534007 -421.7215147120985 0 0 0 0 72.119728925625168 103.15601346286647 0 103.15601346286647 -135.30122584015135 0 0 0 0 -5.7986638426191348 363.42464390829457 0 363.42464390829457 -425.6021278556118 0 0 0 0 13.802525800738721 1.8162665515196323 0 1.8162665515196323 -0.56384288767572555 0 0 0 0 282.10129910608521 289.21910805292282 0 289.21910805292282 -553.55612462625845 0 0 0 0 107.55206152829487 -290.85139018406636 0 -290.85139018406636 802.96997415064607 0 0 0 0 463.6899755080085 -862.14181840176366 0 -862.14181840176366 993.90780742419543 0 0 0 0 396.73171119147446 416.80885045427021 0 416.80885045427021 284.99053391121697 0 0 0 0 1036.2775820423994 -499.46212785496004 0 -499.46212785496004 349.17505691278973 0 0 0 0 135.10930465138631 290.36895191143532 0 290.36895191143532 80.466678649763537 0 0 0 0 -111.00854297917977 35.146925172702595 0 35.146925172702595 837.15932482438348 0 0 0 0 1701.0815319342655 -660.29190006063163 0 -660.29190006063163 -284.48147134883993 0 0 0 0 10.164052190928487 247.56097066708389 0 247.56097066708389 -411.467813144155 0 0 0 0 -0.26697526508678493 -1.4200253524729192 0 -1.4200253524729192 -2.0316023590603063 0 0 0 0 462.6144698101416 -217.94491372773336 0 -217.94491372773336 17.875821338967853 0 0 0 0 167.02295291943301 -43.601296956015403 0 -43.601296956015403 14.447851949951655 0 0 0 0 122.05571866602986 -31.018121875288443 0 -31.018121875288443 29.275359571699028 0 0 0 0 4.8803932660264309 -9.7550865180429511 0 -9.7550865180429511 -1.3868704493590309 0 0 0 0 182.17885826417478 94.914935338393207 0 94.914935338393207 -158.44343663146276 0 0 0 0 110.38238341231772 67.440533988824996 0 67.440533988824996 -14.579383689545921 0 0 0 0 220.22109342717158 16.598250371591917 0 16.598250371591917 -3.6404404542736302 0 0 0 0 452.70832314858853 76.772830871566384 0 76.772830871566384 -292.25348029665338 0 0 0 0 227.08755407072022 -20.58055435119411 0 -20.58055435119411 -8.0479132730481524 0 0 0 0 207.75954274451942 76.318611514339636 0 76.318611514339636 -30.098414026878061 0 0 0 0 152.22377750411397 56.043314533330033 0 56.043314533330033 22.354369321804143 0 0 0 0 129.16712861217093 85.456940567251763 0 85.456940567251763 -12.318421276314439 0 0 0 0 134.28302492793591 49.036200158077008 0 49.036200158077008 19.992982775231894 0 0 0 0 125.10363379300543 47.188528618824137 0 47.188528618824137 61.117091691277892 0 0 0 0 139.53545986759127 28.852501254748631 0 28.852501254748631 34.773744678362618 0 0 0 0 151.65054600942676 20.814492907256323 0 20.814492907256323 29.536208242638168 0 0 0 0 149.33913557113556 8.1359794282386986 0 8.1359794282386986 19.894552812431357 0 0 0 0 136.93932116648193 7.1684044862746745 0 7.1684044862746745 30.368191969186228 0 0 0 0 137.41973467235857 -6.5714418281255611 0 -6.5714418281255611 13.472679859029995 0 0 0 0 126.63437860208796 9.4215013025477674 0 9.4215013025477674 46.284019664640255 0 0 0 0 124.84713049439597 31.540932297027325 0 31.540932297027325 47.043251928515247 0 0 0 0 121.24472642860928 17.915022208727976 0 17.915022208727976 57.245341539297897 0 0 0 0 123.62293302989565 17.218051400316313 0 17.218051400316313 56.177463587873376 0 0 0 0 128.49640420254582 23.967011392236657 0 23.967011392236657 62.55591017398865 0 0 0 0 102.20881100431143 -36.378758842427487 0 -36.378758842427487 11.897831839399572 0 0 0 0 119.16389317128051 -21.074786094750039 0 -21.074786094750039 9.7690191667199997 0 0 0 0 168.61397013496025 0.60142862990471713 0 0.60142862990471713 2.5772994694657427 0 0 0 0 139.51694497070275 -5.2720078529902139 0 -5.2720078529902139 1.654519934239147 0 0 0 0 125.07426995632704 3.4831520222811605 0 3.4831520222811605 8.9998597225057893 0 0 0 0 133.44516867710627 -20.651928950994943 0 -20.651928950994943 34.005007155724797 0 0 0 0 134.29750849487027 -16.013301288570347 0 -16.013301288570347 1.0700034985686102 0 0 0 0 29.612704107465106 -19.898273010989328 0 -19.898273010989328 31.054602178600135 0 0 0 0 13.094364631449935 -89.203887132673813 0 -89.203887132673813 114.06408380310924 0 0 0 0 132.0746072815673 5.6734476917540633 0 5.6734476917540633 -7.1528425569007368 0 0 0 0 220.36097669022274 -26.409716646229018 0 -26.409716646229018 4.367525343657757 0 0 0 0 166.54229026479879 -107.12137032450353 0 -107.12137032450353 70.529894563445197 0 0 0 0 -3.5486533601337555 1.4586735555125898 0 1.4586735555125898 2.2695100988662937 0 0 0 0 104.19286350358743 -40.817853734108638 0 -40.817853734108638 46.531751225986 0 0 0 0 144.87228271794811 -33.956212832660526 0 -33.956212832660526 19.416049903811199 0 0 0 0 123.42490470258053 -33.182860238068997 0 -33.182860238068997 45.576882422056201 0 0 0 0 112.88136125044548 -22.238299319032421 0 -22.238299319032421 34.509041932968728 0 0 0 0 115.81825370550359 -11.937726995121054 0 -11.937726995121054 60.189308781360296 0 0 0 0 111.80985346302623 -2.914586630418853 0 -2.914586630418853 46.533764226898896 0 0 0 0 121.19013739033835 8.0149444416234132 0 8.0149444416234132 62.527696625629972 0 0 0 0 112.57589988983818 10.582443062388847 0 10.582443062388847 65.734685170655325 0 0 0 0 96.911288298979343 6.5568117342221086 0 6.5568117342221086 68.902720531311502 0 0 0 0 71.060403744180803 -6.6129821711041927 0 -6.6129821711041927 62.553532553606601 0 0 0 0 83.881984579580603 -20.331359425668495 0 -20.331359425668495 58.110887622432699 0 0 0 0 102.13984678038832 -36.580297478035718 0 -36.580297478035718 68.60148534300879 0 0 0 0 43.56850927209598 -9.3365476316621709 0 -9.3365476316621709 79.120715242575884 0 0 0 0 80.141869227816642 9.8025633385552737 0 9.8025633385552737 26.041703719934162 0 0 0 0 -26.271977810902172 -79.716988440383602 0 -79.716988440383602 -19.350496441388827 0 0 0 0 74.505012683526729 -0.97079745655253191 0 -0.97079745655253191 -60.184238382761649 0 0 0 0 -21.077483793138526 -144.83387670466118 0 -144.83387670466118 -145.02054847410409 0 0 0 0 60.490884226019261 -58.519238763697729 0 -58.519238763697729 -59.265923332151715 0 0 0 0 146.81419606844429 -66.718821737548424 0 -66.718821737548424 -64.422143459483991 0 0 0 0 95.219079452945152 3.6181133837299626 0 3.6181133837299626 123.10795775860296 0 0 0 0 88.689616615112755 -53.032965153866797 0 -53.032965153866797 -61.302903048371661 0 0 0 0 323.97643597411661 41.829465226092594 0 41.829465226092594 -0.63346975750795309 0 0 0 0 1.933297720732142 0.59152757611046525 0 0.59152757611046525 -0.92407864925587924 0 0 0 0 470.26804827176966 -35.445650636472692 0 -35.445650636472692 -31.177979778450208 0 0 0 0 295.54367818882747 179.9216973053918 0 179.9216973053918 157.73261579844961 0 0 0 0 964.37043106002966 -0.27728937274889631 0 -0.27728937274889631 -37.496031512582817 0 0 0 0 -135.29331945023296 -116.79886816362263 0 -116.79886816362263 407.9804786285726 0 0 0 0 1467.2901739656518 249.18772576184898 0 249.18772576184898 65.606168918532603 0 0 0 0 -0.51273397946599175 0.24269666393939815 0 0.24269666393939815 1.4819593819761157 0 0 0 0 739.70427607832244 453.5970941657921 0 453.5970941657921 490.78762405682255 0 0 0 0 74.901789907438797 103.2094223510544 0 103.2094223510544 500.68139624336936 0 0 0 0 501.04744922195096 359.5114313998792 0 359.5114313998792 484.1452824852114 0 0 0 0 332.85988889857254 71.525424762736037 0 71.525424762736037 118.6347137892617 0 0 0 0 76.925494638111559 -92.850124637269118 0 -92.850124637269118 152.31925789123233 0 0 0 0 10.223710199810739 45.124855884571957 0 45.124855884571957 31.139314485623515 0 0 0 0 143.61593670459115 29.763750048064111 0 29.763750048064111 18.468231497561632 0 0 0 0 282.79707162716659 134.17661627700784 0 134.17661627700784 66.466519885624848 0 0 0 0 132.76651008908811 62.268901923202606 0 62.268901923202606 53.895176453471151 0 0 0 0 210.30886421730975 89.453868269673364 0 89.453868269673364 47.794702390457289 0 0 0 0 156.80393099859066 23.104743204960357 0 23.104743204960357 56.498015328270299 0 0 0 0 101.33725736547785 52.352352076416878 0 52.352352076416878 50.844139914303469 0 0 0 0 150.43797663989972 37.881223170297517 0 37.881223170297517 64.263679535874417 0 0 0 0 120.04634412880114 7.5814564842620484 0 7.5814564842620484 72.90739018860063 0 0 0 0 122.30477587781206 22.206639886847157 0 22.206639886847157 78.252249232286886 0 0 0 0 209.53086689203337 28.09763202131262 0 28.09763202131262 49.494961419461561 0 0 0 0 211.9775882975955 21.787911660543273 0 21.787911660543273 39.535914576139589 0 0 0 0 312.36525176345822 44.236320013633147 0 44.236320013633147 8.4489091088639725 0 0 0 0 310.49883640000189 36.163796016579738 0 36.163796016579738 17.587133417041628 0 0 0 0 364.23331356359631 37.391388504737236 0 37.391388504737236 3.2289247157312957 0 0 0 0 252.99999135367034 -103.57113777122305 0 -103.57113777122305 14.833864377765167 0 0 0 0 2.0487787650013018 -1.1037077780284363 0 -1.1037077780284363 -0.17921966195888794 0 0 0 0 352.72448796247772 -53.895047670294161 0 -53.895047670294161 44.886088876380654 0 0 0 0 252.43701467536448 -64.944512165419951 0 -64.944512165419951 121.02066899651891 0 0 0 0 161.93609998479951 27.084922729151685 0 27.084922729151685 123.78717247168836 0 0 0 0 144.18322141746467 7.0922540267577006 0 7.0922540267577006 88.277865603207829 0 0 0 0 139.49858564634633 28.888007199227786 0 28.888007199227786 61.025566623797204 0 0 0 0 291.36001917715475 -6.0505134430559337 0 -6.0505134430559337 49.148368531860569 0 0 0 0 156.84449341829168 7.6439637104579106 0 7.6439637104579106 98.581722754101747 0 0 0 0 164.04663580880151 16.722559454992904 0 16.722559454992904 68.087103915768694 0 0 0 0 112.6296798819676 22.114957734906511 0 22.114957734906511 91.025398479642263 0 0 0 0 127.70821172217256 51.338964212964129 0 51.338964212964129 47.559377159387623 0 0 0 0 123.06763291958487 54.043651967101596 0 54.043651967101596 -5.6977225969053507 0 0 0 0 93.712439313545474 65.299579635728037 0 65.299579635728037 53.785816684312067 0 0 0 0 116.94793732248945 70.919033074424306 0 70.919033074424306 56.032135716447897 0 0 0 0 139.61662977142259 -6.8427534212621595 0 -6.8427534212621595 74.094173848848186 0 0 0 0 62.37432655712837 124.17697333765346 0 124.17697333765346 -83.057166307102307 0 0 0 0 85.615350855889119 15.783747537109576 0 15.783747537109576 -92.634230053958163 0 0 0 0 62.502176038222387 71.804991480467379 0 71.804991480467379 4.6202906664373131 0 0 0 0 121.50917825922079 98.772559261696642 0 98.772559261696642 -135.72242173925724 0 0 0 0 285.47502509871265 -52.936851846080685 0 -52.936851846080685 90.255187861655486 0 0 0 0 134.77290855576575 32.618188024327992 0 32.618188024327992 90.665542915467285 0 0 0 0 168.51040266870405 87.772776396781865 0 87.772776396781865 -34.196616951831857 0 0 0 0 264.64001841767458 -24.825556743178026 0 -24.825556743178026 -104.09155646081604 0 0 0 0 58.128386146883713 -58.286506741539029 0 -58.286506741539029 2.9195142591340755 0 0 0 0 69.90385924889415 -98.956341674054784 0 -98.956341674054784 131.67419748621921 0 0 0 0 0.3910257509340056 -1.8939069501605417 0 -1.8939069501605417 -5.2511156114745487 0 0 0 0 0.983644822879711 -0.62296301451415559 0 -0.62296301451415559 -1.3040874168962659 0 0 0 0 5.7214070329864626 -2.8104254003270697 0 -2.8104254003270697 17.496024959524391 0 0 0 0 10.722113301533682 -2.3142020475658569 0 -2.3142020475658569 -5.5023330356480145 0 0 0 0 11.525003088490848 -5.5153313918629685 0 -5.5153313918629685 -7.8479259412258671 0 0 0 0 8.3708006683446001 -2.3814040273995261 0 -2.3814040273995261 -6.2293869161343878 0 0 0 0 7.3537344923454668 -1.2584416364251254 0 -1.2584416364251254 -2.9356545383926571 0 0 0 0 2.7816166784227647 0.37411507818076473 0 0.37411507818076473 -4.5518162395737995 0 0 0 0 5.6343367290683091 -7.4214570364074461 0 -7.4214570364074461 3.0070824929580056 0 0 0 0 7.9707796420698287 -2.0090536101404979 0 -2.0090536101404979 -5.2982577473270567 0 0 0 0 6.303315559444286 -0.47973393371088946 0 -0.47973393371088946 -2.9969988604758324 0 0 0 0 9.1199037619662704 -0.17114675576476657 0 -0.17114675576476657 -3.9340818321152824 0 0 0 0 9.9128317918083724 -1.151152018484602 0 -1.151152018484602 -6.5864090541500131 0 0 0 0 20.621486637137878 2.8230749008100915 0 2.8230749008100915 -14.708545812782631 0 0 0 0 8.5091608892398654 -1.3306106654891892 0 -1.3306106654891892 -5.8774453172193972 0 0 0 0 34.073945295924204 4.8492660909016649 0 4.8492660909016649 -15.514027939228868 0 0 0 0 4.3595055462574237 1.3703773346143748 0 1.3703773346143748 -3.5006730924145018 0 0 0 0 0.4441470788480899 3.2688177108143464 0 3.2688177108143464 -10.819859756782915 0 0 0 0 18.179193858568397 54.428987266263661 0 54.428987266263661 62.9605785413371 0 0 0 0 16.999568286264548 41.712350068305341 0 41.712350068305341 141.00686412600635 0 0 0 0 44.140069273977133 44.549655260442137 0 44.549655260442137 44.819628408267818 0 0 0 0 0.24006424418436723 4.5030351391619945 0 4.5030351391619945 1.6243250710825614 0 0 0 0 20.561756497692841 -30.219016275764602 0 -30.219016275764602 -27.476786103853897 0 0 0 0 27.005954999760434 1.4774540053451801 0 1.4774540053451801 -16.658078358574812 0 0 0 0 23.038214617445192 -1.8984157289345376 0 -1.8984157289345376 -5.3186731197829431 0 0 0 0 15.121797111238635 -6.4253563606394053 0 -6.4253563606394053 0.94032340317144714 0 0 0 0 22.03388882666286 -10.867780231344582 0 -10.867780231344582 -29.021315757404409 0 0 0 0 9.9965904369637144 -3.9807060670985948 0 -3.9807060670985948 1.6100974703712141 0 0 0 0 9.9252277830210005 -33.156268348682332 0 -33.156268348682332 48.990706914857014 0 0 0 0 1.0239148257585668 -2.4009547626988237 0 -2.4009547626988237 -0.069029173821478662 0 0 0 0 8.3651365975820227 -20.021533642383645 0 -20.021533642383645 -0.9270993043592739 0 0 0 0 9.6673061554702144 0.60388132441890363 0 0.60388132441890363 -19.907794626734642 0 0 0 0 6.2228671054181177 -17.021377478473923 0 -17.021377478473923 -14.560961330684572 0 0 0 0 -15.124014687069575 -22.684799072232543 0 -22.684799072232543 43.133005889001971 0 0 0 0 342.16060822058353 -13.950766148110063 0 -13.950766148110063 -1.7750191582973684 0 0 0 0 33.041583101192373 71.685878643028929 0 71.685878643028929 40.84573084300834 0 0 0 0 -0.80569142411314942 0.1107566059517282 0 0.1107566059517282 0.43416367626037339 0 0 0 0 222.54716307984199 70.505431457240121 0 70.505431457240121 40.067450137718687 0 0 0 0 33.383668486436363 28.913855498565255 0 28.913855498565255 104.91465730710732 0 0 0 0 74.068982989861979 51.939875298448044 0 51.939875298448044 -12.1740614539018 0 0 0 0 138.07027182597085 121.5277487129519 0 121.5277487129519 61.644827618274036 0 0 0 0 217.29492273159121 61.840181175315593 0 61.840181175315593 -19.06665697796393 0 0 0 0 161.93406807726569 92.426184226775632 0 92.426184226775632 -125.4966837499569 0 0 0 0 165.47067256726586 121.20927125536539 0 121.20927125536539 -16.576856488302724 0 0 0 0 132.06068626153137 113.90596587809492 0 113.90596587809492 -36.485386031956637 0 0 0 0 140.89435931039043 121.14517325254758 0 121.14517325254758 -112.58317937302698 0 0 0 0 149.44241115375189 130.8526740555655 0 130.8526740555655 -185.54968799559953 0 0 0 0 63.791977185581345 -1.7967136401801724 0 -1.7967136401801724 -236.6573418340862 0 0 0 0 112.1218859522196 139.37148555501972 0 139.37148555501972 -305.54472776783734 0 0 0 0 103.73816033109324 50.904481677423519 0 50.904481677423519 -150.40651114717483 0 0 0 0 72.277759551623603 49.236114072937951 0 49.236114072937951 -45.162603799085105 0 0 0 0 -0.453630762953253 9.8303251437475581 0 9.8303251437475581 36.937135948267894 0 0 0 0 72.590167931040924 58.802875451007345 0 58.802875451007345 -38.303301756900169 0 0 0 0 39.397508240566822 33.863537905749212 0 33.863537905749212 46.381145678302651 0 0 0 0 -1.1028845468558757 15.347501965679013 0 15.347501965679013 5.2577407505840199 0 0 0 0 61.240406148848706 -55.658490430638494 0 -55.658490430638494 4.335466219594764 0 0 0 0 31.394825984083582 81.367131385437006 0 81.367131385437006 -141.90127655243782 0 0 0 0 76.694010305451229 60.223106992896419 0 60.223106992896419 -321.03244431097505 0 0 0 0 16.740106552075304 -23.461806584891804 0 -23.461806584891804 -38.25483155946543 0 0 0 0 21.327454375063098 119.50766502939265 0 119.50766502939265 -274.62529589150438 0 0 0 0 -0.29498132938925892 -0.56454224530857289 0 -0.56454224530857289 -2.1306446549723632 0 0 0 0 33.550366857889458 82.043419744478342 0 82.043419744478342 -152.61636993036456 0 0 0 0 75.374089831282618 83.731772139794941 0 83.731772139794941 -306.74051025323115 0 0 0 0 86.897836721858539 26.633967182366995 0 26.633967182366995 6.1750743053981072 0 0 0 0 -107.48934807180194 108.90733957695062 0 108.90733957695062 -154.87411192012917 0 0 0 0 64.523098861895249 16.768967292916805 0 16.768967292916805 1.781168653948715 0 0 0 0 199.42008392159187 -394.29138830885404 0 -394.29138830885404 434.68874448164433 0 0 0 0 82.683800777325814 89.541153290506543 0 89.541153290506543 -342.13151519140786 0 0 0 0 14.310110350442756 -2.4472067568066365 0 -2.4472067568066365 -1.5148778730662542 0 0 0 0 659.44509436836233 84.921330899857821 0 84.921330899857821 -702.21205284341067 0 0 0 0 67.717777498353826 -511.673686257383 0 -511.673686257383 1135.4009035345334 0 0 0 0 1262.4427333272615 -587.46831772046835 0 -587.46831772046835 -597.9251849944867 0 0 0 0 -514.34581033993163 394.45486664819873 0 394.45486664819873 1149.1312083066769 0 0 0 0 96.391998628241709 99.784904206515762 0 99.784904206515762 -102.30901399874364 0 0 0 0 -393.44155372714158 1015.9429584994032 0 1015.9429584994032 531.10070106354033 0 0 0 0 -57.42004609585274 835.5193119472242 0 835.5193119472242 -513.20014072054107 0 0 0 0 105.18031004283694 31.103281434995608 0 31.103281434995608 -101.14437208615817 0 0 0 0 96.347539159176222 34.670911041478583 0 34.670911041478583 5.1597863664566566 0 0 0 0 126.87170767309772 21.890632150423762 0 21.890632150423762 -155.10541570287313 0 0 0 0 136.39301190906554 55.273133786231369 0 55.273133786231369 -172.4242138108433 0 0 0 0 133.82298915146384 60.235853058777082 0 60.235853058777082 -181.67002744636875 0 0 0 0 153.73531730772811 89.554753034327632 0 89.554753034327632 -179.0611684431878 0 0 0 0 132.23548955908336 126.76071122615718 0 126.76071122615718 -228.92287521254889 0 0 0 0 169.51968385648797 63.851382766361127 0 63.851382766361127 -290.9424627978575 0 0 0 0 174.41804815258365 139.42257088027068 0 139.42257088027068 -288.51880263461283 0 0 0 0 178.30688051928882 24.562439511530471 0 24.562439511530471 -204.79527634190401 0 0 0 0 187.0895444734706 24.815133509412405 0 24.815133509412405 -475.46898072023316 0 0 0 0 133.37619919463759 147.51754302884623 0 147.51754302884623 -204.33102261656393 0 0 0 0 175.73178150872991 121.03342193476574 0 121.03342193476574 -197.5964799036596 0 0 0 0 170.26618691260956 138.81926408496253 0 138.81926408496253 -226.57366629985654 0 0 0 0 138.23619517531188 107.33919623445644 0 107.33919623445644 -267.48653156487717 0 0 0 0 137.43596228753449 111.46163546132334 0 111.46163546132334 -205.01867386742714 0 0 0 0 65.081386474659666 174.6457927303959 0 174.6457927303959 -274.07248293614197 0 0 0 0 80.698955385392765 139.4109718067989 0 139.4109718067989 -214.15462624744742 0 0 0 0 129.09863022160062 123.00525518746289 0 123.00525518746289 -208.63192905694882 0 0 0 0 83.471203099310515 147.92105045138987 0 147.92105045138987 -164.465463414883 0 0 0 0 444.07249605735342 -47.155422648881938 0 -47.155422648881938 -167.38971630040396 0 0 0 0 442.44013096197159 -19.853398008926547 0 -19.853398008926547 -373.18143494349147 0 0 0 0 666.4326266371645 7.9395740953935601 0 7.9395740953935601 -103.87278613101432 0 0 0 0 668.14214702426398 2.2923583473548774 0 2.2923583473548774 -238.2032520691175 0 0 0 0 405.46380041485827 -66.353631445543016 0 -66.353631445543016 -135.83509550510189 0 0 0 0 410.11603061588539 -64.920836147343081 0 -64.920836147343081 -245.81508297371312 0 0 0 0 168.71134342235746 -8.4210970009267498 0 -8.4210970009267498 -113.43989702696976 0 0 0 0 140.91203664775821 152.05821517053835 0 152.05821517053835 -284.66574816980335 0 0 0 0 177.96815908476128 -15.159649215644663 0 -15.159649215644663 -190.68035993082066 0 0 0 0 62.957671633637801 103.52621273188365 0 103.52621273188365 -145.27093571947717 0 0 0 0 -142.56477504139184 90.325296398249577 0 90.325296398249577 -225.34566127605726 0 0 0 0 52.294781512173358 169.45978262864725 0 169.45978262864725 -283.43161020101883 0 0 0 0 174.39085083606187 69.213432877763793 0 69.213432877763793 -604.78589382255188 0 0 0 0 28.564905765510048 241.4299217331727 0 241.4299217331727 -488.52479692779144 0 0 0 0 204.00621324847452 -13.0662423856553 0 -13.0662423856553 -198.64118796188936 0 0 0 0 150.95130581542617 -139.94415999184528 0 -139.94415999184528 -479.37757667578887 0 0 0 0 128.03417907666881 239.02255155563137 0 239.02255155563137 -544.00372493488715 0 0 0 0 260.19695100343961 103.60010902065699 0 103.60010902065699 -239.78218571145248 0 0 0 0 43.782151755876839 84.891583436776273 0 84.891583436776273 42.468571022509423 0 0 0 0 225.76751878122741 60.483294511342706 0 60.483294511342706 -232.13030366618113 0 0 0 0 24.164677965964074 56.827471661906884 0 56.827471661906884 -45.086863055530102 0 0 0 0 13.236009392901906 103.48322539353273 0 103.48322539353273 16.992627030889707 0 0 0 0 28.037534108292164 34.339767690395618 0 34.339767690395618 18.790562036931544 0 0 0 0 192.42379845018149 168.58155613474037 0 168.58155613474037 -195.70392471138166 0 0 0 0 130.68340272549085 87.562677861212137 0 87.562677861212137 -91.646992615800855 0 0 0 0 111.60901158995694 -248.14017147546599 0 -248.14017147546599 -225.63146380859689 0 0 0 0 15.137772173029006 5.1135163883037791 0 5.1135163883037791 -0.089288287406231293 0 0 0 0 -363.55091295650345 236.72068772558299 0 236.72068772558299 -85.378250600696674 0 0 0 0 30.600794872778351 -9.9907013646934502 0 -9.9907013646934502 -0.0025692699855426326 0 0 0 0 41.416686039089086 -17.697801580790113 0 -17.697801580790113 -22.114743955786967 0 0 0 0 317.24976478941971 74.611969890471073 0 74.611969890471073 -5.1258865373838489 0 0 0 0 456.71111801060033 8.2366726017830842 0 8.2366726017830842 -95.773683120967689 0 0 0 0 493.75219538460806 105.91391867746273 0 105.91391867746273 -180.17848192050837 0 0 0 0 199.1731953178587 78.210233067934723 0 78.210233067934723 -81.462952381394189 0 0 0 0 427.34021316975122 10.095296724128502 0 10.095296724128502 -209.99143095836723 0 0 0 0 739.55393597217335 -12.137193897599104 0 -12.137193897599104 -183.79768574210334 0 0 0 0 473.93687606556705 54.930700861217417 0 54.930700861217417 -43.747207051649184 0 0 0 0 778.08253676031018 76.711271045375952 0 76.711271045375952 -105.32001502595313 0 0 0 0 1160.7358978336415 153.43631686128947 0 153.43631686128947 -144.39259286039055 0 0 0 0 1083.6411869956428 217.45120436281775 0 217.45120436281775 -56.368233489267595 0 0 0 0 992.01512343445211 18.279944622087044 0 18.279944622087044 -207.42665165787531 0 0 0 0 763.05491605750649 63.919376210198834 0 63.919376210198834 -55.924663703595343 0 0 0 0 1378.0433550520247 413.65470652083872 0 413.65470652083872 79.669565168170493 0 0 0 0 1362.355142186334 263.52434632714551 0 263.52434632714551 -116.94778833780367 0 0 0 0 1155.1740734587656 153.31530284293251 0 153.31530284293251 -15.815068060146956 0 0 0 0 1061.1603975762191 222.31087722568418 0 222.31087722568418 -38.15706569254899 0 0 0 0 1130.8401550693816 159.85487251044822 0 159.85487251044822 -132.61035414272652 0 0 0 0 956.45270402001915 27.897494466326236 0 27.897494466326236 -163.29496224848361 0 0 0 0 928.72043647027749 57.92512763978786 0 57.92512763978786 -178.22212015130322 0 0 0 0 817.43474030419748 0.91140071404952394 0 0.91140071404952394 -139.4876537171109 0 0 0 0 650.16072762782278 1.725026432859579 0 1.725026432859579 -107.07580188818488 0 0 0 0 882.08841864154601 137.6371818797393 0 137.6371818797393 -112.38264296093448 0 0 0 0 567.84230760652281 29.5644898244487 0 29.5644898244487 -69.278909776616473 0 0 0 0 1070.5458658822681 223.61884229506998 0 223.61884229506998 -134.36036171189329 0 0 0 0 916.22450389423466 108.92699808459298 0 108.92699808459298 -100.17594020770331 0 0 0 0 912.48506198562245 192.27383959297106 0 192.27383959297106 -145.34148645533151 0 0 0 0 941.0441894210453 167.22631236718254 0 167.22631236718254 -129.7608862557135 0 0 0 0 529.51488839558442 107.08524642122865 0 107.08524642122865 -47.285412409584467 0 0 0 0 761.08945512160062 82.383741126575927 0 82.383741126575927 -75.234483664692789 0 0 0 0 763.5917917573388 84.586926349835153 0 84.586926349835153 -106.86296007274598 0 0 0 0 542.6263321280785 55.723682017393145 0 55.723682017393145 12.202039295684301 0 0 0 0 402.23019758597729 -9.0334743113129861 0 -9.0334743113129861 31.676283104472077 0 0 0 0 400.7604721803491 0.62978429526084057 0 0.62978429526084057 3.8630266229141057 0 0 0 0 435.04308696894441 4.4537275304128912 0 4.4537275304128912 1.8270684771935208 0 0 0 0 424.72753036136783 -27.320557489660608 0 -27.320557489660608 -36.669039931618613 0 0 0 0 570.63544295381871 -31.647273993581301 0 -31.647273993581301 -82.939785753137585 0 0 0 0 416.11494122565273 -63.411188245537133 0 -63.411188245537133 -75.130205074560536 0 0 0 0 398.47121613597483 -13.516310959312932 0 -13.516310959312932 -103.58496823315056 0 0 0 0 643.99033779661113 -49.14820351709669 0 -49.14820351709669 -169.59967910965193 0 0 0 0 182.74479847766634 34.059610742230689 0 34.059610742230689 -79.444070085178623 0 0 0 0 205.17065585177625 38.804610037116518 0 38.804610037116518 -117.0256054408456 0 0 0 0 134.12105185452674 116.79908867622493 0 116.79908867622493 -102.64467093684686 0 0 0 0 323.61777398778941 -53.725738037677331 0 -53.725738037677331 -110.63746253727476 0 0 0 0 347.48673381419212 -44.841750527904566 0 -44.841750527904566 -33.555093381283143 0 0 0 0 339.4875120958277 23.934848993902161 0 23.934848993902161 -55.173079082101822 0 0 0 0 230.27672852527758 63.802958987073112 0 63.802958987073112 -89.890468333646055 0 0 0 0 223.13956602918915 67.212743703627694 0 67.212743703627694 -32.985566208536625 0 0 0 0 294.53679118366563 -11.337934435111549 0 -11.337934435111549 -73.755769926110247 0 0 0 0 357.1049374982249 57.312215737358088 0 57.312215737358088 -48.691782825402925 0 0 0 0 227.94067893961619 94.018362328962894 0 94.018362328962894 73.379361032210113 0 0 0 0 328.81830734631512 -13.506660225051462 0 -13.506660225051462 -8.5727813126414389 0 0 0 0 459.09635639516637 -20.075956742352616 0 -20.075956742352616 14.6384511376869 0 0 0 0 380.85648795880843 -38.199540793097697 0 -38.199540793097697 12.826850794567008 0 0 0 0 383.99424256320344 12.472784260909123 0 12.472784260909123 1.3901304301595019 0 0 0 0 389.8110784633609 -18.913105399719313 0 -18.913105399719313 63.292419434065607 0 0 0 0 345.38417997176293 -86.017926764458082 0 -86.017926764458082 237.20292291944938 0 0 0 0 404.36395623974386 183.17338794236389 0 183.17338794236389 114.5269316001062 0 0 0 0 1.7640928916848395 -1.3043041537944902 0 -1.3043041537944902 1.4142736679885601 0 0 0 0 593.1413789593571 89.354080271752181 0 89.354080271752181 -44.810185944587261 0 0 0 0 359.53793861476152 168.99218275224996 0 168.99218275224996 64.412986032575077 0 0 0 0 292.79343204857287 -22.568295819246742 0 -22.568295819246742 66.079751479636812 0 0 0 0 286.72273964447959 104.91559456475363 0 104.91559456475363 55.264145281342707 0 0 0 0 467.91175487393048 195.72063950686464 0 195.72063950686464 7.1085968636513144 0 0 0 0 3.4156043088085113 -3.4983824405217376 0 -3.4983824405217376 4.8330376941186888 0 0 0 0 233.73734598732699 34.311104414458214 0 34.311104414458214 32.216991100613939 0 0 0 0 216.14000240684982 66.743961703258435 0 66.743961703258435 -16.217142788778574 0 0 0 0 105.80521787698672 46.964212470345501 0 46.964212470345501 -19.506780571022716 0 0 0 0 386.35481016105405 170.97321282343887 0 170.97321282343887 -140.39098097081705 0 0 0 0 245.98094518328435 67.168858934713029 0 67.168858934713029 -24.144596575021751 0 0 0 0 410.87204991411636 183.05277443981009 0 183.05277443981009 78.060181494595838 0 0 0 0 3.9214264217765731 -1.1430259535824732 0 -1.1430259535824732 0.39750156304226714 0 0 0 0 288.76119310875947 236.83399522827904 0 236.83399522827904 152.47598028721541 0 0 0 0 30.99460490167985 -112.68539483276368 0 -112.68539483276368 94.808970998077712 0 0 0 0 565.35736123318566 367.44368544091077 0 367.44368544091077 115.1256224677971 0 0 0 0 740.46542036307073 401.62408502498653 0 401.62408502498653 123.50502919017276 0 0 0 0 610.73095506573009 303.86871665755871 0 303.86871665755871 183.79063652892532 0 0 0 0 460.91889716393052 235.07074601425023 0 235.07074601425023 169.92100866632467 0 0 0 0 1.6285064344539961 -3.707476785224614 0 -3.707476785224614 7.9901342550254064 0 0 0 0 62.013235135294963 -208.0970673623649 0 -208.0970673623649 258.9418553890232 0 0 0 0 589.58914141095738 286.33668183274062 0 286.33668183274062 103.13752291334063 0 0 0 0 598.64870814539972 276.2742298756466 0 276.2742298756466 96.334867954743686 0 0 0 0 755.21890457667178 319.31144107258416 0 319.31144107258416 34.068706586345229 0 0 0 0 758.74389997379149 316.60648864088733 0 316.60648864088733 -26.380063568773892 0 0 0 0 779.23449837397493 246.84160953408735 0 246.84160953408735 -75.289646207647223 0 0 0 0 592.00538261979091 205.27021515581819 0 205.27021515581819 6.7837775415826513 0 0 0 0 590.76232284633443 249.45479615889025 0 249.45479615889025 9.7693629252680125 0 0 0 0 715.68356372026028 133.98883294102191 0 133.98883294102191 -61.820477956237426 0 0 0 0 930.5439830075702 193.08889066002538 0 193.08889066002538 -145.34747430417804 0 0 0 0 744.38805082637373 221.99890453414241 0 221.99890453414241 -83.769573283871296 0 0 0 0 1000.6584958655367 310.89891587462273 0 310.89891587462273 -177.57337646728132 0 0 0 0 937.73758034707862 258.97980647421247 0 258.97980647421247 -212.50430015864518 0 0 0 0 981.36104759423324 286.56017746758965 0 286.56017746758965 -139.19801242511497 0 0 0 0 884.90989629674732 349.70404113137783 0 349.70404113137783 -43.205166659500833 0 0 0 0 767.81395922825322 359.8303226462865 0 359.8303226462865 156.84102312300681 0 0 0 0 999.99989005810494 461.26860011200347 0 461.26860011200347 58.599194266347581 0 0 0 0 1056.3721241574349 167.51073003580152 0 167.51073003580152 13.2122605319218 0 0 0 0 1168.9420824446279 336.95223213115435 0 336.95223213115435 -129.57900698370901 0 0 0 0 1144.2273291108431 601.07261362067777 0 601.07261362067777 137.76631011046231 0 0 0 0 1340.0616604340757 363.42192047262279 0 363.42192047262279 32.204465704710799 0 0 0 0 963.00352874625241 354.519829056405 0 354.519829056405 116.49665453638769 0 0 0 0 1984.013858175269 76.498184162426043 0 76.498184162426043 -460.45061224493872 0 0 0 0 3500.7808368246915 358.75785571965156 0 358.75785571965156 -488.56420025196411 0 0 0 0 2023.4390811950725 295.21106969130051 0 295.21106969130051 -99.102241980428147 0 0 0 0 3491.0333521576322 -532.17574806885489 0 -532.17574806885489 -410.73932355181785 0 0 0 0 933.50842322050812 306.74791059681826 0 306.74791059681826 -138.35515431175978 0 0 0 0 499.75981668755776 -1047.0821991707269 0 -1047.0821991707269 -162.28217473922666 0 0 0 0 1034.2873436376649 272.00939332382734 0 272.00939332382734 -280.28261889560741 0 0 0 0 3499.6193622483916 1885.9054167271872 0 1885.9054167271872 998.76292345959678 0 0 0 0 11.700407541960701 -5.4790299505060318 0 -5.4790299505060318 -0.17504273559582106 0 0 0 0 3499.7470895028423 1641.8913363628355 0 1641.8913363628355 689.7772717462459 0 0 0 0 3192.4705271426647 1756.8263362261221 0 1756.8263362261221 958.52792589381875 0 0 0 0 3204.1420409548809 1408.8563075971274 0 1408.8563075971274 538.86468612042688 0 0 0 0 3075.5082964111862 1608.7009016928012 0 1608.7009016928012 792.91392321160765 0 0 0 0 746.98585975613241 34.378704109658806 0 34.378704109658806 -296.41466462289873 0 0 0 0 25.147980842842173 -16.152457184324675 0 -16.152457184324675 -1.746375877529359 0 0 0 0 3137.3705489536114 1587.9543635496191 0 1587.9543635496191 799.79864652912784 0 0 0 0 939.9888125730904 260.50206664885843 0 260.50206664885843 -49.028879279128688 0 0 0 0 1039.7438516001712 216.2985160246954 0 216.2985160246954 -195.74846810183928 0 0 0 0 983.86551087450789 231.47346195967756 0 231.47346195967756 -34.672462209012224 0 0 0 0 1085.8617022542749 368.08378239499996 0 368.08378239499996 -1.2859595184180534 0 0 0 0 33.666832680374952 -23.171863923888893 0 -23.171863923888893 -2.5455795742774634 0 0 0 0 1154.3260847296769 353.62650875063946 0 353.62650875063946 -0.78662176901374892 0 0 0 0 2353.5542372030177 1109.9498130791492 0 1109.9498130791492 670.91303994438181 0 0 0 0 1072.8141585022531 293.50270566000256 0 293.50270566000256 126.39509154476698 0 0 0 0 1115.024113123628 370.8811099456841 0 370.8811099456841 21.112311883220002 0 0 0 0 1606.939570386261 568.81730769146884 0 568.81730769146884 143.72892765764263 0 0 0 0 39.146777023022111 -28.349513363874223 0 -28.349513363874223 -0.37806933115464725 0 0 0 0 1243.2094227087982 555.65107555485906 0 555.65107555485906 235.68006993133508 0 0 0 0 2929.108644457272 1333.5098224895389 0 1333.5098224895389 611.5840149564367 0 0 0 0 3016.46344124194 1107.8022483882671 0 1107.8022483882671 370.12279447765962 0 0 0 0 3499.76612682222 1383.7562395416587 0 1383.7562395416587 454.49705426086507 0 0 0 0 2707.276170096753 1287.3565658251248 0 1287.3565658251248 661.45033423121504 0 0 0 0 531.77719379532573 -0.15100548170024553 0 -0.15100548170024553 -76.217731084771572 0 0 0 0 53.88062513055047 177.62575900588729 0 177.62575900588729 81.172216336366546 0 0 0 0 486.53459143156942 320.55098092934196 0 320.55098092934196 -14.329979053357647 0 0 0 0 2505.0892992181616 -616.05358157754836 0 -616.05358157754836 -59.847695150711814 0 0 0 0 -0.24000500100288491 -3.0896998856085389 0 -3.0896998856085389 -0.73603583504173054 0 0 0 0 3499.2407862498621 -71.680674135566335 0 -71.680674135566335 -443.47963984322041 0 0 0 0 2396.9021427399348 -241.74063367503416 0 -241.74063367503416 22.062733205111574 0 0 0 0 1308.9926513984865 -131.25741602284197 0 -131.25741602284197 265.51445746968716 0 0 0 0 2399.3040399584133 -390.63205352057577 0 -390.63205352057577 -44.28377204151812 0 0 0 0 2854.5946781714192 597.0687027467045 0 597.0687027467045 -265.58384538426429 0 0 0 0 1876.7936837283487 773.11613390306434 0 773.11613390306434 37.642642233712962 0 0 0 0 1253.4100101203621 -1.7225984975143263 0 -1.7225984975143263 31.303192631519963 0 0 0 0 17.727753348464049 -15.916061872939437 0 -15.916061872939437 4.364146064107528 0 0 0 0 9.8783684602522044 -88.406138565189167 0 -88.406138565189167 -112.2327773075375 0 0 0 0 2.6735708454111844 -3.5869438138302137 0 -3.5869438138302137 4.4037091070631842 0 0 0 0 76.979214014027093 25.383297741618208 0 25.383297741618208 -43.824809580435698 0 0 0 0 60.202907412282912 -13.367606209379403 0 -13.367606209379403 -15.300544481367638 0 0 0 0 64.693429723963163 -17.196728720289457 0 -17.196728720289457 -19.914070295527381 0 0 0 0 77.333570548715215 -10.655787628200073 0 -10.655787628200073 -24.352835175316613 0 0 0 0 16.666085523545075 -19.282215493086149 0 -19.282215493086149 7.0383919584854233 0 0 0 0 52.019182331062439 -17.02318151937709 0 -17.02318151937709 20.140606224405246 0 0 0 0 33.131062478289842 -16.219396198638776 0 -16.219396198638776 9.3743328994634041 0 0 0 0 112.15809307261588 14.368454126312486 0 14.368454126312486 -7.0354726707978443 0 0 0 0 91.646299063257175 -17.890137310266596 0 -17.890137310266596 -21.495382581077479 0 0 0 0 55.891120975244121 9.4727786512305556 0 9.4727786512305556 8.4630825266541621 0 0 0 0 -24.684652614821971 4.4636617127696923 0 4.4636617127696923 70.410096830008683 0 0 0 0 102.2592831155489 20.725774780452639 0 20.725774780452639 10.816374909043489 0 0 0 0 84.509704383808639 -13.137100877569978 0 -13.137100877569978 33.479086796459683 0 0 0 0 270.84398238275026 -57.859445833771105 0 -57.859445833771105 34.531661759059375 0 0 0 0 3497.6656167124347 -1119.6147537874187 0 -1119.6147537874187 143.9972906035965 0 0 0 0 88.570877430760447 -0.76181854325267295 0 -0.76181854325267295 -5.3973297446722199 0 0 0 0 1.5573481608158772 -9.8677637376907015 0 -9.8677637376907015 -2.7870087189065149 0 0 0 0 2927.3559018745873 -1511.2099738413665 0 -1511.2099738413665 774.09119607222669 0 0 0 0 3492.497606885081 -3.6897596203303662 0 -3.6897596203303662 4.8915069880741848 0 0 0 0 -4.3760454351167795 -9.2737775748782614 0 -9.2737775748782614 6.8012262381947091 0 0 0 0 15.661379876965782 -0.99296623711619247 0 -0.99296623711619247 5.0069785285219321 0 0 0 0 52.032025841349366 1.7627307806814514 0 1.7627307806814514 -2.243563593606142 0 0 0 0 -1114.0654279497649 1869.0210642216473 0 1869.0210642216473 5545.7868625769906 0 0 0 0 1156.6682409094064 1092.5845663560822 0 1092.5845663560822 1256.0466308003342 0 0 0 0 3494.0406134565965 2610.0055209459883 0 2610.0055209459883 1079.9775629854225 0 0 0 0 1054.0496027019035 1650.7609673438974 0 1650.7609673438974 1753.6982831862126 0 0 0 0 457.24774813289514 446.94064630266769 0 446.94064630266769 601.09645459490355 0 0 0 0 2249.300297450478 1393.0892155515553 0 1393.0892155515553 191.52492811387245 0 0 0 0 2352.9441746231023 1451.0403422630261 0 1451.0403422630261 190.86757691283123 0 0 0 0 3500.1110567461728 1096.637930290954 0 1096.637930290954 -335.51792858275758 0 0 0 0 1389.8359942409988 1067.9937214750823 0 1067.9937214750823 577.21725500119805 0 0 0 0 1802.859148395255 785.97242226480171 0 785.97242226480171 54.106139817832229 0 0 0 0 2222.0022883119727 903.04030856217332 0 903.04030856217332 -29.618078282887438 0 0 0 0 1656.2222629438766 379.39121851839388 0 379.39121851839388 15.706713417387391 0 0 0 0 2349.8946527407443 713.15891255137444 0 713.15891255137444 -403.54711133144644 0 0 0 0 896.15153696148627 445.80038648518371 0 445.80038648518371 151.48911896497927 0 0 0 0 449.39950932537613 352.73324193426407 0 352.73324193426407 290.1341645885658 0 0 0 0 688.66194410390744 329.18524206976025 0 329.18524206976025 204.93011650141605 0 0 0 0 704.3254599157226 465.830095054102 0 465.830095054102 246.49644687677284 0 0 0 0 1482.374939214089 636.99970677356509 0 636.99970677356509 119.35824543592378 0 0 0 0 854.03927182071493 610.9207020697927 0 610.9207020697927 333.14589254106727 0 0 0 0 925.73860604387301 452.23187721867782 0 452.23187721867782 253.58829985389355 0 0 0 0 795.21437120009796 567.17099936212662 0 567.17099936212662 248.67009988642235 0 0 0 0 636.83119470982638 478.35898085859475 0 478.35898085859475 233.93942383995309 0 0 0 0 542.13719605695223 431.27970849656498 0 431.27970849656498 19.216220642416772 0 0 0 0 565.16825717512256 331.04045454293845 0 331.04045454293845 170.00080807272445 0 0 0 0 273.69330263167649 288.28965984370234 0 288.28965984370234 511.82396723335273 0 0 0 0 44.454626592542269 -19.761094762715551 0 -19.761094762715551 1.6359264074375268 0 0 0 0 264.52434440489264 12.32192106757439 0 12.32192106757439 177.55301119516798 0 0 0 0 69.38563080936521 -6.1407160257732212 0 -6.1407160257732212 -2.6411584241373309 0 0 0 0 68.554918006673688 16.222233913757719 0 16.222233913757719 1.3316480210253303 0 0 0 0 610.66643600956377 371.49178645653785 0 371.49178645653785 262.74502365184071 0 0 0 0 62.055816176246267 -19.280012921487586 0 -19.280012921487586 3.9568616172770117 0 0 0 0 68.993741132759169 -32.199404462676171 0 -32.199404462676171 -0.13302522441017572 0 0 0 0 54.936568558321596 -14.707215374395105 0 -14.707215374395105 64.612598979491793 0 0 0 0 56.560964781068833 -30.990230053236587 0 -30.990230053236587 39.018820724500983 0 0 0 0 102.65713803021936 -62.600945064314601 0 -62.600945064314601 6.6583242864380452 0 0 0 0 174.99780854826076 63.029539098447003 0 63.029539098447003 7.8316116471783062 0 0 0 0 102.38885339839908 35.120965309022949 0 35.120965309022949 2.1012189783700705 0 0 0 0 71.844321058993955 -0.71463795911290617 0 -0.71463795911290617 -4.7686910946050034 0 0 0 0 69.016402314777224 -13.156946706853205 0 -13.156946706853205 -8.9413549316124659 0 0 0 0 59.399227238301407 12.88966400088669 0 12.88966400088669 -0.11402635357089075 0 0 0 0 75.502476218600535 0.61058582775131853 0 0.61058582775131853 -3.2322085318067977 0 0 0 0 435.05250525951851 394.98771686837 0 394.98771686837 233.76514498073277 0 0 0 0 5.7174563272700709 -3.3374410687731881 0 -3.3374410687731881 0.33244488822180296 0 0 0 0 27.230630530539202 48.254929337761723 0 48.254929337761723 0.25063219820216887 0 0 0 0 71.682272189456853 101.20782274872886 0 101.20782274872886 -24.404923043859981 0 0 0 0 390.06740592775168 190.16931089038019 0 190.16931089038019 212.0703187159252 0 0 0 0 5.5945226437747237 -0.61728768290147684 0 -0.61728768290147684 6.5532075158477081 0 0 0 0 297.54771831916878 -87.313959683724306 0 -87.313959683724306 -29.784302947283322 0 0 0 0 333.03551291355689 169.1303427468481 0 169.1303427468481 -24.917918793729882 0 0 0 0 97.648919987972477 -56.378794922198381 0 -56.378794922198381 -34.490065371286704 0 0 0 0 179.88821127729534 66.035064411442931 0 66.035064411442931 -50.364036300785074 0 0 0 0 88.048702962270909 -37.735824806705352 0 -37.735824806705352 -66.101069732395445 0 0 0 0 90.847862730312045 -10.983664718373376 0 -10.983664718373376 -47.95769942680613 0 0 0 0 69.553599071029353 -4.9888962728527364 0 -4.9888962728527364 -2.2454764060218251 0 0 0 0 106.22640515098738 29.528357970872378 0 29.528357970872378 -67.021756821080544 0 0 0 0 77.281839506664966 1.3746135131194634 0 1.3746135131194634 -3.0005579663434201 0 0 0 0 53.835972942723245 9.9280378846626647 0 9.9280378846626647 -5.864776479727082 0 0 0 0 75.444605789427442 -23.02716017323371 0 -23.02716017323371 -20.94428716406432 0 0 0 0 65.868959380218257 -0.36732695036936747 0 -0.36732695036936747 12.090504521684124 0 0 0 0 104.53791417089815 -21.854899091934556 0 -21.854899091934556 24.028182696713486 0 0 0 0 52.270997111118838 14.287282686830046 0 14.287282686830046 -2.5365859730748399 0 0 0 0 60.54567556006441 -37.129123511614921 0 -37.129123511614921 22.260236135226933 0 0 0 0 131.30929270445154 -5.2930430833778246 0 -5.2930430833778246 -12.360766243378066 0 0 0 0 46.370949819448022 -23.493825289597989 0 -23.493825289597989 -0.23411384975910643 0 0 0 0 143.62760174777441 25.483806221101361 0 25.483806221101361 -6.4162525196650222 0 0 0 0 207.51707569043538 -122.45977311632646 0 -122.45977311632646 -11.707497911324566 0 0 0 0 59.669614635333346 32.332278324917752 0 32.332278324917752 19.309556777108128 0 0 0 0 0.6315304527021155 -0.68926599443085124 0 -0.68926599443085124 0.95447689642945921 0 0 0 0 342.58469953109761 76.437123540549578 0 76.437123540549578 -26.273426793152794 0 0 0 0 -45.729138421576863 -108.13311633195798 0 -108.13311633195798 4.3788711413994932 0 0 0 0 -30.58289339851035 -14.980955828980427 0 -14.980955828980427 33.525289009370795 0 0 0 0 52.940673536959366 -3.4003825493995237 0 -3.4003825493995237 -42.241282961779689 0 0 0 0 134.95889008660924 31.377150715931862 0 31.377150715931862 55.571616449726207 0 0 0 0 175.88968694021423 46.973278422131784 0 46.973278422131784 1.8617451421341684 0 0 0 0 17.799965265710853 -34.528244252329614 0 -34.528244252329614 -14.787423195797544 0 0 0 0 1.8068100838303565 -2.3634431299875551 0 -2.3634431299875551 2.4207073208105783 0 0 0 0 116.57356764744145 35.673686643956103 0 35.673686643956103 22.819789165343423 0 0 0 0 76.072399022758418 -10.624990686827232 0 -10.624990686827232 14.705463636201898 0 0 0 0 29.864425399040343 -25.259621443097725 0 -25.259621443097725 -2.6330247743635011 0 0 0 0 66.31761738961643 -36.324469658471735 0 -36.324469658471735 17.735870036945812 0 0 0 0 81.918403496377323 -23.595052147811089 0 -23.595052147811089 5.8628042369612103 0 0 0 0 44.303499830327382 118.27576278606057 0 118.27576278606057 1.679093594936603 0 0 0 0 110.96967551941998 94.478794693233795 0 94.478794693233795 30.720147379683453 0 0 0 0 69.317799160057348 32.48210313081735 0 32.48210313081735 7.9063662294170944 0 0 0 0 164.99699195510811 -16.405935284060433 0 -16.405935284060433 -8.7964674088711945 0 0 0 0 8.0501931090131826 7.2595826389319811 0 7.2595826389319811 1.3895272849654727 0 0 0 0 87.37435469799766 -143.3390658959602 0 -143.3390658959602 -136.88594279851907 0 0 0 0 105.59904931290293 -216.56124703280472 0 -216.56124703280472 -184.97557567080855 0 0 0 0 125.37451901944769 323.76365128759568 0 323.76365128759568 179.50318780908637 0 0 0 0 32.469197666170658 -226.61261801243484 0 -226.61261801243484 -119.3660388219743 0 0 0 0 68.945590119503436 18.950508695737195 0 18.950508695737195 -576.00213746215377 0 0 0 0 17.552335457412529 -7.7600245389934255 0 -7.7600245389934255 -9.8673524172707481 0 0 0 0 483.43967627442953 240.37861058687398 0 240.37861058687398 -122.29933714343935 0 0 0 0 345.52238344733632 -17.752738444001821 0 -17.752738444001821 -394.07564282795363 0 0 0 0 -0.24158902553718598 2.0432103464820361 0 2.0432103464820361 -14.413235222535837 0 0 0 0 -9.6148675466740769 8.0277668164275013 0 8.0277668164275013 77.838080849242772 0 0 0 0 94.406251730618152 -10.591046493434231 0 -10.591046493434231 -10.435776529328585 0 0 0 0 203.67465371262824 -82.398433428578073 0 -82.398433428578073 -102.12273880864041 0 0 0 0 107.72945232908114 -113.14562866946227 0 -113.14562866946227 -102.05375586650074 0 0 0 0 -72.11266554829308 -124.8267818141273 0 -124.8267818141273 -102.51926259224498 0 0 0 0 423.52681060732823 -29.653336917162022 0 -29.653336917162022 36.597355732990309 0 0 0 0 724.70550542657293 117.29221980999864 0 117.29221980999864 -84.483523027718547 0 0 0 0 30.857569627776684 -36.354262737320369 0 -36.354262737320369 112.01604590593229 0 0 0 0 -156.47603277687085 -23.868890519449906 0 -23.868890519449906 35.152466498477338 0 0 0 0 400.89649412251015 214.13281954496603 0 214.13281954496603 93.839863616567072 0 0 0 0 4.5956076824533056 -1.7141241550488253 0 -1.7141241550488253 -0.90784904431212521 0 0 0 0 166.25700564416547 108.90857655685761 0 108.90857655685761 114.64135503487978 0 0 0 0 113.81716682849219 3.9596480677207744 0 3.9596480677207744 75.545432941852184 0 0 0 0 121.80610808372148 -10.236164081201242 0 -10.236164081201242 19.250023881792025 0 0 0 0 26.874847764576771 8.0427906275472196 0 8.0427906275472196 75.660920079565585 0 0 0 0 108.56834373183483 22.309263956424275 0 22.309263956424275 4.5568372811371773 0 0 0 0 67.072199709910535 20.89894870399451 0 20.89894870399451 3.4862794416030258 0 0 0 0 17.035262343466457 41.314830874744075 0 41.314830874744075 -7.1506023975473454 0 0 0 0 38.186671316528859 -21.255593907497762 0 -21.255593907497762 -3.395212659202326 0 0 0 0 22.002639110532982 -27.316720543679139 0 -27.316720543679139 27.522780735179595 0 0 0 0 113.87945450997313 23.430792759505294 0 23.430792759505294 14.435785508390154 0 0 0 0 35.46612238007674 7.8615748981976665 0 7.8615748981976665 36.354304026705272 0 0 0 0 144.22644317430968 -26.647802741181383 0 -26.647802741181383 -24.334797522910083 0 0 0 0 82.256028173635059 -36.729721416802249 0 -36.729721416802249 -9.2361201198391427 0 0 0 0 38.336702711584806 -12.18006494535026 0 -12.18006494535026 -9.2141316978040884 0 0 0 0 92.795070693149682 20.830792843237774 0 20.830792843237774 -14.499544962163782 0 0 0 0 67.955800184641703 -7.9039981410199687 0 -7.9039981410199687 14.817472147652742 0 0 0 0 45.617755728420889 -41.64408017739504 0 -41.64408017739504 21.436402686532119 0 0 0 0 63.35043674804507 -6.5527963615200751 0 -6.5527963615200751 -3.2482994335777615 0 0 0 0 37.89632946295751 -26.12318933235224 0 -26.12318933235224 -3.9613283729264595 0 0 0 0 67.308618751067115 -1.3737101665237788 0 -1.3737101665237788 -5.4012350410287127 0 0 0 0 25.473094543042635 -9.4747961016101421 0 -9.4747961016101421 0.75319910977123072 0 0 0 0 29.207268850994296 65.423989706689554 0 65.423989706689554 55.760696093597517 0 0 0 0 37.743470665382119 42.652076158538591 0 42.652076158538591 -43.713000241520376 0 0 0 0 70.026029863845906 153.43809653198446 0 153.43809653198446 55.615330383864716 0 0 0 0 94.564626575820853 3.6827161894289944 0 3.6827161894289944 -12.134735921714526 0 0 0 0 107.74563014002706 81.219971700535666 0 81.219971700535666 -49.050755599248987 0 0 0 0 121.84631639511645 -9.2289477234307924 0 -9.2289477234307924 -56.095081974986215 0 0 0 0 20.802564965759444 3.2905306512282237 0 3.2905306512282237 0.89377967789154855 0 0 0 0 114.07129839645859 -19.076967307418556 0 -19.076967307418556 -6.827104353010327 0 0 0 0 134.045305152335 61.497316453192013 0 61.497316453192013 10.300217418260218 0 0 0 0 276.55913780000265 6.72966596791548 0 6.72966596791548 4.4864250548959035 0 0 0 0 115.9087036613937 23.875133076180987 0 23.875133076180987 25.530153898345361 0 0 0 0 170.77576241221323 105.80959383969525 0 105.80959383969525 64.32987087441154 0 0 0 0 9.0525175244177518 -5.1437082573825279 0 -5.1437082573825279 1.0920740356185528 0 0 0 0 98.558898266517645 65.039559139723224 0 65.039559139723224 -86.319216363357668 0 0 0 0 1.5112114719555692 -1.3966354128507845 0 -1.3966354128507845 -0.94079635822853946 0 0 0 0 -97.842906378340558 -73.756410219510599 0 -73.756410219510599 2.478402205072598 0 0 0 0 4.6663939938807744 -67.021572896552016 0 -67.021572896552016 69.205198515330039 0 0 0 0 117.22769994938244 82.292446453874561 0 82.292446453874561 58.071614306669289 0 0 0 0 13.099554112623792 -8.0022913771604181 0 -8.0022913771604181 2.7440560772316527 0 0 0 0 105.1233839933484 46.066345124472264 0 46.066345124472264 56.516414617726355 0 0 0 0 104.13746980549331 3.6891612559943496 0 3.6891612559943496 -41.106130277267766 0 0 0 0 94.262891829081369 7.6940684814845426 0 7.6940684814845426 -10.327065773942714 0 0 0 0 110.1885088018098 51.318287415896521 0 51.318287415896521 15.055661809527919 0 0 0 0 88.836466976455995 38.749347138082612 0 38.749347138082612 52.121650422417133 0 0 0 0 87.260414207279581 7.8811653754399984 0 7.8811653754399984 -10.184116613612527 0 0 0 0 101.57394498105486 -316.81675623225834 0 -316.81675623225834 -268.72730964624782 0 0 0 0 103.84759696164474 19.234870747278364 0 19.234870747278364 -17.353380515799472 0 0 0 0 126.81505536904297 5.4832469150716747 0 5.4832469150716747 -162.08281022332699 0 0 0 0 216.41952830806258 199.67195980358565 0 199.67195980358565 452.46960243036762 0 0 0 0 327.46151301026839 52.661324854025224 0 52.661324854025224 -406.31401404204712 0 0 0 0 614.25458292744588 -6.1935166991861479 0 -6.1935166991861479 19.980056157529134 0 0 0 0 168.15720064670313 337.85455109933559 0 337.85455109933559 395.86508036073934 0 0 0 0 8.4944088202173589 198.61749185048052 0 198.61749185048052 -35.009788850426389 0 0 0 0 86.165451685053995 21.298462927692526 0 21.298462927692526 21.53031369360906 0 0 0 0 94.44973632512847 -88.640033677195959 0 -88.640033677195959 -194.47182212071561 0 0 0 0 74.58718291571958 7.0028849439595398 0 7.0028849439595398 -10.855355335494401 0 0 0 0 78.552943084403523 17.436539027438812 0 17.436539027438812 30.81844630910382 0 0 0 0 -2.3029799082740539 -9.4629650608449509 0 -9.4629650608449509 0.71834044375168737 0 0 0 0 22.314391639229143 -20.103956036562067 0 -20.103956036562067 2.9042896670034679 0 0 0 0 178.70997104707021 207.80155771524642 0 207.80155771524642 -158.01517633743424 0 0 0 0 28.896399406659313 -1.8155303978123385 0 -1.8155303978123385 12.503577904833907 0 0 0 0 104.54817780581652 -20.392856709053376 0 -20.392856709053376 -141.77654011506536 0 0 0 0 14.13881123619106 -0.13773223503758913 0 -0.13773223503758913 -4.394246867996543 0 0 0 0 50.296450112713501 -65.210323113697086 0 -65.210323113697086 60.159615952798049 0 0 0 0 63.024630902873469 -3.2326855041756062 0 -3.2326855041756062 25.227733255724161 0 0 0 0 50.992894559110347 -9.9032013323609291 0 -9.9032013323609291 -4.8435879653238167 0 0 0 0 33.637390241286994 59.552350685128886 0 59.552350685128886 -42.052447047000896 0 0 0 0 142.32195217406843 2.9623201176298153 0 2.9623201176298153 -74.489051732783537 0 0 0 0 11.916913858420273 4.434692305547884 0 4.434692305547884 1.0644437230151764 0 0 0 0 78.36627906675858 38.830393743025525 0 38.830393743025525 34.392104511330672 0 0 0 0 74.380321544012986 28.429265034041237 0 28.429265034041237 57.696834567266706 0 0 0 0 13.661899618623892 -10.416605883601186 0 -10.416605883601186 6.5960586771866829 0 0 0 0 48.154593407998618 25.933772853522896 0 25.933772853522896 -39.727983092433533 0 0 0 0 5.9283909636014442 -2.8819340515194654 0 -2.8819340515194654 -0.78229041631998708 0 0 0 0 90.177918854875315 54.338476718225138 0 54.338476718225138 45.913388271489339 0 0 0 0 -62.551156763016479 -80.829204705801203 0 -80.829204705801203 -31.75480522541875 0 0 0 0 73.995441849001509 24.494499228350833 0 24.494499228350833 33.147645920205832 0 0 0 0 98.793832332623424 39.778709885236367 0 39.778709885236367 25.295604998653516 0 0 0 0 56.380282394060941 -64.630042204960205 0 -64.630042204960205 298.4220024794522 0 0 0 0 -85.833911439483927 -55.455110656987699 0 -55.455110656987699 -32.471020361134379 0 0 0 0 174.81261269239803 47.788532032939088 0 47.788532032939088 -28.069529413334749 0 0 0 0 23.421381376097159 -10.717794538604728 0 -10.717794538604728 -9.6045596290712556 0 0 0 0 189.01323157447678 13.561122830945692 0 13.561122830945692 -44.32142478505466 0 0 0 0 54.718055245270079 26.912463336371729 0 26.912463336371729 -33.031019168810872 0 0 0 0 136.50505169232929 5.0622021679419049 0 5.0622021679419049 -37.655343364809596 0 0 0 0 92.832311473684967 60.502609460273561 0 60.502609460273561 -30.039676316803821 0 0 0 0 96.997108861811284 67.903603296164874 0 67.903603296164874 -18.626789057293536 0 0 0 0 -116.76837134399102 -37.613728608997008 0 -37.613728608997008 -58.206519135907001 0 0 0 0 15.12611561655465 -13.766501206698141 0 -13.766501206698141 -11.087734893441738 0 0 0 0 42.313771408189496 18.661406562820275 0 18.661406562820275 38.392091006847295 0 0 0 0 58.779116257079451 1.9755255870174153 0 1.9755255870174153 -17.746931768678227 0 0 0 0 79.135018270751971 -3.3695895443202062 0 -3.3695895443202062 -64.19544805329997 0 0 0 0 91.012717722128855 -6.5185618565669756 0 -6.5185618565669756 -82.324805166472743 0 0 0 0 108.41614340375963 45.895451169234548 0 45.895451169234548 3.0130686246152436 0 0 0 0 117.10263644770839 56.041106529811145 0 56.041106529811145 -12.012223152199113 0 0 0 0 71.168068431599409 -65.909371329038095 0 -65.909371329038095 -78.012125126080718 0 0 0 0 116.51224772616661 23.739554956878663 0 23.739554956878663 -24.091168311672675 0 0 0 0 35.549550695568136 -6.0133353979960589 0 -6.0133353979960589 -9.2273136082133007 0 0 0 0 71.877949484609417 -115.44728912493156 0 -115.44728912493156 -154.62278861844607 0 0 0 0 60.221674468208313 -3.2054716515014654 0 -3.2054716515014654 -19.914354964238779 0 0 0 0 34.08005106777091 -55.976703304960324 0 -55.976703304960324 -49.681238864273382 0 0 0 0 5.7936300628525714 -152.6721354844428 0 -152.6721354844428 -40.343864915443874 0 0 0 0 -98.661152416108962 -91.333197380504089 0 -91.333197380504089 -51.221948194688139 0 0 0 0 262.53914591147441 -2.6550195695863863 0 -2.6550195695863863 -98.623101036212205 0 0 0 0 92.338570846449201 -18.397926507768911 0 -18.397926507768911 -13.561987742789627 0 0 0 0 17.947156203913966 10.781585092838036 0 10.781585092838036 -18.222351105463265 0 0 0 0 82.417280394491627 21.665716054623772 0 21.665716054623772 2.7956672059722223 0 0 0 0 -2.1168454256617224 -70.499975262954763 0 -70.499975262954763 -15.964567444012573 0 0 0 0 15.286974309125981 42.497944818531323 0 42.497944818531323 -16.171053412345948 0 0 0 0 -88.24779916077523 -74.249249216829412 0 -74.249249216829412 -41.825422820268614 0 0 0 0 68.709493051922436 5.9589941215328963 0 5.9589941215328963 -134.68235630011168 0 0 0 0 32.611179362455459 78.395585887975926 0 78.395585887975926 39.030526591946227 0 0 0 0 84.470320242365119 41.654258051436216 0 41.654258051436216 124.33552878427781 0 0 0 0 96.772505356514557 21.759630361226982 0 21.759630361226982 -42.295336309370214 0 0 0 0 116.08680038324019 112.05452849653034 0 112.05452849653034 279.99833100482738 0 0 0 0 286.67731797309784 285.06593953616584 0 285.06593953616584 177.75226237934555 0 0 0 0 347.97205396967843 155.6552837202621 0 155.6552837202621 52.962463254692921 0 0 0 0 190.81026682627089 -52.716831553286966 0 -52.716831553286966 53.412354730285642 0 0 0 0 186.38411167177458 182.63010438558842 0 182.63010438558842 12.924775260772321 0 0 0 0 181.02076557825029 226.92229359429541 0 226.92229359429541 22.645156307584557 0 0 0 0 90.435790157335759 128.6326382976797 0 128.6326382976797 36.850282269439234 0 0 0 0 170.93724030267185 167.37617031852665 0 167.37617031852665 40.803153053367666 0 0 0 0 78.841510503051722 60.951699654816821 0 60.951699654816821 11.470977749951601 0 0 0 0 93.393985422529568 32.174665190089371 0 32.174665190089371 -7.0288672398470453 0 0 0 0 182.81412313275496 99.499346833317077 0 99.499346833317077 -5.9809738249275597 0 0 0 0 162.41746176138417 83.359417576825535 0 83.359417576825535 -17.411238159675918 0 0 0 0 245.76975216019548 106.45502140453777 0 106.45502140453777 -34.878151134319296 0 0 0 0 419.85501344317584 206.15630634798839 0 206.15630634798839 20.711435690635881 0 0 0 0 362.90971518299648 41.200742771694934 0 41.200742771694934 -18.874653079478776 0 0 0 0 192.95218779457946 189.78493718174082 0 189.78493718174082 81.16858859833701 0 0 0 0 274.73189388834783 228.9543426065668 0 228.9543426065668 36.059283475311076 0 0 0 0 185.60102284077857 217.80216561201587 0 217.80216561201587 63.353941328510643 0 0 0 0 142.74781900945663 193.22373400717481 0 193.22373400717481 54.258661280228807 0 0 0 0 164.90802860753286 145.36426514344535 0 145.36426514344535 -69.283581972953471 0 0 0 0 162.49010443293446 193.05719213265456 0 193.05719213265456 -10.956383648701205 0 0 0 0 233.39767078878117 31.20626120799443 0 31.20626120799443 -186.88178085871482 0 0 0 0 338.50863645199752 327.65335386432491 0 327.65335386432491 36.182297139506375 0 0 0 0 206.23344368815924 203.78245117902566 0 203.78245117902566 -31.72999458230656 0 0 0 0 175.23000053009264 252.25891044203561 0 252.25891044203561 67.278749186024157 0 0 0 0 157.5566094555993 276.67408980560339 0 276.67408980560339 218.76488051704257 0 0 0 0 134.80812995891574 218.85950758843057 0 218.85950758843057 71.849602056125818 0 0 0 0 -0.7668368829145038 205.40735476561031 0 205.40735476561031 450.69200928904047 0 0 0 0 24.713637047488191 104.39614167859895 0 104.39614167859895 131.28139462705235 0 0 0 0 43.982914401202379 147.39477974860256 0 147.39477974860256 218.4888214361572 0 0 0 0 239.98500724347105 296.09569417917123 0 296.09569417917123 222.83576692824204 0 0 0 0 384.48404003462292 535.62956928974245 0 535.62956928974245 616.13654707221554 0 0 0 0 314.82463736141807 141.3559154335224 0 141.3559154335224 50.24311620019796 0 0 0 0 8.6028012846419841 3.384810867836614 0 3.384810867836614 1.5070432991151885 0 0 0 0 76.231166334621321 226.7494827703598 0 226.7494827703598 846.86703525648204 0 0 0 0 680.79754871625482 -134.14365795522724 0 -134.14365795522724 -380.49591897659491 0 0 0 0 22.833289543854505 9.3568733636504735 0 9.3568733636504735 0.31775291138314837 0 0 0 0 50.06295575898622 38.335198032572634 0 38.335198032572634 38.168159065366581 0 0 0 0 23.752303808140823 -48.197811599785382 0 -48.197811599785382 143.76715206538074 0 0 0 0 -41.455868695345089 -7.475238934529898 0 -7.475238934529898 386.62954837759628 0 0 0 0 6.1100216733318575 41.871117306151518 0 41.871117306151518 98.820108721132328 0 0 0 0 -1.6017414903195686 15.950920028039491 0 15.950920028039491 79.75905471148053 0 0 0 0 40.694045952506826 57.676012523934162 0 57.676012523934162 45.688626570658016 0 0 0 0 52.443324167690662 97.552046181350761 0 97.552046181350761 110.5828423387091 0 0 0 0 99.818212019458088 196.90703164966976 0 196.90703164966976 159.90047384100171 0 0 0 0 83.198366841505049 126.33233533137943 0 126.33233533137943 38.247644298003024 0 0 0 0 57.042586331392442 103.04297195898835 0 103.04297195898835 102.86153456162583 0 0 0 0 43.157345724537663 56.535536019096753 0 56.535536019096753 28.640625085441144 0 0 0 0 133.40724925996028 91.178217346825818 0 91.178217346825818 23.077659482649779 0 0 0 0 46.912629056247965 53.381726218381573 0 53.381726218381573 20.701356487011708 0 0 0 0 51.641948510026509 33.367542543245008 0 33.367542543245008 14.229847833010353 0 0 0 0 5.2467756039914484 10.204165054409561 0 10.204165054409561 -2.1810465305129147 0 0 0 0 28.656274648263434 2.9026820265330571 0 2.9026820265330571 -12.079587916014589 0 0 0 0 11.897983210087659 33.319561504523563 0 33.319561504523563 -17.566337170862425 0 0 0 0 15.99248456136047 45.88891838178256 0 45.88891838178256 40.576939577633311 0 0 0 0 -6.7858997837738571 11.18132716730878 0 11.18132716730878 21.385704811700634 0 0 0 0 7.0671241391611215 8.3003507699079648 0 8.3003507699079648 1.3042647254992197 0 0 0 0 -238.99674800744094 184.41187909136158 0 184.41187909136158 308.55746530936096 0 0 0 0 -231.52078821111729 216.05532931855004 0 216.05532931855004 291.1058323984638 0 0 0 0 -37.443200395915028 200.57148311993421 0 200.57148311993421 170.70718796401169 0 0 0 0 1229.0280067610693 234.71367841399945 0 234.71367841399945 -1309.4667903517347 0 0 0 0 -2.4774331857327141 8.4516546792588869 0 8.4516546792588869 -0.023073075080601302 0 0 0 0 -193.82887959004211 286.13068242748739 0 286.13068242748739 296.12884447040119 0 0 0 0 -403.62708085248778 199.63200342577511 0 199.63200342577511 278.13857785277855 0 0 0 0 -98.281937084125275 138.47444241179301 0 138.47444241179301 -65.47457861811472 0 0 0 0 809.96609445116474 661.26337937841549 0 661.26337937841549 96.881640473646485 0 0 0 0 0.018110615031757149 1.1388209983013908 0 1.1388209983013908 10.947861928081704 0 0 0 0 -304.5433100410371 99.884696562987074 0 99.884696562987074 130.78294024754723 0 0 0 0 -293.66364805432806 305.87454700900253 0 305.87454700900253 192.81792511815092 0 0 0 0 -132.39203697850829 281.24268504591055 0 281.24268504591055 -185.28681361104464 0 0 0 0 156.2924567341941 179.74800292927171 0 179.74800292927171 -151.76538566088129 0 0 0 0 1.4574164887896881 -0.64277831012234454 0 -0.64277831012234454 -6.162873685190867 0 0 0 0 -168.14220558465331 118.17721703098232 0 118.17721703098232 -64.239691787884112 0 0 0 0 0.40857744122397222 5.0394401021315449 0 5.0394401021315449 29.279305700628651 0 0 0 0 -298.50503483597777 204.11579992313943 0 204.11579992313943 334.07328330636142 0 0 0 0 -85.901459688869181 11.985194357715187 0 11.985194357715187 -183.55730677225483 0 0 0 0 -349.60224126870708 25.87019525300127 0 25.87019525300127 227.62778196992713 0 0 0 0 -9.9072961917318025 106.46980578045532 0 106.46980578045532 72.035101002876218 0 0 0 0 0.51312855564922444 6.7735455653849428 0 6.7735455653849428 43.060615957596184 0 0 0 0 -288.56264565601077 -95.035056862609963 0 -95.035056862609963 -17.62323300098069 0 0 0 0 3.6367370919921171 8.8186895203170081 0 8.8186895203170081 -6.8872502803065245 0 0 0 0 4.9031326427450495 135.01897229959104 0 135.01897229959104 112.85919380906216 0 0 0 0 3.3055381925905749 -44.423153706243284 0 -44.423153706243284 27.26512119295694 0 0 0 0 835.82636123227803 -270.00333955126956 0 -270.00333955126956 519.60426185714493 0 0 0 0 241.16022699691257 100.90365629174244 0 100.90365629174244 391.47404344557913 0 0 0 0 -82.623536528348268 57.846321243588122 0 57.846321243588122 454.14596250416508 0 0 0 0 218.71850656895913 -46.792151736515052 0 -46.792151736515052 32.549794645165775 0 0 0 0 348.75996406858758 134.17424458237741 0 134.17424458237741 149.89059974806949 0 0 0 0 288.22353085425493 249.2604800320529 0 249.2604800320529 65.874327956692468 0 0 0 0 -109.14069459574148 77.696270989738977 0 77.696270989738977 100.12654946054602 0 0 0 0 530.51510806695205 437.51324151577961 0 437.51324151577961 653.8452574406241 0 0 0 0 742.60789607949573 192.74267604631819 0 192.74267604631819 -3.8524091633143485 0 0 0 0 177.76727068325818 6.5766543924884218 0 6.5766543924884218 -50.338047048762007 0 0 0 0 618.19209108583073 40.861843882941969 0 40.861843882941969 -107.90972374478042 0 0 0 0 273.79961279021518 219.6090060635851 0 219.6090060635851 -23.875083162574583 0 0 0 0 377.23043164779665 346.36594873784395 0 346.36594873784395 72.592162513095786 0 0 0 0 369.31798132422591 395.27579329213995 0 395.27579329213995 157.37703743549363 0 0 0 0 307.78134383218094 270.98664006002127 0 270.98664006002127 264.98650606884223 0 0 0 0 -128.58030757304005 234.29695209874217 0 234.29695209874217 -215.44652706935324 0 0 0 0 -519.12117939002201 718.85645059724311 0 718.85645059724311 856.82786822917274 0 0 0 0 -373.72909703458322 -225.05802897166024 0 -225.05802897166024 -61.153324000563885 0 0 0 0 9.9325559581175185 175.0514047059259 0 175.0514047059259 -493.57161495795356 0 0 0 0 670.157587290214 -39.90481680050749 0 -39.90481680050749 -240.32211534661633 0 0 0 0 118.45071023230366 -108.14810858660901 0 -108.14810858660901 -203.49823170948093 0 0 0 0 1007.2877757000961 171.63989913822991 0 171.63989913822991 -290.46876427047499 0 0 0 0 667.14836614063097 -9.5732092644776898 0 -9.5732092644776898 -197.68755016188425 0 0 0 0 243.99376947736346 108.39510118311571 0 108.39510118311571 -4.9994711960371205 0 0 0 0 486.96164189606498 132.48697356921048 0 132.48697356921048 -45.706347230211122 0 0 0 0 657.99392917056048 -105.43256250191315 0 -105.43256250191315 -73.191083269543469 0 0 0 0 720.75858228056859 23.120856788686027 0 23.120856788686027 -177.80849317568024 0 0 0 0 732.28870813661797 -264.16125599180134 0 -264.16125599180134 -60.402376068447666 0 0 0 0 1318.9432651737934 213.39677635241276 0 213.39677635241276 -77.431619957084038 0 0 0 0 463.75765434190635 -68.260147582466658 0 -68.260147582466658 -12.486791185497253 0 0 0 0 -106.78728525593078 58.368180398350773 0 58.368180398350773 82.776417370415174 0 0 0 0 0.88331971439928569 1.6812920784000163 0 1.6812920784000163 4.3016522038038199 0 0 0 0 -78.084513929794866 569.21465416183332 0 569.21465416183332 -150.54135885079523 0 0 0 0 406.65656241882607 606.64661770274029 0 606.64661770274029 678.53895998669032 0 0 0 0 59.758008448405519 -603.98180102196727 0 -603.98180102196727 42.576260915502701 0 0 0 0 914.02455536862362 1001.5633442156136 0 1001.5633442156136 824.7771910923725 0 0 0 0 11.911381208350544 -1.0316532926702315 0 -1.0316532926702315 -0.35376133432908796 0 0 0 0 1720.3566210095978 494.1392181098982 0 494.1392181098982 193.44609545554243 0 0 0 0 -77.069989866031392 196.43725847066514 0 196.43725847066514 -58.537102744533911 0 0 0 0 88.684842301041499 123.1154206849296 0 123.1154206849296 -91.070720774809104 0 0 0 0 -0.7058576289098184 0.17049566831105167 0 0.17049566831105167 0.98012337540363914 0 0 0 0 89.693968162308011 171.25252242092972 0 171.25252242092972 -15.755661381376058 0 0 0 0 105.47937469834869 170.89516614214733 0 170.89516614214733 -163.94282052522078 0 0 0 0 -0.38437855869415216 -46.866408382834152 0 -46.866408382834152 96.803043342830506 0 0 0 0 37.9561660635718 100.88809011752846 0 100.88809011752846 77.705905970693266 0 0 0 0 26.684628155715984 -4.3510201998321438 0 -4.3510201998321438 -1.3601470153546824 0 0 0 0 152.94547891736875 61.282430034348295 0 61.282430034348295 -401.01315948120453 0 0 0 0 229.38186257318739 -68.555515300133067 0 -68.555515300133067 -38.789371633595465 0 0 0 0 -27.561003014737253 38.6015961164006 0 38.6015961164006 -56.557332554929189 0 0 0 0 39.395967260597899 19.123258020154481 0 19.123258020154481 31.137261305533343 0 0 0 0 86.597348235258323 -16.670574462582465 0 -16.670574462582465 -14.629458123089307 0 0 0 0 34.516380761690016 -1.1877977984900099 0 -1.1877977984900099 -43.933636800629756 0 0 0 0 1.482567403448499 4.5760490388367572 0 4.5760490388367572 11.695621200240957 0 0 0 0 -29.948429879415016 41.783776116955778 0 41.783776116955778 8.8792119343822833 0 0 0 0 32.967924363810198 1.5322025957451615 0 1.5322025957451615 -2.4540107365296535 0 0 0 0 40.673736058692157 15.082996316492881 0 15.082996316492881 7.2870619273376178 0 0 0 0 28.36735179094012 -5.6287108618033699 0 -5.6287108618033699 -4.8878435047004132 0 0 0 0 20.429917041672979 -26.006373364761487 0 -26.006373364761487 -53.525881213803132 0 0 0 0 12.905291722433049 -15.394174644652765 0 -15.394174644652765 -27.55095433760107 0 0 0 0 11.425250457903671 -5.3208020660573112 0 -5.3208020660573112 -3.2770775878464846 0 0 0 0 23.082527947539347 -37.831828750686782 0 -37.831828750686782 -48.168594153725962 0 0 0 0 -34.190149573229974 7.64826504904795 0 7.64826504904795 175.76437941663801 0 0 0 0 185.45953097480924 -45.372016614222247 0 -45.372016614222247 -53.647865230835464 0 0 0 0 -67.109949300538574 -75.137129482527143 0 -75.137129482527143 -14.768272710820213 0 0 0 0 4.1321324477538424 0.52335071925593013 0 0.52335071925593013 -0.78463021245259945 0 0 0 0 15.155337870171024 23.460635841890735 0 23.460635841890735 15.988054187808302 0 0 0 0 3.7127206179944956 5.4771412291915134 0 5.4771412291915134 15.491045576648341 0 0 0 0 278.5989800094867 -187.90872139320481 0 -187.90872139320481 87.965031584412714 0 0 0 0 7.4901706461687354 -91.715327696464811 0 -91.715327696464811 214.95548632455393 0 0 0 0 284.53932517499015 -28.602447325115804 0 -28.602447325115804 552.85938229142391 0 0 0 0 602.37096052653305 342.72273291815225 0 342.72273291815225 315.73292542936792 0 0 0 0 775.23801145989808 -262.94107936885609 0 -262.94107936885609 193.97880658904489 0 0 0 0 935.05839221573842 361.99785559647188 0 361.99785559647188 77.1307350051311 0 0 0 0 331.42366487524305 -197.83752468997767 0 -197.83752468997767 -0.23121965626367569 0 0 0 0 306.40648802800752 -239.51036173541451 0 -239.51036173541451 146.79708419755957 0 0 0 0 287.99282262790075 -45.671987535533276 0 -45.671987535533276 108.71221155156729 0 0 0 0 383.88787637489258 -184.25451445784313 0 -184.25451445784313 0.75020261400828758 0 0 0 0 624.54063146337285 -256.90290213660944 0 -256.90290213660944 -551.84024778032222 0 0 0 0 168.62476603628966 -165.45875662296686 0 -165.45875662296686 5.2176937158215715 0 0 0 0 279.87141715805183 -13.352639536463364 0 -13.352639536463364 -298.39826937155499 0 0 0 0 43.83025324850496 22.064899564670668 0 22.064899564670668 -106.40475355392522 0 0 0 0 521.45537260085257 138.76300962530237 0 138.76300962530237 -145.34398615848608 0 0 0 0 389.79446217989971 -250.09467382787875 0 -250.09467382787875 -421.14166106729266 0 0 0 0 -82.295787454183483 29.556319687631571 0 29.556319687631571 -81.161526781507064 0 0 0 0 -196.96956016815875 -347.23848594118613 0 -347.23848594118613 -196.88289972157895 0 0 0 0 1.4289068633287378 0.84174197889659297 0 0.84174197889659297 -5.5735796064004752 0 0 0 0 527.21483123680082 281.31102441742667 0 281.31102441742667 177.74106418120348 0 0 0 0 476.51994892756284 -2.5810120183848397 0 -2.5810120183848397 602.49608742323107 0 0 0 0 552.23450466991017 40.6665885656409 0 40.6665885656409 10.8826400860234 0 0 0 0 -26.664025783908073 -141.67975443767682 0 -141.67975443767682 188.22259404774979 0 0 0 0 166.16043240116687 -311.71572579941414 0 -311.71572579941414 127.39832889859946 0 0 0 0 101.95026131636359 -93.467984223964237 0 -93.467984223964237 8.0095619978422405 0 0 0 0 2.4026668802016502 -66.969430105457263 0 -66.969430105457263 2.6462216194569237 0 0 0 0 -18.248992675855334 -24.233990572362586 0 -24.233990572362586 22.169770642975664 0 0 0 0 1.9965800780946665 -77.210992276033721 0 -77.210992276033721 29.819113121322289 0 0 0 0 41.812420928593383 -56.243013550762441 0 -56.243013550762441 -29.146595948388494 0 0 0 0 24.061311257179682 -33.486503790657352 0 -33.486503790657352 -43.671961090363766 0 0 0 0 33.972358313533732 -44.48368952432304 0 -44.48368952432304 -51.281053202299972 0 0 0 0 15.215976042338298 -44.737188709592601 0 -44.737188709592601 -52.832779666735405 0 0 0 0 23.430031443613188 -29.455220819223825 0 -29.455220819223825 -69.222067540879834 0 0 0 0 19.489282793221264 -50.292436049973901 0 -50.292436049973901 -109.58082302997127 0 0 0 0 3.9167499383042284 -1.4202369742602725 0 -1.4202369742602725 4.4567541404359687 0 0 0 0 -41.950820180085429 -64.026416973266578 0 -64.026416973266578 127.64099319903085 0 0 0 0 600.73426933045721 77.648340946883025 0 77.648340946883025 -108.35828140625989 0 0 0 0 1.703198960658483 -12.750369468114968 0 -12.750369468114968 -7.943348626063198 0 0 0 0 -35.124716339263614 18.911755533711812 0 18.911755533711812 -56.819775921897076 0 0 0 0 10.72384449609126 -3.3858112220744943 0 -3.3858112220744943 7.3676707030140847 0 0 0 0 33.702131069599091 -36.551262273484554 0 -36.551262273484554 -39.061151180718525 0 0 0 0 6.4795611733413807 -24.561436674533098 0 -24.561436674533098 -1.487758249829767 0 0 0 0 53.804645933648771 -34.557471394154874 0 -34.557471394154874 0.50374965070352573 0 0 0 0 56.874371113862253 -27.561405505835012 0 -27.561405505835012 12.511652585553378 0 0 0 0 32.00790017615509 -14.725912179098543 0 -14.725912179098543 14.385792377464071 0 0 0 0 62.606668857227646 10.225359816754633 0 10.225359816754633 2.7219695153374346 0 0 0 0 101.8373007331611 15.079990712780727 0 15.079990712780727 9.1169331817709462 0 0 0 0 30.85645132779004 -22.688171428050083 0 -22.688171428050083 -7.1287935707527996 0 0 0 0 115.2326542726405 32.546377024628271 0 32.546377024628271 17.300437558521253 0 0 0 0 28.424453266833289 -20.728135845950515 0 -20.728135845950515 -10.788109704516478 0 0 0 0 89.700395379989459 21.119484518302272 0 21.119484518302272 12.825713488164183 0 0 0 0 61.414390477569782 -26.923692312200501 0 -26.923692312200501 -45.437908222506849 0 0 0 0 54.616870949846543 -27.496846036309535 0 -27.496846036309535 -29.24089339301031 0 0 0 0 78.238385383179832 2.9456332090303476 0 2.9456332090303476 -38.471951599742852 0 0 0 0 55.291311560989584 -34.049214184915414 0 -34.049214184915414 -67.788028404481338 0 0 0 0 30.352885474787996 -56.393836147501474 0 -56.393836147501474 25.545212671271884 0 0 0 0 71.74945185951151 -38.932072340707464 0 -38.932072340707464 -44.967451616991866 0 0 0 0 47.155584853011987 -17.398155659835993 0 -17.398155659835993 -11.068973974434812 0 0 0 0 -12.760804500049744 -36.852465778827536 0 -36.852465778827536 -25.176217067738435 0 0 0 0 -13.099251373376319 -39.129606757453075 0 -39.129606757453075 -33.90452164072849 0 0 0 0 -142.16097724275596 -71.168212698657157 0 -71.168212698657157 -36.064656382334306 0 0 0 0 -13.099251373369952 -39.129606757461261 0 -39.129606757461261 -33.904521640720304 0 0 0 0 -13.099251373361767 -39.129606757463989 0 -39.129606757463989 -33.904521640730081 0 0 0 0 17.040902528620791 -52.072304260253532 0 -52.072304260253532 -49.405387699102903 0 0 0 0 -1.3064808062490556 -29.444569276940229 0 -29.444569276940229 -47.640904196011121 0 0 0 0 -36.928818191975324 -95.52915311315985 0 -95.52915311315985 -89.660607726234275 0 0 0 0 28.597045452850352 -44.250904899929992 0 -44.250904899929992 -120.8235860620016 0 0 0 0 8.02693995946629 -15.123306373044329 0 -15.123306373044329 -43.929838737394789 0 0 0 0 -36.085428156478883 -8.17940357187058 0 -8.17940357187058 -49.700207218246305 0 0 0 0 23.820244776104573 -62.860014830655587 0 -62.860014830655587 -84.245165720160003 0 0 0 0 7.3431626342165996 2.5392349889841586 0 2.5392349889841586 0.21870385917962132 0 0 0 0 60.480740266027169 -13.54139353233154 0 -13.54139353233154 -93.302592139224885 0 0 0 0 45.15171765537707 -6.3293911788393871 0 -6.3293911788393871 7.0998803549048262 0 0 0 0 43.665509029078748 2.0899120215112816 0 2.0899120215112816 -2.6321595956001147 0 0 0 0 79.393198187138978 25.563002339174886 0 25.563002339174886 -12.452499237926531 0 0 0 0 17.650716279296148 -9.2864901542357625 0 -9.2864901542357625 0.56062785384581737 0 0 0 0 18.169063400598922 13.729585451461071 0 13.729585451461071 4.2747606456298541 0 0 0 0 -10.915774443908049 -32.11438843934593 0 -32.11438843934593 3.8690635762814054 0 0 0 0 63.543392604422479 25.616133046968798 0 25.616133046968798 7.4103089045165689 0 0 0 0 -27.95145391687447 -59.711986386048466 0 -59.711986386048466 -16.0799078944558 0 0 0 0 12.549081716072337 -15.661591888741096 0 -15.661591888741096 -5.3378869394429564 0 0 0 0 -28.248111461672579 -56.666700962256073 0 -56.666700962256073 2.2028133596747921 0 0 0 0 59.331280889909976 -9.8642187657633258 0 -9.8642187657633258 29.14890743926685 0 0 0 0 14.533053334915053 -21.242035393009573 0 -21.242035393009573 3.2821533964489475 0 0 0 0 152.40504556278665 55.7857147355694 0 55.7857147355694 5.1745502774834904 0 0 0 0 3.9918264008995443 0.094243399529165828 0 0.094243399529165828 1.8458808478172903 0 0 0 0 10.308361890616652 20.132293832778942 0 20.132293832778942 -43.788983518032182 0 0 0 0 7.3775972994613568 -0.60485765452543916 0 -0.60485765452543916 0.12847114033056606 0 0 0 0 31.622078976230114 -8.5713881027253365 0 -8.5713881027253365 -73.976466660564824 0 0 0 0 40.177148188235151 7.2746024075901232 0 7.2746024075901232 -85.024469029241288 0 0 0 0 101.11487612179917 -37.45836415814324 0 -37.45836415814324 -137.50159107491902 0 0 0 0 92.777653925317281 21.225431480093448 0 21.225431480093448 -110.62020110785318 0 0 0 0 8.5255602300658211 -41.02189283910127 0 -41.02189283910127 -85.10514355794021 0 0 0 0 15.454145148150928 -69.93137850060441 0 -69.93137850060441 -68.579821100222944 0 0 0 0 40.400162864807498 -76.60217448411845 0 -76.60217448411845 -97.620598694854152 0 0 0 0 278.95199813725776 18.282607257106292 0 18.282607257106292 -45.712548043066818 0 0 0 0 1.5559859596367644 -0.90102105332606186 0 -0.90102105332606186 -0.40369892167103316 0 0 0 0 21.690834018336318 -76.898272380293292 0 -76.898272380293292 -72.558083989712486 0 0 0 0 53.819384266709676 -108.69621358212703 0 -108.69621358212703 -49.690927581460301 0 0 0 0 111.26380754850106 164.11221984053827 0 164.11221984053827 64.468516272400848 0 0 0 0 -22.867511944301441 56.710486833884033 0 56.710486833884033 7.0082531207444845 0 0 0 0 73.88157466305347 -119.83025042971661 0 -119.83025042971661 -156.68805668235916 0 0 0 0 224.14267645320433 -54.598101213101359 0 -54.598101213101359 -76.982365159484743 0 0 0 0 13.878519831014273 -120.338444876891 0 -120.338444876891 -97.489624715312033 0 0 0 0 73.502502757892216 -51.773353577378202 0 -51.773353577378202 -93.675602032906312 0 0 0 0 75.813769160526135 -91.765776031615076 0 -91.765776031615076 -97.519306917188715 0 0 0 0 181.12909291626784 -23.061959195347981 0 -23.061959195347981 -134.91866257728384 0 0 0 0 126.13182544134179 -78.378889251125258 0 -78.378889251125258 -163.09941206467448 0 0 0 0 115.36451103001673 -69.53321266056679 0 -69.53321266056679 -163.8036629602974 0 0 0 0 306.50290451096589 19.895715378033174 0 19.895715378033174 -174.91846560660991 0 0 0 0 182.55087460617506 56.636645259104284 0 56.636645259104284 -107.75159135152205 0 0 0 0 161.9446032321066 125.87272490356065 0 125.87272490356065 -66.15339745923815 0 0 0 0 68.9028913830698 102.02527236389938 0 102.02527236389938 -69.587118508945835 0 0 0 0 114.47750017528233 21.971549969793188 0 21.971549969793188 -111.26037619051544 0 0 0 0 139.73916062383068 40.839219975863159 0 40.839219975863159 -107.57959271871182 0 0 0 0 -19.351878790969749 85.522907409835739 0 85.522907409835739 -39.504180716622614 0 0 0 0 13.417060552505063 134.30452532516415 0 134.30452532516415 -14.823332224716751 0 0 0 0 -82.253884116005793 -5.7196451571754778 0 -5.7196451571754778 29.678319989171769 0 0 0 0 -1.2022027197155261 2.0334348343564237 0 2.0334348343564237 -3.5069733366696756 0 0 0 0 66.202082853265892 -29.590625478202355 0 -29.590625478202355 -172.34411068172437 0 0 0 0 68.746435726663549 -138.66169865446983 0 -138.66169865446983 -234.49536433479759 0 0 0 0 39.695979778614401 36.770418622491889 0 36.770418622491889 -139.03516774662512 0 0 0 0 -92.821720249026839 -151.62332890615971 0 -151.62332890615971 -98.152601988454762 0 0 0 0 10.268308985519941 2.0403312637564852 0 2.0403312637564852 -15.569566602581482 0 0 0 0 42.29622073945572 -17.384994155986305 0 -17.384994155986305 -0.42089195623474662 0 0 0 0 31.469417706268132 -17.097168523861455 0 -17.097168523861455 -0.77538866237270554 0 0 0 0 39.042437581141485 -16.026600790036809 0 -16.026600790036809 -35.519041204172026 0 0 0 0 40.530429633441713 -26.646107429561539 0 -26.646107429561539 -33.137695073001851 0 0 0 0 41.922942972201213 -31.555130746213649 0 -31.555130746213649 -22.391130127857195 0 0 0 0 41.186353846818065 -31.273436542531726 0 -31.273436542531726 -17.478976926752694 0 0 0 0 25.502593906051516 -38.784785192199706 0 -38.784785192199706 -20.52879005529951 0 0 0 0 59.647963008439092 -61.056520283400459 0 -61.056520283400459 -14.166286527296961 0 0 0 0 65.773937010586934 -42.367173304705432 0 -42.367173304705432 -47.261159962564307 0 0 0 0 8.3063587092981379 -59.765545849005434 0 -59.765545849005434 13.694524989437014 0 0 0 0 57.578471483852582 -25.844128893069637 0 -25.844128893069637 -73.190256328989108 0 0 0 0 39.251679943433373 -7.5476997252062574 0 -7.5476997252062574 -83.75940973488693 0 0 0 0 0.88300840248811863 -4.4742377100311961 0 -4.4742377100311961 -1.0854089358303138 0 0 0 0 -23.374560955734978 -34.030261723705962 0 -34.030261723705962 -60.933606375203453 0 0 0 0 61.990559335323923 9.8958910671954072 0 9.8958910671954072 -41.606142305189678 0 0 0 0 7.1751847016593562 1.1025733125487593 0 1.1025733125487593 -1.364641970559342 0 0 0 0 20.833739264558631 -14.568599207997977 0 -14.568599207997977 -34.634837386071013 0 0 0 0 30.036737003249385 -26.583444783351524 0 -26.583444783351524 -27.397357431634191 0 0 0 0 25.722707617254173 -28.473597707918543 0 -28.473597707918543 -31.501645147881277 0 0 0 0 27.085366557960242 -12.381167416793687 0 -12.381167416793687 -52.129894774648619 0 0 0 0 27.959233339013963 -22.98209920215595 0 -22.98209920215595 -43.799255089313647 0 0 0 0 15.123733320402721 -13.179627708423595 0 -13.179627708423595 -38.9767422792861 0 0 0 0 51.64266036641046 3.6005579313535083 0 3.6005579313535083 -3.9991270682073652 0 0 0 0 50.293629471725637 -3.7812512389841686 0 -3.7812512389841686 -24.460301363979568 0 0 0 0 59.016668674638822 3.4377030171642673 0 3.4377030171642673 -18.486138363849022 0 0 0 0 73.935067207748148 -32.208545457679065 0 -32.208545457679065 -18.02720844160649 0 0 0 0 35.272673648326091 -2.1927114753372603 0 -2.1927114753372603 -6.0138143775450645 0 0 0 0 57.11565453433937 5.1375050929661938 0 5.1375050929661938 4.3946970118377067 0 0 0 0 -4.8000342449721876 -1.6288606998055171 0 -1.6288606998055171 0.66145093487023843 0 0 0 0 42.895423462871122 -27.176081923905258 0 -27.176081923905258 -34.816798302137613 0 0 0 0 45.583290789911018 -18.448063066496161 0 -18.448063066496161 -16.425170657251329 0 0 0 0 62.920802935319273 -24.207873321397528 0 -24.207873321397528 -5.2075988939843683 0 0 0 0 62.793621746213262 -21.645113125516218 0 -21.645113125516218 -24.179556265727342 0 0 0 0 103.41167696186847 15.310146900285872 0 15.310146900285872 -8.9156365483959235 0 0 0 0 46.911546474317277 -27.152455370639473 0 -27.152455370639473 -27.37654161160026 0 0 0 0 42.53800934110302 -7.8117282960783996 0 -7.8117282960783996 -16.598547613622941 0 0 0 0 38.03670984507346 -26.008763929375164 0 -26.008763929375164 -22.520026208996569 0 0 0 0 42.886536646386702 -25.148153172257935 0 -25.148153172257935 -24.415929394795057 0 0 0 0 25.281080352678316 -23.736623577801765 0 -23.736623577801765 -24.458316530474349 0 0 0 0 35.752426266129305 -30.116963207574827 0 -30.116963207574827 -26.487966305659256 0 0 0 0 30.382585969754928 -23.205384589323785 0 -23.205384589323785 -25.767783793992749 0 0 0 0 31.899778984535573 -28.129159172616482 0 -28.129159172616482 -23.253062285118176 0 0 0 0 33.17483996908161 -17.303339653637465 0 -17.303339653637465 1.4147736522371952 0 0 0 0 320.51083051112255 63.098517431179971 0 63.098517431179971 -267.47989335918254 0 0 0 0 30.266188908427864 -27.720716199865819 0 -27.720716199865819 -22.893279703779058 0 0 0 0 187.34404697514401 -306.23038995209066 0 -306.23038995209066 371.31063934534143 0 0 0 0 -1458.1599509493794 -1007.2342617685476 0 -1007.2342617685476 4885.3856825275116 0 0 0 0 3493.0531917809749 -2483.2063641489203 0 -2483.2063641489203 869.38379354176868 0 0 0 0 -35.462254003036605 -528.66694002557119 0 -528.66694002557119 982.84449476760756 0 0 0 0 18.407327779789625 -17.302806801828183 0 -17.302806801828183 -28.404309159165649 0 0 0 0 13.664509699029875 -17.372241775887041 0 -17.372241775887041 2.8179675012273844 0 0 0 0 1050.171500520376 -1162.7088852932277 0 -1162.7088852932277 1123.8634111419642 0 0 0 0 3498.0135676906793 2152.2793723511472 0 2152.2793723511472 374.37400437118367 0 0 0 0 16.802047747776641 -2.9823407464707108 0 -2.9823407464707108 -11.174424288182598 0 0 0 0 -1.2663926413646038 -8.9877140442607111 0 -8.9877140442607111 -0.71472375120854337 0 0 0 0 2890.5300269136151 551.63747888552291 0 551.63747888552291 -197.4648604182471 0 0 0 0 1122.5203974530341 358.428308548644 0 358.428308548644 -213.69940249460348 0 0 0 0 16.113020125848259 -8.0416956432493016 0 -8.0416956432493016 -7.755691103150065 0 0 0 0 26.368458311457516 -9.5102048179319638 0 -9.5102048179319638 -20.818827964710636 0 0 0 0 33.039596540307912 -7.3534006543486612 0 -7.3534006543486612 -13.095513524843227 0 0 0 0 46.201568382618802 -7.9620166844670166 0 -7.9620166844670166 -20.734478169601175 0 0 0 0 109.13087183874995 293.07110862770821 0 293.07110862770821 85.446085931043228 0 0 0 0 -39.738300181467821 89.222636637363649 0 89.222636637363649 -130.95662918979536 0 0 0 0 603.48201676033204 -462.90018955110224 0 -462.90018955110224 252.40905559275467 0 0 0 0 5.661308270334489 2.5545207847285516 0 2.5545207847285516 1.1618644858630187 0 0 0 0 54.932169888804083 -7.8752294264722877 0 -7.8752294264722877 -19.741937453468381 0 0 0 0 3494.1241340015185 -577.56072519959719 0 -577.56072519959719 -408.36810044615527 0 0 0 0 1075.7950353451652 -1125.8935051714477 0 -1125.8935051714477 668.23466167114611 0 0 0 0 3497.1298233003017 763.4508172193697 0 763.4508172193697 -297.45334271658282 0 0 0 0 1036.5275940321226 1283.4023016365725 0 1283.4023016365725 773.09398469948485 0 0 0 0 12.30312446227655 0.78419245215050903 0 0.78419245215050903 1.1401585272068713 0 0 0 0 1173.5771275323077 188.76345674135655 0 188.76345674135655 -292.01736626835691 0 0 0 0 3489.3730739624061 -375.86059001232337 0 -375.86059001232337 -291.2658435679412 0 0 0 0 284.77383177401316 -176.7381458143569 0 -176.7381458143569 97.960941900395227 0 0 0 0 836.61515182853873 462.34019399413427 0 462.34019399413427 212.56392723478217 0 0 0 0 263.17052004551442 -19.401979063620672 0 -19.401979063620672 -421.69269420927418 0 0 0 0 27.735637762047112 -1.9535298195797619 0 -1.9535298195797619 0.058022220233593186 0 0 0 0 17.067384653408226 -79.729140510715638 0 -79.729140510715638 315.81833160629935 0 0 0 0 72.17993307164943 12.744895026944619 0 12.744895026944619 8.1194581061653466 0 0 0 0 -155.13767067005301 -143.98648992282276 0 -143.98648992282276 224.19558067752371 0 0 0 0 10.33929385047222 -4.0691936491617184 0 -4.0691936491617184 7.9440906467386876 0 0 0 0 74.143129697802578 16.226993469056993 0 16.226993469056993 12.194079105102219 0 0 0 0 32.324496283820551 -15.51658547662041 0 -15.51658547662041 -12.495803013295042 0 0 0 0 -28.898170946731625 62.841522363162127 0 62.841522363162127 30.526771656629023 0 0 0 0 142.33458876077384 243.74940778849867 0 243.74940778849867 170.76555599920843 0 0 0 0 92.782190343828916 25.413094881563097 0 25.413094881563097 14.812674174386729 0 0 0 0 2.163677406653548 -5.1176469884059195 0 -5.1176469884059195 6.9998007997407017 0 0 0 0 80.378001550095178 61.183389032613846 0 61.183389032613846 25.910102154826291 0 0 0 0 120.69265972628364 45.564108892607521 0 45.564108892607521 -184.22867232493206 0 0 0 0 -26.908180112492118 50.85479527822136 0 50.85479527822136 -86.076397970383738 0 0 0 0 10.013009438377175 -6.1164153190228738 0 -6.1164153190228738 1.7477951114275587 0 0 0 0 3497.9287823839495 1225.2308161235858 0 1225.2308161235858 163.40204744933021 0 0 0 0 384.46742189021825 -619.08151665601031 0 -619.08151665601031 48.775558862065935 0 0 0 0 -208.73214183709024 -532.11276643961025 0 -532.11276643961025 77.094372342480938 0 0 0 0 633.52663738828051 17.588966903306897 0 17.588966903306897 -99.233508815961443 0 0 0 0 1700.9727978084338 693.30447022679346 0 693.30447022679346 120.06043019486424 0 0 0 0 2434.6204668716309 900.11690742528572 0 900.11690742528572 175.72913048743067 0 0 0 0 2083.6972737947963 194.26620509243139 0 194.26620509243139 1.8895443190504011 0 0 0 0 2029.8548476510987 115.70320515223739 0 115.70320515223739 -88.794471299709585 0 0 0 0 2608.9156098653475 134.16498127374143 0 134.16498127374143 -202.59049840961961 0 0 0 0 4863.8617477570988 33.646285809043547 0 33.646285809043547 -327.45368970180061 0 0 0 0 2337.4253986368931 -45.570322704983482 0 -45.570322704983482 -268.90690556868685 0 0 0 0 2745.3230403129492 1424.5645669219903 0 1424.5645669219903 670.69096689240905 0 0 0 0 17.113971978381045 1.0032821977165653 0 1.0032821977165653 -1.6691172344006624 0 0 0 0 1239.7951893348945 -1130.8854153585125 0 -1130.8854153585125 786.52880216730409 0 0 0 0 2254.9878936536115 765.44744717724006 0 765.44744717724006 287.66619245971197 0 0 0 0 -100.92353459237347 27.513986909857977 0 27.513986909857977 401.68583482593749 0 0 0 0 28.501483523800047 -24.196524675846824 0 -24.196524675846824 12.567642734966942 0 0 0 0 2562.1469410637583 -221.66934045907146 0 -221.66934045907146 -2731.0424120976531 0 0 0 0 -115.43694086939649 167.78681200149276 0 167.78681200149276 297.5961427600414 0 0 0 0 52.205674638396886 22.664055759108123 0 22.664055759108123 220.26875115903113 0 0 0 0 69.721754504163982 38.926976951267989 0 38.926976951267989 11.360536555087606 0 0 0 0 -4.3767895883211168 184.80071336666288 0 184.80071336666288 -27.108121472050698 0 0 0 0 11.335987192871471 63.46869562484676 0 63.46869562484676 85.449499283353362 0 0 0 0 45.683443494836283 41.479181052560541 0 41.479181052560541 35.895325819569251 0 0 0 0 -98.390929261087877 209.51259821288727 0 209.51259821288727 113.12043435969554 0 0 0 0 -98.534991722167149 213.01201236991645 0 213.01201236991645 282.14178199711478 0 0 0 0 36.589795619551211 -19.663838088653321 0 -19.663838088653321 11.015075224999372 0 0 0 0 37.717946249071986 37.08530789549782 0 37.08530789549782 41.388488618182535 0 0 0 0 86.908045490068616 59.885314338425815 0 59.885314338425815 16.209793847186802 0 0 0 0 86.706882329999644 54.967145568406067 0 54.967145568406067 -103.16442564223416 0 0 0 0 12.488226121755986 -2.8225540151793922 0 -2.8225540151793922 6.714538709871313 0 0 0 0 -94.17978223346995 -112.06215166108413 0 -112.06215166108413 312.17373996575498 0 0 0 0 -94.611138587912137 -123.67556052171062 0 -123.67556052171062 17.762448138634056 0 0 0 0 1107.492627554635 640.04076889167391 0 640.04076889167391 352.65967578878281 0 0 0 0 153.23345795280511 283.98164007782907 0 283.98164007782907 787.8105873493314 0 0 0 0 9.1366253277910943 -5.4420088757047189 0 -5.4420088757047189 31.661085516095746 0 0 0 0 1314.4946316746955 205.28642676340678 0 205.28642676340678 417.25442721082436 0 0 0 0 1125.1186840867413 188.5537204180655 0 188.5537204180655 766.48504718961624 0 0 0 0 1394.081255368854 509.41394764440008 0 509.41394764440008 246.34233654108357 0 0 0 0 1384.7316380415614 73.331349155182579 0 73.331349155182579 37.779863608622691 0 0 0 0 1959.1270314217072 341.55215872428198 0 341.55215872428198 104.85374902908006 0 0 0 0 1514.9401034250623 425.46572162834309 0 425.46572162834309 282.74101141508572 0 0 0 0 1691.2815322376337 724.77164216782921 0 724.77164216782921 723.27573357436268 0 0 0 0 1533.9007289785732 48.794425989531192 0 48.794425989531192 92.495423403825043 0 0 0 0 1549.2807035945261 211.28445320828632 0 211.28445320828632 375.4315505339755 0 0 0 0 1089.4949784985074 -76.76002933995278 0 -76.76002933995278 436.94215518835915 0 0 0 0 1223.0132280381295 13.164250179092505 0 13.164250179092505 455.25664318794225 0 0 0 0 1176.9070452310516 -250.69109761375648 0 -250.69109761375648 508.64456417157908 0 0 0 0 1101.3072355987097 -393.75889969392756 0 -393.75889969392756 263.78448153827969 0 0 0 0 1157.6439380149477 -564.69269549574892 0 -564.69269549574892 701.92569722946064 0 0 0 0 386.59603669077478 72.830662826352636 0 72.830662826352636 137.38970328244886 0 0 0 0 1164.0491337045232 -58.738848514876281 0 -58.738848514876281 -367.9891403365873 0 0 0 0 1369.5150323800553 -570.58484833679722 0 -570.58484833679722 43.858525535295485 0 0 0 0 986.90012357033265 -174.96835845840542 0 -174.96835845840542 67.051663948270289 0 0 0 0 809.85029910379853 -317.5075583451835 0 -317.5075583451835 158.7998743947428 0 0 0 0 658.19100002797495 -178.40222123401509 0 -178.40222123401509 154.50794370701186 0 0 0 0 492.34420857264558 -295.23025483314632 0 -295.23025483314632 179.39537446114628 0 0 0 0 943.57416694331187 -448.08990257760524 0 -448.08990257760524 164.09244268397924 0 0 0 0 1242.5318843706482 -253.35414696806401 0 -253.35414696806401 81.812407362603295 0 0 0 0 1363.1123026150526 -346.51684168499651 0 -346.51684168499651 22.558391269298227 0 0 0 0 1574.25682202183 -252.08742047614453 0 -252.08742047614453 49.921283965135444 0 0 0 0 1309.3775088057373 -252.57171466786895 0 -252.57171466786895 269.21361290017603 0 0 0 0 1213.9138904469401 -389.89080870521593 0 -389.89080870521593 84.132322699799261 0 0 0 0 -2.0921931191873 0.5714182992961554 0 0.5714182992961554 0.40076430811483732 0 0 0 0 15.951176786169526 -78.058553657912853 0 -78.058553657912853 -31.457809304037255 0 0 0 0 -153.45410175104007 173.42012954467964 0 173.42012954467964 69.579582737936789 0 0 0 0 544.34319217767188 -129.36732193833996 0 -129.36732193833996 -176.8754938706154 0 0 0 0 9.5944212545883758 -3.2990455076052925 0 -3.2990455076052925 0.87902411330182817 0 0 0 0 200.25330629580003 -232.78043886173577 0 -232.78043886173577 236.99796066829185 0 0 0 0 145.78626745899965 -93.399350374235837 0 -93.399350374235837 -95.410575091964347 0 0 0 0 408.91227663410973 -151.29116289542071 0 -151.29116289542071 21.09369501517358 0 0 0 0 -132.22497398939367 -22.12295146011877 0 -22.12295146011877 132.75522564610219 0 0 0 0 -93.57131092691634 94.748213069641679 0 94.748213069641679 65.815983864334157 0 0 0 0 -77.350013769573707 3.4676285515020027 0 3.4676285515020027 214.16859856538213 0 0 0 0 9.9926092978103043 71.674130394241502 0 71.674130394241502 -82.26166957825626 0 0 0 0 359.99678889924689 -20.733742340704339 0 -20.733742340704339 13.733994251090394 0 0 0 0 -42.911828079737461 189.99681532812974 0 189.99681532812974 -103.5196540464483 0 0 0 0 -439.36517947611355 89.060260923097303 0 89.060260923097303 118.49678458178096 0 0 0 0 243.75989361121901 -116.9664916529091 0 -116.9664916529091 90.146321072013961 0 0 0 0 -40.281825283080252 183.30599108356273 0 183.30599108356273 -510.04434075694007 0 0 0 0 1.7727556805025131 4.0046778277078587 0 4.0046778277078587 -0.8752325828324814 0 0 0 0 7.3375880864138168 -0.58068234605359237 0 -0.58068234605359237 -2.3926658694979821 0 0 0 0 876.24445193622523 -361.74677672843245 0 -361.74677672843245 184.11034106748036 0 0 0 0 2540.6617992102765 -245.34649163276481 0 -245.34649163276481 -157.65832264792584 0 0 0 0 1859.4574093955325 -331.10329055681655 0 -331.10329055681655 -160.09036511662271 0 0 0 0 1688.0027943931964 -265.91451859243352 0 -265.91451859243352 -9.8968742478446075 0 0 0 0 1175.1670099959119 -638.48422581317118 0 -638.48422581317118 206.36204725422431 0 0 0 0 765.34938833930937 -267.34513254311787 0 -267.34513254311787 144.45344726123767 0 0 0 0 597.20643570635366 -406.89564161247654 0 -406.89564161247654 224.76969652566913 0 0 0 0 253.44349972886994 -99.776854321562496 0 -99.776854321562496 185.65527412360581 0 0 0 0 156.21758252595464 -198.30641524480052 0 -198.30641524480052 248.19472552962338 0 0 0 0 710.13944957153035 -557.38451925489426 0 -557.38451925489426 205.56635218998417 0 0 0 0 88.108912633790169 -230.79432015794373 0 -230.79432015794373 332.72820270947614 0 0 0 0 303.60300698047649 -89.612372513223818 0 -89.612372513223818 -369.76390329284732 0 0 0 0 99.789652156454395 -353.63070130130291 0 -353.63070130130291 -126.84626422047586 0 0 0 0 276.96612711565103 11.26204146004784 0 11.26204146004784 12.86433454757389 0 0 0 0 610.79707061826775 -636.43048659799115 0 -636.43048659799115 633.06825935652523 0 0 0 0 988.2305379446334 -435.42861628497212 0 -435.42861628497212 247.39925004319775 0 0 0 0 1615.7510647449308 -1003.6878974701576 0 -1003.6878974701576 377.29353726123009 0 0 0 0 2390.4560610880944 -1466.0569018107326 0 -1466.0569018107326 523.19084295492632 0 0 0 0 5309.4057645702196 -817.95225709363058 0 -817.95225709363058 -284.84326212571614 0 0 0 0 515.40123432891414 -676.09130397565968 0 -676.09130397565968 472.82778033430452 0 0 0 0 11.484310847836355 -3.860728441228666 0 -3.860728441228666 6.2553353936291956 0 0 0 0 -184.78773950345931 94.904390030907962 0 94.904390030907962 232.95565606463424 0 0 0 0 30.303426438062161 0.32756097213768953 0 0.32756097213768953 -2.864789847531938 0 0 0 0 -312.99834692834702 297.93032992364533 0 297.93032992364533 -238.03201141929821 0 0 0 0 30.9386295628113 2.3377981251213527 0 2.3377981251213527 -3.9607145641750847 0 0 0 0 -165.27575251879534 471.01444601508956 0 471.01444601508956 -36.610652839462091 0 0 0 0 -17.234850324988656 -26.662663879233151 0 -26.662663879233151 -66.713053320669133 0 0 0 0 -425.56773276462627 160.99245412909659 0 160.99245412909659 461.84876348431135 0 0 0 0 -375.57343384955311 -386.57264449761715 0 -386.57264449761715 244.72990089564701 0 0 0 0 -3.058409890263377 3.3684065234800045 0 3.3684065234800045 1.4050450695398808 0 0 0 0 -358.80604385684273 -203.67424508764634 0 -203.67424508764634 -590.42120985887595 0 0 0 0 9.8802561767806765 0.11909020132588921 0 0.11909020132588921 -137.06225037600234 0 0 0 0 24.246781410906749 -2.621570112603262 0 -2.621570112603262 -1.1488053405938174 0 0 0 0 -410.63198602901321 -334.23572056782268 0 -334.23572056782268 336.02914092268475 0 0 0 0 -532.76036807046876 -166.66702108142636 0 -166.66702108142636 530.54291786202521 0 0 0 0 -161.95354806172691 -52.027919608637603 0 -52.027919608637603 428.49186741851008 0 0 0 0 -14.566282678706557 -202.96653009813144 0 -202.96653009813144 319.48616079139902 0 0 0 0 -92.343480760639068 96.05022986271797 0 96.05022986271797 576.08983542169153 0 0 0 0 527.37016153537115 621.43463160268402 0 621.43463160268402 331.0014600986724 0 0 0 0 17.972253191126725 1.6465016526962728 0 1.6465016526962728 0.14950607528549753 0 0 0 0 4534.5353045617667 1001.4438905340612 0 1001.4438905340612 486.73584365425268 0 0 0 0 122.19263259951913 456.45208184605326 0 456.45208184605326 500.01554974063038 0 0 0 0 599.69223108880396 283.90340579803888 0 283.90340579803888 364.37830441860569 0 0 0 0 2398.6616298330409 1294.5615724281106 0 1294.5615724281106 250.4757535348981 0 0 0 0 692.1151109423372 642.2593775869027 0 642.2593775869027 463.72087523405935 0 0 0 0 1743.1989221272815 1054.7650347582203 0 1054.7650347582203 438.17337818298256 0 0 0 0 -273.04629961353567 66.783362121688697 0 66.783362121688697 249.0475271147443 0 0 0 0 34.90350053345901 -2.4984074564508774 0 -2.4984074564508774 -4.4013596431777842 0 0 0 0 24.316647840666299 -3.6297374010082297 0 -3.6297374010082297 0.0094559712842539057 0 0 0 0 33.89484380638487 -11.97411860005468 0 -11.97411860005468 -2.8937198556595831 0 0 0 0 30.436603426018337 0.88969469961966752 0 0.88969469961966752 -0.63705920192296617 0 0 0 0 38.426396212136751 5.9855550533138739 0 5.9855550533138739 2.2664596392132808 0 0 0 0 -3.5574922567648173 6.5335507960207906 0 6.5335507960207906 -19.074748449900653 0 0 0 0 23.119146787030488 -3.4170917128272755 0 -3.4170917128272755 -0.58936744797392038 0 0 0 0 65.055365865313433 -0.4096609343905584 0 -0.4096609343905584 -13.839080204499624 0 0 0 0 28.334133113346695 8.165461961947571 0 8.165461961947571 -3.9659077123520845 0 0 0 0 36.833053335707518 -0.20942206469590019 0 -0.20942206469590019 -3.3178229373415888 0 0 0 0 66.153224901643625 2.5481198589451424 0 2.5481198589451424 -12.089532486384996 0 0 0 0 31.082071658507616 11.623234927565509 0 11.623234927565509 -9.5381222048975047 0 0 0 0 34.235715230614005 23.998445057844947 0 23.998445057844947 2.2136721215313173 0 0 0 0 75.709139366937166 8.3976521169069738 0 8.3976521169069738 -16.31497808180211 0 0 0 0 35.546099179500743 21.536397124852556 0 21.536397124852556 3.5243032831640448 0 0 0 0 14.421595384297106 11.695421061080722 0 11.695421061080722 2.6703227845502795 0 0 0 0 -24.766320109411026 -20.409641561764147 0 -20.409641561764147 3.6554613109819911 0 0 0 0 -148.70402297039982 -54.673018168345152 0 -54.673018168345152 -452.25929527873313 0 0 0 0 -1117.2780040476355 467.84114700346254 0 467.84114700346254 -513.88714747332415 0 0 0 0 -2.407647624150286 -0.049109473588160313 0 -0.049109473588160313 1.5383352070236143 0 0 0 0 -68.704425531730521 99.321213852177607 0 99.321213852177607 -284.3120282257687 0 0 0 0 -207.96852779161418 1.6253243008395657 0 1.6253243008395657 -292.86505509997369 0 0 0 0 -73.220389183181396 -27.333217733190395 0 -27.333217733190395 -35.67196425052316 0 0 0 0 -0.40784374703518722 19.622113237954224 0 19.622113237954224 -1.6896127824016673 0 0 0 0 -67.776580046916024 139.65577167054153 0 139.65577167054153 -29.717953738196229 0 0 0 0 -254.8458774292485 52.71083843618635 0 52.71083843618635 27.823919641657994 0 0 0 0 32.48594426150521 23.175719086222671 0 23.175719086222671 2.9281525005599178 0 0 0 0 -130.40572590623924 221.01501784422726 0 221.01501784422726 -3.5344769149669446 0 0 0 0 76.209050488589128 39.815562310719542 0 39.815562310719542 0.9568203587878088 0 0 0 0 32.574397643387783 25.123746000068422 0 25.123746000068422 2.1110452113698557 0 0 0 0 34.101004243326713 24.618898436445065 0 24.618898436445065 7.7132054839812696 0 0 0 0 821.49643469577131 110.49848357582232 0 110.49848357582232 117.62072552111204 0 0 0 0 1175.6435943055985 292.43197339554899 0 292.43197339554899 50.99660682988906 0 0 0 0 2431.861134848994 18.464479820639099 0 18.464479820639099 -425.47877388370762 0 0 0 0 2430.5403430967417 -63.798116194753675 0 -63.798116194753675 -391.88985040991065 0 0 0 0 2122.7611044055848 696.63720624961388 0 696.63720624961388 234.48405221245775 0 0 0 0 1061.600421485884 365.37891173878597 0 365.37891173878597 264.64979578137354 0 0 0 0 1702.547297058918 614.7987237703619 0 614.7987237703619 184.37590245846513 0 0 0 0 624.98747755066142 532.81888267571776 0 532.81888267571776 505.19564247163544 0 0 0 0 137.69382370111998 54.749258663490764 0 54.749258663490764 366.70969679671543 0 0 0 0 498.64483224925061 56.752160008330975 0 56.752160008330975 305.43299693614972 0 0 0 0 222.04203725252592 -55.066571352297615 0 -55.066571352297615 145.80235337115846 0 0 0 0 -96.955521981231868 -318.64100182111724 0 -318.64100182111724 -107.31140846575727 0 0 0 0 -266.49693950127403 -304.15323965943389 0 -304.15323965943389 283.78791896252005 0 0 0 0 5.8019761979376199 -223.98907740387222 0 -223.98907740387222 -287.42200204805704 0 0 0 0 -4.9344280081677425 -140.11214554487447 0 -140.11214554487447 138.45218638666847 0 0 0 0 9.2631058461120119 107.40684785732446 0 107.40684785732446 57.69127618859784 0 0 0 0 289.70673698291648 108.90431770301802 0 108.90431770301802 -136.98079871562732 0 0 0 0 -23.811372151219985 208.56072387896711 0 208.56072387896711 -238.23925775376847 0 0 0 0 -153.09305801272785 155.57786549680168 0 155.57786549680168 -151.58730384195223 0 0 0 0 748.44660000698059 233.28218059739811 0 233.28218059739811 129.78553803273826 0 0 0 0 300.10193417804112 52.224739805334139 0 52.224739805334139 135.99015660245641 0 0 0 0 566.14864120354468 231.44900314950064 0 231.44900314950064 39.787232617180052 0 0 0 0 216.44714160701551 104.09912387029181 0 104.09912387029181 111.11690633452235 0 0 0 0 235.11115071203676 257.60234643074364 0 257.60234643074364 77.402374955792766 0 0 0 0 171.57338588961284 194.72312608639186 0 194.72312608639186 -16.538833797931147 0 0 0 0 -123.33339939296638 191.30023777942552 0 191.30023777942552 87.1928044421511 0 0 0 0 -33.598243973454373 230.95577169129137 0 230.95577169129137 116.68717991152516 0 0 0 0 153.45508360046369 164.27268933008236 0 164.27268933008236 46.731393235018913 0 0 0 0 223.79576364932291 253.48864749169479 0 253.48864749169479 110.16767032834468 0 0 0 0 480.89825416076928 1.2110233277580846 0 1.2110233277580846 174.40757732187922 0 0 0 0 486.42843963806081 -81.907926219359069 0 -81.907926219359069 210.16077136754029 0 0 0 0 1178.4310344228143 -149.4685522393811 0 -149.4685522393811 -2.8617768142539717 0 0 0 0 729.10801578059181 29.210367113666507 0 29.210367113666507 50.058574429174769 0 0 0 0 656.90185902047961 168.94726816137518 0 168.94726816137518 37.081040095094068 0 0 0 0 1182.2832021549257 -154.95557786003428 0 -154.95557786003428 -110.34931871754088 0 0 0 0 1700.7311739944271 -251.2298446270006 0 -251.2298446270006 -115.20087576383958 0 0 0 0 2344.3922108912084 -799.43219752739242 0 -799.43219752739242 -43.043605881015537 0 0 0 0 2545.6141715123886 -214.47064641140605 0 -214.47064641140605 -319.48397677006415 0 0 0 0 2561.6545975285753 -318.0890225247266 0 -318.0890225247266 -495.99604912867653 0 0 0 0 1715.1965349853344 -6.4808216891560733 0 -6.4808216891560733 210.67037546983738 0 0 0 0 2571.7886133305442 -167.77835061144378 0 -167.77835061144378 -248.03519634997429 0 0 0 0 1276.5269781530878 -321.18922374817521 0 -321.18922374817521 108.61043270140362 0 0 0 0 1921.6527041066583 -158.88418937100141 0 -158.88418937100141 -247.8408389201735 0 0 0 0 1846.9131353672565 -649.6182178209765 0 -649.6182178209765 153.78438816172275 0 0 0 0 2862.6050142895692 -441.31136919506753 0 -441.31136919506753 -460.82822115527415 0 0 0 0 2436.6562577850873 -51.073813870675622 0 -51.073813870675622 -468.30385939441476 0 0 0 0 2485.186580730413 -638.32391731015196 0 -638.32391731015196 -182.03765761448813 0 0 0 0 1929.2771159908589 -523.90536637055447 0 -523.90536637055447 -165.94772612273664 0 0 0 0 3302.0659957061471 -1453.2740460965024 0 -1453.2740460965024 126.7483026583941 0 0 0 0 4561.2163293304184 382.71900152019407 0 382.71900152019407 -583.63376333294764 0 0 0 0 2447.4889386684154 17.913469041390272 0 17.913469041390272 -506.85725251402619 0 0 0 0 3859.3062238203111 -1520.1298667981046 0 -1520.1298667981046 12.22970398493635 0 0 0 0 1530.476127292146 -1747.7827041004803 0 -1747.7827041004803 244.17085377363401 0 0 0 0 1487.2947690622605 -951.16527777895681 0 -951.16527777895681 400.23520978197485 0 0 0 0 1494.5872159663268 -920.21222245905119 0 -920.21222245905119 491.4736855631927 0 0 0 0 765.2586564791709 -175.61776096537324 0 -175.61776096537324 367.69231020584357 0 0 0 0 827.03958527103168 -160.9297681816679 0 -160.9297681816679 19.845900843156414 0 0 0 0 158.24687304897816 -201.69490623285674 0 -201.69490623285674 193.75861840696052 0 0 0 0 -152.13301977599622 378.85294436363984 0 378.85294436363984 -617.37796437119323 0 0 0 0 729.66035947127239 -374.60889346766453 0 -374.60889346766453 -861.39773406135828 0 0 0 0 640.09601028929683 -47.955486560695363 0 -47.955486560695363 -851.24699218171918 0 0 0 0 693.20415958107696 -285.56352424703618 0 -285.56352424703618 -134.7408820895289 0 0 0 0 426.88963614513705 158.75777295969829 0 158.75777295969829 -46.355293148684723 0 0 0 0 635.06086798764227 -37.960878277602205 0 -37.960878277602205 -743.1858093938572 0 0 0 0 -506.41271742845129 842.87016063222472 0 842.87016063222472 -1419.7104401614579 0 0 0 0 5349.5304064715383 1729.9767028120214 0 1729.9767028120214 700.81388589586822 0 0 0 0 -1086.2464297733095 -833.64059687779263 0 -833.64059687779263 -41.923084764341183 0 0 0 0 11.841238009110342 -9.455679898207066 0 -9.455679898207066 10.386897995830935 0 0 0 0 97.206214002406341 -1419.0776307732358 0 -1419.0776307732358 169.24371408187562 0 0 0 0 856.97638413069581 719.15634320965091 0 719.15634320965091 -949.78440689381932 0 0 0 0 33.781085075454598 18.506185899422185 0 18.506185899422185 11.788351160622906 0 0 0 0 213.17297625223 -298.76313964058136 0 -298.76313964058136 -632.99104576595892 0 0 0 0 -448.58649000142395 142.89215458832041 0 142.89215458832041 241.95046583691146 0 0 0 0 307.89241755058174 419.46334161014602 0 419.46334161014602 273.42638440038945 0 0 0 0 230.40688243174372 291.2714983323267 0 291.2714983323267 202.95859534420015 0 0 0 0 1.5830942997859339 4.4844645530236704 0 4.4844645530236704 9.284961677356506 0 0 0 0 -507.15185225019377 -109.89337055206488 0 -109.89337055206488 470.90279203125829 0 0 0 0 215.06903454985877 -253.2017449653481 0 -253.2017449653481 68.917178804040304 0 0 0 0 41.002837945028659 673.33631586472575 0 673.33631586472575 105.07693309900424 0 0 0 0 627.47395774018514 129.54321609613544 0 129.54321609613544 -421.63298020202819 0 0 0 0 1284.4899583557162 -12.815694675144215 0 -12.815694675144215 -11.42606580969732 0 0 0 0 1691.0888545380185 204.24324372090916 0 204.24324372090916 -155.69228811885478 0 0 0 0 629.46974365716233 178.10117261212054 0 178.10117261212054 208.0874894776498 0 0 0 0 -938.47233732511995 618.14211301935484 0 618.14211301935484 463.91663559490553 0 0 0 0 5.9124203059018328 -17.775611045615278 0 -17.775611045615278 17.544259301506827 0 0 0 0 0.43157255756956658 5.6589505019447728 0 5.6589505019447728 27.104188028326512 0 0 0 0 -71.499422370019602 143.12412676768326 0 143.12412676768326 -90.225948595566479 0 0 0 0 -158.21213282570534 -33.6724840597617 0 -33.6724840597617 60.422849756366304 0 0 0 0 19.67142709048855 30.293556934114157 0 30.293556934114157 24.845383727521529 0 0 0 0 -0.3426057592878351 24.731955340697823 0 24.731955340697823 13.61962200235439 0 0 0 0 -208.05783129332576 116.44426038086408 0 116.44426038086408 35.106971602939666 0 0 0 0 -58.568773266262724 58.625408667182455 0 58.625408667182455 23.710943531739758 0 0 0 0 29.6709698488703 203.65176962836995 0 203.65176962836995 603.222868257144 0 0 0 0 -22.819056731951427 -1.4595893583949788 0 -1.4595893583949788 12.277014901189631 0 0 0 0 -58.964782809065582 -663.06411170563092 0 -663.06411170563092 -89.863632987358869 0 0 0 0 221.28504122068989 77.872286734306044 0 77.872286734306044 -182.55248162929456 0 0 0 0 -11.445532697227463 24.008425981037931 0 24.008425981037931 6.7263635326066833 0 0 0 0 2.3032343237751576 -1.933787678676584 0 -1.933787678676584 4.5117619585563018 0 0 0 0 55.573002305965929 -29.945602043224426 0 -29.945602043224426 19.793002051579748 0 0 0 0 45.290784068622088 12.328160848781067 0 12.328160848781067 5.9833308072311411 0 0 0 0 20.585852734067885 -75.603556071861732 0 -75.603556071861732 85.52134514938291 0 0 0 0 192.37804929778213 95.439252804521857 0 95.439252804521857 41.373260527182993 0 0 0 0 314.13407741438277 53.763532689409288 0 53.763532689409288 42.869084742342629 0 0 0 0 5.0719863203513142 1.4571524012376855 0 1.4571524012376855 2.6279420578964516 0 0 0 0 75.87868266886835 175.27093956766453 0 175.27093956766453 48.879566652192352 0 0 0 0 18.452167902330444 22.417801105161786 0 22.417801105161786 18.086520819745942 0 0 0 0 287.99778372096262 247.30746639134853 0 247.30746639134853 89.531567275719226 0 0 0 0 182.72425978872343 127.69668548600453 0 127.69668548600453 -19.59194975957962 0 0 0 0 -124.68929084279807 -71.376937480850302 0 -71.376937480850302 102.08801404783139 0 0 0 0 37.249311333558687 26.44019369334022 0 26.44019369334022 14.819164625318173 0 0 0 0 11.698166661775758 -112.06322957826058 0 -112.06322957826058 -250.09882925664229 0 0 0 0 -144.98143619565963 -306.30289286800462 0 -306.30289286800462 271.12975035374114 0 0 0 0 21.338452410385798 150.53951242716138 0 150.53951242716138 397.60933324219263 0 0 0 0 48.699353722218582 29.589208934387607 0 29.589208934387607 11.55497754657824 0 0 0 0 52.423986745057846 51.451865581164384 0 51.451865581164384 -32.319573916840454 0 0 0 0 383.04536954676769 458.11854561935678 0 458.11854561935678 -130.23393070730913 0 0 0 0 56.797196765520312 71.973552618463145 0 71.973552618463145 28.132625730502696 0 0 0 0 28.725720118212848 45.034374721398763 0 45.034374721398763 36.718456429147409 0 0 0 0 30.05321685495619 43.129312183320508 0 43.129312183320508 10.964309402332674 0 0 0 0 9.044468737459006 7.5184766649278458 0 7.5184766649278458 11.925266209414708 0 0 0 0 10.328975981013173 39.536099466879932 0 39.536099466879932 44.804773978899902 0 0 0 0 177.104134387675 27.140500093086757 0 27.140500093086757 -34.825568778477646 0 0 0 0 44.243158467467708 33.618578180285965 0 33.618578180285965 24.007205014102645 0 0 0 0 43.310134302043423 36.544730939737867 0 36.544730939737867 23.501236895230608 0 0 0 0 -624.95168678318441 365.8742596742668 0 365.8742596742668 189.12947691535373 0 0 0 0 -122.51370325643074 -41.230945513577836 0 -41.230945513577836 7.8779671222026195 0 0 0 0 23.536286535826818 23.459487720145987 0 23.459487720145987 12.97454414694362 0 0 0 0 32.38641229505447 41.621849524137133 0 41.621849524137133 20.145523449976622 0 0 0 0 30.69455922276893 49.951396272509356 0 49.951396272509356 21.040067783919767 0 0 0 0 43.772766376047002 102.89409206860228 0 102.89409206860228 163.56234006631257 0 0 0 0 1.0171521713546667 3.5975622942281014 0 3.5975622942281014 3.2554459544001819 0 0 0 0 100.1743643356167 -66.118849739914367 0 -66.118849739914367 36.483188686502217 0 0 0 0 62.109418556121454 43.847231228406372 0 43.847231228406372 20.971541518019876 0 0 0 0 45.845153843758453 -2.9463345533519032 0 -2.9463345533519032 19.920582652016265 0 0 0 0 20.516478787326079 14.98835711951002 0 14.98835711951002 17.179191306506894 0 0 0 0 102.96340091554885 2.5729443995569454 0 2.5729443995569454 -6.8698251071691629 0 0 0 0 64.562025204255491 -11.224044426524513 0 -11.224044426524513 -0.87775490623471764 0 0 0 0 46.759308371131965 5.8947316455054235 0 5.8947316455054235 15.184182657066685 0 0 0 0 36.056288871221795 8.9466477244395755 0 8.9466477244395755 1.1391540830902729 0 0 0 0 42.890264548925188 6.4015409413043471 0 6.4015409413043471 19.158696669789833 0 0 0 0 41.105804502771207 3.3651195203212865 0 3.3651195203212865 14.78142105037017 0 0 0 0 41.792354519870059 12.041272094104684 0 12.041272094104684 10.116548707561492 0 0 0 0 15.035523957559235 11.307933209406571 0 11.307933209406571 8.596544891857425 0 0 0 0 7.9431388343351585 2.3437127002235236 0 2.3437127002235236 9.650596997273162 0 0 0 0 29.981356653845069 17.230236593509971 0 17.230236593509971 18.827427396415032 0 0 0 0 -36.443890368504981 66.963568597700714 0 66.963568597700714 52.150379080698485 0 0 0 0 56.817894551019407 28.671360254016484 0 28.671360254016484 9.1645003353167382 0 0 0 0 81.48695785983 39.136407150398554 0 39.136407150398554 -40.209008625542992 0 0 0 0 90.518050709277304 10.942077926946467 0 10.942077926946467 -10.459116285723212 0 0 0 0 89.086811733531249 29.918862016608273 0 29.918862016608273 20.225870987403141 0 0 0 0 121.2640564416979 7.798912001645931 0 7.798912001645931 -13.052490512110126 0 0 0 0 40.575693655454437 10.533137295723321 0 10.533137295723321 -3.7290813656109147 0 0 0 0 86.618006728656724 -3.8049435587335552 0 -3.8049435587335552 -16.266247736653895 0 0 0 0 34.695762415703939 14.525813149270107 0 14.525813149270107 -1.8439033014578854 0 0 0 0 21.240908277442188 -1.4470832026277023 0 -1.4470832026277023 -9.7575370907533951 0 0 0 0 31.529009663895977 55.147884606768457 0 55.147884606768457 -28.230032345230939 0 0 0 0 8.3424451092327612 2.8010754839675318 0 2.8010754839675318 5.7100688800558785 0 0 0 0 54.4148625289954 25.40548560825664 0 25.40548560825664 -26.390888017113866 0 0 0 0 52.192347533483506 2.730374553205106 0 2.730374553205106 -19.96102684628173 0 0 0 0 30.180936030345038 -1.0697988609042568 0 -1.0697988609042568 -19.457641026870988 0 0 0 0 67.525024923586898 -54.023082444736247 0 -54.023082444736247 -43.969599306664804 0 0 0 0 51.564569839324577 35.281209065120947 0 35.281209065120947 24.636620632180893 0 0 0 0 135.89025948739891 128.446803730174 0 128.446803730174 83.079686004857422 0 0 0 0 91.050239339981218 44.104110966979611 0 44.104110966979611 -32.375287332484731 0 0 0 0 44.889368371412274 16.512253879213404 0 16.512253879213404 -24.145194261797997 0 0 0 0 -83.415812515809193 49.164750526648731 0 49.164750526648731 176.47307552858638 0 0 0 0 -2.1368825283019106 -1.410200499903226 0 -1.410200499903226 4.244123192987125 0 0 0 0 346.33002916846817 111.82741989802844 0 111.82741989802844 64.317234617539725 0 0 0 0 114.52479004944962 121.98410539244173 0 121.98410539244173 132.26414679015761 0 0 0 0 123.65888423300385 13.639443270505126 0 13.639443270505126 25.673997491010368 0 0 0 0 43.368783258904841 116.0509388201815 0 116.0509388201815 231.86609140867631 0 0 0 0 91.681129426646294 -51.497145195854046 0 -51.497145195854046 111.24711552489498 0 0 0 0 -21.255963089724901 49.155489166039104 0 49.155489166039104 36.539652936038237 0 0 0 0 125.09554963116591 172.9056958978974 0 172.9056958978974 101.10631632308423 0 0 0 0 1.2137996783603739 169.3119679805643 0 169.3119679805643 231.86630554020462 0 0 0 0 -11.708903350612673 53.548743913196859 0 53.548743913196859 43.852914981275831 0 0 0 0 6.7809776200592751 143.53784452942409 0 143.53784452942409 176.29772375360812 0 0 0 0 19.779099194689934 148.71826449016498 0 148.71826449016498 160.7480184133351 0 0 0 0 -26.355895354329732 68.073682564583891 0 68.073682564583891 228.04242869580133 0 0 0 0 79.038706022822225 251.79870045971711 0 251.79870045971711 267.11038077536091 0 0 0 0 -1.3120789830146578 155.97861972836989 0 155.97861972836989 174.52684044544731 0 0 0 0 13.214167745456507 -73.476254110880518 0 -73.476254110880518 152.81492543156128 0 0 0 0 -1.1390563650129266 -0.31957701387269921 0 -0.31957701387269921 6.1454909022948847 0 0 0 0 441.82218310916505 0.74557638059764031 0 0.74557638059764031 -69.762741476615702 0 0 0 0 58.190480819541335 152.36292606374059 0 152.36292606374059 -27.997309892710291 0 0 0 0 10.064881883698035 12.800167682411029 0 12.800167682411029 22.058134350422733 0 0 0 0 10.456745049796154 22.747114044492264 0 22.747114044492264 124.42226343262246 0 0 0 0 34.437339746913494 39.914620354631552 0 39.914620354631552 48.992312544566857 0 0 0 0 35.952816556482503 51.10890538194144 0 51.10890538194144 40.522862520497256 0 0 0 0 -31.724131759781812 30.688353230988241 0 30.688353230988241 153.72430963518627 0 0 0 0 -17.999234141267152 8.9973941365769861 0 8.9973941365769861 117.91117973572227 0 0 0 0 -35.136251772881224 30.435864611773241 0 30.435864611773241 97.788432109475252 0 0 0 0 17.588095655971301 -4.3318053953558149 0 -4.3318053953558149 -125.48127602016177 0 0 0 0 -41.456637920018693 18.174345391383326 0 18.174345391383326 92.884674228671088 0 0 0 0 162.33255925549929 181.92320919827068 0 181.92320919827068 82.290799112608056 0 0 0 0 67.668047212708188 -11.172261060568758 0 -11.172261060568758 -249.04292880087655 0 0 0 0 -37.579737943933424 24.492188285140315 0 24.492188285140315 249.45602618461771 0 0 0 0 292.16525149648987 10.796771401185197 0 10.796771401185197 -49.826294665033402 0 0 0 0 -30.068398846671698 -41.898426690537121 0 -41.898426690537121 -30.380103507864987 0 0 0 0 1.6133557586254454 -1.6483308265387606 0 -1.6483308265387606 6.3911863541745735 0 0 0 0 24.508905501248591 -72.807998764299668 0 -72.807998764299668 61.380288528945556 0 0 0 0 168.97776865667765 132.30215288958243 0 132.30215288958243 48.135704890362334 0 0 0 0 110.06011320026664 142.86996271212536 0 142.86996271212536 148.79162632968723 0 0 0 0 0.87969243663773966 2.3457184094818677 0 2.3457184094818677 -0.67948556474041477 0 0 0 0 -9.4400862559687084 50.409037667568242 0 50.409037667568242 135.41854985767816 0 0 0 0 77.69038543878014 27.76780052075253 0 27.76780052075253 -32.307975270745146 0 0 0 0 0.1858915963138088 3.3581918155269226 0 3.3581918155269226 -0.99723620320782425 0 0 0 0 23.068301876277474 71.639420759475826 0 71.639420759475826 75.623275707105449 0 0 0 0 73.595936659376093 43.580930235415309 0 43.580930235415309 91.115845280266626 0 0 0 0 111.7610712643982 161.61820111632869 0 161.61820111632869 146.73184902837036 0 0 0 0 23.280619431103332 33.651567424125574 0 33.651567424125574 466.99367303047165 0 0 0 0 115.20913755456513 418.90987845460506 0 418.90987845460506 598.39324138018696 0 0 0 0 165.26201506917096 228.95081745863263 0 228.95081745863263 243.28623108386512 0 0 0 0 53.275204463933733 259.83833398114871 0 259.83833398114871 245.67203190699456 0 0 0 0 317.90749213376512 526.28995559132841 0 526.28995559132841 400.07998507859133 0 0 0 0 453.92552736952348 495.5974658005747 0 495.5974658005747 340.29992590597828 0 0 0 0 547.4822138885429 330.19259137045196 0 330.19259137045196 156.11893319960143 0 0 0 0 406.1828923646533 122.34095726574213 0 122.34095726574213 789.08542691348248 0 0 0 0 901.71154528756233 986.84860960409446 0 986.84860960409446 854.47634968162811 0 0 0 0 21.470842121217174 -14.341509917695646 0 -14.341509917695646 -9.4294141051918814 0 0 0 0 -1.537601405474561 32.700305876123934 0 32.700305876123934 -0.64369570328221926 0 0 0 0 -19.227793185455084 33.293918267726895 0 33.293918267726895 13.913872416396089 0 0 0 0 154.26929412351024 14.216754142512571 0 14.216754142512571 -32.436340092369392 0 0 0 0 7.2670422735349121 41.391231366749949 0 41.391231366749949 -89.301532002307795 0 0 0 0 1.4673091908152855 -64.722327341899927 0 -64.722327341899927 -45.638001110396999 0 0 0 0 -30.240715533107448 -17.397000750408655 0 -17.397000750408655 22.223387990350147 0 0 0 0 -1.2774205378435743 2.9667776418566523 0 2.9667776418566523 4.1965606182632307 0 0 0 0 172.30609009282671 -93.482457053485632 0 -93.482457053485632 62.133511739642927 0 0 0 0 1.0784829304979642 5.0744325306731612 0 5.0744325306731612 -0.41091340882039862 0 0 0 0 45.163017052796931 15.367630581431683 0 15.367630581431683 -138.3840530360325 0 0 0 0 -8.3511890789132117 6.6658076052264308 0 6.6658076052264308 -0.16254612174310945 0 0 0 0 -17.149366955083565 46.602332064270463 0 46.602332064270463 -6.396820722723902 0 0 0 0 -34.616158490102862 16.656069731539333 0 16.656069731539333 9.4861861148111757 0 0 0 0 9.3842088336751353 7.5818133691781862 0 7.5818133691781862 2.1830309156089687 0 0 0 0 -3.9202407205766576 20.18212306559235 0 20.18212306559235 -18.773165571623224 0 0 0 0 -79.183164251313428 45.536947590740397 0 45.536947590740397 -10.319885942365602 0 0 0 0 -10.571648612822173 -5.1303655150709346 0 -5.1303655150709346 12.13580916570487 0 0 0 0 -25.902880985297998 1.2857031953803215 0 1.2857031953803215 19.308628652806874 0 0 0 0 -10.332456175903644 -12.359910920657057 0 -12.359910920657057 -13.414736348404176 0 0 0 0 60.567021258417753 -33.86304133222427 0 -33.86304133222427 -157.99778282649856 0 0 0 0 -26.75396761716911 84.934040800539378 0 84.934040800539378 16.676697010913045 0 0 0 0 -3.4017149582443054 3.7231231171182899 0 3.7231231171182899 -1.2325600502948992 0 0 0 0 25.278510626672869 -51.365865786669218 0 -51.365865786669218 29.209119888739679 0 0 0 0 -27.163616038422333 2.6852716843069402 0 2.6852716843069402 63.32804157112264 0 0 0 0 21.658439296796132 -60.843431659515772 0 -60.843431659515772 -72.710951300676356 0 0 0 0 195.28819506245236 43.490790040554394 0 43.490790040554394 -44.861385277795762 0 0 0 0 338.65984968786142 201.69860806382803 0 201.69860806382803 31.376243633658646 0 0 0 0 -0.1533211541395012 4.8472295822793789 0 4.8472295822793789 6.1226310715406038 0 0 0 0 28.494456009983878 -10.390899926094676 0 -10.390899926094676 17.16118251435654 0 0 0 0 -11.607406455324053 -75.37955717893243 0 -75.37955717893243 425.67981895044727 0 0 0 0 -90.475850680741132 62.267463197942448 0 62.267463197942448 4.1684547127479163 0 0 0 0 -89.807676554706632 61.854297919558746 0 61.854297919558746 -15.003317250869031 0 0 0 0 1.4847391595302142 2.7097663765028965 0 2.7097663765028965 -0.760698995348986 0 0 0 0 -183.72123758343662 50.251771249307765 0 50.251771249307765 35.680077572615573 0 0 0 0 -178.75579064156773 215.64134562727031 0 215.64134562727031 -153.55396204864564 0 0 0 0 -152.83848560540355 34.89941125813948 0 34.89941125813948 42.71704215362945 0 0 0 0 -19.621902403687272 20.720422251118634 0 20.720422251118634 -1.4047205876886437 0 0 0 0 -12.326000167915481 16.27777984415502 0 16.27777984415502 -4.8304798041983759 0 0 0 0 9.8325876441863826 7.0917513012603202 0 7.0917513012603202 0.38346708085457148 0 0 0 0 -19.076957059717643 13.307617240437509 0 13.307617240437509 3.2887890983299712 0 0 0 0 -5.7384804354287553 9.4390470328413585 0 9.4390470328413585 -1.5456292509120431 0 0 0 0 120.75719318197162 -64.014033078319926 0 -64.014033078319926 -100.72960687072282 0 0 0 0 -3.377808369941441 11.21723473367515 0 11.21723473367515 -3.6234645745710612 0 0 0 0 14.829497561362587 115.54108951537978 0 115.54108951537978 132.52438581453953 0 0 0 0 -0.52396314567970848 7.5610679876831171 0 7.5610679876831171 -4.8352905475118222 0 0 0 0 5.7231637948029856 0.17671353761602404 0 0.17671353761602404 -4.4499280284147744 0 0 0 0 -21.713154883415427 12.471762970722921 0 12.471762970722921 33.95054712977219 0 0 0 0 -6.5939218936364341 9.5300640381658468 0 9.5300640381658468 11.339504158068394 0 0 0 0 -7.2597665071634765 18.456418570835467 0 18.456418570835467 15.771255185891732 0 0 0 0 17.205948137275442 14.12815112803008 0 14.12815112803008 0.87967190043218579 0 0 0 0 17.580570432314289 19.925212227284419 0 19.925212227284419 19.491713957264892 0 0 0 0 76.205940922131504 56.128360037161656 0 56.128360037161656 -190.04877004027276 0 0 0 0 -272.64140826238906 110.66453287561399 0 110.66453287561399 248.85925579161051 0 0 0 0 -110.12578850908631 -64.199139625469059 0 -64.199139625469059 836.54276589682831 0 0 0 0 47.029637459003879 8.6318491222803289 0 8.6318491222803289 219.48297294712592 0 0 0 0 -15.424093473303401 41.474886145046071 0 41.474886145046071 -42.860592326449023 0 0 0 0 0.93082162770541288 4.4316765674997249 0 4.4316765674997249 2.5331736589892611 0 0 0 0 69.751447190389626 308.65484931812807 0 308.65484931812807 353.17205462257652 0 0 0 0 195.77983334392638 152.39758405539055 0 152.39758405539055 173.46865815318688 0 0 0 0 211.67852430380844 118.94671599652338 0 118.94671599652338 65.011498769288437 0 0 0 0 150.97357853538142 339.69026886368783 0 339.69026886368783 617.30959342609162 0 0 0 0 -27.274480577458917 232.4213511254228 0 232.4213511254228 658.1456759557575 0 0 0 0 438.94392578211045 382.39770516941508 0 382.39770516941508 175.91692848460025 0 0 0 0 328.89110409970999 197.741888114311 0 197.741888114311 -179.55082240069987 0 0 0 0 158.3927227252243 102.41110756736612 0 102.41110756736612 -197.50862164985665 0 0 0 0 241.26124278818861 28.890799114301444 0 28.890799114301444 -379.28990359902309 0 0 0 0 89.580600407119164 259.32611089468583 0 259.32611089468583 -161.72194705346919 0 0 0 0 76.066886132059153 90.692595493026602 0 90.692595493026602 -300.78680610679794 0 0 0 0 222.68877879505453 109.9501556281175 0 109.9501556281175 -298.28346696416588 0 0 0 0 77.622512387568349 85.628483219707505 0 85.628483219707505 -313.373491502447 0 0 0 0 226.68667861130541 318.6619939972361 0 318.6619939972361 4.4170401026476611 0 0 0 0 130.51392449390107 356.24633254459422 0 356.24633254459422 -179.48517068861838 0 0 0 0 43.23001491656305 174.50762415905501 0 174.50762415905501 -77.017512580697257 0 0 0 0 42.720618608984296 208.71996357857461 0 208.71996357857461 -336.0585025049968 0 0 0 0 -48.333618535278219 143.36620373449932 0 143.36620373449932 -248.87038070493054 0 0 0 0 -189.87176434235482 411.85612400139257 0 411.85612400139257 -188.7347847248966 0 0 0 0 -271.31020396624103 211.14316777225849 0 211.14316777225849 164.43835618282583 0 0 0 0 -1.0839363731659786 1.3111402147250004 0 1.3111402147250004 2.9735214591908701 0 0 0 0 390.74138278711962 -94.789860528771896 0 -94.789860528771896 0.24913262358859356 0 0 0 0 301.10214691505189 203.62039357405956 0 203.62039357405956 -40.015347047017713 0 0 0 0 50.377816213137862 104.1417479936872 0 104.1417479936872 14.451560170346056 0 0 0 0 80.62703543877916 414.20322291818979 0 414.20322291818979 -240.37116933506059 0 0 0 0 150.75020959467474 -32.801020829419485 0 -32.801020829419485 -345.58518087895573 0 0 0 0 569.1131209653704 -32.168459731425173 0 -32.168459731425173 -544.47399268156869 0 0 0 0 229.79732733516994 -51.463553605069535 0 -51.463553605069535 -62.437038891717293 0 0 0 0 99.49241949291536 276.67105267030547 0 276.67105267030547 269.63554890846387 0 0 0 0 340.42515054243268 313.46336604579898 0 313.46336604579898 -45.432905099180061 0 0 0 0 153.51350454855401 285.66400249439414 0 285.66400249439414 99.411552145151745 0 0 0 0 95.93286315745172 259.10747584176124 0 259.10747584176124 639.38082707574222 0 0 0 0 458.66549709976948 36.483700665203713 0 36.483700665203713 141.40610061507414 0 0 0 0 205.2482252344671 194.06825388364496 0 194.06825388364496 49.182898187245883 0 0 0 0 256.91934135153679 94.27799389371603 0 94.27799389371603 -280.75577092720141 0 0 0 0 58.589528754706407 146.88525916851177 0 146.88525916851177 155.37991222732603 0 0 0 0 143.62436250165047 91.221667143584455 0 91.221667143584455 -226.64694117252202 0 0 0 0 132.71221388853155 -96.38853325591208 0 -96.38853325591208 -298.10875919319591 0 0 0 0 265.69407367759413 8.7771738422903809 0 8.7771738422903809 -172.20941422072246 0 0 0 0 105.89070619703125 -199.00118478899367 0 -199.00118478899367 -587.66604453274977 0 0 0 0 29.591468833485123 -50.621727383113466 0 -50.621727383113466 -327.83725042932065 0 0 0 0 19.545389918763249 4.729869713725293 0 4.729869713725293 -388.04429327887192 0 0 0 0 7.8607578417519335 -354.98078210083855 0 -354.98078210083855 -810.79463406629475 0 0 0 0 17.803458808101865 1.1857702606088014 0 1.1857702606088014 -7.5227359785172947 0 0 0 0 341.72947139703138 393.00240835086834 0 393.00240835086834 191.26709485106221 0 0 0 0 -9.9693039603062061 49.010416904322028 0 49.010416904322028 -387.0946551691427 0 0 0 0 0.1938061357677725 -645.61462752420823 0 -645.61462752420823 -1021.9023323192046 0 0 0 0 7.5577180909632204 0.8209458483147305 0 0.8209458483147305 -3.3665727203629912 0 0 0 0 692.11073258464239 877.61311832018464 0 877.61311832018464 731.93384718199923 0 0 0 0 340.05676785033575 299.87722777428371 0 299.87722777428371 427.03605072530422 0 0 0 0 391.68465105468204 0.47389589820249967 0 0.47389589820249967 14.860893346783314 0 0 0 0 84.785892508994039 162.42035944051804 0 162.42035944051804 75.062825433524267 0 0 0 0 172.214562293364 -142.58944013470045 0 -142.58944013470045 -175.3483741552327 0 0 0 0 470.28165671201896 -162.81912024367875 0 -162.81912024367875 -176.71380547479203 0 0 0 0 1038.7048230819128 483.51842737816446 0 483.51842737816446 106.17848018634919 0 0 0 0 4.4277499810887093 -26.218100838238115 0 -26.218100838238115 -48.861602172267567 0 0 0 0 64.281125028144743 -156.37103636881511 0 -156.37103636881511 -137.62074094115235 0 0 0 0 360.68757163340706 60.845255026371376 0 60.845255026371376 -94.3189511764744 0 0 0 0 21.695381985740823 -15.867833310341894 0 -15.867833310341894 43.361690347815284 0 0 0 0 -1.132904559374861 1.7145756688532572 0 1.7145756688532572 -21.703562823864484 0 0 0 0 -244.86111156815059 -229.41876367882833 0 -229.41876367882833 -88.909689703207732 0 0 0 0 18.889648101066996 -81.239747167522921 0 -81.239747167522921 -13.159766206938684 0 0 0 0 196.27963094124425 -105.03380742526096 0 -105.03380742526096 -63.457786764739126 0 0 0 0 333.09369149689564 191.48074600634885 0 191.48074600634885 -199.25820970832808 0 0 0 0 -369.80439288449588 -423.32247366539525 0 -423.32247366539525 -447.48848205619743 0 0 0 0 0.054549927626116101 0.95574750911738704 0 0.95574750911738704 -7.4118446993269878 0 0 0 0 373.33792459037431 188.00023980004107 0 188.00023980004107 -718.67532058768995 0 0 0 0 562.26064608481283 -34.246973159805975 0 -34.246973159805975 -425.4632451353084 0 0 0 0 231.02690463806903 26.866865696230661 0 26.866865696230661 -97.744626249501721 0 0 0 0 231.84104385353203 47.844955865559086 0 47.844955865559086 -179.80172963234583 0 0 0 0 479.85866933515535 217.15346165926258 0 217.15346165926258 -221.74000146569847 0 0 0 0 519.44765115664654 32.803970092066763 0 32.803970092066763 102.79997150192821 0 0 0 0 496.86173518607939 527.56444154377141 0 527.56444154377141 528.25893092701244 0 0 0 0 519.30239135524971 255.01577925199422 0 255.01577925199422 183.79592083075659 0 0 0 0 399.32323304334614 2.6788234049492985 0 2.6788234049492985 -179.1229216411889 0 0 0 0 321.74179190335417 -33.50343068904067 0 -33.50343068904067 -2.4708108382524188 0 0 0 0 326.69991206482882 378.85500971563079 0 378.85500971563079 106.29993221010523 0 0 0 0 -95.080046626033436 105.80376202060177 0 105.80376202060177 -26.612215468986506 0 0 0 0 214.60382573267179 -399.39112554386412 0 -399.39112554386412 -326.07119785609302 0 0 0 0 351.29939006758559 -77.900254603720555 0 -77.900254603720555 258.21152588437144 0 0 0 0 515.83476294807406 159.53602687380635 0 159.53602687380635 134.6188136885894 0 0 0 0 528.18814030343947 383.93295145430619 0 383.93295145430619 414.49145029938518 0 0 0 0 612.78451079685283 68.635554542822206 0 68.635554542822206 209.13002049582155 0 0 0 0 744.52190071611494 -133.37998427634579 0 -133.37998427634579 255.2103503525459 0 0 0 0 619.06859798398 146.23284555356622 0 146.23284555356622 366.27473134108459 0 0 0 0 793.29826894507278 -39.922686110088762 0 -39.922686110088762 374.67393875485277 0 0 0 0 963.79948675469859 -138.52330809330851 0 -138.52330809330851 422.98768911437401 0 0 0 0 854.93027814614652 23.963547661657458 0 23.963547661657458 456.86472142740058 0 0 0 0 985.63467293345093 81.441101426517434 0 81.441101426517434 375.66914897004608 0 0 0 0 837.52324425297684 372.61705045436577 0 372.61705045436577 369.138863559735 0 0 0 0 660.93670940471929 644.51548314729826 0 644.51548314729826 438.8745480319169 0 0 0 0 0.28228498052851592 -6.566944541465535 0 -6.566944541465535 19.437693763797171 0 0 0 0 634.56048250280946 627.57024334177345 0 627.57024334177345 522.01591917696078 0 0 0 0 709.79697389977719 459.41154272733269 0 459.41154272733269 466.41569719921154 0 0 0 0 888.92475145191747 411.03449645925389 0 411.03449645925389 377.65324967938977 0 0 0 0 642.78495182190818 -552.71620236359104 0 -552.71620236359104 209.80052329693262 0 0 0 0 642.14988008065563 -507.33647047199753 0 -507.33647047199753 286.86806489803348 0 0 0 0 393.87580086947219 -421.51629933557297 0 -421.51629933557297 140.72523947830587 0 0 0 0 -5.3809579829776339 -215.96497290794377 0 -215.96497290794377 462.02007752533882 0 0 0 0 198.52293505074704 5.6708590461430504 0 5.6708590461430504 -29.446072489826292 0 0 0 0 460.67998161015203 -641.44053301398844 0 -641.44053301398844 843.38175433443985 0 0 0 0 1029.8492295368087 -148.92380524409691 0 -148.92380524409691 563.79062184358099 0 0 0 0 1206.9016252119291 -644.95606905858449 0 -644.95606905858449 320.36356928045552 0 0 0 0 1065.4695982376288 -170.19546069398029 0 -170.19546069398029 378.05864673720089 0 0 0 0 867.5921702277883 -175.01841979006349 0 -175.01841979006349 490.21857567812503 0 0 0 0 947.3624959739609 -256.61290353929689 0 -256.61290353929689 774.04281643902254 0 0 0 0 971.95814575408622 -308.51695348872954 0 -308.51695348872954 521.51862731966321 0 0 0 0 667.35116507948806 -226.57721309320686 0 -226.57721309320686 223.55013587777421 0 0 0 0 796.00756836434437 -330.51180263201081 0 -330.51180263201081 295.98854188223413 0 0 0 0 763.65334154244374 -638.45820877646065 0 -638.45820877646065 69.235988881544472 0 0 0 0 648.75441189369212 -330.8459142363896 0 -330.8459142363896 29.250616714140506 0 0 0 0 161.62388511919198 -194.67359006844822 0 -194.67359006844822 -8.6807533415342277 0 0 0 0 -43.537225195726933 -626.80431363915 0 -626.80431363915 -225.54286062620974 0 0 0 0 585.41708655043476 -693.57225192116653 0 -693.57225192116653 -221.38371424662114 0 0 0 0 764.13634321768643 -431.80023779552812 0 -431.80023779552812 18.307192443691747 0 0 0 0 761.87958319744575 -512.16303025510922 0 -512.16303025510922 -59.529389873610626 0 0 0 0 858.0437755274379 -527.53135390286366 0 -527.53135390286366 93.195814797429421 0 0 0 0 1712.7642564225025 -502.75422272257492 0 -502.75422272257492 -11.065250076296365 0 0 0 0 1038.7215344880397 -53.563637910970442 0 -53.563637910970442 182.06280415771312 0 0 0 0 1.6958892636619005 -3.1047487144250354 0 -3.1047487144250354 1.1411127384952282 0 0 0 0 2165.9954906433591 63.204868230749355 0 63.204868230749355 -180.75250808785495 0 0 0 0 1554.0917663575874 228.02455563353041 0 228.02455563353041 -225.11554258738434 0 0 0 0 1038.2238934447869 -114.26208782961143 0 -114.26208782961143 199.43431669904862 0 0 0 0 1418.6712611588955 296.0992250989043 0 296.0992250989043 418.22980994135577 0 0 0 0 277.70312199195359 -199.61440017615644 0 -199.61440017615644 -581.85902023286371 0 0 0 0 -685.55916815556884 -383.9555423966026 0 -383.9555423966026 -138.17304449734786 0 0 0 0 -143.76245048362216 -223.71287617654377 0 -223.71287617654377 -113.79524757261595 0 0 0 0 15.654117426576704 -253.02987931638384 0 -253.02987931638384 -139.43791497447839 0 0 0 0 84.027297244077999 -103.97828783094653 0 -103.97828783094653 -157.60084012757875 0 0 0 0 208.96389524652477 -57.132315585094887 0 -57.132315585094887 -560.62048738711678 0 0 0 0 -91.020874875099253 -113.84685879153818 0 -113.84685879153818 -150.91034320592763 0 0 0 0 -6.120246372092879 -32.489845385801686 0 -32.489845385801686 -72.958210517438715 0 0 0 0 10.027598170578251 -6.3810966713541326 0 -6.3810966713541326 0.67493993077123138 0 0 0 0 876.28397514979952 468.90246667261562 0 468.90246667261562 260.35978165076801 0 0 0 0 8.5238193234178787 1.1683085655234855 0 1.1683085655234855 7.0666127239712546 0 0 0 0 758.72627288737317 336.34832805379455 0 336.34832805379455 185.33606054265073 0 0 0 0 -49.499074854829814 -118.22093709863384 0 -118.22093709863384 -86.151160445008031 0 0 0 0 61.572346496765249 3.0326869676302977 0 3.0326869676302977 -15.235124095753235 0 0 0 0 36.964614746467177 -12.562637197689575 0 -12.562637197689575 -2.020967239171068 0 0 0 0 1067.3485081593526 -91.21572239452351 0 -91.21572239452351 545.81392753918908 0 0 0 0 1017.9618521434759 55.930993876458516 0 55.930993876458516 269.5511039634647 0 0 0 0 1535.6902720360786 715.94454306099146 0 715.94454306099146 352.82096807532821 0 0 0 0 538.0291404737809 -358.63465653954751 0 -358.63465653954751 241.97801421775847 0 0 0 0 1608.1081147657767 62.6724830221603 0 62.6724830221603 163.02467479396756 0 0 0 0 5.2248555309161304 -3.274574444603374 0 -3.274574444603374 3.5594645399993023 0 0 0 0 1205.6181600802588 317.70983752366948 0 317.70983752366948 91.8934137230641 0 0 0 0 933.52126690424575 143.67459696610129 0 143.67459696610129 188.36447330772688 0 0 0 0 991.3047533264953 -2.7623228927449404 0 -2.7623228927449404 122.53130805544248 0 0 0 0 708.47340616959798 7.8306724126680773 0 7.8306724126680773 328.94256410408343 0 0 0 0 778.51437095108497 9.6622911432389476 0 9.6622911432389476 24.640749818110947 0 0 0 0 652.31637633927767 75.557052625697168 0 75.557052625697168 124.91728591057368 0 0 0 0 850.74373333942367 235.76613373387983 0 235.76613373387983 72.985758116463359 0 0 0 0 796.09346790631935 236.25678987133702 0 236.25678987133702 100.0385004546954 0 0 0 0 770.16376104092569 147.58897607181373 0 147.58897607181373 1.160884225212385 0 0 0 0 800.51099113248131 270.80592640978728 0 270.80592640978728 91.801707257953808 0 0 0 0 722.88137395270587 160.05138781274661 0 160.05138781274661 34.599820620695823 0 0 0 0 756.91389723725206 164.16190332862584 0 164.16190332862584 -65.023780896966628 0 0 0 0 661.28404815411704 128.1495513017685 0 128.1495513017685 17.077016992663289 0 0 0 0 675.73795005587408 139.87578156929774 0 139.87578156929774 -73.587264831613197 0 0 0 0 579.12490427188459 -7.7686541167941385 0 -7.7686541167941385 -75.168801340342782 0 0 0 0 543.12784223993367 79.95538909961266 0 79.95538909961266 15.376151308095189 0 0 0 0 39.535021143299673 5.6339264744209174 0 5.6339264744209174 75.521437691470453 0 0 0 0 41.571948029654777 54.489200176112888 0 54.489200176112888 9.3093395050511845 0 0 0 0 0.77297376044205457 -0.027609163379495705 0 -0.027609163379495705 2.2806378113546986 0 0 0 0 1137.4936605987132 537.15870438107049 0 537.15870438107049 203.13526860827628 0 0 0 0 864.77578305243526 473.0686209997404 0 473.0686209997404 344.22743155598732 0 0 0 0 959.29351605677903 409.03352875146635 0 409.03352875146635 205.02042334717981 0 0 0 0 966.78825308886098 408.80024315101656 0 408.80024315101656 186.59163895373413 0 0 0 0 802.51615682804004 248.08716775003154 0 248.08716775003154 129.33196995609848 0 0 0 0 811.6722070717924 249.92882391930635 0 249.92882391930635 -34.415825170095218 0 0 0 0 671.83378910003194 230.08643651778354 0 230.08643651778354 194.84512616830716 0 0 0 0 311.81112414980544 351.80072312179703 0 351.80072312179703 329.98307418052207 0 0 0 0 707.98955914521571 254.55169819485022 0 254.55169819485022 -21.033518829476179 0 0 0 0 516.07662753736281 206.70433060002676 0 206.70433060002676 -38.141456386524624 0 0 0 0 543.35677624806476 293.09584433565362 0 293.09584433565362 21.135093921477335 0 0 0 0 684.07126200238145 245.56969709457002 0 245.56969709457002 -64.678672183615845 0 0 0 0 647.18762537164525 211.12563637199307 0 211.12563637199307 -42.133588785936809 0 0 0 0 612.18226816983451 171.71285257528234 0 171.71285257528234 -0.50064773767007864 0 0 0 0 575.76678830835181 221.82692535779165 0 221.82692535779165 -68.989906162327088 0 0 0 0 626.82771140019258 201.82952590500315 0 201.82952590500315 -50.919506287374361 0 0 0 0 605.43875751958319 275.54966148165931 0 275.54966148165931 26.310121631350285 0 0 0 0 534.72830157428598 98.045269792611407 0 98.045269792611407 -145.64680106953222 0 0 0 0 544.6676999020533 7.417484556136241 0 7.417484556136241 -209.46735458273065 0 0 0 0 666.09498325042568 62.462280174042917 0 62.462280174042917 -147.03719499432214 0 0 0 0 712.83165194063895 174.47666683237622 0 174.47666683237622 -122.85617922877259 0 0 0 0 633.32259926571533 140.27072824988011 0 140.27072824988011 -60.696518031547328 0 0 0 0 623.29665249925597 87.447417797497565 0 87.447417797497565 -197.75134047189249 0 0 0 0 580.04877603531031 89.04065013021193 0 89.04065013021193 -121.82048672735817 0 0 0 0 540.11661214299693 14.20498913186691 0 14.20498913186691 -188.98802476565834 0 0 0 0 410.86352476913726 -1.4699516691737244 0 -1.4699516691737244 -198.07103487730137 0 0 0 0 420.84477030167363 14.907065768502662 0 14.907065768502662 -263.27335530442258 0 0 0 0 539.99824182806333 41.094937907771055 0 41.094937907771055 -282.13910200506371 0 0 0 0 562.1561004829814 -35.239727835246185 0 -35.239727835246185 -409.62232049656222 0 0 0 0 559.15170756364762 -274.9917580159966 0 -274.9917580159966 -265.88789799904862 0 0 0 0 491.12923499337421 -191.70794834407616 0 -191.70794834407616 -83.722089105619943 0 0 0 0 660.82803388462662 -151.44518046802068 0 -151.44518046802068 -104.42572758323331 0 0 0 0 812.98640584217446 -341.4312426879585 0 -341.4312426879585 -43.42746704111596 0 0 0 0 404.98997852531602 -220.37844656117022 0 -220.37844656117022 -78.7558536226652 0 0 0 0 489.27233612635871 -186.16087591806507 0 -186.16087591806507 -94.252324189229967 0 0 0 0 551.37228805355642 -63.835105125534653 0 -63.835105125534653 -152.81293434019676 0 0 0 0 466.22937817591992 -95.495314283272819 0 -95.495314283272819 -147.08773159111479 0 0 0 0 486.27292993007723 17.205035341361054 0 17.205035341361054 59.359881743609549 0 0 0 0 488.951216698503 89.450662531156922 0 89.450662531156922 -48.19539344048826 0 0 0 0 465.4346094320158 170.85563239194698 0 170.85563239194698 90.069202728601908 0 0 0 0 550.98424416878788 296.96201580426521 0 296.96201580426521 275.409759866782 0 0 0 0 332.49704924917546 -24.617920491002906 0 -24.617920491002906 243.27795408626866 0 0 0 0 421.15829140892271 -31.815280631301562 0 -31.815280631301562 -50.929874694132195 0 0 0 0 319.84639336111491 -111.35133714573794 0 -111.35133714573794 -5.1296205066557832 0 0 0 0 276.94565444594286 -96.230600202240112 0 -96.230600202240112 -216.03170567638881 0 0 0 0 234.63684418898248 -281.49681633915475 0 -281.49681633915475 -133.43325330879725 0 0 0 0 86.950267150891136 -66.084708705761386 0 -66.084708705761386 -50.131451100619486 0 0 0 0 255.67804949263186 -29.185873860332549 0 -29.185873860332549 -423.7791398756026 0 0 0 0 10.436581558479459 1.8721717671880604 0 1.8721717671880604 -1.0788527767483171 0 0 0 0 204.20598277486982 137.6385765840289 0 137.6385765840289 -642.97036103429809 0 0 0 0 97.466074092092299 -311.94942679536712 0 -311.94942679536712 -244.39433155507049 0 0 0 0 -205.72001234252548 40.279531597306232 0 40.279531597306232 -224.7451217109155 0 0 0 0 5.4182922230426271 1.2620841932624938 0 1.2620841932624938 -0.56607418720659175 0 0 0 0 306.31317019826452 311.36737469265518 0 311.36737469265518 -291.61327117712892 0 0 0 0 489.36471811431784 -284.49565319224575 0 -284.49565319224575 -380.56686520473977 0 0 0 0 821.98610534135605 -103.24204664399804 0 -103.24204664399804 -315.77393640002538 0 0 0 0 448.20033326624525 -99.414195178453156 0 -99.414195178453156 134.81701855259553 0 0 0 0 526.54066252379653 -74.653285365311149 0 -74.653285365311149 -112.02599293608546 0 0 0 0 721.82165015876353 96.712564157414818 0 96.712564157414818 30.986879543865825 0 0 0 0 675.1270067585092 -120.82189509335831 0 -120.82189509335831 -98.162676736901176 0 0 0 0 510.78461094106615 -190.72391252074522 0 -190.72391252074522 -82.800791677948837 0 0 0 0 470.71610930152474 -237.06156542666531 0 -237.06156542666531 -114.21517907311045 0 0 0 0 459.52676357778546 -188.43637123786721 0 -188.43637123786721 -105.00315789886736 0 0 0 0 509.17873784219273 -220.83028444900083 0 -220.83028444900083 -247.95354325612379 0 0 0 0 516.31571858685538 -239.2169338805611 0 -239.2169338805611 -231.59690801514603 0 0 0 0 693.06325361695951 -152.47272975427029 0 -152.47272975427029 -197.93590082064475 0 0 0 0 303.20312241244301 21.377619391945018 0 21.377619391945018 26.918615221699156 0 0 0 0 238.14849716641947 109.47367932601787 0 109.47367932601787 -87.839146916720438 0 0 0 0 260.38586301801024 174.26717473266217 0 174.26717473266217 126.12145691271962 0 0 0 0 355.7130624247302 442.884436961961 0 442.884436961961 -140.29679553580314 0 0 0 0 4.9793986426511267 1.6117312095786733 0 1.6117312095786733 -0.36054471736021088 0 0 0 0 106.15807062167835 198.67038096223092 0 198.67038096223092 -136.15521066064775 0 0 0 0 503.5170900899634 275.09256143860932 0 275.09256143860932 -99.758402659631429 0 0 0 0 91.408857415936154 203.44370137280657 0 203.44370137280657 -106.75380928640334 0 0 0 0 656.74594641998749 212.25097704450309 0 212.25097704450309 -136.22366542284911 0 0 0 0 4.9709648553072583 2.162709374871997 0 2.162709374871997 0.88444971092293967 0 0 0 0 448.23522889028175 -237.04195769232956 0 -237.04195769232956 104.10223240014523 0 0 0 0 304.65117880532785 537.25747861603702 0 537.25747861603702 81.304547776980712 0 0 0 0 195.12558991325204 103.7251183188157 0 103.7251183188157 -231.49016956567493 0 0 0 0 44.996118870125429 168.44122610201481 0 168.44122610201481 -259.34502266000783 0 0 0 0 97.189231481977913 55.869668137322606 0 55.869668137322606 -89.540497397339067 0 0 0 0 158.36423401071988 41.879289115013989 0 41.879289115013989 -206.8768558912725 0 0 0 0 68.118165139364464 1.1317661690813452 0 1.1317661690813452 -239.31370277596398 0 0 0 0 60.129981551768651 17.227102040886848 0 17.227102040886848 -205.7729299996472 0 0 0 0 8.1408337709828658 -13.926983125529041 0 -13.926983125529041 -23.307554045616826 0 0 0 0 20.54327568739096 3.3683333817743542 0 3.3683333817743542 -3.7058227063943079 0 0 0 0 54.031056279762197 15.84021911624157 0 15.84021911624157 -250.96812075215558 0 0 0 0 19.567286405372585 27.737530058532116 0 27.737530058532116 -1.4859705665678575 0 0 0 0 4.4572599209381565 -27.993980280618985 0 -27.993980280618985 56.650035650620111 0 0 0 0 12.560338260947693 5.2007414796523577 0 5.2007414796523577 2.0339252417460081 0 0 0 0 8.6371346926138131 -11.196624497052767 0 -11.196624497052767 -17.881255309573135 0 0 0 0 29.676492508000194 -87.439334078745304 0 -87.439334078745304 -70.510094468573868 0 0 0 0 70.007553117259107 -42.620531368641252 0 -42.620531368641252 -28.070966584321582 0 0 0 0 -14.401113437063032 -53.088457317913878 0 -53.088457317913878 -2.7002552544376499 0 0 0 0 56.308683809929818 6.4511323480878691 0 6.4511323480878691 -20.244022432383424 0 0 0 0 771.59699502733099 312.38576122476127 0 312.38576122476127 33.507221939071542 0 0 0 0 809.45601632840783 -0.32318583072861884 0 -0.32318583072861884 -56.493779223889305 0 0 0 0 285.22172802069065 26.561567680758571 0 26.561567680758571 -0.84695152905385385 0 0 0 0 -5.6745275707091594 -48.561240827932011 0 -48.561240827932011 141.21420259337697 0 0 0 0 286.36726837876722 -67.105218039017927 0 -67.105218039017927 21.071647882269872 0 0 0 0 59.85562758680183 -21.408290610771218 0 -21.408290610771218 41.472666190128621 0 0 0 0 103.60817889163036 -59.367801731191776 0 -59.367801731191776 -19.53180338309113 0 0 0 0 238.74564096115591 23.881601901078284 0 23.881601901078284 -46.457985934197495 0 0 0 0 177.50716437259734 -43.273090250987025 0 -43.273090250987025 -26.344170048837327 0 0 0 0 136.83201039238827 37.710326579938396 0 37.710326579938396 -24.100316101453018 0 0 0 0 467.596194230131 81.294603291747876 0 81.294603291747876 -35.991193196722406 0 0 0 0 207.22772198606754 70.205894484413875 0 70.205894484413875 23.676917562038454 0 0 0 0 455.29322171769604 211.70174713578353 0 211.70174713578353 -10.440615527907767 0 0 0 0 209.00745236786156 54.452949044894119 0 54.452949044894119 11.702908324175922 0 0 0 0 303.40302253327991 224.41766680373732 0 224.41766680373732 107.11369069853339 0 0 0 0 237.57340475847741 31.242751660577582 0 31.242751660577582 -32.256381569117764 0 0 0 0 179.8631667462198 49.728479395153258 0 49.728479395153258 -4.5070555771032446 0 0 0 0 -12.764391268484133 -55.067845539804409 0 -55.067845539804409 10.119212301098301 0 0 0 0 52.801454905204572 -25.674749826429796 0 -25.674749826429796 -0.19929100906147212 0 0 0 0 61.540058874198721 -128.41539378087879 0 -128.41539378087879 -107.22189525982961 0 0 0 0 93.58025239053859 -31.889030738083136 0 -31.889030738083136 -46.745877366014312 0 0 0 0 130.81404439664686 -54.660611384146989 0 -54.660611384146989 -118.32903927329539 0 0 0 0 51.359141859857004 -55.29297612288417 0 -55.29297612288417 -101.50548234531789 0 0 0 0 42.339962025750708 -14.356662885582637 0 -14.356662885582637 -48.736697188238622 0 0 0 0 52.029799078916781 -31.120606303909838 0 -31.120606303909838 -118.80310408088235 0 0 0 0 -165.45721592932216 -140.17690993893484 0 -140.17690993893484 -122.83397482173532 0 0 0 0 179.55322225638884 -26.034303150395544 0 -26.034303150395544 -118.71926957874302 0 0 0 0 13.316212447260359 5.4918175669001315 0 5.4918175669001315 -35.51130718870661 0 0 0 0 47.428023025943737 -18.058455589331551 0 -18.058455589331551 1.7329580897977173 0 0 0 0 111.74421397576117 -103.44403235366339 0 -103.44403235366339 -45.225951030850638 0 0 0 0 143.1582180752921 109.04129639127507 0 109.04129639127507 -19.498745710074331 0 0 0 0 184.82528310926682 97.39895329495539 0 97.39895329495539 -47.210298545636761 0 0 0 0 49.985397449861921 -11.713535571039756 0 -11.713535571039756 -74.21028887535067 0 0 0 0 86.793252865771592 -103.64176063748471 0 -103.64176063748471 -144.86051910901369 0 0 0 0 49.985596469495704 -58.768693340321988 0 -58.768693340321988 -108.50839651813851 0 0 0 0 55.359538504098147 -5.8948580100363746 0 -5.8948580100363746 -25.764532339057663 0 0 0 0 13.307370423579266 1.8075134548699123 0 1.8075134548699123 -0.043763896362446042 0 0 0 0 53.790599092575576 9.4165026202053923 0 9.4165026202053923 -113.58681362944412 0 0 0 0 -154.06864133204726 -156.75096429733549 0 -156.75096429733549 -15.291492411073705 0 0 0 0 272.90828166126994 98.697415824195105 0 98.697415824195105 -22.670624425414644 0 0 0 0 319.97001618776085 135.77615306891357 0 135.77615306891357 -31.526747347095807 0 0 0 0 147.95954414082371 -85.639203918868589 0 -85.639203918868589 -83.439411942037623 0 0 0 0 607.5514868998107 328.20288544321215 0 328.20288544321215 4.5085397089806065 0 0 0 0 234.17498221168717 176.70819362011298 0 176.70819362011298 43.490567864742843 0 0 0 0 326.23462703011137 196.84228927849472 0 196.84228927849472 7.0595846939850162 0 0 0 0 123.39522905797276 122.61865805675006 0 122.61865805675006 55.902633654970487 0 0 0 0 209.63415272365819 218.90965777838028 0 218.90965777838028 133.75451121399965 0 0 0 0 277.40531661418936 357.03654566243324 0 357.03654566243324 138.33682964699437 0 0 0 0 246.94483927569854 475.82813333882041 0 475.82813333882041 400.75332525156773 0 0 0 0 115.16133629960132 283.7659277439684 0 283.7659277439684 120.84305571814184 0 0 0 0 273.40949041084059 343.21045509145915 0 343.21045509145915 159.77427758161866 0 0 0 0 223.39803131539111 203.62453960667517 0 203.62453960667517 -34.225024761524764 0 0 0 0 450.61256745168066 51.063728390111464 0 51.063728390111464 -346.58205798960171 0 0 0 0 20.868110433403544 0.66794078555196368 0 0.66794078555196368 -9.8667532897818049 0 0 0 0 -19.114779706324185 69.351837514706617 0 69.351837514706617 -76.905459953975878 0 0 0 0 797.8823480904739 -115.89925482532453 0 -115.89925482532453 -205.75851542779401 0 0 0 0 1256.3854555501875 126.84730848197614 0 126.84730848197614 -172.3420176632153 0 0 0 0 649.38367389259292 532.17485025946735 0 532.17485025946735 30.276582791386318 0 0 0 0 500.00866861182749 357.48182928319602 0 357.48182928319602 83.797573001029377 0 0 0 0 1307.0367813493558 674.81010178229553 0 674.81010178229553 141.5109924738349 0 0 0 0 289.41789475894257 427.37738942573014 0 427.37738942573014 325.24654508904314 0 0 0 0 -190.71101992737385 251.36979239289258 0 251.36979239289258 1245.4586706434011 0 0 0 0 30.184215827752276 8.8524354703269594 0 8.8524354703269594 2.667668744615316 0 0 0 0 139.50014695219397 374.04463544085047 0 374.04463544085047 996.16161942461349 0 0 0 0 28.843631018623775 7.7799898710853093 0 7.7799898710853093 3.1058393156421218 0 0 0 0 -890.22045188316042 -1135.7802494698244 0 -1135.7802494698244 -597.60015453486994 0 0 0 0 309.69956993667745 -3213.6573167561742 0 -3213.6573167561742 -1266.0509205251419 0 0 0 0 725.16951982162573 867.8452329241909 0 867.8452329241909 707.45122390903634 0 0 0 0 66.641464109725348 131.29330819308143 0 131.29330819308143 507.2737546710905 0 0 0 0 52.362180242795986 27.481723341264679 0 27.481723341264679 14.382860127661658 0 0 0 0 485.41260941641758 650.64140132814236 0 650.64140132814236 -296.71768798369521 0 0 0 0 277.77070102794187 -27.679484843923376 0 -27.679484843923376 -163.39093342575251 0 0 0 0 7.8049113536336066 -1.2706737275702977 0 -1.2706737275702977 -2.7455368321293694 0 0 0 0 354.72213686405667 2552.3266773444338 0 2552.3266773444338 5433.5619355547824 0 0 0 0 27.046417142870268 -25.232200476114258 0 -25.232200476114258 346.29345968172402 0 0 0 0 211.7986052218348 150.3743895667115 0 150.3743895667115 77.498496919277386 0 0 0 0 232.23158690489527 185.71836457674567 0 185.71836457674567 452.54254859600314 0 0 0 0 241.43274759803808 142.05568676935832 0 142.05568676935832 16.743627856181774 0 0 0 0 169.64104885419874 299.92579179793461 0 299.92579179793461 608.04318355139412 0 0 0 0 215.33254865753224 624.86454713010289 0 624.86454713010289 40.581420907792108 0 0 0 0 215.47596912334495 611.9455095627934 0 611.9455095627934 535.85095874295348 0 0 0 0 98.974253063564902 1121.3257824039283 0 1121.3257824039283 -100.690099177305 0 0 0 0 4.5394957854521749 9.1338495374393407 0 9.1338495374393407 -1.150531691962775 0 0 0 0 -137.8715081881146 1052.3164223895267 0 1052.3164223895267 707.17074286161278 0 0 0 0 1144.6595250645641 -1455.0799178814759 0 -1455.0799178814759 -714.75694161113893 0 0 0 0 2926.644055433173 2412.643882646521 0 2412.643882646521 -523.10518504491324 0 0 0 0 -269.56032078075077 887.42871811620716 0 887.42871811620716 1101.8292609705004 0 0 0 0 45.01603893341553 -73.809053450585395 0 -73.809053450585395 -285.86358351775016 0 0 0 0 11.600243919092463 -23.939690991212728 0 -23.939690991212728 -243.10954956912428 0 0 0 0 95.573349583282834 -21.761057737600822 0 -21.761057737600822 -89.454422220679589 0 0 0 0 117.62991449975334 91.938124837789474 0 91.938124837789474 -33.026267219607689 0 0 0 0 82.894488864863888 -18.675848395290814 0 -18.675848395290814 -49.252738056646194 0 0 0 0 143.87991542075179 72.774362784491132 0 72.774362784491132 -112.77507859512843 0 0 0 0 72.35909679765723 24.819800970383508 0 24.819800970383508 0.58194358162785242 0 0 0 0 73.391967184696114 32.94704686626028 0 32.94704686626028 98.532327937949049 0 0 0 0 -56.247201878784836 40.49926679514283 0 40.49926679514283 438.61506590760598 0 0 0 0 139.18129219945695 72.515495047446279 0 72.515495047446279 -39.701252793386061 0 0 0 0 63.561130863593171 19.887926514560071 0 19.887926514560071 -10.403264010722074 0 0 0 0 100.55538871580939 43.389625476749188 0 43.389625476749188 -60.060039202534881 0 0 0 0 84.497150121783307 -32.688016216523572 0 -32.688016216523572 -11.682429363383044 0 0 0 0 94.391834862657561 98.302646194376905 0 98.302646194376905 15.829947577850476 0 0 0 0 72.093274302842474 18.390007122630777 0 18.390007122630777 -63.546783470123046 0 0 0 0 122.51210151672603 6.9863032098564872 0 6.9863032098564872 -74.398502904990892 0 0 0 0 96.953849537520227 111.87710310571583 0 111.87710310571583 8.8789370589911414 0 0 0 0 177.71058934825942 55.356921826646612 0 55.356921826646612 -55.874355765619839 0 0 0 0 123.79421028782963 -13.466234768362483 0 -13.466234768362483 -13.330373364401794 0 0 0 0 12.716873414679958 -11.637286001780744 0 -11.637286001780744 -16.263636541212641 0 0 0 0 56.303780983124852 33.470178446463251 0 33.470178446463251 -29.897992204667389 0 0 0 0 5.0157233032699402 2.1453443087317581 0 2.1453443087317581 0.75726599624875135 0 0 0 0 -57.210560747713316 219.23870357638043 0 219.23870357638043 -330.93893217026925 0 0 0 0 27.091171044556525 16.160671193174412 0 16.160671193174412 4.3265017560763406 0 0 0 0 73.918576795734907 -10.645154318676759 0 -10.645154318676759 -21.717254604627669 0 0 0 0 40.970277020303456 42.676428443475352 0 42.676428443475352 45.149219420271876 0 0 0 0 40.20303431637447 21.637520124371218 0 21.637520124371218 7.3224478706303957 0 0 0 0 45.111033682374909 62.722067101421707 0 62.722067101421707 -8.3374053622876971 0 0 0 0 31.235892899909231 22.528047376462382 0 22.528047376462382 -10.98203742012447 0 0 0 0 63.734589010236959 35.115864871524735 0 35.115864871524735 15.158270457619324 0 0 0 0 8.8339202046988383 8.6528940934190803 0 8.6528940934190803 4.0040268460621231 0 0 0 0 43.828921246687969 0.83381739687081335 0 0.83381739687081335 -20.987709296068203 0 0 0 0 42.388895104009862 -8.6348027630507431 0 -8.6348027630507431 32.290861813879587 0 0 0 0 30.532270801327645 20.489413161230669 0 20.489413161230669 7.5506384551409234 0 0 0 0 27.734896834060919 20.347875910393668 0 20.347875910393668 -9.4297961705960915 0 0 0 0 39.738190173444949 47.079995288307231 0 47.079995288307231 22.801335077620749 0 0 0 0 3.6385179845727151 7.3798254516236845 0 7.3798254516236845 -0.059326942605867572 0 0 0 0 0.095069430733019544 102.29854689708236 0 102.29854689708236 -403.30044471783913 0 0 0 0 56.512898907430099 91.202174278272651 0 91.202174278272651 -242.6370227933694 0 0 0 0 25.195647334370733 147.98518602995864 0 147.98518602995864 -330.4618188627478 0 0 0 0 42.831455978704071 56.236997063800118 0 56.236997063800118 -234.48911609948846 0 0 0 0 5.1711584280783427 46.464615879904159 0 46.464615879904159 5.4680211760896782 0 0 0 0 67.520811398168007 28.240788365581466 0 28.240788365581466 -272.13071365545147 0 0 0 0 125.60114824368247 27.384168714396765 0 27.384168714396765 -273.80435446260708 0 0 0 0 106.17871371704496 84.317190787351137 0 84.317190787351137 -305.45939407063088 0 0 0 0 -28.933072346450558 -393.89161057201869 0 -393.89161057201869 -50.507705525402343 0 0 0 0 22.473047305516474 8.156905774725244 0 8.156905774725244 -4.9466272564367308 0 0 0 0 -480.24202778106337 -48.896344259725083 0 -48.896344259725083 71.829869474126099 0 0 0 0 23.200368978378719 23.419179357655594 0 23.419179357655594 -24.671545826846341 0 0 0 0 28.290410287121897 16.270754306809167 0 16.270754306809167 4.7827226551244895 0 0 0 0 41.162283250110235 12.865757777973563 0 12.865757777973563 1.425167129101661 0 0 0 0 34.330312345810398 -14.989193895950507 0 -14.989193895950507 14.179550671328798 0 0 0 0 49.247393318362811 54.161839776831812 0 54.161839776831812 73.541062711921313 0 0 0 0 105.95028735955657 33.477624818980871 0 33.477624818980871 -8.2853355272936824 0 0 0 0 49.501260532137167 28.632539700543362 0 28.632539700543362 64.790388291017734 0 0 0 0 -21.85671629072931 -23.59944092648368 0 -23.59944092648368 -12.03271826455034 0 0 0 0 47.103676109205253 12.464929119486399 0 12.464929119486399 -3.9346096582555674 0 0 0 0 53.717875547019503 -12.696631451809196 0 -12.696631451809196 7.9199581305865649 0 0 0 0 -126.06371054633746 102.50608951066479 0 102.50608951066479 40.420869500326489 0 0 0 0 33.792710744639407 101.10932464944139 0 101.10932464944139 24.099444239754007 0 0 0 0 -29.886627025698544 59.502947653045908 0 59.502947653045908 44.97386235942983 0 0 0 0 219.26245607098826 34.145570602897124 0 34.145570602897124 -50.226555933915733 0 0 0 0 -0.290034058628585 0.48543190707803063 0 0.48543190707803063 1.9597288526364038 0 0 0 0 35.852256514410328 96.625156225225169 0 96.625156225225169 -51.499370652627022 0 0 0 0 56.313925136511898 19.38246247098121 0 19.38246247098121 -19.903415826654964 0 0 0 0 150.42202701409951 11.931725865023964 0 11.931725865023964 -57.352654541100492 0 0 0 0 0.57064004537819102 1.5099679499603731 0 1.5099679499603731 2.801218910558255 0 0 0 0 69.329843253676245 -4.2169293745241703 0 -4.2169293745241703 -22.209558092101361 0 0 0 0 7.5496755592357658 110.69239630411244 0 110.69239630411244 -38.999441069705711 0 0 0 0 234.33911375947355 154.67414287322299 0 154.67414287322299 35.826837138147539 0 0 0 0 342.45605384120154 20.793461977157449 0 20.793461977157449 -62.923551038858022 0 0 0 0 325.71155752969867 90.985176446025434 0 90.985176446025434 -53.001911200268296 0 0 0 0 -107.69274283081813 51.521416771013492 0 51.521416771013492 62.948317452020092 0 0 0 0 51.495052536176445 66.794768239987661 0 66.794768239987661 57.53731985836248 0 0 0 0 184.181344632324 -59.518874772434174 0 -59.518874772434174 -5.4225165234483939 0 0 0 0 132.8831990323215 56.613631238344169 0 56.613631238344169 46.876359555144063 0 0 0 0 -0.043102758697706633 0.51772711419702588 0 0.51772711419702588 1.87740262338707 0 0 0 0 163.45104592971984 89.778802875795463 0 89.778802875795463 16.125668169088385 0 0 0 0 30.033330802481942 43.050625618025606 0 43.050625618025606 77.616675285554265 0 0 0 0 66.994620260453303 -10.596934916587884 0 -10.596934916587884 123.80728555039695 0 0 0 0 50.547874777985271 4.338007464175007 0 4.338007464175007 -196.8261451330909 0 0 0 0 88.085806810006034 -37.58839483328552 0 -37.58839483328552 -157.50576407376343 0 0 0 0 52.15015201715596 -37.758352804158676 0 -37.758352804158676 -205.03454811251868 0 0 0 0 100.72137644865052 -8.8219262985146543 0 -8.8219262985146543 -244.83123584706073 0 0 0 0 70.019938155203818 -23.453962826670363 0 -23.453962826670363 -280.78256365818743 0 0 0 0 64.368480125091082 -3.4392497712104841 0 -3.4392497712104841 -231.62378132993717 0 0 0 0 586.43542212784087 386.60407413786334 0 386.60407413786334 -36.929132089262453 0 0 0 0 525.58178767099525 541.17761676209329 0 541.17761676209329 -418.41967858335113 0 0 0 0 1.7257343388632016 -1.1195047335104551 0 -1.1195047335104551 -1.5549695559379071 0 0 0 0 0.69539676934891759 -253.50069619339692 0 -253.50069619339692 -387.42402575712003 0 0 0 0 558.00895192839198 245.76413914958539 0 245.76413914958539 -10.870820046434574 0 0 0 0 322.12907139629078 66.449978626147981 0 66.449978626147981 -89.309382114643086 0 0 0 0 311.211524764557 75.452662551871754 0 75.452662551871754 -48.73007662055079 0 0 0 0 326.18140720621159 79.090987169599885 0 79.090987169599885 -89.076216995425696 0 0 0 0 292.91236087698962 -15.21737355711366 0 -15.21737355711366 -247.93508846178133 0 0 0 0 308.63372077048007 88.092003562545642 0 88.092003562545642 -23.918569911203576 0 0 0 0 210.57832550895 -37.760879513148666 0 -37.760879513148666 11.324198517271498 0 0 0 0 208.6874273383437 -29.368380381238012 0 -29.368380381238012 -12.321834369175122 0 0 0 0 226.25278322783106 -18.10617668283794 0 -18.10617668283794 -38.335007521539978 0 0 0 0 156.61233368751437 23.502736598818501 0 23.502736598818501 -11.204861014860398 0 0 0 0 88.050272278450393 -34.882278428538484 0 -34.882278428538484 -40.283052276680792 0 0 0 0 168.272083273313 49.874810742167938 0 49.874810742167938 -124.49916200264533 0 0 0 0 139.90345760235414 9.0870699940956001 0 9.0870699940956001 -8.2723047960580516 0 0 0 0 216.43128045254798 90.046417428935911 0 90.046417428935911 12.951039236357701 0 0 0 0 270.29510821851363 29.760973802696412 0 29.760973802696412 -14.826000254178325 0 0 0 0 263.05909480621449 7.727377038927898 0 7.727377038927898 -47.508085830183518 0 0 0 0 234.83783284442507 -27.967840831776812 0 -27.967840831776812 -13.463384181950005 0 0 0 0 230.38412110640706 -57.867762924459214 0 -57.867762924459214 -17.263398425875494 0 0 0 0 264.95028564678557 -57.169711258846682 0 -57.169711258846682 12.034861153090787 0 0 0 0 262.0699579139673 -73.612823076717177 0 -73.612823076717177 1.2815480451013173 0 0 0 0 267.05757336602983 -68.918191112094974 0 -68.918191112094974 -3.8110736131275189 0 0 0 0 69.612820780259426 17.870758702123567 0 17.870758702123567 10.841646462924359 0 0 0 0 273.10337342078446 -100.46938302855096 0 -100.46938302855096 -33.453861685849006 0 0 0 0 203.25695459465351 -125.42097249412382 0 -125.42097249412382 141.19040158004827 0 0 0 0 858.06446939454327 -409.90761203944749 0 -409.90761203944749 75.958190945621027 0 0 0 0 678.31548408095387 229.54161210114762 0 229.54161210114762 -109.02162883434357 0 0 0 0 426.13472304275183 67.906879688522167 0 67.906879688522167 -53.484735014768376 0 0 0 0 297.94560341644865 69.596110777266404 0 69.596110777266404 -46.866892617746089 0 0 0 0 336.68154995096575 86.803092488298262 0 86.803092488298262 -74.146948483192318 0 0 0 0 318.35126755823376 60.472786119631564 0 60.472786119631564 -90.471554259142067 0 0 0 0 307.63197738241979 -92.944801550155262 0 -92.944801550155262 -32.92012699091174 0 0 0 0 421.41151909836299 -15.059266426015711 0 -15.059266426015711 -44.502195368262846 0 0 0 0 117.47311362317123 42.337171985913756 0 42.337171985913756 3.960846085193225 0 0 0 0 92.550710201072434 22.394281620899164 0 22.394281620899164 2.9355748773377854 0 0 0 0 46.477345996307122 27.880064571590538 0 27.880064571590538 81.801160274904873 0 0 0 0 18.451730261620469 46.966960308646321 0 46.966960308646321 8.709596995656284 0 0 0 0 52.109263159375359 17.641347952252204 0 17.641347952252204 28.816739502713062 0 0 0 0 2.1824490817025293 0.38984000023797094 0 0.38984000023797094 -1.1245176156087346 0 0 0 0 41.314095307418029 -117.13523137921766 0 -117.13523137921766 -28.462704748760643 0 0 0 0 17.184846145464689 25.765926577551909 0 25.765926577551909 3.0163912779462407 0 0 0 0 168.00734688521607 69.210321224912605 0 69.210321224912605 4.4852197759792034 0 0 0 0 116.03971641995668 71.838750028193317 0 71.838750028193317 -102.36429315734313 0 0 0 0 16.925219950119754 -9.9843711985148502 0 -9.9843711985148502 -83.611795799144602 0 0 0 0 33.033497040021757 -1.761875088065608 0 -1.761875088065608 -80.367999809013327 0 0 0 0 3.2372624270262094 0.25980711939297407 0 0.25980711939297407 -1.4358540168988512 0 0 0 0 -11.0142816523894 -57.67162174887676 0 -57.67162174887676 -135.25091729180713 0 0 0 0 38.243295436213884 -24.561691072136909 0 -24.561691072136909 -72.792259915346676 0 0 0 0 2.100661988333421 0.53229146416121864 0 0.53229146416121864 -1.341193271208482 0 0 0 0 118.87376547835447 51.248683198021808 0 51.248683198021808 -18.967251793748801 0 0 0 0 37.415478358527622 48.844504510677666 0 48.844504510677666 3.6931116104242392 0 0 0 0 55.157889475756747 -40.173147842276876 0 -40.173147842276876 -132.12016753202715 0 0 0 0 116.4490936355669 -52.930986789036069 0 -52.930986789036069 -224.00633318039854 0 0 0 0 97.934753765948699 20.638571701247201 0 20.638571701247201 -203.34007559454403 0 0 0 0 44.761306364089251 -20.530021117899651 0 -20.530021117899651 -168.59600050705012 0 0 0 0 81.695935919282419 18.687601552249362 0 18.687601552249362 -133.65629692751372 0 0 0 0 81.756678275562933 29.851786213235755 0 29.851786213235755 -129.41318648330525 0 0 0 0 104.476918699728 2.658315356712933 0 2.658315356712933 -206.1859635306464 0 0 0 0 176.22019879326035 49.220707998907528 0 49.220707998907528 -176.20944952609261 0 0 0 0 119.82974587926401 41.62408580949068 0 41.62408580949068 -223.0736121896789 0 0 0 0 126.06807082826434 0.22879607112051303 0 0.22879607112051303 -1.1443963425467354 0 0 0 0 226.03029669663374 81.648139546055063 0 81.648139546055063 -272.60712742107398 0 0 0 0 125.9702883580394 16.311074494551121 0 16.311074494551121 -302.985738579604 0 0 0 0 102.3875288355257 -13.657352832929746 0 -13.657352832929746 -319.17416625680562 0 0 0 0 96.590097412716204 -5.2525835368887783 0 -5.2525835368887783 -225.63846400117563 0 0 0 0 104.41230258577549 -1.1626572460974884 0 -1.1626572460974884 -1.1015970855307007 0 0 0 0 151.65718392840063 -31.638456592831972 0 -31.638456592831972 -232.51621221409641 0 0 0 0 66.01846346865932 -26.013707512205656 0 -26.013707512205656 -223.09218214999692 0 0 0 0 -5.2583328617366476 -2.4954007512303908 0 -2.4954007512303908 -4.5637597728830173 0 0 0 0 760.63762097355357 1007.4622601471574 0 1007.4622601471574 -1163.0035036085801 0 0 0 0 518.28619603976767 -858.36874665948881 0 -858.36874665948881 -154.48599422813641 0 0 0 0 32.236171816931765 158.54557442227784 0 158.54557442227784 -8.7911624785083404 0 0 0 0 12.236090447512268 12.126314298276833 0 12.126314298276833 -1.8044728876432501 0 0 0 0 348.45754616970862 251.31924705466963 0 251.31924705466963 17.289650590064412 0 0 0 0 123.11040499899627 19.094133681302537 0 19.094133681302537 -3.9913839783021103 0 0 0 0 -229.04644812968036 255.19344167334475 0 255.19344167334475 25.698152464709437 0 0 0 0 -87.108521468795516 -236.70276340578403 0 -236.70276340578403 505.31346408638274 0 0 0 0 169.15088068854811 104.06169817460545 0 104.06169817460545 -424.07071514946074 0 0 0 0 465.81644164437239 -153.00242908577184 0 -153.00242908577184 -208.7258995467655 0 0 0 0 412.91920963421637 -439.37363554184662 0 -439.37363554184662 174.16135395165475 0 0 0 0 132.3219368386217 63.063050555979316 0 63.063050555979316 -126.02982833196666 0 0 0 0 262.58242209630271 -175.58026563490193 0 -175.58026563490193 -149.27296993556592 0 0 0 0 161.1988943611268 25.639702357761962 0 25.639702357761962 -309.76865974287284 0 0 0 0 144.29002651559858 43.708673604982323 0 43.708673604982323 -174.35358309344724 0 0 0 0 145.51198140138325 1.3298407946744852 0 1.3298407946744852 -0.21429528532156938 0 0 0 0 146.56549590012582 10.119932635235273 0 10.119932635235273 -115.48073307883499 0 0 0 0 162.48025964495406 1.7696390287330566 0 1.7696390287330566 -6.3932911318491916 0 0 0 0 314.40290135005125 -35.028058244414751 0 -35.028058244414751 -347.17995481838989 0 0 0 0 94.037482746971364 -29.494305397927747 0 -29.494305397927747 -85.550450086809178 0 0 0 0 204.91781263788835 -55.157186370406635 0 -55.157186370406635 134.42524507178314 0 0 0 0 301.22826462794183 -81.064958052381371 0 -81.064958052381371 -106.21496586955618 0 0 0 0 140.80561007898359 398.87810821523817 0 398.87810821523817 -457.04581729755728 0 0 0 0 596.61522491435971 358.79148668046128 0 358.79148668046128 -553.28670192964273 0 0 0 0 13.474471051914328 -24.187526533813667 0 -24.187526533813667 -23.51940739682766 0 0 0 0 198.74819790143556 -215.94540168437698 0 -215.94540168437698 -26.782725069708249 0 0 0 0 672.72110309667278 -82.896061515175575 0 -82.896061515175575 -487.9252372348783 0 0 0 0 -118.58515081374208 -195.34319275485859 0 -195.34319275485859 -295.98616630129982 0 0 0 0 87.112588811432943 -60.307596770546297 0 -60.307596770546297 -84.694411649330505 0 0 0 0 142.96309444425083 -70.980355709290365 0 -70.980355709290365 -59.696927712576048 0 0 0 0 78.577538150195323 -21.653719864101731 0 -21.653719864101731 -76.661879000806948 0 0 0 0 104.27126576927381 -9.5540420398783681 0 -9.5540420398783681 -34.247265036320087 0 0 0 0 105.26858011909235 -16.018399004349426 0 -16.018399004349426 -15.903942129768563 0 0 0 0 67.211689174386265 -176.73749704551301 0 -176.73749704551301 5.8920239900699016 0 0 0 0 65.518398125428348 -55.782609542422399 0 -55.782609542422399 -14.6524773443405 0 0 0 0 114.57881139763049 -49.074510249921786 0 -49.074510249921786 -29.789840986118861 0 0 0 0 88.551514541963115 -33.712637942289803 0 -33.712637942289803 -69.660732830332563 0 0 0 0 99.511648603065908 -15.463069739901547 0 -15.463069739901547 -41.144088399533672 0 0 0 0 98.299701868573152 -38.325317867827998 0 -38.325317867827998 -8.468511990384286 0 0 0 0 70.998544598307205 -15.441601086635515 0 -15.441601086635515 -10.959562070310975 0 0 0 0 25.1571736124165 -37.874196238407791 0 -37.874196238407791 -7.037524750475324 0 0 0 0 104.76720723000471 -49.432720283232356 0 -49.432720283232356 -21.97681911744894 0 0 0 0 101.43966080172686 -40.80745200254205 0 -40.80745200254205 -15.542342300765995 0 0 0 0 38.093321500607999 -47.814549480121059 0 -47.814549480121059 -62.153732188751746 0 0 0 0 88.642153870707261 -60.789191425787067 0 -60.789191425787067 -45.705384341699755 0 0 0 0 55.461048354024463 -68.7568236611841 0 -68.7568236611841 -52.030154409904299 0 0 0 0 68.296138289243771 -15.913670026229823 0 -15.913670026229823 -25.831010151845437 0 0 0 0 90.59861820033106 -42.38792423819487 0 -42.38792423819487 -40.620811855611272 0 0 0 0 98.338941282010637 -35.545936802326651 0 -35.545936802326651 -44.063456721411058 0 0 0 0 7.0231641552818473 -89.808594589956556 0 -89.808594589956556 -34.27254091439147 0 0 0 0 84.90396292800142 -138.52784155055042 0 -138.52784155055042 205.08649997770044 0 0 0 0 12.428820620987949 -0.39468403288898557 0 -0.39468403288898557 3.1366864834721162 0 0 0 0 80.148591519002366 -137.33502334329353 0 -137.33502334329353 -38.817965595994792 0 0 0 0 37.061181581277197 -57.181348484123191 0 -57.181348484123191 106.16446231089867 0 0 0 0 268.11643763776374 -46.571509575343953 0 -46.571509575343953 -432.01476536249538 0 0 0 0 118.30588585072491 -70.67168945558133 0 -70.67168945558133 17.249879834635735 0 0 0 0 22.578034552105237 -240.08276480298196 0 -240.08276480298196 -65.498040249005498 0 0 0 0 -68.604796321385948 -181.25636338174581 0 -181.25636338174581 74.710947214218322 0 0 0 0 125.2633730801208 74.288931745183618 0 74.288931745183618 -54.14360497466987 0 0 0 0 -59.955618711232091 -297.12569516378517 0 -297.12569516378517 -332.39804801856735 0 0 0 0 -123.77390219450899 -347.60740031839123 0 -347.60740031839123 -293.32659078363213 0 0 0 0 40.150121874395552 -60.972381550045895 0 -60.972381550045895 -29.345603627032631 0 0 0 0 21.719159843371017 -44.309032557338469 0 -44.309032557338469 -37.411388721706317 0 0 0 0 63.866104553676855 -45.003984815866993 0 -45.003984815866993 -51.080579867808169 0 0 0 0 129.64052662485926 -63.562485478486138 0 -63.562485478486138 -46.191953077990917 0 0 0 0 7.2197297155747151 -7.0315942067766812 0 -7.0315942067766812 -13.022285662829177 0 0 0 0 -314.21674837720275 -604.14515886860875 0 -604.14515886860875 -484.35231282680979 0 0 0 0 413.26695654939977 -473.48769309519594 0 -473.48769309519594 -300.19990810770832 0 0 0 0 19.930786228902832 -54.647280188074554 0 -54.647280188074554 -88.624321692485026 0 0 0 0 -325.30895512668212 -479.1000305440175 0 -479.1000305440175 -416.60164814008749 0 0 0 0 33.651860138567898 -41.67756691555789 0 -41.67756691555789 -70.050128787770518 0 0 0 0 -119.60134346277482 -118.20379813610634 0 -118.20379813610634 -344.06502531470539 0 0 0 0 56.324995084526741 -2.0649630119779232 0 -2.0649630119779232 -53.485910443325231 0 0 0 0 52.324939529360563 -230.13303047915451 0 -230.13303047915451 -897.27028865832835 0 0 0 0 33.009914204008965 -326.15758405026725 0 -326.15758405026725 -392.96354717899885 0 0 0 0 72.858277392173477 -190.04189226366088 0 -190.04189226366088 -532.41828546796114 0 0 0 0 -15.682183944752978 -331.70559324378246 0 -331.70559324378246 -273.89896378131562 0 0 0 0 53.805177862160235 -72.46803229939087 0 -72.46803229939087 -42.111091355696772 0 0 0 0 162.48112361436506 2.5863305343805223 0 2.5863305343805223 -127.70547310594679 0 0 0 0 230.06041488285155 -188.03435907996982 0 -188.03435907996982 -443.63637922377529 0 0 0 0 93.385521908646638 -28.557071538252089 0 -28.557071538252089 -21.233276927696451 0 0 0 0 113.66822595958365 35.587785350605373 0 35.587785350605373 -25.097692407594877 0 0 0 0 183.01069506010163 116.70933672712424 0 116.70933672712424 -412.79328474515171 0 0 0 0 700.8642591353273 382.72853229887551 0 382.72853229887551 -1127.4758430018146 0 0 0 0 665.79283659805878 384.55065606156751 0 384.55065606156751 -318.52167802542499 0 0 0 0 521.97624636034016 120.21911248556421 0 120.21911248556421 -1026.749688393782 0 0 0 0 663.05183528532507 429.84819773231538 0 429.84819773231538 -856.47587069023939 0 0 0 0 541.18632844364038 293.16073720191537 0 293.16073720191537 -398.55239384427114 0 0 0 0 521.88435685238801 269.3429780409524 0 269.3429780409524 -123.82105700633656 0 0 0 0 442.24969427473843 100.05550198789115 0 100.05550198789115 -381.37004236756923 0 0 0 0 244.56851508912223 181.86123316903013 0 181.86123316903013 -49.066938060372195 0 0 0 0 180.36378068415797 -30.755609314606772 0 -30.755609314606772 -423.45586793908933 0 0 0 0 308.85197551717283 213.51403782509419 0 213.51403782509419 -36.62285699444692 0 0 0 0 415.98711387900403 153.38400194913447 0 153.38400194913447 -28.363422759579407 0 0 0 0 397.95478801860008 80.432182254193322 0 80.432182254193322 9.6898624723744433 0 0 0 0 692.79887025838252 -137.87830434366697 0 -137.87830434366697 268.50524298079836 0 0 0 0 594.44633668713504 78.716992556075638 0 78.716992556075638 -31.725368920175242 0 0 0 0 99.184533474501222 -47.966918008822176 0 -47.966918008822176 150.22668839424568 0 0 0 0 195.13871946453582 -158.52439564494307 0 -158.52439564494307 -198.04317849090239 0 0 0 0 125.24348876340082 89.875872622686074 0 89.875872622686074 -40.621467570061213 0 0 0 0 97.587195691870875 -245.23050884793429 0 -245.23050884793429 -270.44048353842936 0 0 0 0 156.22597721107013 -345.34936591765108 0 -345.34936591765108 -736.72885021600996 0 0 0 0 109.23219936035457 -162.09294873018007 0 -162.09294873018007 -428.50467599837975 0 0 0 0 76.061168779281758 -39.397087006092406 0 -39.397087006092406 20.576644083994005 0 0 0 0 -1953.5554161518812 392.63257828419955 0 392.63257828419955 -1926.3860252692757 0 0 0 0 567.03163219598355 288.57898557562385 0 288.57898557562385 -41.019497662251979 0 0 0 0 23.4189163152692 -15.603819744822943 0 -15.603819744822943 8.9069167917261485 0 0 0 0 93.218193776076077 -436.61785454729488 0 -436.61785454729488 -905.50545543909811 0 0 0 0 895.52570666310203 681.62898637908529 0 681.62898637908529 135.77641920368683 0 0 0 0 540.1293563303625 -480.41751820557329 0 -480.41751820557329 -1802.2380936569371 0 0 0 0 253.52060412296123 50.411558298949785 0 50.411558298949785 -27.183543887078486 0 0 0 0 866.22875610880146 181.33646040672238 0 181.33646040672238 -248.67054963489136 0 0 0 0 705.07589816983091 -14.666525624976202 0 -14.666525624976202 -99.710036861870776 0 0 0 0 803.93379079955776 138.85387425129829 0 138.85387425129829 -262.2085336760083 0 0 0 0 365.02266497835808 -220.11039734026963 0 -220.11039734026963 -235.75085020449842 0 0 0 0 34.691124036326073 -42.626725402755255 0 -42.626725402755255 92.31547273131855 0 0 0 0 476.05225141097617 -440.18359577019919 0 -440.18359577019919 466.60862626552534 0 0 0 0 133.32341355385142 -21.50677337640991 0 -21.50677337640991 65.730547755990756 0 0 0 0 4.5869395411855294 0.57581363990060197 0 0.57581363990060197 0.45089758402392088 0 0 0 0 1031.8136906666186 95.87301298095872 0 95.87301298095872 -63.614883993315743 0 0 0 0 687.67660379408335 82.309369544357196 0 82.309369544357196 480.58779562810651 0 0 0 0 713.6490110559098 140.31693991167958 0 140.31693991167958 13.579436745156272 0 0 0 0 538.76100127614336 145.82661090728288 0 145.82661090728288 57.448798655361315 0 0 0 0 140.35080006776843 215.33992537755375 0 215.33992537755375 77.208517578225383 0 0 0 0 369.34466519109264 114.03753116314374 0 114.03753116314374 104.11412495319269 0 0 0 0 289.23241697042249 240.88810680179267 0 240.88810680179267 60.771915059310231 0 0 0 0 287.83981637346733 418.65067493220272 0 418.65067493220272 -137.58746158446593 0 0 0 0 -220.48151903432154 819.26610338799765 0 819.26610338799765 -519.19676073000028 0 0 0 0 347.77313037264685 168.98951333263722 0 168.98951333263722 -148.25070255593573 0 0 0 0 520.8041463791451 82.094384277377685 0 82.094384277377685 -158.46627092500421 0 0 0 0 671.45624849915475 -46.718439835226491 0 -46.718439835226491 -427.77971723613518 0 0 0 0 210.55577816002187 27.010094912373916 0 27.010094912373916 -20.891660646576383 0 0 0 0 402.49128925906552 14.844522938150476 0 14.844522938150476 -33.797785364698484 0 0 0 0 398.28401109016659 154.05483084870161 0 154.05483084870161 -84.848061791217333 0 0 0 0 439.08041467203293 194.94650365069992 0 194.94650365069992 -182.91941234339174 0 0 0 0 384.90291239046201 186.24435880334568 0 186.24435880334568 -28.709361141212867 0 0 0 0 347.00565368490061 238.94319676240912 0 238.94319676240912 -50.828820180674512 0 0 0 0 483.18217971816193 278.25183135409861 0 278.25183135409861 -52.723928049556434 0 0 0 0 605.45645025178965 329.33217317944855 0 329.33217317944855 -261.93944683555583 0 0 0 0 815.48422984135686 110.63147338861381 0 110.63147338861381 -202.56926688892599 0 0 0 0 218.50649408447498 -19.563079090269639 0 -19.563079090269639 11.350864370871932 0 0 0 0 13.953940910202096 6.2495975740007736 0 6.2495975740007736 23.657920541559417 0 0 0 0 548.1794241148018 -212.36109122769858 0 -212.36109122769858 65.811352365002676 0 0 0 0 18.899037929404813 24.349917734110903 0 24.349917734110903 33.968212611556012 0 0 0 0 10.846550306858315 -2.0307336322871521 0 -2.0307336322871521 -3.4050511254674816 0 0 0 0 137.5194184517386 49.30490210415428 0 49.30490210415428 -153.19820518762026 0 0 0 0 978.69222910626559 99.847394353760137 0 99.847394353760137 144.70236861095486 0 0 0 0 1.6079705957108104 3.4413753695281173 0 3.4413753695281173 2.1768558549314427 0 0 0 0 1180.0376462176664 -561.00536687765577 0 -561.00536687765577 286.95643406860108 0 0 0 0 2420.123735380359 -855.4000628108206 0 -855.4000628108206 -252.51713281382672 0 0 0 0 -237.79804321465872 480.1985725424085 0 480.1985725424085 -301.3610493714732 0 0 0 0 1077.8076863122114 -629.72448787582107 0 -629.72448787582107 320.97543848627083 0 0 0 0 6.284744034614306 7.5239486768287662 0 7.5239486768287662 12.205445731784138 0 0 0 0 -347.41178672986644 29.872997567319771 0 29.872997567319771 -272.16431658952934 0 0 0 0 -251.79736994881114 326.04504301743168 0 326.04504301743168 -345.24338674981664 0 0 0 0 -110.17252512340201 415.96883553546286 0 415.96883553546286 -288.42113963186603 0 0 0 0 720.78793633676833 -85.10910645174863 0 -85.10910645174863 -813.11272560910766 0 0 0 0 1183.0580570161983 352.36549891967752 0 352.36549891967752 -516.28109519832105 0 0 0 0 -291.75097781646764 -199.46552211592734 0 -199.46552211592734 -235.99343897720883 0 0 0 0 151.7692004943674 57.588543750910048 0 57.588543750910048 279.48830100944178 0 0 0 0 557.57240208078292 -231.90003063176391 0 -231.90003063176391 182.31000667521948 0 0 0 0 2194.9000075282966 691.40357385846073 0 691.40357385846073 -532.69747652914157 0 0 0 0 -238.65780698414892 -14.872385896924243 0 -14.872385896924243 361.56539829181929 0 0 0 0 6.0765730410057586 -354.52169657878358 0 -354.52169657878358 -225.70566797617357 0 0 0 0 -400.65253644279437 1252.1311401815633 0 1252.1311401815633 -256.84102090434862 0 0 0 0 158.36824403196806 106.28652189208879 0 106.28652189208879 -418.34082370335454 0 0 0 0 83.646561648849456 -109.77522921959712 0 -109.77522921959712 -20.226291247292465 0 0 0 0 26.627313966018448 -9.1235898203608485 0 -9.1235898203608485 -13.270037481691327 0 0 0 0 -103.90202885490726 -316.85369447474932 0 -316.85369447474932 -16.710614486197301 0 0 0 0 682.39877795608481 -5689.0984241964716 0 -5689.0984241964716 -543.73589610545196 0 0 0 0 32.256721782917197 10.714182700949323 0 10.714182700949323 -13.276233425750831 0 0 0 0 544.38326777645125 159.66768463945641 0 159.66768463945641 143.3394533787723 0 0 0 0 692.79887025844073 -137.87830434371062 0 -137.87830434371062 268.50524298069286 0 0 0 0 181.10454717545844 -10.754519766830946 0 -10.754519766830946 -53.60506870445802 0 0 0 0 692.79887025844073 -137.87830434373791 0 -137.87830434373791 268.50524298066739 0 0 0 0 205.76317637051687 22.575594497389666 0 22.575594497389666 -29.324320839093978 0 0 0 0 110.33022998935485 7.116040454632639 0 7.116040454632639 -52.966297483028939 0 0 0 0 159.22962546843235 3.3024048563246211 0 3.3024048563246211 -22.82088204406795 0 0 0 0 243.98743988065689 28.218889624944495 0 28.218889624944495 -38.550831806278438 0 0 0 0 235.50566877760775 19.748114679411628 0 19.748114679411628 -19.680557271894941 0 0 0 0 54.471304793735584 16.104542763545769 0 16.104542763545769 -3.9849052437732908 0 0 0 0 226.0037668676614 19.035320778340974 0 19.035320778340974 -5.6458548297359812 0 0 0 0 -81.869226402486674 -656.64053632256582 0 -656.64053632256582 -436.9182925199288 0 0 0 0 458.84404653063211 111.71854103266924 0 111.71854103266924 -110.42456444762229 0 0 0 0 237.73135443421185 -20.79557943810471 0 -20.79557943810471 -37.557412375944864 0 0 0 0 -472.39510754364892 -717.31188801654571 0 -717.31188801654571 -77.431807724715327 0 0 0 0 -893.1971283563762 -466.60472843294338 0 -466.60472843294338 320.59350432667475 0 0 0 0 -349.84702467946045 1651.1774743415824 0 1651.1774743415824 88.393881209995016 0 0 0 0 134.06217862599425 -367.18973197189553 0 -367.18973197189553 191.87918956031172 0 0 0 0 0.70383411578602395 -3.184977695026582 0 -3.184977695026582 -6.8903897908226703 0 0 0 0 694.18764537010202 272.85806529366482 0 272.85806529366482 -44.936275250865947 0 0 0 0 202.77593167763871 67.814420091031934 0 67.814420091031934 136.32246529848453 0 0 0 0 293.50203423534185 57.433352986541649 0 57.433352986541649 -58.58435766266939 0 0 0 0 486.29207127160907 425.33744172680031 0 425.33744172680031 107.69637054002851 0 0 0 0 2.8698970467875355 -3.1854859671667128 0 -3.1854859671667128 1.9908109944881325 0 0 0 0 143.07018492063798 252.35919919464686 0 252.35919919464686 46.391529612326849 0 0 0 0 -236.78089987362182 133.08247934337851 0 133.08247934337851 17.297485331699136 0 0 0 0 -54.377594328980194 188.44455547232337 0 188.44455547232337 -215.07544411701292 0 0 0 0 129.20085885273875 161.06956724191241 0 161.06956724191241 -250.18657549006275 0 0 0 0 -46.908579289256068 351.06811479596058 0 351.06811479596058 -488.11035535187693 0 0 0 0 2153.6289570162771 -342.31362648371942 0 -342.31362648371942 -753.1839883676912 0 0 0 0 395.43293511249476 -95.452290280300076 0 -95.452290280300076 -298.24075487943173 0 0 0 0 241.12649124769572 -8.9920178657910981 0 -8.9920178657910981 -36.543607103018466 0 0 0 0 487.95399445050407 33.112057054040633 0 33.112057054040633 -152.93396432333884 0 0 0 0 172.85843308281892 9.3828001333786233 0 9.3828001333786233 -75.101658702730674 0 0 0 0 150.82994266883861 -184.72023931350031 0 -184.72023931350031 -205.19709623991776 0 0 0 0 221.57179449663485 -0.70961894496450739 0 -0.70961894496450739 -35.763316758088195 0 0 0 0 198.35363527751895 -178.6049866190084 0 -178.6049866190084 -206.16946238626588 0 0 0 0 185.74697990158211 67.975428422268124 0 67.975428422268124 -490.50895306894563 0 0 0 0 71.397142134948325 -6.581103509799803 0 -6.581103509799803 -33.134385648072566 0 0 0 0 239.71918175815472 -111.0282285256153 0 -111.0282285256153 -436.40385121212967 0 0 0 0 78.585612839369446 29.611532919537694 0 29.611532919537694 -190.25977743698422 0 0 0 0 381.93109042856895 43.414973700833798 0 43.414973700833798 -356.01877018426512 0 0 0 0 430.34618675547119 33.871791744967595 0 33.871791744967595 -213.37452036148306 0 0 0 0 683.93557508901563 496.58624782535958 0 496.58624782535958 30.057990623920887 0 0 0 0 435.52016426187572 262.00472631632647 0 262.00472631632647 -57.157624560873501 0 0 0 0 331.29022941114079 46.745393221845461 0 46.745393221845461 -184.36954636934024 0 0 0 0 432.13029157485687 190.19811184826312 0 190.19811184826312 -30.973675903216645 0 0 0 0 394.57471395793641 165.42068221375439 0 165.42068221375439 201.83702372780135 0 0 0 0 581.84259692184014 291.2928605256941 0 291.2928605256941 -244.26709697107799 0 0 0 0 858.76432143273564 199.87150684974449 0 199.87150684974449 -377.26646535708915 0 0 0 0 684.40038941189061 -163.99453227579625 0 -163.99453227579625 -35.327361769470372 0 0 0 0 241.62247624256179 -16.166617316088377 0 -16.166617316088377 -126.11480058704092 0 0 0 0 545.66269980896254 -41.646589024679088 0 -41.646589024679088 -125.32880897969699 0 0 0 0 411.20350614651534 -208.35467132618533 0 -208.35467132618533 -313.25750376316137 0 0 0 0 56.453934664585177 -255.97704518677892 0 -255.97704518677892 -28.488212828096948 0 0 0 0 -64.095203448940083 -209.95449802307394 0 -209.95449802307394 -27.365577671247678 0 0 0 0 190.07706147104727 313.8141609894783 0 313.8141609894783 39.946380824186463 0 0 0 0 455.1202006573219 29.227780100257405 0 29.227780100257405 60.843110676218203 0 0 0 0 -112.00310276282016 142.06334123293527 0 142.06334123293527 -342.94142062159108 0 0 0 0 -79.006108453372008 14.491466714252738 0 14.491466714252738 -277.36043448552027 0 0 0 0 2.9498595062021673 -1.0874900092526891 0 -1.0874900092526891 -3.1111650604005021 0 0 0 0 60.766316083156198 32.588157176697678 0 32.588157176697678 -396.26727673600089 0 0 0 0 180.31034985141832 -85.389577942267351 0 -85.389577942267351 -638.53768890454012 0 0 0 0 -18.894874384139143 -129.49829841851033 0 -129.49829841851033 -138.6338112225385 0 0 0 0 31.959941335240501 -208.63753104090074 0 -208.63753104090074 -117.94426323520656 0 0 0 0 186.77712540598986 -156.36290800188544 0 -156.36290800188544 -125.8840749139963 0 0 0 0 198.07186258120873 -26.577032027604218 0 -26.577032027604218 -149.77780644935683 0 0 0 0 246.86939736743943 -260.21387104426503 0 -260.21387104426503 -246.36863121457037 0 0 0 0 602.53126284586824 110.66954574847455 0 110.66954574847455 -162.81599840606395 0 0 0 0 252.30809157057661 94.481000282511957 0 94.481000282511957 -25.66611470297903 0 0 0 0 233.31471316429997 97.190324285410497 0 97.190324285410497 -18.938742172000275 0 0 0 0 304.43356893878172 101.72604443519322 0 101.72604443519322 -45.983212952996837 0 0 0 0 236.34131074980451 -28.817257481324305 0 -28.817257481324305 -177.41870481304989 0 0 0 0 333.89153525366419 34.69929601257445 0 34.69929601257445 -158.72245656301402 0 0 0 0 188.92046103562598 -2.430755302154779 0 -2.430755302154779 -94.978948374262472 0 0 0 0 203.71953910288175 -36.854746344226442 0 -36.854746344226442 -122.92097884674786 0 0 0 0 273.72175073853577 37.066933068056642 0 37.066933068056642 -73.351042156285075 0 0 0 0 248.28025089702351 51.081118175179199 0 51.081118175179199 -38.032312460851244 0 0 0 0 211.1731556753366 91.58220879192595 0 91.58220879192595 20.007981079761976 0 0 0 0 126.11455368051929 -14.638128999339642 0 -14.638128999339642 -38.702174991862194 0 0 0 0 106.53156390318009 -52.844996031313372 0 -52.844996031313372 -37.330848500234424 0 0 0 0 145.8931014841437 -29.2337519115963 0 -29.2337519115963 -36.144905242324739 0 0 0 0 117.01121224440362 -136.14222380278574 0 -136.14222380278574 5.2496086098726664 0 0 0 0 398.20763624930987 80.806470847474884 0 80.806470847474884 -49.801326559607332 0 0 0 0 142.88764680623535 -53.827601474554399 0 -53.827601474554399 2.9967237131692848 0 0 0 0 26.791954295561421 -19.195163789938203 0 -19.195163789938203 -1.0373461247666818 0 0 0 0 222.81134131025101 82.80948097791952 0 82.80948097791952 7.5439230881092953 0 0 0 0 198.77919443320428 59.304627436334648 0 59.304627436334648 0.63389318952322782 0 0 0 0 158.31917382619577 -162.73391768569309 0 -162.73391768569309 80.196490601680125 0 0 0 0 278.91342236681885 101.1564529040952 0 101.1564529040952 12.334161635442797 0 0 0 0 323.34417326752191 131.5896848271077 0 131.5896848271077 -3.5228682926754118 0 0 0 0 112.35315201082994 -83.31549816181905 0 -83.31549816181905 -180.10060582451206 0 0 0 0 36.031090552206223 3.7559181658424361 0 3.7559181658424361 -0.10530783043840586 0 0 0 0 -11.456201110933648 -67.946238679123894 0 -67.946238679123894 -154.45817226981126 0 0 0 0 108.20759236907088 -20.673686288801946 0 -20.673686288801946 -225.81795740517009 0 0 0 0 183.62084111808775 -77.455894275007267 0 -77.455894275007267 -184.54825528900437 0 0 0 0 1179.7012475699066 879.16672778206976 0 879.16672778206976 303.79355822200569 0 0 0 0 2647.4829413299212 655.79362209092665 0 655.79362209092665 -651.23449437974978 0 0 0 0 3499.3474715506491 1187.1449663225069 0 1187.1449663225069 -543.91486739811967 0 0 0 0 2246.626811740357 1274.7283919435565 0 1274.7283919435565 99.857348405519403 0 0 0 0 2220.9583085636709 1554.0811383523278 0 1554.0811383523278 560.24662556591488 0 0 0 0 105.2365953272747 -91.572986638899238 0 -91.572986638899238 4.0183158292607004 0 0 0 0 55.494617034451124 -26.410458332359656 0 -26.410458332359656 9.1864250076667275 0 0 0 0 1133.5364232070588 216.67917861202636 0 216.67917861202636 -430.81202130587889 0 0 0 0 432.5732553189473 434.78951613467387 0 434.78951613467387 12.068833627159734 0 0 0 0 1601.0444786122898 359.64274155057626 0 359.64274155057626 -155.1794328609127 0 0 0 0 100.42528875689595 -555.67704479218992 0 -555.67704479218992 -171.732505117762 0 0 0 0 426.64724475147159 704.87306437686811 0 704.87306437686811 233.33567645403019 0 0 0 0 757.55150564783844 -301.3643374698284 0 -301.3643374698284 1117.6540716136526 0 0 0 0 679.73694279568144 -52.073841311224427 0 -52.073841311224427 368.30934347318862 0 0 0 0 1731.5992268644695 110.86537699170185 0 110.86537699170185 -242.48760542846088 0 0 0 0 2496.3699822205745 -97.248205427028296 0 -97.248205427028296 -223.34886062183568 0 0 0 0 2508.6235672809999 628.46906987833017 0 628.46906987833017 -654.3378698623842 0 0 0 0 3499.3258766814397 221.87857337802998 0 221.87857337802998 -788.93907916795547 0 0 0 0 2494.7701526678666 -44.391496588394205 0 -44.391496588394205 -740.85300883051082 0 0 0 0 3498.8290468620226 -388.28433355968326 0 -388.28433355968326 -693.41670564448134 0 0 0 0 1653.5545580846774 -346.9119574316245 0 -346.9119574316245 -168.10092117759871 0 0 0 0 2554.001719052294 -629.43221049326996 0 -629.43221049326996 -195.88096217961174 0 0 0 0 2531.0938751468475 -761.50007873979598 0 -761.50007873979598 -547.99468170226396 0 0 0 0 3500.7778285062523 -1004.2113320461382 0 -1004.2113320461382 -494.52643518890812 0 0 0 0 2633.0148895346811 -1431.8142057117125 0 -1431.8142057117125 38.343784262781931 0 0 0 0 1760.9129335603502 -728.16065000696028 0 -728.16065000696028 -59.172880117753152 0 0 0 0 1596.6423991132388 -1497.1959909740992 0 -1497.1959909740992 875.28494282583847 0 0 0 0 1817.5296461796829 -1323.220489695997 0 -1323.220489695997 147.87285741455662 0 0 0 0 417.64575523647545 -229.53088312254266 0 -229.53088312254266 213.74782822738018 0 0 0 0 701.30049125377991 -579.32038964603487 0 -579.32038964603487 315.59285969740233 0 0 0 0 769.54854376433104 -501.25253292730497 0 -501.25253292730497 148.79380297795129 0 0 0 0 1560.5870419377679 -971.94499663582565 0 -971.94499663582565 244.00062173406343 0 0 0 0 875.52045704001557 -540.07687458133819 0 -540.07687458133819 193.243620884237 0 0 0 0 1006.1781778679956 -330.31509919052615 0 -330.31509919052615 89.327517747955085 0 0 0 0 438.1762283717344 -291.45302105553714 0 -291.45302105553714 206.03594162948832 0 0 0 0 1096.9573200564046 -534.52623962949633 0 -534.52623962949633 187.23501426657089 0 0 0 0 1043.8022634023819 -383.68009501350105 0 -383.68009501350105 81.639743037671053 0 0 0 0 1148.2546661657761 -351.60299049791581 0 -351.60299049791581 388.66837782907987 0 0 0 0 1638.5341098618887 -484.2190255591961 0 -484.2190255591961 102.65596517891561 0 0 0 0 808.45158995846759 -379.71213639486177 0 -379.71213639486177 210.07653266120846 0 0 0 0 1089.5105537665595 -497.12718978087514 0 -497.12718978087514 111.18874703088443 0 0 0 0 1094.8945663882641 -532.69953978956619 0 -532.69953978956619 -102.4596371163548 0 0 0 0 803.13628507666726 -142.90199429237077 0 -142.90199429237077 -79.251942227846143 0 0 0 0 658.88882064908466 -200.52725354092411 0 -200.52725354092411 77.48051732969958 0 0 0 0 899.90514594096021 -270.5986048147127 0 -270.5986048147127 -242.63885974021986 0 0 0 0 510.7447857336374 174.77954150266896 0 174.77954150266896 -396.53729668186469 0 0 0 0 -271.1085133526467 213.410883407424 0 213.410883407424 102.4880606655541 0 0 0 0 244.27825615468237 -6.99846771945783 0 -6.99846771945783 136.16938048996502 0 0 0 0 243.62996541359985 -17.824849276286216 0 -17.824849276286216 160.84180912918771 0 0 0 0 428.62588943337505 -77.590794847078058 0 -77.590794847078058 163.21516290058688 0 0 0 0 144.02465058586131 -125.08300194395969 0 -125.08300194395969 460.61436552362835 0 0 0 0 -75.038372282269847 137.17294378993557 0 137.17294378993557 231.25238143825521 0 0 0 0 12.643744470385172 337.74317779705751 0 337.74317779705751 682.85608417714388 0 0 0 0 243.78137537673865 -312.68304727419388 0 -312.68304727419388 549.99980365080478 0 0 0 0 -294.48234891943139 -314.52742014487137 0 -314.52742014487137 438.81872817545195 0 0 0 0 -328.53779229701286 -494.1713664014319 0 -494.1713664014319 -188.65098275884407 0 0 0 0 -53.746744029601359 199.7888588157513 0 199.7888588157513 -332.68956692316056 0 0 0 0 168.82365725298973 -40.72205798170269 0 -40.72205798170269 -292.34859827182527 0 0 0 0 222.08241459163037 -323.07529753795291 0 -323.07529753795291 354.79490008505218 0 0 0 0 198.30630897535957 72.904722646618779 0 72.904722646618779 18.440526368101018 0 0 0 0 95.10482886362297 96.747476205048429 0 96.747476205048429 27.100261018398214 0 0 0 0 146.53014575318048 40.137459231377477 0 40.137459231377477 147.64883090073477 0 0 0 0 223.46382688831181 138.97716311165709 0 138.97716311165709 44.259986500680043 0 0 0 0 286.7081911660789 426.00135443610782 0 426.00135443610782 428.73905867492988 0 0 0 0 602.02062045932144 255.76777873652657 0 255.76777873652657 -105.70844922640714 0 0 0 0 145.5692275022484 -126.39093707328243 0 -126.39093707328243 -192.7220812743642 0 0 0 0 7.1571745125393562 -6.1663992900923326 0 -6.1663992900923326 5.4422902275961125 0 0 0 0 -693.03450633663306 111.62292372155605 0 111.62292372155605 259.37788506266088 0 0 0 0 -371.67619540302439 -317.82954709254432 0 -317.82954709254432 360.31373611322994 0 0 0 0 8.761790340310263 -3.340241537154828 0 -3.340241537154828 1.683313802083348 0 0 0 0 192.06849712451003 288.77719412020883 0 288.77719412020883 225.77383365380092 0 0 0 0 576.28764412193141 -62.16314371407509 0 -62.16314371407509 -251.2075859246321 0 0 0 0 18.628416244826212 -16.145585124150223 0 -16.145585124150223 12.414427532864426 0 0 0 0 -166.57339999856276 -507.70585642651685 0 -507.70585642651685 -232.01734622360081 0 0 0 0 278.66562297670316 142.85543828939763 0 142.85543828939763 -965.21759437574929 0 0 0 0 354.47524147343938 1916.7968623548159 0 1916.7968623548159 -67.024753733533089 0 0 0 0 13.230783443324981 231.23511011437432 0 231.23511011437432 325.08966695770596 0 0 0 0 25.022011293658579 275.58216767692102 0 275.58216767692102 230.36366666518643 0 0 0 0 123.79716521179216 319.71613797947293 0 319.71613797947293 225.08263905470085 0 0 0 0 -128.21333595198303 154.90308169858508 0 154.90308169858508 120.38477364434857 0 0 0 0 -117.10449985373634 328.52199762580949 0 328.52199762580949 228.7593717723787 0 0 0 0 126.68428016879989 113.00188300967056 0 113.00188300967056 -199.1642161592099 0 0 0 0 -281.14327115337346 40.535487692713914 0 40.535487692713914 -67.509488793294622 0 0 0 0 1857.5693056727105 -464.29391271692953 0 -464.29391271692953 -200.25457106318709 0 0 0 0 -63.476401530078874 -1024.8715411498483 0 -1024.8715411498483 -10.201837461835794 0 0 0 0 2608.955516889102 -1248.1914321721626 0 -1248.1914321721626 -568.93182888061256 0 0 0 0 11.534895928466767 5.3900004293824733 0 5.3900004293824733 3.3570913456191596 0 0 0 0 -329.47560418629291 455.96852900409408 0 455.96852900409408 1360.9487802554931 0 0 0 0 3251.1607070027385 1227.5177362798659 0 1227.5177362798659 1431.9711936003705 0 0 0 0 -722.48318912323884 -1089.5081275593714 0 -1089.5081275593714 896.44375685314071 0 0 0 0 9.3220069121042073 -10.087775047895843 0 -10.087775047895843 9.3586594472255857 0 0 0 0 -802.92515896362056 -1121.806922535982 0 -1121.806922535982 1229.5021854380077 0 0 0 0 -324.17163935258645 -1474.2447553545167 0 -1474.2447553545167 1456.1426166647816 0 0 0 0 1007.4553048945945 -743.38264006791815 0 -743.38264006791815 534.383617790421 0 0 0 0 640.54389201611593 -787.12725780710525 0 -787.12725780710525 -1503.0464220994763 0 0 0 0 1038.4129694352123 501.12567203079641 0 501.12567203079641 -933.3413994887112 0 0 0 0 19.426500824563462 -11.25530615184536 0 -11.25530615184536 7.2494702153431225 0 0 0 0 2714.5356885482197 1057.5601125864405 0 1057.5601125864405 77.98215216534004 0 0 0 0 1139.5101979791652 405.907343296411 0 405.907343296411 219.07684129269455 0 0 0 0 1170.3256443407154 29.669137900336864 0 29.669137900336864 -120.31277768499103 0 0 0 0 507.85894518810255 141.99324666235515 0 141.99324666235515 110.02535621428024 0 0 0 0 456.16859921996365 8.4123502262298189 0 8.4123502262298189 3.4085151363533441 0 0 0 0 48.406334707486927 -25.248026915000388 0 -25.248026915000388 9.5521514945711878 0 0 0 0 246.67823476648482 106.94173383121961 0 106.94173383121961 32.621919398266641 0 0 0 0 594.63338641129485 -28.73103349817211 0 -28.73103349817211 -40.867086397676303 0 0 0 0 611.86372717859558 -42.412067017564368 0 -42.412067017564368 -129.61327244257018 0 0 0 0 710.1490615952971 -141.89523456588063 0 -141.89523456588063 -46.447058264606312 0 0 0 0 582.00922287869616 -208.38935819165499 0 -208.38935819165499 20.87753006564958 0 0 0 0 345.27139284256918 -89.601216327841939 0 -89.601216327841939 73.895294363376706 0 0 0 0 328.00895567975385 -247.47557430295865 0 -247.47557430295865 25.064083602471243 0 0 0 0 304.36898643185486 -274.5631009410497 0 -274.5631009410497 -4.4150688152631119 0 0 0 0 731.13674352768794 -474.08549314955394 0 -474.08549314955394 -187.35073551869391 0 0 0 0 8.3019223624540786 4.8290918481810827 0 4.8290918481810827 3.0161312068587431 0 0 0 0 1194.6508213181423 -408.56215192093146 0 -408.56215192093146 -144.03663551165573 0 0 0 0 1336.3390767981209 -20.793188199908627 0 -20.793188199908627 169.00553089926143 0 0 0 0 225.05277150027905 422.27394316168647 0 422.27394316168647 237.95080993927371 0 0 0 0 -137.35816095089467 -89.747623740977133 0 -89.747623740977133 222.95708876233869 0 0 0 0 432.75180208722668 41.4496187518439 0 41.4496187518439 201.81997613054392 0 0 0 0 375.7878484795383 110.55390949515527 0 110.55390949515527 131.68590260882502 0 0 0 0 629.21078443789156 460.49636396620281 0 460.49636396620281 197.80993451460654 0 0 0 0 974.25644876829756 572.44002246272385 0 572.44002246272385 202.90992922401801 0 0 0 0 960.90510364844522 90.796385776696297 0 90.796385776696297 -137.5452980421569 0 0 0 0 1043.6724002840201 100.46054048192582 0 100.46054048192582 -161.61016966256284 0 0 0 0 1148.7008712110346 -110.37096647129692 0 -110.37096647129692 -302.6268969651901 0 0 0 0 1206.9261755115658 -471.61441564000324 0 -471.61441564000324 167.03665315824401 0 0 0 0 452.71392771620958 57.118527166242984 0 57.118527166242984 -55.755315661825989 0 0 0 0 1995.3822433753667 206.0489961935682 0 206.0489961935682 -179.73422080901355 0 0 0 0 -33.809870593704545 -51.710497429590987 0 -51.710497429590987 -36.861039759334744 0 0 0 0 -347.48705593411432 -365.81063676861731 0 -365.81063676861731 355.40219415104548 0 0 0 0 3.1839754356129291 -0.83501933038047582 0 -0.83501933038047582 -0.32719420930667553 0 0 0 0 353.57587204160882 335.82013552225681 0 335.82013552225681 237.66559600433811 0 0 0 0 4.4282698426141849 0.78050107412224889 0 0.78050107412224889 -0.12497394078340984 0 0 0 0 765.30015282116801 499.661971201097 0 499.661971201097 294.9046107523759 0 0 0 0 696.47314742906019 -137.73705248248007 0 -137.73705248248007 62.30251952974686 0 0 0 0 1792.3638152955828 654.80050602331721 0 654.80050602331721 635.07962569800839 0 0 0 0 1755.9792471013352 112.0634463040833 0 112.0634463040833 -185.53688913871883 0 0 0 0 869.17832061371155 88.905542881570909 0 88.905542881570909 -186.07310227877883 0 0 0 0 1089.3958580572435 153.45631693719952 0 153.45631693719952 -236.57062353671427 0 0 0 0 839.9206577197765 73.659001234419975 0 73.659001234419975 -232.92099926894986 0 0 0 0 -39.58108504473239 -21.955121723749244 0 -21.955121723749244 108.97373949519761 0 0 0 0 497.62064397163658 103.69344478255209 0 103.69344478255209 -36.282961444498596 0 0 0 0 208.67703726779382 100.28084150576979 0 100.28084150576979 -21.098076355440753 0 0 0 0 511.6711126203445 -188.67428642462346 0 -188.67428642462346 19.490394182732416 0 0 0 0 520.96639534365136 -41.065682430502591 0 -41.065682430502591 -142.80011586542059 0 0 0 0 686.76480682487454 -68.248201298962158 0 -68.248201298962158 -142.77675715911514 0 0 0 0 783.48751356471439 -170.00567274647369 0 -170.00567274647369 -160.51256067977647 0 0 0 0 614.77569998681247 140.22974402570821 0 140.22974402570821 -20.163741524202123 0 0 0 0 851.04221674989094 -149.5875026363874 0 -149.5875026363874 -269.25578392284115 0 0 0 0 1117.1983789425667 -434.48843227048178 0 -434.48843227048178 -147.21706000241738 0 0 0 0 929.67624207119934 -141.3284264664976 0 -141.3284264664976 -275.98566006065266 0 0 0 0 365.53396139158758 -335.98499917523941 0 -335.98499917523941 -129.38935042691173 0 0 0 0 147.08830405463232 335.33293675335835 0 335.33293675335835 -270.90662501635688 0 0 0 0 18.4611866964702 11.272373660756735 0 11.272373660756735 6.4545275880433977 0 0 0 0 -40.261266233481365 141.23597692345675 0 141.23597692345675 -55.687415497041911 0 0 0 0 420.26245892462612 6.8453026383040196 0 6.8453026383040196 -60.408184467423951 0 0 0 0 189.53666410500591 256.7885536730796 0 256.7885536730796 86.318598118567024 0 0 0 0 182.82749387573131 111.62756219483663 0 111.62756219483663 118.28875429061884 0 0 0 0 384.89065288210986 311.43444153568021 0 311.43444153568021 301.29807670654372 0 0 0 0 426.18689726581215 45.926235252052265 0 45.926235252052265 327.37770553002082 0 0 0 0 593.89652703705906 73.778167833934958 0 73.778167833934958 27.888477183689247 0 0 0 0 1036.7630119744208 460.8474431974455 0 460.8474431974455 351.45006690248783 0 0 0 0 846.28733251338053 -334.63879211405037 0 -334.63879211405037 564.42230285971846 0 0 0 0 460.09316859673709 -156.37839876324097 0 -156.37839876324097 482.34092457640782 0 0 0 0 453.83438050602854 201.27487669311449 0 201.27487669311449 807.20527012216417 0 0 0 0 645.91842853825256 -43.309593170820563 0 -43.309593170820563 116.38825846181334 0 0 0 0 622.37427219908841 -281.25464755926026 0 -281.25464755926026 366.35490386632591 0 0 0 0 100.91690311865023 -652.01438865367754 0 -652.01438865367754 454.59979231194984 0 0 0 0 340.28581587782537 -154.13420074151372 0 -154.13420074151372 485.34673968803224 0 0 0 0 770.71884869200221 160.79771471435606 0 160.79771471435606 127.34452704201522 0 0 0 0 50.668472227083839 62.60963703686798 0 62.60963703686798 370.32771304285961 0 0 0 0 205.08877552361355 64.808750715383383 0 64.808750715383383 252.22281853426011 0 0 0 0 -541.12643351790757 389.33837894772387 0 389.33837894772387 172.93814102556871 0 0 0 0 411.29533545679442 180.0173383200231 0 180.0173383200231 -553.85315997764451 0 0 0 0 399.18709742543797 354.93524234905499 0 354.93524234905499 -163.20906893906567 0 0 0 0 118.94521188177168 409.24220920495293 0 409.24220920495293 39.199723051901856 0 0 0 0 150.49528220000138 616.57645617747039 0 616.57645617747039 -386.72832964345116 0 0 0 0 19.26716997748008 111.72956571977272 0 111.72956571977272 59.799681647871012 0 0 0 0 95.364946272075031 143.81002212335488 0 143.81002212335488 59.166780118125303 0 0 0 0 23.851640115607793 -6.3277368803362126 0 -6.3277368803362126 0.40310302103032036 0 0 0 0 330.52034383240971 -939.31922558211954 0 -939.31922558211954 -532.82608840322519 0 0 0 0 2062.5253949430917 -467.69385310675625 0 -467.69385310675625 -552.59720030107087 0 0 0 0 4.4434204704484728 23.471869234481119 0 23.471869234481119 -11.94416035570066 0 0 0 0 769.93088195888049 341.22703613236843 0 341.22703613236843 -32.78829427393066 0 0 0 0 545.9432768697734 534.0579865988484 0 534.0579865988484 68.577825386206143 0 0 0 0 789.82901586689331 231.87566227808338 0 231.87566227808338 140.27480779189011 0 0 0 0 1064.9726176596241 597.94106437761161 0 597.94106437761161 72.362549531507284 0 0 0 0 572.50709521850513 579.34969865841049 0 579.34969865841049 143.16536428014751 0 0 0 0 153.04892672765709 166.74986943360352 0 166.74986943360352 -1.0320625782455863 0 0 0 0 530.08681045741105 637.73632665375453 0 637.73632665375453 63.201959206567835 0 0 0 0 362.62577121138384 424.1225104796406 0 424.1225104796406 21.496267118509422 0 0 0 0 461.83984908834645 581.90571449596337 0 581.90571449596337 452.7252316408476 0 0 0 0 683.32500696354964 590.04988197777152 0 590.04988197777152 107.02791220749077 0 0 0 0 387.59801175407762 177.11517501739667 0 177.11517501739667 -27.656183692471132 0 0 0 0 391.3208573174179 419.69894325498763 0 419.69894325498763 170.90949407484175 0 0 0 0 11.730475346861752 -0.43584141647976793 0 -0.43584141647976793 -0.05602656061869915 0 0 0 0 1206.5459046285921 843.59117749352151 0 843.59117749352151 544.35035040424827 0 0 0 0 551.78669657191858 -470.46493833598061 0 -470.46493833598061 2.7127226206139312 0 0 0 0 1340.3490013152468 -33.568142058355988 0 -33.568142058355988 -184.80379788009577 0 0 0 0 111.47735101912349 106.11468365712665 0 106.11468365712665 -43.702068298363884 0 0 0 0 66.040569229673565 -66.827910460634939 0 -66.827910460634939 87.33033607724974 0 0 0 0 9.6076192050531972 46.4558627262154 0 46.4558627262154 12.938201700368253 0 0 0 0 5.2811034720759054 7.8403178497826467 0 7.8403178497826467 -14.645765733292704 0 0 0 0 67.094487617331652 43.379734735170246 0 43.379734735170246 -56.458913009102162 0 0 0 0 36.623096026418352 28.160130450581619 0 28.160130450581619 13.03781414047203 0 0 0 0 29.559043983470787 -3.4071256546608701 0 -3.4071256546608701 -0.15335062309390679 0 0 0 0 77.218905135146997 7.5216846169648761 0 7.5216846169648761 -198.23457389789792 0 0 0 0 370.4656006837522 223.49916720545639 0 223.49916720545639 -118.62912438691376 0 0 0 0 -4.0831768161397122 -140.49295779852037 0 -140.49295779852037 2.022815460430138 0 0 0 0 39.980198359977749 -6.6527684277189643 0 -6.6527684277189643 -0.95767098020848529 0 0 0 0 122.81752311156924 -167.84516423854325 0 -167.84516423854325 -231.86508494413874 0 0 0 0 -66.884610632864678 -54.744037772174352 0 -54.744037772174352 -82.561933398098972 0 0 0 0 185.7971958230828 29.743272036989538 0 29.743272036989538 36.236771796350013 0 0 0 0 142.23801863290828 -200.28114210979766 0 -200.28114210979766 18.71759193799835 0 0 0 0 -94.985702348830955 -57.782488951369572 0 -57.782488951369572 199.39689115536794 0 0 0 0 609.96322980624097 -108.44680346894016 0 -108.44680346894016 17.114448375235497 0 0 0 0 596.77757853172807 329.25774774516753 0 329.25774774516753 99.525365005054937 0 0 0 0 -67.576646366072509 39.216080224331563 0 39.216080224331563 51.669018916058121 0 0 0 0 43.459313539530399 55.83046571129853 0 55.83046571129853 23.289457931707148 0 0 0 0 47.198901382557096 48.497299938371725 0 48.497299938371725 13.208782964076818 0 0 0 0 34.890516348098117 70.617007147993718 0 70.617007147993718 -1.1656293082905904 0 0 0 0 61.896927558562027 52.314710329716718 0 52.314710329716718 8.8031135647615883 0 0 0 0 -95.54657977456975 -43.32933300268067 0 -43.32933300268067 -31.220380361367916 0 0 0 0 17.345009849440885 1.5866908410155833 0 1.5866908410155833 16.126958687979482 0 0 0 0 32.296376603850149 18.78983017453902 0 18.78983017453902 9.0567995000510564 0 0 0 0 -155.64530947667117 -150.28984203409163 0 -150.28984203409163 30.196328957755441 0 0 0 0 15.053279902043466 19.406770886292055 0 19.406770886292055 21.467827172699877 0 0 0 0 32.648746804330372 15.088955500927455 0 15.088955500927455 2.0824765159073517 0 0 0 0 56.106687681338371 15.519764759581847 0 15.519764759581847 -28.020957712861616 0 0 0 0 59.906239115138305 19.928935704298283 0 19.928935704298283 -62.287655223577076 0 0 0 0 96.56540873497579 -9.1943957881076557 0 -9.1943957881076557 -80.723857674895868 0 0 0 0 59.870432624444284 18.77942016068554 0 18.77942016068554 -12.922439699227823 0 0 0 0 13.574158752634503 -7.9249461015709173 0 -7.9249461015709173 -53.158466261956143 0 0 0 0 67.479321455852187 33.846413760769337 0 33.846413760769337 -35.354596089758843 0 0 0 0 47.645892992409699 49.793659581140673 0 49.793659581140673 9.180595147796339 0 0 0 0 11.22308688651961 11.283254316818496 0 11.283254316818496 -4.6198208217052867 0 0 0 0 56.340671675017802 31.273103527388912 0 31.273103527388912 66.439169784676324 0 0 0 0 163.39024262154635 107.79728320022048 0 107.79728320022048 33.167296010104224 0 0 0 0 41.407033755545854 7.2184711885795991 0 7.2184711885795991 -8.1572524280506968 0 0 0 0 42.262835693152738 10.662570977309031 0 10.662570977309031 -1.6832358546887463 0 0 0 0 85.60887515192735 45.470809464708964 0 45.470809464708964 2.8879067192987691 0 0 0 0 43.58372107678224 23.421323360312613 0 23.421323360312613 14.863458377192046 0 0 0 0 49.353031531663873 18.770786956223787 0 18.770786956223787 -20.669680401915457 0 0 0 0 75.241352424345678 34.615324551801223 0 34.615324551801223 -15.943136054418289 0 0 0 0 65.153817918999266 16.450686032243652 0 16.450686032243652 -20.287319648815355 0 0 0 0 91.489616026061412 39.247417318904638 0 39.247417318904638 -17.115993744264642 0 0 0 0 136.51956773683924 52.878750565831297 0 52.878750565831297 -24.794197058058614 0 0 0 0 209.05171325077208 -13.860532525231065 0 -13.860532525231065 -39.129962813948168 0 0 0 0 90.51428426003622 16.953271819286329 0 16.953271819286329 -34.721536086197602 0 0 0 0 105.10978334180436 19.499257154693623 0 19.499257154693623 -34.435069513038798 0 0 0 0 21.6941485036632 -4.4962736693578336 0 -4.4962736693578336 -9.5953685350143587 0 0 0 0 -1.5531688763547642 2.2890888081169862 0 2.2890888081169862 -8.9882287969402395 0 0 0 0 7.8408222461348487 46.438374676162766 0 46.438374676162766 89.037229771663988 0 0 0 0 2.3775316707495335 0.48246967871346413 0 0.48246967871346413 -4.1877954901206031 0 0 0 0 0.71991811930638505 4.9010023803166405 0 4.9010023803166405 16.183657538895432 0 0 0 0 86.431536724395073 -8.7482401239240346 0 -8.7482401239240346 -12.195615229851228 0 0 0 0 4.6617176983891113 3.7506305644643589 0 3.7506305644643589 -4.2506564954419446 0 0 0 0 5.3349876995895329 1.6397983565807586 0 1.6397983565807586 -0.057391131997420519 0 0 0 0 57.942731106679275 14.637670839827479 0 14.637670839827479 -53.970358200791679 0 0 0 0 20.92465056680885 58.038694069021403 0 58.038694069021403 56.924872186255925 0 0 0 0 47.182261926907813 -1.2556470058375453 0 -1.2556470058375453 -25.579407992511733 0 0 0 0 104.64556493701639 132.58368196066886 0 132.58368196066886 80.429019332861287 0 0 0 0 230.13447786463257 33.083339177007929 0 33.083339177007929 24.0462859005479 0 0 0 0 95.574056164975445 -63.361287976169251 0 -63.361287976169251 27.550012150672501 0 0 0 0 1.9897240554425792 1.52361738906641 0 1.52361738906641 0.35606585036788618 0 0 0 0 119.3057098987023 72.706040521858199 0 72.706040521858199 54.921250401093857 0 0 0 0 119.54193309371476 56.339026839047165 0 56.339026839047165 17.479024163213808 0 0 0 0 102.14230261108969 27.119237523656921 0 27.119237523656921 30.306470022645499 0 0 0 0 105.9454350494434 52.707520829716486 0 52.707520829716486 21.17129058826049 0 0 0 0 84.458084105182934 84.73759506111719 0 84.73759506111719 60.434840099084113 0 0 0 0 94.719531202696089 14.949373938575718 0 14.949373938575718 75.642825722683938 0 0 0 0 62.096750671531481 54.177090292564117 0 54.177090292564117 52.864606400667071 0 0 0 0 121.8171101734988 25.783242701391373 0 25.783242701391373 74.811558676271488 0 0 0 0 112.96573338490271 27.646033420281128 0 27.646033420281128 50.437495591458912 0 0 0 0 221.35709941509413 -36.472407354567622 0 -36.472407354567622 92.475528691333238 0 0 0 0 119.01226872494408 44.238524753057391 0 44.238524753057391 56.012781849742169 0 0 0 0 268.79565260925301 9.5300533825993625 0 9.5300533825993625 -9.615499080774498 0 0 0 0 199.40205870348655 0.12302660583145553 0 0.12302660583145553 3.1155888093453541 0 0 0 0 72.303998632494768 10.574091878712352 0 10.574091878712352 34.847274196376475 0 0 0 0 114.52839451194632 37.573668030387125 0 37.573668030387125 17.626040245077093 0 0 0 0 107.61013735349843 33.408244937869313 0 33.408244937869313 -19.28339781458817 0 0 0 0 115.41321022531338 -22.21788817749848 0 -22.21788817749848 -55.554210925674852 0 0 0 0 142.15228214686431 13.50538234207761 0 13.50538234207761 -12.79672609709246 0 0 0 0 62.110205518058137 -11.3203882472435 0 -11.3203882472435 -53.848922899050081 0 0 0 0 102.90715251035726 6.4409176944313913 0 6.4409176944313913 -186.1552342303512 0 0 0 0 23.224018321956464 -41.08553900458719 0 -41.08553900458719 -208.47751293331385 0 0 0 0 108.40716710588185 -38.244238210692856 0 -38.244238210692856 -426.61907656754556 0 0 0 0 69.462633255821856 -52.237786086600408 0 -52.237786086600408 -11.836429237373522 0 0 0 0 89.71411187168269 -55.184190867371399 0 -55.184190867371399 -83.232253309625321 0 0 0 0 80.65203961129086 -2.091417467118184 0 -2.091417467118184 -1.1088031209892701 0 0 0 0 -29.155782966059633 -29.701581443076066 0 -29.701581443076066 98.603576159159275 0 0 0 0 -71.818945794275351 -232.07269360920418 0 -232.07269360920418 569.17672397805109 0 0 0 0 32.859777946447139 -29.496163216435889 0 -29.496163216435889 40.385081672633532 0 0 0 0 55.344216619530002 -2.1872996728799912 0 -2.1872996728799912 -0.95239965841261931 0 0 0 0 70.087332307834004 32.235663773297347 0 32.235663773297347 -330.22739946329966 0 0 0 0 69.79969768034789 -132.90714331298295 0 -132.90714331298295 -600.29973695072977 0 0 0 0 -130.1336573287208 56.107279894514249 0 56.107279894514249 -174.63037324935613 0 0 0 0 230.59463958893866 200.15677286706205 0 200.15677286706205 -132.53691672734203 0 0 0 0 -6.4785082813650661 -59.552358724065016 0 -59.552358724065016 -96.488003843887782 0 0 0 0 86.19190283554417 -34.464369834156059 0 -34.464369834156059 -37.495195326654539 0 0 0 0 123.34252138713873 76.552311670142331 0 76.552311670142331 -50.119920898405326 0 0 0 0 458.48533065230367 -44.992810999858193 0 -44.992810999858193 -43.53398364700297 0 0 0 0 346.53088370682963 100.74776115231907 0 100.74776115231907 -128.89306293754407 0 0 0 0 670.20397539942132 -56.131510756070384 0 -56.131510756070384 -166.08840267514097 0 0 0 0 590.68763084757666 -214.97860601347566 0 -214.97860601347566 -90.720848396745168 0 0 0 0 667.91593709086737 -339.34962666759111 0 -339.34962666759111 -108.06759255209181 0 0 0 0 830.83096396789551 -411.16622512025401 0 -411.16622512025401 -169.66258067985837 0 0 0 0 977.12778038782108 13.105084356041516 0 13.105084356041516 -345.69253075464076 0 0 0 0 511.63668959500865 47.534160544291808 0 47.534160544291808 -155.76220382018073 0 0 0 0 503.05969873124559 25.464626726547976 0 25.464626726547976 -202.82616540438721 0 0 0 0 883.03559841186507 -3.9291394309439056 0 -3.9291394309439056 -327.62196311564549 0 0 0 0 1217.3610831011028 -578.70615332148736 0 -578.70615332148736 826.75831093678426 0 0 0 0 1019.1323028719635 264.57582224467478 0 264.57582224467478 -628.68589269910262 0 0 0 0 21.180696906747357 -1.2222451157211864 0 -1.2222451157211864 -0.12789803102012165 0 0 0 0 399.33093098601967 415.26791229793525 0 415.26791229793525 -335.99374774377065 0 0 0 0 1383.6756328748161 80.510060672899272 0 80.510060672899272 -497.55531259240524 0 0 0 0 1288.1583257678212 -566.8995268397739 0 -566.8995268397739 -245.22605634844513 0 0 0 0 1316.0517322572414 -628.44302510117632 0 -628.44302510117632 -121.56494241570908 0 0 0 0 591.2785008593637 -526.71620936550426 0 -526.71620936550426 215.86361773665703 0 0 0 0 289.750277804691 -527.85484489295413 0 -527.85484489295413 1023.7500504966617 0 0 0 0 551.04782083364626 -236.30952800894192 0 -236.30952800894192 104.75164580424462 0 0 0 0 3139.2787752523509 -1066.0927453119384 0 -1066.0927453119384 -630.68847430788446 0 0 0 0 1339.5466179579162 -1338.7185258084119 0 -1338.7185258084119 959.38514168874826 0 0 0 0 1971.6945424683654 -223.33295211557197 0 -223.33295211557197 -466.96601989871715 0 0 0 0 2231.020472953227 -936.02007234789926 0 -936.02007234789926 -183.46251861496694 0 0 0 0 -1.1543541566555291 -1.52100448175959 0 -1.52100448175959 -0.24658511140117412 0 0 0 0 140.53919426424545 -1386.8013795518546 0 -1386.8013795518546 -203.39781956485876 0 0 0 0 -354.59433820267805 -144.216215250201 0 -144.216215250201 201.42140397754702 0 0 0 0 2411.9398312460689 397.63770856409246 0 397.63770856409246 -558.99487063534252 0 0 0 0 748.03826632886194 -760.28515359355697 0 -760.28515359355697 845.45202721655846 0 0 0 0 809.39308752989018 -116.40384747686949 0 -116.40384747686949 -186.31163442811157 0 0 0 0 2176.3845586771249 -657.65063553716345 0 -657.65063553716345 26.591412665871758 0 0 0 0 242.50760745048592 21.575408338214856 0 21.575408338214856 -393.49130815623357 0 0 0 0 134.34914366118392 83.047395602154211 0 83.047395602154211 -296.05870578830923 0 0 0 0 118.65337149638071 140.35857721408865 0 140.35857721408865 -431.60029759429335 0 0 0 0 162.41222369218667 -43.87331096226535 0 -43.87331096226535 44.491276608037879 0 0 0 0 358.77719611557768 -402.39621490015088 0 -402.39621490015088 96.286005986434247 0 0 0 0 336.78431102695777 -238.85399087394535 0 -238.85399087394535 -105.08481764743192 0 0 0 0 458.59003634596593 -607.67489227580882 0 -607.67489227580882 441.60586187608533 0 0 0 0 389.58035841240667 -205.71082391981633 0 -205.71082391981633 -355.29649569699177 0 0 0 0 392.97658997193275 -249.4586742710286 0 -249.4586742710286 132.59095690469803 0 0 0 0 412.92970045160837 -350.18156093246125 0 -350.18156093246125 6.7546492462652168 0 0 0 0 629.75551612838899 -424.22935257804238 0 -424.22935257804238 24.63380711652735 0 0 0 0 569.82811778578252 -246.19508837290778 0 -246.19508837290778 75.299709977020939 0 0 0 0 361.1242703157186 -283.48769186741083 0 -283.48769186741083 177.14901746382202 0 0 0 0 462.14969776959703 -96.419379061090382 0 -96.419379061090382 332.81412839784753 0 0 0 0 539.10547376780596 21.293889442902582 0 21.293889442902582 162.38692503230504 0 0 0 0 545.51215474497349 51.158059227597278 0 51.158059227597278 193.82156826195023 0 0 0 0 529.94988554526572 -0.80983404899643574 0 -0.80983404899643574 48.430336118880405 0 0 0 0 464.40062148281521 -157.65106510318924 0 -157.65106510318924 24.512838555048802 0 0 0 0 511.27413620386869 -52.757078085723151 0 -52.757078085723151 116.68211768596393 0 0 0 0 503.80473623366743 -83.522539582554145 0 -83.522539582554145 -5.9188525356985338 0 0 0 0 426.31178413885573 -10.18762141123625 0 -10.18762141123625 -50.923134289402014 0 0 0 0 314.14269094125484 -48.367032730674964 0 -48.367032730674964 30.513680034915524 0 0 0 0 399.98202358491289 -87.673634680254509 0 -87.673634680254509 38.473035788632842 0 0 0 0 284.11685690684681 -1.8864055151725552 0 -1.8864055151725552 21.388006717622829 0 0 0 0 446.71157381148078 -4.8714370747493376 0 -4.8714370747493376 40.049890825904185 0 0 0 0 542.12233971255046 -40.128093605669164 0 -40.128093605669164 21.275759362279132 0 0 0 0 539.54410417926806 2.3853584845866322 0 2.3853584845866322 55.745189571867741 0 0 0 0 194.40445970776273 -132.07760104009594 0 -132.07760104009594 137.7657316812456 0 0 0 0 544.18615300352394 -111.50953665316274 0 -111.50953665316274 22.881582356961189 0 0 0 0 360.18672942853664 -49.412377473304332 0 -49.412377473304332 45.193828032977763 0 0 0 0 347.11939573960262 -167.96500142556852 0 -167.96500142556852 104.90868699994462 0 0 0 0 110.96289960538343 -14.80796015988517 0 -14.80796015988517 -37.725848270331156 0 0 0 0 -85.893555237405963 -87.985602978518273 0 -87.985602978518273 113.90111517238893 0 0 0 0 1.6232687826212384 -1.6113886777659943 0 -1.6113886777659943 0.051315301405963964 0 0 0 0 932.84275954069381 -47.910788174619938 0 -47.910788174619938 -56.288527817830982 0 0 0 0 625.8823619775103 -13.567258041312471 0 -13.567258041312471 44.87103613374029 0 0 0 0 776.52897581061916 -260.57823688348253 0 -260.57823688348253 -238.77784529149108 0 0 0 0 654.63775963900116 122.33892809963208 0 122.33892809963208 110.97597178673914 0 0 0 0 567.61877903696404 63.410277976901341 0 63.410277976901341 71.310383565622942 0 0 0 0 574.10733923867883 40.491472629344571 0 40.491472629344571 83.152671150005517 0 0 0 0 558.04232000820275 24.423661731165737 0 24.423661731165737 54.832926250786841 0 0 0 0 624.24694275094225 43.376825860311328 0 43.376825860311328 58.279080844355803 0 0 0 0 610.22839872504846 -20.08532339501653 0 -20.08532339501653 91.972144964666313 0 0 0 0 631.12000560801789 -89.615301615764679 0 -89.615301615764679 -53.933696722643617 0 0 0 0 598.12570581106775 -94.393405953047704 0 -94.393405953047704 -19.804510436250894 0 0 0 0 691.47172768637756 -46.171529436329365 0 -46.171529436329365 -14.875958402226786 0 0 0 0 475.1162414621831 -9.4633991826108286 0 -9.4633991826108286 -42.408825185965725 0 0 0 0 290.3445082936596 -27.731930450962636 0 -27.731930450962636 55.208383083439912 0 0 0 0 253.61460923047343 -79.365018735029935 0 -79.365018735029935 73.478248583376626 0 0 0 0 413.47180034208213 -202.28960126435732 0 -202.28960126435732 144.79960035747354 0 0 0 0 193.79262524276498 25.203540850502026 0 25.203540850502026 92.462411209298807 0 0 0 0 194.61416593968897 -70.024190787789848 0 -70.024190787789848 154.97657776018031 0 0 0 0 842.65394891381402 -415.57550655007299 0 -415.57550655007299 161.07455881972965 0 0 0 0 1085.605910713959 193.62673994417673 0 193.62673994417673 136.57489705678108 0 0 0 0 781.16494518317995 351.73820424131463 0 351.73820424131463 554.71848383952965 0 0 0 0 761.93041697937588 -61.723297442626972 0 -61.723297442626972 -45.344896609013631 0 0 0 0 721.70962560478119 139.19254720494871 0 139.19254720494871 147.23400409520946 0 0 0 0 523.58667419636186 67.999246186485834 0 67.999246186485834 265.38750258431446 0 0 0 0 314.04688907554373 -86.663534486017852 0 -86.663534486017852 880.9018816399639 0 0 0 0 640.29407765320229 -661.01736447317944 0 -661.01736447317944 247.72508705894506 0 0 0 0 373.59843345730042 -414.36579098851143 0 -414.36579098851143 25.002244195452477 0 0 0 0 384.50610332794167 -9.3571407329063732 0 -9.3571407329063732 -509.16185356203459 0 0 0 0 336.58729695014881 828.12486121989764 0 828.12486121989764 -1413.3694880747316 0 0 0 0 37.395361934857647 -15.893691006156587 0 -15.893691006156587 -423.84332630636891 0 0 0 0 131.45062419303278 51.120430384312705 0 51.120430384312705 15.125314393587924 0 0 0 0 264.4855084178198 246.67849959507839 0 246.67849959507839 -967.52627499806295 0 0 0 0 468.47819754270313 -311.05725301638176 0 -311.05725301638176 196.01570753991291 0 0 0 0 439.26238908672531 -106.58544326667652 0 -106.58544326667652 -4.2869452827558234 0 0 0 0 106.64058139447742 40.986387913391518 0 40.986387913391518 10.480230561827732 0 0 0 0 824.96903137313348 -574.81321667884731 0 -574.81321667884731 360.13566484606145 0 0 0 0 69.398587669390452 27.050408472990362 0 27.050408472990362 7.5129966038028115 0 0 0 0 -648.17376905048877 278.30294816184323 0 278.30294816184323 -154.04879262090253 0 0 0 0 128.5294107352438 1158.0554532787824 0 1158.0554532787824 -1334.0915224174933 0 0 0 0 1212.9977453400697 783.44021709600565 0 783.44021709600565 -349.36673679038722 0 0 0 0 -357.34293841352337 188.58853766167613 0 188.58853766167613 -548.58848112538089 0 0 0 0 14.725128694106061 7.5246230952101794 0 7.5246230952101794 4.1530217067322894 0 0 0 0 -407.28573168686853 183.31708016325956 0 183.31708016325956 1105.2023214674782 0 0 0 0 -51.574986876872572 448.11323766492615 0 448.11323766492615 -127.58621804232098 0 0 0 0 1638.3941349622619 840.03486654029257 0 840.03486654029257 -474.35340697750598 0 0 0 0 -32.978547000238905 315.76478632662656 0 315.76478632662656 -638.45233131032865 0 0 0 0 1416.6695786538021 -676.09213787953354 0 -676.09213787953354 -884.07687682641699 0 0 0 0 -111.64858759003619 1300.1089403788696 0 1300.1089403788696 2280.8628875094873 0 0 0 0 1339.1989937956168 -2036.8432817882176 0 -2036.8432817882176 703.83144659865775 0 0 0 0 22.463759632712311 9.9664989100551402 0 9.9664989100551402 5.2151947629240141 0 0 0 0 -175.26836688558251 1070.9786345349094 0 1070.9786345349094 -271.50337253120142 0 0 0 0 693.36043486858398 -109.39829161179296 0 -109.39829161179296 104.54997936283689 0 0 0 0 918.76734465544723 -237.31285141981061 0 -237.31285141981061 46.491761824619971 0 0 0 0 468.62040005181188 -115.4915081036379 0 -115.4915081036379 176.42391615062934 0 0 0 0 3296.2643134533937 -1169.8049829704325 0 -1169.8049829704325 442.68954509821504 0 0 0 0 -4.9118927277407067 -7.2213021067609873 0 -7.2213021067609873 38.674404931979794 0 0 0 0 566.74131972688338 -189.73739040529199 0 -189.73739040529199 64.716276828042282 0 0 0 0 634.15894248067343 -269.08122626960539 0 -269.08122626960539 112.35754156962685 0 0 0 0 3500.0595474323927 -1150.0429156002879 0 -1150.0429156002879 383.02155311455249 0 0 0 0 3293.465695555009 -1157.5282182924684 0 -1157.5282182924684 449.9555166465567 0 0 0 0 3318.1613381731404 -1179.0170396910416 0 -1179.0170396910416 429.73524010727465 0 0 0 0 3303.9856969066968 -1222.9981171500033 0 -1222.9981171500033 358.47172256210229 0 0 0 0 3499.3573189522067 -1304.5325969937442 0 -1304.5325969937442 304.0016306279237 0 0 0 0 3106.6180289485419 -1245.9782667317506 0 -1245.9782667317506 412.20997885233305 0 0 0 0 -15.293257595816151 -17.824619908775929 0 -17.824619908775929 43.437579378798752 0 0 0 0 3222.7150165432322 -1288.7658353680583 0 -1288.7658353680583 274.57408293408457 0 0 0 0 3178.1449975934956 -1414.7026636884348 0 -1414.7026636884348 321.64675404924355 0 0 0 0 3501.1546324505143 -1614.8671651241634 0 -1614.8671651241634 346.68131541004874 0 0 0 0 2771.6605697120976 -2216.8726230876173 0 -2216.8726230876173 1450.1081881163409 0 0 0 0 2976.006662409367 -1683.494127473198 0 -1683.494127473198 1156.4342038116281 0 0 0 0 4693.3362685809116 -1682.5281931282434 0 -1682.5281931282434 998.20933633898312 0 0 0 0 1010.4399998616791 614.08049531425775 0 614.08049531425775 475.57767838541076 0 0 0 0 12.194995848265421 -6.8179319974119252 0 -6.8179319974119252 29.725693321501179 0 0 0 0 3497.4118466873952 -860.38546171092139 0 -860.38546171092139 1097.8096957721593 0 0 0 0 3298.8185844775289 -2407.6458366297052 0 -2407.6458366297052 1518.9303782587926 0 0 0 0 18.657844319545347 -12.95102728577147 0 -12.95102728577147 5.582205347783332 0 0 0 0 42.994401780761109 13.026352893819876 0 13.026352893819876 49.011529869941114 0 0 0 0 53.815032531583711 20.02099532577904 0 20.02099532577904 25.414309496500209 0 0 0 0 77.640451100324753 19.446681024679599 0 19.446681024679599 10.420974128278626 0 0 0 0 -313.92540586809628 -536.8928915991853 0 -536.8928915991853 -499.38535647639515 0 0 0 0 2059.6108713861904 -1185.1263147491982 0 -1185.1263147491982 792.73144934984271 0 0 0 0 -12.915166111674523 -34.595530741625836 0 -34.595530741625836 21.928230585338255 0 0 0 0 466.47709578848298 -128.9064704092425 0 -128.9064704092425 -426.38044034593804 0 0 0 0 148.17065728503803 -31.946014655271028 0 -31.946014655271028 21.200155150452701 0 0 0 0 45.369556468080418 19.055567060114722 0 19.055567060114722 6.2671415448557362 0 0 0 0 5.6522629038008745 487.83308198515169 0 487.83308198515169 -188.31208859934668 0 0 0 0 181.0060811434596 -77.84794734193656 0 -77.84794734193656 93.418879355578426 0 0 0 0 143.24762148686568 -0.49198992515312057 0 -0.49198992515312057 61.35347961437401 0 0 0 0 52.891186717617529 10.939601361792484 0 10.939601361792484 116.55611763467641 0 0 0 0 60.688598638509575 33.460102663443195 0 33.460102663443195 46.712857594682646 0 0 0 0 101.01436680105326 16.356034227577084 0 16.356034227577084 42.979030252174198 0 0 0 0 85.87340487457368 -16.801878561242916 0 -16.801878561242916 84.456461316154673 0 0 0 0 82.885200199459177 -5.3394340281171253 0 -5.3394340281171253 53.17681280173565 0 0 0 0 227.24020748631665 -16.266880458827018 0 -16.266880458827018 33.685626419226082 0 0 0 0 9.2490050867236278 -32.849039956055094 0 -32.849039956055094 77.968613286279833 0 0 0 0 21.276804407036252 -58.969325680416205 0 -58.969325680416205 14.553280321033526 0 0 0 0 46.742685692305812 -22.705395396931021 0 -22.705395396931021 11.884818965027353 0 0 0 0 1843.0486936991001 1226.3575648366877 0 1226.3575648366877 596.32105477656262 0 0 0 0 204.27077599301992 2458.1449074969782 0 2458.1449074969782 3472.4207999829969 0 0 0 0 3076.0660786898297 1656.2556154017975 0 1656.2556154017975 275.24775334782521 0 0 0 0 3497.5100562730568 2713.5329360131354 0 2713.5329360131354 2020.6816787419255 0 0 0 0 4276.3064618686985 2182.3901192195267 0 2182.3901192195267 1148.0394365871196 0 0 0 0 6.1428496143657618 -2.9357449532206061 0 -2.9357449532206061 4.0216756454137332 0 0 0 0 3564.8664732968755 -744.5161797457074 0 -744.5161797457074 -793.39047919758104 0 0 0 0 1011.2025373838915 -1038.5984636875353 0 -1038.5984636875353 1090.6166110684103 0 0 0 0 21.518124324791643 -13.417391837185505 0 -13.417391837185505 42.769272857416581 0 0 0 0 0.13895522897641399 -9.8975194098580204 0 -9.8975194098580204 27.035130913403172 0 0 0 0 0.30949468820989523 -0.52707429913781567 0 -0.52707429913781567 12.923724750200401 0 0 0 0 31.262749398694723 -10.429337223482435 0 -10.429337223482435 33.231889306673565 0 0 0 0 33.246043386199744 0.18174219384309254 0 0.18174219384309254 83.463886408723738 0 0 0 0 1507.5834088624651 -387.04589934123317 0 -387.04589934123317 -467.48631940208304 0 0 0 0 6.7521471289392849 -0.16100825963761167 0 -0.16100825963761167 -5.2043319403592871 0 0 0 0 3195.1709522965029 1356.9660935783932 0 1356.9660935783932 29.002309715696128 0 0 0 0 3499.3995425679605 483.91038033396285 0 483.91038033396285 -1004.8093672222526 0 0 0 0 2268.6298603749492 1021.5803441988543 0 1021.5803441988543 89.551444565787534 0 0 0 0 1606.3055687120941 912.66351581000845 0 912.66351581000845 740.59720870758451 0 0 0 0 2197.5770468882547 430.8051899741929 0 430.8051899741929 -237.87071613153398 0 0 0 0 1396.7845376209589 -136.94290561415778 0 -136.94290561415778 164.62198298521071 0 0 0 0 703.46436879364774 13.391066238454641 0 13.391066238454641 2.9807614177877682 0 0 0 0 1045.6926178299473 121.61651976749954 0 121.61651976749954 0.90961376031759755 0 0 0 0 1082.6442529362976 -201.5857690824696 0 -201.5857690824696 -133.05667695619582 0 0 0 0 781.06465536315227 -320.39211192281618 0 -320.39211192281618 -152.50309868199975 0 0 0 0 575.04607924867742 -376.55116415835539 0 -376.55116415835539 208.56395670988786 0 0 0 0 1577.4149435167255 -472.11522683302826 0 -472.11522683302826 183.85448340157018 0 0 0 0 2482.8904809133091 -236.92384082692115 0 -236.92384082692115 -166.81037046029951 0 0 0 0 1484.9427629656129 134.65886267798101 0 134.65886267798101 243.84318787286 0 0 0 0 2501.0140262933419 -425.7599354102083 0 -425.7599354102083 -116.96669095481572 0 0 0 0 1966.9761016928842 -783.90900601431656 0 -783.90900601431656 193.50505390246343 0 0 0 0 1932.5850370673425 -695.76004262676349 0 -695.76004262676349 310.65152057204909 0 0 0 0 2462.1308377042915 -133.16312312315804 0 -133.16312312315804 -318.91392754539834 0 0 0 0 2942.0753690847851 -154.69398394271769 0 -154.69398394271769 -959.09259086536815 0 0 0 0 2829.1031895963242 150.80782419730181 0 150.80782419730181 -788.62480449519535 0 0 0 0 3499.357956452026 -233.79577196320531 0 -233.79577196320531 -635.89433314323242 0 0 0 0 3499.7261019582802 -676.99076417274421 0 -676.99076417274421 38.070222892563471 0 0 0 0 2985.8144341856532 -292.98927826347665 0 -292.98927826347665 -248.76806754516008 0 0 0 0 2834.8653387391241 -512.83550166612406 0 -512.83550166612406 186.60591520683448 0 0 0 0 3010.4164634469607 -570.08106418328964 0 -570.08106418328964 26.687720642066353 0 0 0 0 3009.7892239833127 -723.98706531098389 0 -723.98706531098389 441.4753437792009 0 0 0 0 3499.5378856853749 -1041.7249578852629 0 -1041.7249578852629 415.40452893376863 0 0 0 0 3232.5613388782804 -928.32402534755317 0 -928.32402534755317 428.8982971030544 0 0 0 0 3316.165047215306 -1080.8859376692253 0 -1080.8859376692253 407.77126032103286 0 0 0 0 -0.75677327523106896 -4.2154356473718053 0 -4.2154356473718053 24.128177195071583 0 0 0 0 3334.6275696650191 -1212.5594242395075 0 -1212.5594242395075 518.40749769315266 0 0 0 0 3106.9258901617541 -1186.2684831858119 0 -1186.2684831858119 540.63591964175043 0 0 0 0 3493.9547541496577 -1404.5196456566212 0 -1404.5196456566212 650.18411270124352 0 0 0 0 345.46851586833509 -128.53398165636645 0 -128.53398165636645 317.59174435168734 0 0 0 0 2.3398535804147542 -0.95948089594614316 0 -0.95948089594614316 7.7438534842213747 0 0 0 0 2662.0262951652549 -1090.9704468806804 0 -1090.9704468806804 867.98005198455326 0 0 0 0 2017.5910484335373 -507.4028952816347 0 -507.4028952816347 365.58653541218297 0 0 0 0 2112.8395185503477 -1057.8245549780722 0 -1057.8245549780722 398.16864259064596 0 0 0 0 895.30708733768915 -412.39331471189666 0 -412.39331471189666 237.67759166480027 0 0 0 0 721.68796028047291 -155.91055907915631 0 -155.91055907915631 188.00798238687321 0 0 0 0 584.03398522468342 -573.14403968688612 0 -573.14403968688612 950.3337678307156 0 0 0 0 669.40356837737636 -324.79838778724798 0 -324.79838778724798 56.199908228075401 0 0 0 0 580.25306148560776 -193.29155929619719 0 -193.29155929619719 199.27917196760257 0 0 0 0 659.14629192402208 -179.97623327524229 0 -179.97623327524229 0.94927618881138187 0 0 0 0 648.44361208541159 -292.14155331025995 0 -292.14155331025995 31.876844851717578 0 0 0 0 134.44875229304307 13.431507688797865 0 13.431507688797865 31.559174018322665 0 0 0 0 315.20923235720147 163.8572391552475 0 163.8572391552475 -158.339632966522 0 0 0 0 237.00529167633067 -104.47281588505075 0 -104.47281588505075 68.344359148541571 0 0 0 0 497.86062422715622 -218.54667325876153 0 -218.54667325876153 223.8462828225247 0 0 0 0 523.226513739246 85.837109946208784 0 85.837109946208784 -16.209346632797406 0 0 0 0 906.40856055901804 29.001600794691512 0 29.001600794691512 118.78552867716689 0 0 0 0 190.00645768505638 206.7914022175396 0 206.7914022175396 112.16896145025203 0 0 0 0 839.60097601712187 -385.49181593673603 0 -385.49181593673603 379.9533369818833 0 0 0 0 -129.20896821781207 -861.36279171467595 0 -861.36279171467595 -258.44989193643357 0 0 0 0 -5.30864218207401 -0.89257759747327725 0 -0.89257759747327725 -3.6358089969898222 0 0 0 0 532.36155554794823 -500.60855767604772 0 -500.60855767604772 406.86516859053853 0 0 0 0 1050.5298795848357 -809.48335458373231 0 -809.48335458373231 -19.435209953904604 0 0 0 0 811.27102310034388 -440.076526123289 0 -440.076526123289 -140.84193819694923 0 0 0 0 1030.9316676700109 -523.36079418631766 0 -523.36079418631766 398.12337263939946 0 0 0 0 1128.2295982277428 -643.31721270095647 0 -643.31721270095647 330.66622070246899 0 0 0 0 1271.9325042193013 -854.65656011119245 0 -854.65656011119245 407.77260860166916 0 0 0 0 1398.8257712835475 -675.10287209033322 0 -675.10287209033322 287.09695041815598 0 0 0 0 1398.4807819616108 -845.53957576341884 0 -845.53957576341884 162.69990938350861 0 0 0 0 1366.4390844006411 -862.32149499443585 0 -862.32149499443585 184.08564950821165 0 0 0 0 1342.5639584394594 -876.41358116050696 0 -876.41358116050696 187.52988721197539 0 0 0 0 1155.456557604004 -743.79422072218313 0 -743.79422072218313 270.4831961783529 0 0 0 0 836.45782220979163 -966.02340197531566 0 -966.02340197531566 180.51689969738061 0 0 0 0 -409.97636194145889 -624.29931963709805 0 -624.29931963709805 170.43706779569334 0 0 0 0 958.45909601576568 -794.2156398963233 0 -794.2156398963233 143.05519643367006 0 0 0 0 2246.5713675078296 -1332.0866574172833 0 -1332.0866574172833 -303.3718445417353 0 0 0 0 1759.1623358527795 -195.2547353084849 0 -195.2547353084849 425.13328932668924 0 0 0 0 1207.3487369105133 -518.24107693225324 0 -518.24107693225324 259.6422939399697 0 0 0 0 1108.1738655828576 -286.60324376186622 0 -286.60324376186622 378.40302138490256 0 0 0 0 944.70788502580399 -273.74078662464467 0 -273.74078662464467 409.32624354954737 0 0 0 0 715.97903989755287 -332.86988847811386 0 -332.86988847811386 396.34063083403487 0 0 0 0 1084.5587179976465 -533.25654215485213 0 -533.25654215485213 279.34146907508807 0 0 0 0 1242.0779343623653 -164.6327603397867 0 -164.6327603397867 176.63190090328291 0 0 0 0 861.70265265471971 -92.29390722100014 0 -92.29390722100014 705.81846123126388 0 0 0 0 997.66305092794209 -497.40751211365352 0 -497.40751211365352 -46.396095433013215 0 0 0 0 785.91660525663247 -777.61054095844497 0 -777.61054095844497 -58.188226535184185 0 0 0 0 202.99187497396269 -159.99192102623971 0 -159.99192102623971 -82.345353739334428 0 0 0 0 466.18346538685 -465.92313202948947 0 -465.92313202948947 79.27865752783066 0 0 0 0 14.572204716699844 -0.42136660951262783 0 -0.42136660951262783 0.10016254614746201 0 0 0 0 296.83856323300643 737.9748514320479 0 737.9748514320479 402.94019485129309 0 0 0 0 18.856389320753806 432.00117168211023 0 432.00117168211023 265.21575983109233 0 0 0 0 990.39812975501991 658.25411800150448 0 658.25411800150448 38.634908389910521 0 0 0 0 235.85803835479601 359.52020684012803 0 359.52020684012803 -68.798176630759514 0 0 0 0 1375.8581963537035 -126.75950268203458 0 -126.75950268203458 -184.54727718264917 0 0 0 0 636.37290547123121 -512.7343933577057 0 -512.7343933577057 595.73085922155485 0 0 0 0 341.10669710182265 51.591330747528133 0 51.591330747528133 -376.83017489251836 0 0 0 0 351.60624598864524 -10.625920218209529 0 -10.625920218209529 -196.95874156555942 0 0 0 0 571.24556441420282 63.930433589677307 0 63.930433589677307 -391.58080705777331 0 0 0 0 335.64084615583124 82.572999610313005 0 82.572999610313005 -474.58290617095287 0 0 0 0 288.73068410050837 86.777286692141487 0 86.777286692141487 -387.84941275079768 0 0 0 0 166.73987080076768 57.244998707318416 0 57.244998707318416 -474.75585650278595 0 0 0 0 370.52526777608364 -53.650700570696372 0 -53.650700570696372 -536.13092639585 0 0 0 0 123.24927236827716 93.064022104131709 0 93.064022104131709 52.851821948780525 0 0 0 0 23.283328746000365 20.88475657346325 0 20.88475657346325 -8.5013941382924223 0 0 0 0 150.67633954635676 32.643968973579433 0 32.643968973579433 -354.56263438956819 0 0 0 0 126.86101477211923 -154.83824261072513 0 -154.83824261072513 -498.42558141116069 0 0 0 0 128.81642367881432 28.417867149421738 0 28.417867149421738 -312.52092067535364 0 0 0 0 160.16024475571976 -31.068320708391184 0 -31.068320708391184 -475.26779026705981 0 0 0 0 39.663652518763087 22.344880569298482 0 22.344880569298482 -2.4485239315979115 0 0 0 0 197.77290503759468 74.720684168144771 0 74.720684168144771 -419.08740669105828 0 0 0 0 86.492662551609101 210.36477714630928 0 210.36477714630928 -8.7238243535234687 0 0 0 0 149.17534503418921 59.981198158480169 0 59.981198158480169 14.93610012976734 0 0 0 0 642.88207079622953 346.84223356535222 0 346.84223356535222 -446.32730853585781 0 0 0 0 951.97380500197323 454.75980923277712 0 454.75980923277712 -539.1268799402169 0 0 0 0 770.87751756303805 51.995171173245581 0 51.995171173245581 -317.56856136828355 0 0 0 0 1626.3351757910714 64.347350130541599 0 64.347350130541599 -373.21713908552556 0 0 0 0 476.43323565545143 -1444.962366083183 0 -1444.962366083183 -170.63517302400942 0 0 0 0 1574.1347818125869 608.06183208778384 0 608.06183208778384 -704.15929331148436 0 0 0 0 1442.5103768685585 628.34165235932778 0 628.34165235932778 -599.38008925345821 0 0 0 0 1280.6453627463197 804.4252305131613 0 804.4252305131613 -800.74915140169833 0 0 0 0 143.58689764936139 61.775779510192592 0 61.775779510192592 14.063769140405487 0 0 0 0 3132.881786096521 2577.8790714893967 0 2577.8790714893967 669.81314515481654 0 0 0 0 159.6719388976926 107.20316094690509 0 107.20316094690509 -317.72147473772799 0 0 0 0 552.60440046491203 -3932.1904052823356 0 -3932.1904052823356 1903.4171855855957 0 0 0 0 41.879151266443714 6.3725697214543082 0 6.3725697214543082 -2.5329133518214171 0 0 0 0 1138.4984230784758 -1894.8636064585544 0 -1894.8636064585544 2682.5321408797427 0 0 0 0 597.65053740079748 840.30454562454543 0 840.30454562454543 -785.23878774888544 0 0 0 0 106.4880647116739 34.980607805197721 0 34.980607805197721 9.9213028365522646 0 0 0 0 106.18853452468466 672.88952385259927 0 672.88952385259927 -595.38182738086653 0 0 0 0 -95.419304091570666 244.17324777886097 0 244.17324777886097 -357.94920452490805 0 0 0 0 -423.67117063314072 254.33742796834667 0 254.33742796834667 -273.33902968910843 0 0 0 0 179.90395908305072 333.29221335382772 0 333.29221335382772 -752.859518167857 0 0 0 0 -48.611926333891461 124.97026222690198 0 124.97026222690198 -300.89448349667424 0 0 0 0 -376.86449956131401 -167.90513186243754 0 -167.90513186243754 -515.59728457498454 0 0 0 0 57.616366661619395 294.43331303856763 0 294.43331303856763 -159.46777823568419 0 0 0 0 187.41129026428098 268.2313568185441 0 268.2313568185441 -596.95920695933842 0 0 0 0 17.902031119563617 259.50238919946179 0 259.50238919946179 -433.71686010945814 0 0 0 0 149.29937284832704 153.56712225952623 0 153.56712225952623 -421.79704057581603 0 0 0 0 51.076430070359493 347.63063288104127 0 347.63063288104127 -501.51890040059834 0 0 0 0 263.37268530143774 231.39918878580428 0 231.39918878580428 -374.72860833440075 0 0 0 0 446.57962637532546 382.12459038016902 0 382.12459038016902 -157.90918317689815 0 0 0 0 167.5638596444187 170.25158226756184 0 170.25158226756184 -318.47651911135807 0 0 0 0 243.27985804492118 492.54967420911237 0 492.54967420911237 37.32930067748859 0 0 0 0 116.39990578371362 538.34397085041144 0 538.34397085041144 157.17219490498121 0 0 0 0 -259.99200665191165 190.57337586203454 0 190.57337586203454 54.195150597909617 0 0 0 0 178.20183235161585 365.23960915022406 0 365.23960915022406 -121.06004060007712 0 0 0 0 7.2050997582555283 358.0132140514072 0 358.0132140514072 -24.822287958739977 0 0 0 0 1165.0460136997281 710.2411394554855 0 710.2411394554855 -3.9172907308130931 0 0 0 0 118.91730510085472 514.43868226181951 0 514.43868226181951 227.23976142058896 0 0 0 0 471.95405918812321 833.09364731008498 0 833.09364731008498 55.125843499752591 0 0 0 0 1527.9786174830078 859.56766239237311 0 859.56766239237311 -1.0112632277566149 0 0 0 0 -1481.4521397549452 420.50155560502105 0 420.50155560502105 1134.5696230943668 0 0 0 0 515.48611786535912 -497.746867636719 0 -497.746867636719 212.11008111427657 0 0 0 0 422.97227269552241 -436.59948875593 0 -436.59948875593 236.12730430629114 0 0 0 0 -1964.3635410091374 -2256.6119005908986 0 -2256.6119005908986 4659.7151234433568 0 0 0 0 4504.9705382488319 -1476.3534285829355 0 -1476.3534285829355 462.52301882369989 0 0 0 0 100.24234703644106 41.924516880411375 0 41.924516880411375 -66.351541996635206 0 0 0 0 95.007310513403354 87.060415645396006 0 87.060415645396006 -191.55961377938547 0 0 0 0 125.56070345416811 56.253975493293183 0 56.253975493293183 -528.82589914670098 0 0 0 0 893.56538712526162 -1639.2703884355244 0 -1639.2703884355244 3351.9282423975615 0 0 0 0 39.304166902866115 9.5068021628875741 0 9.5068021628875741 1.7131801927512231 0 0 0 0 5170.5568239217828 -1221.1044282007431 0 -1221.1044282007431 -229.5352055939029 0 0 0 0 102.1071602466232 28.518344606842561 0 28.518344606842561 2.0791104504700506 0 0 0 0 22.072217420231027 698.72429166551183 0 698.72429166551183 21.290460337961861 0 0 0 0 -6.8419410203932784 -180.47246638317847 0 -180.47246638317847 -451.4752098336412 0 0 0 0 -353.81943665787549 -41.413926027704292 0 -41.413926027704292 -331.56092389539117 0 0 0 0 184.80724352251855 -71.631723890292051 0 -71.631723890292051 -370.60877195950707 0 0 0 0 52.256099446873122 -206.45570954298637 0 -206.45570954298637 -157.52265266594259 0 0 0 0 136.75432154678856 -103.23780942077065 0 -103.23780942077065 -409.9373494544634 0 0 0 0 131.60854861216649 -108.89751560784589 0 -108.89751560784589 -280.22694865483527 0 0 0 0 122.44885764553328 -84.24677061823877 0 -84.24677061823877 -82.441514278158138 0 0 0 0 101.64638637748067 -120.12888820184935 0 -120.12888820184935 -150.71865160543894 0 0 0 0 117.81929031943582 -253.67677515086871 0 -253.67677515086871 -77.54882050658216 0 0 0 0 44.706963975759209 -141.20802637646489 0 -141.20802637646489 121.66482824151535 0 0 0 0 55.157960324437227 -134.44370565055806 0 -134.44370565055806 -109.06258518793766 0 0 0 0 838.18142317250476 -309.10522227930596 0 -309.10522227930596 1.559783500557387 0 0 0 0 163.75263840857224 -182.33803001086198 0 -182.33803001086198 -17.8502197953826 0 0 0 0 164.51131064526635 -148.36514081062569 0 -148.36514081062569 -135.10730670115299 0 0 0 0 111.59679982741 -62.540248028543374 0 -62.540248028543374 -53.93965731397293 0 0 0 0 80.087965912556683 -59.685938497442748 0 -59.685938497442748 -53.622315996501129 0 0 0 0 79.140715652320068 -91.247903265249988 0 -91.247903265249988 -31.403858832442893 0 0 0 0 94.725707603683986 -72.162219985555566 0 -72.162219985555566 -81.999925752324998 0 0 0 0 111.00826620200314 -67.967101244323203 0 -67.967101244323203 -99.304263483836621 0 0 0 0 90.591339045073255 -60.674832082028956 0 -60.674832082028956 -7.0524234957683802 0 0 0 0 110.27423288623686 18.315687073731169 0 18.315687073731169 -37.152073681880665 0 0 0 0 97.09620218163036 22.052467226410045 0 22.052467226410045 -1.016181124274226 0 0 0 0 104.21517034829594 41.036065545896236 0 41.036065545896236 -66.169876311307689 0 0 0 0 114.6436990602233 27.423175521568737 0 27.423175521568737 -116.30130249607305 0 0 0 0 110.38106742598029 13.453598780572065 0 13.453598780572065 -50.74819088636832 0 0 0 0 113.78937664173282 57.886597970683852 0 57.886597970683852 -42.998461833061469 0 0 0 0 116.1843135200825 41.779827231445331 0 41.779827231445331 9.8220707843865789 0 0 0 0 -183.61643685906165 -557.7045591223025 0 -557.7045591223025 920.54473973688482 0 0 0 0 -24.338449661343475 -160.31430893468988 0 -160.31430893468988 620.48734001960099 0 0 0 0 119.63212787018537 32.088143569733845 0 32.088143569733845 4.5545964095099052 0 0 0 0 108.16266691781129 55.640419951214881 0 55.640419951214881 -21.152665122207509 0 0 0 0 132.15012565418874 46.276392012422548 0 46.276392012422548 -18.861852864970842 0 0 0 0 832.5812142712457 -771.50069880936348 0 -771.50069880936348 -142.1867625103605 0 0 0 0 154.34465906016703 -833.75571143525747 0 -833.75571143525747 558.79418650970103 0 0 0 0 823.89976922915957 -475.82293485647261 0 -475.82293485647261 400.24479035774903 0 0 0 0 -766.56830257327238 -224.35371630446659 0 -224.35371630446659 774.33003316424038 0 0 0 0 134.09120992466342 285.78905339343919 0 285.78905339343919 -181.99394886061509 0 0 0 0 -67.763567769929068 239.88219412246826 0 239.88219412246826 -135.259398470017 0 0 0 0 151.66768640864757 200.35726232837487 0 200.35726232837487 -215.61514919313686 0 0 0 0 38.239807958612232 -3.0221663712673479 0 -3.0221663712673479 -1.608800500314858 0 0 0 0 373.16564998727699 -227.37311900498526 0 -227.37311900498526 -1229.7036348951572 0 0 0 0 148.15642115476658 -37.861036049069526 0 -37.861036049069526 -742.09429794901564 0 0 0 0 -208.84788007803218 -70.82071973729191 0 -70.82071973729191 -304.70826807673802 0 0 0 0 -173.42616896054824 363.62333847495086 0 363.62333847495086 -406.82085812769782 0 0 0 0 47.877069507362648 -547.83947327571559 0 -547.83947327571559 117.19657144959498 0 0 0 0 -113.66772122868861 -470.02609930114232 0 -470.02609930114232 -273.93768044865368 0 0 0 0 117.5084874365848 -89.163727177582089 0 -89.163727177582089 -40.804932651589326 0 0 0 0 176.85535216534117 154.32970157651781 0 154.32970157651781 -288.47796586520388 0 0 0 0 35.385432498672117 -1.1803623443724742 0 -1.1803623443724742 -1.3270357683804148 0 0 0 0 417.00214267323463 377.73450032029666 0 377.73450032029666 -812.76505977547981 0 0 0 0 100.22432956592093 157.11439772827418 0 157.11439772827418 -491.04333363236367 0 0 0 0 329.97563133879157 -121.45041288889638 0 -121.45041288889638 -630.55368238884705 0 0 0 0 11.790768072172796 -17.911622706534843 0 -17.911622706534843 -203.10500752815005 0 0 0 0 234.49576109489863 182.32886183520259 0 182.32886183520259 -81.743261857890047 0 0 0 0 290.73427234479459 -117.91470885774686 0 -117.91470885774686 -172.94679240564113 0 0 0 0 197.3971891971014 107.63237179476744 0 107.63237179476744 -201.20970907609103 0 0 0 0 107.82659565916401 189.21484369730922 0 189.21484369730922 -57.925794092372911 0 0 0 0 172.13992707340367 235.94077485748511 0 235.94077485748511 -101.94777215385147 0 0 0 0 184.69203511615342 227.65783363520944 0 227.65783363520944 -166.20091467287261 0 0 0 0 208.2677910750208 191.71682486903637 0 191.71682486903637 -67.379033787976141 0 0 0 0 50.679988512871205 158.60924325700086 0 158.60924325700086 -152.04873161691899 0 0 0 0 178.10882712487364 311.44624860251105 0 311.44624860251105 -209.29159499993966 0 0 0 0 319.52551470790058 195.27484408348028 0 195.27484408348028 -176.26703304238757 0 0 0 0 -0.1680292150558671 72.706827603313627 0 72.706827603313627 -196.69061645254078 0 0 0 0 118.70786709847744 183.61436816106186 0 183.61436816106186 -320.45801053304581 0 0 0 0 196.81904222696903 226.24990391060396 0 226.24990391060396 150.46641152090299 0 0 0 0 207.47540270572063 148.20446217813924 0 148.20446217813924 142.24686899911813 0 0 0 0 72.614822822455608 112.96036188467008 0 112.96036188467008 138.51116075889331 0 0 0 0 134.43514445304754 165.76800270982449 0 165.76800270982449 131.79885120945073 0 0 0 0 160.217053575514 203.11820750352945 0 203.11820750352945 48.326915490581541 0 0 0 0 173.08660064072319 170.85103000632569 0 170.85103000632569 35.079257106014211 0 0 0 0 175.50180578370055 190.73636987490306 0 190.73636987490306 -63.429551664542487 0 0 0 0 317.53062891346053 127.05533103072446 0 127.05533103072446 21.946702453342823 0 0 0 0 170.76836082828231 134.72126550667889 0 134.72126550667889 29.740724881460665 0 0 0 0 228.51924870930088 189.7068778044104 0 189.7068778044104 -59.489756849041726 0 0 0 0 492.03121542681765 -87.79106812033433 0 -87.79106812033433 -7.5546124574749456 0 0 0 0 481.45371777666151 21.675344870002391 0 21.675344870002391 -74.435617682571092 0 0 0 0 985.92042864034011 36.374067099785634 0 36.374067099785634 -24.235489800088999 0 0 0 0 392.66942961014865 211.32696227864494 0 211.32696227864494 114.7816816752329 0 0 0 0 474.51548245141748 124.01998500765376 0 124.01998500765376 112.4050403684801 0 0 0 0 1055.6558569519257 170.22075249491218 0 170.22075249491218 110.9344369130913 0 0 0 0 325.18754962278763 366.56690163810902 0 366.56690163810902 329.92443885718512 0 0 0 0 523.44017229148449 174.22627078541882 0 174.22627078541882 125.26581964986826 0 0 0 0 971.48232212186122 116.9595709939955 0 116.9595709939955 204.66969733584028 0 0 0 0 1336.1648251877414 -29.649519201379974 0 -29.649519201379974 233.88486771071757 0 0 0 0 4.0779743554238621 -0.83930505128353161 0 -0.83930505128353161 0.56675535325769566 0 0 0 0 1109.9410222745792 460.8801952199733 0 460.8801952199733 335.30163540803107 0 0 0 0 90.723768382020353 -5.50684028603348 0 -5.50684028603348 173.13064301277427 0 0 0 0 -36.447406150400639 -11.873154208437427 0 -11.873154208437427 18.317782183929694 0 0 0 0 2.1544569956713531 113.39247617300805 0 113.39247617300805 96.001037719046508 0 0 0 0 -82.824131980829407 -48.074690076382467 0 -48.074690076382467 39.406004434260922 0 0 0 0 -29.206917292933213 13.923241621741454 0 13.923241621741454 35.398773581613455 0 0 0 0 126.50518220262893 133.14886666994505 0 133.14886666994505 293.4347999546444 0 0 0 0 162.25233910155657 109.02716431192732 0 109.02716431192732 186.88457884223317 0 0 0 0 9.0913937825064295 -2.8285523560476662 0 -2.8285523560476662 0.48007646692503769 0 0 0 0 287.36465993069578 257.3132242534532 0 257.3132242534532 238.24161344148797 0 0 0 0 17.689761239642394 -10.259048686519975 0 -10.259048686519975 19.219483261845653 0 0 0 0 114.42527662952489 172.97797232963399 0 172.97797232963399 209.36791886746596 0 0 0 0 12.969709566707024 6.6083958265185174 0 6.6083958265185174 -24.061886392076303 0 0 0 0 1.7002503545045329 -3.0214652045647341 0 -3.0214652045647341 17.098674851806436 0 0 0 0 11.276105970694459 -1.2525018725186379 0 -1.2525018725186379 1.9572967632097522 0 0 0 0 1.0360934983127663 -5.6782497200961028 0 -5.6782497200961028 19.51994460847672 0 0 0 0 27.300084298083675 -10.679111281213402 0 -10.679111281213402 0.88057561193248191 0 0 0 0 2.504724011538201 -6.0790282401541447 0 -6.0790282401541447 19.562169808264827 0 0 0 0 -120.04495781747391 -7.1791415074767428 0 -7.1791415074767428 106.18173749209473 0 0 0 0 9.9119751619483338 -9.0839813894022399 0 -9.0839813894022399 10.847638271204488 0 0 0 0 -191.86485849357859 78.347557597377616 0 78.347557597377616 140.88971358498475 0 0 0 0 -197.74531509724329 -235.5880845145077 0 -235.5880845145077 -125.16941035742639 0 0 0 0 -0.29760938028709916 -4.2505894652880052 0 -4.2505894652880052 1.3471154163003962 0 0 0 0 18.826996896132187 -5.2501513371452075 0 -5.2501513371452075 12.140029468057962 0 0 0 0 17.16700631479398 -9.7408972912234937 0 -9.7408972912234937 12.882768526506522 0 0 0 0 -131.94856381347927 -119.20038791512707 0 -119.20038791512707 -56.905591145680859 0 0 0 0 17.440669942656314 5.9998933833773487 0 5.9998933833773487 44.76903928001758 0 0 0 0 21.2738524775923 -8.2442548711227488 0 -8.2442548711227488 14.091280095904903 0 0 0 0 20.994514226011233 -5.7030333666044273 0 -5.7030333666044273 12.842770346931076 0 0 0 0 18.819516498610028 -4.0236707210300064 0 -4.0236707210300064 21.676597997293115 0 0 0 0 28.327810470247641 -0.6669738343084769 0 -0.6669738343084769 0.0061145464521169899 0 0 0 0 37.636931513778109 22.033066089129669 0 22.033066089129669 25.555651423883912 0 0 0 0 34.256016456361976 7.7228708561238184 0 7.7228708561238184 10.132594679121924 0 0 0 0 8.8845139230600694 -3.5089485735637993 0 -3.5089485735637993 0.87445395945512328 0 0 0 0 19.045944391618832 -5.3933829143342242 0 -5.3933829143342242 0.0044700542271926269 0 0 0 0 25.342658886045683 1.2228851272738612 0 1.2228851272738612 6.9511425249603072 0 0 0 0 22.428306922563934 -6.3700199763426699 0 -6.3700199763426699 7.7002913815452567 0 0 0 0 15.317919307598913 -10.982355477905216 0 -10.982355477905216 4.9772573023379829 0 0 0 0 1568.6740006122018 145.23676827024505 0 145.23676827024505 -333.93410525709055 0 0 0 0 1446.8987290211262 -89.129566139479323 0 -89.129566139479323 -120.79935834092748 0 0 0 0 397.52737731751404 211.41943379361555 0 211.41943379361555 90.079204468247099 0 0 0 0 16.588788060847577 -14.063176218191657 0 -14.063176218191657 9.2048333136200071 0 0 0 0 97.260752037735074 -349.83316268603357 0 -349.83316268603357 121.39140164685523 0 0 0 0 485.94476476524869 -275.86602988637264 0 -275.86602988637264 172.08480655306221 0 0 0 0 142.15882342978148 61.977079985046657 0 61.977079985046657 -67.418947144458571 0 0 0 0 1488.028215522183 -8.0658843508359155 0 -8.0658843508359155 643.43244623967348 0 0 0 0 1503.8375757604517 38.726107332428228 0 38.726107332428228 -135.16622203323186 0 0 0 0 1938.6102299606137 360.98650080145194 0 360.98650080145194 381.05136804554456 0 0 0 0 1320.9554034012326 -423.2379696344089 0 -423.2379696344089 0.68453594221827074 0 0 0 0 820.62377778583323 1140.5480537947369 0 1140.5480537947369 -1187.3861278879119 0 0 0 0 1306.9805726023333 -1570.7718734657469 0 -1570.7718734657469 1283.141437404234 0 0 0 0 17.26457116119758 0.52983900018909935 0 0.52983900018909935 -1.1204055358972091 0 0 0 0 2780.0639135020756 93.698013519146684 0 93.698013519146684 -717.14156595110501 0 0 0 0 2651.3459240119118 -355.57741136403763 0 -355.57741136403763 -150.49568452582855 0 0 0 0 2543.0893613870358 -253.13526112890787 0 -253.13526112890787 -208.80457622028666 0 0 0 0 941.69395636145782 26.813868947214019 0 26.813868947214019 -225.55623377883495 0 0 0 0 3224.3972692872048 780.25171847747595 0 780.25171847747595 -97.944261306894745 0 0 0 0 803.62981065972417 -390.53464368645706 0 -390.53464368645706 133.76987339357453 0 0 0 0 1116.4327308997417 -339.80892642968661 0 -339.80892642968661 21.293696405137098 0 0 0 0 -30.102014134739875 -222.19028678915038 0 -222.19028678915038 9.6847075354901619 0 0 0 0 40.728386135092876 1.7238574868333387 0 1.7238574868333387 -3.7352274749412899 0 0 0 0 331.97680973124807 63.754278605726199 0 63.754278605726199 -980.4204499223265 0 0 0 0 251.80057849020068 -739.51082180671949 0 -739.51082180671949 574.93941661839926 0 0 0 0 252.40870752969204 -360.44827635137727 0 -360.44827635137727 -69.965614122201259 0 0 0 0 620.98116301995469 -422.74880552766831 0 -422.74880552766831 -130.13954249779079 0 0 0 0 645.04934510065505 -805.13061158743892 0 -805.13061158743892 182.12540075150218 0 0 0 0 2725.7843229282371 -646.789556210456 0 -646.789556210456 -29.68139188978239 0 0 0 0 1628.4929795126664 -225.62365968379345 0 -225.62365968379345 -68.677096180247645 0 0 0 0 1243.3809934684832 -645.8313487381231 0 -645.8313487381231 -101.52726720563464 0 0 0 0 1188.7257513174991 -618.78641205910333 0 -618.78641205910333 -11.693011111618176 0 0 0 0 1017.6750815567721 -426.66519317144025 0 -426.66519317144025 -75.843541916421373 0 0 0 0 895.57144134972259 -643.96631917097898 0 -643.96631917097898 10.356057007911659 0 0 0 0 797.38758954384684 -335.75240102041869 0 -335.75240102041869 -72.282255636871923 0 0 0 0 858.01087708421983 -625.72082014590751 0 -625.72082014590751 103.03626658891903 0 0 0 0 813.94751781426385 -739.32161888781582 0 -739.32161888781582 30.434112006350006 0 0 0 0 893.62702492371318 -705.69062104810962 0 -705.69062104810962 -64.572969549808249 0 0 0 0 856.34428334992117 -693.85438948469937 0 -693.85438948469937 58.681891684606398 0 0 0 0 1832.8201372796029 -220.17689682444916 0 -220.17689682444916 -213.15702118589752 0 0 0 0 935.23986932304979 429.47481347956091 0 429.47481347956091 -379.49351869977636 0 0 0 0 519.63234233600087 -363.60981253652517 0 -363.60981253652517 262.78467079112806 0 0 0 0 1118.238982315248 -450.59725337251484 0 -450.59725337251484 229.04337035942649 0 0 0 0 1108.768618906749 -307.65690339850988 0 -307.65690339850988 462.02889127294111 0 0 0 0 1563.1655556007972 -583.57044070624056 0 -583.57044070624056 543.77889913665285 0 0 0 0 2637.3268327396654 -713.87774445480318 0 -713.87774445480318 55.471896071852825 0 0 0 0 2927.3270151364413 442.33407532329841 0 442.33407532329841 40.75862943510856 0 0 0 0 -774.62194672429177 -289.28379342467042 0 -289.28379342467042 -136.221565201864 0 0 0 0 -274.32656705536647 37.071411959060242 0 37.071411959060242 -961.32419287327866 0 0 0 0 -163.63716450627544 -1717.9078370288935 0 -1717.9078370288935 -199.48901204889671 0 0 0 0 19.537281782965636 1.4255257967443953 0 1.4255257967443953 -3.6017429734258908 0 0 0 0 -290.76399684266653 -668.17654839145689 0 -668.17654839145689 -1259.9939701649128 0 0 0 0 -1280.5210009636357 -1339.0806829011838 0 -1339.0806829011838 -1924.4580412185514 0 0 0 0 7.711731758575425 -0.97376628743923277 0 -0.97376628743923277 -1.4393472119545745 0 0 0 0 118.90017404838727 -38.255608807280055 0 -38.255608807280055 -61.469179335218996 0 0 0 0 29.947798697880089 19.730682237811095 0 19.730682237811095 -19.915069018103658 0 0 0 0 1741.355144389323 -17.078177212063679 0 -17.078177212063679 -132.74585798062651 0 0 0 0 2238.2047947297833 -231.49115146510508 0 -231.49115146510508 -217.22349563082196 0 0 0 0 2241.4653206489093 -405.07482036256283 0 -405.07482036256283 -805.77815658245981 0 0 0 0 20.729829115051388 20.586835665621152 0 20.586835665621152 -14.657197820761285 0 0 0 0 3483.7987055739504 -167.89054844130919 0 -167.89054844130919 1762.5789237228264 0 0 0 0 3863.1491236072616 -879.12508369507327 0 -879.12508369507327 -689.84516486347229 0 0 0 0 69.128847994827083 90.853635382899483 0 90.853635382899483 -109.4072820850497 0 0 0 0 103.4366671074531 -26.743134800050939 0 -26.743134800050939 -42.409483005905713 0 0 0 0 124.80789981280395 38.911722795892047 0 38.911722795892047 -69.059801698557749 0 0 0 0 142.19335306227731 100.39846111121693 0 100.39846111121693 -142.37381978899475 0 0 0 0 109.58181750308722 81.186629743145431 0 81.186629743145431 -111.00025651989614 0 0 0 0 92.468203128279129 109.65413673060306 0 109.65413673060306 -118.91202572480574 0 0 0 0 63.863410472440592 110.81575815163578 0 110.81575815163578 -107.24970403061934 0 0 0 0 3720.4918090220112 -2801.4623815699529 0 -2801.4623815699529 1033.001688372012 0 0 0 0 2074.7331073145324 -1842.3343402449625 0 -1842.3343402449625 742.07455397752926 0 0 0 0 22.162127900795213 -0.40875946302313793 0 -0.40875946302313793 -1.9926260712162389 0 0 0 0 2926.4022889530024 337.87234212380906 0 337.87234212380906 -904.98896992082882 0 0 0 0 766.40042143712344 1269.3678081210785 0 1269.3678081210785 -1303.2541655816287 0 0 0 0 -30.598362851156708 -297.44584887362555 0 -297.44584887362555 -136.71764557045526 0 0 0 0 991.62591047602655 -350.82761476213335 0 -350.82761476213335 -135.90365503950943 0 0 0 0 477.76553155938745 -222.54376585271893 0 -222.54376585271893 -1146.5522983912724 0 0 0 0 45.095699046575703 1.6392039148394986 0 1.6392039148394986 -4.7069301385470155 0 0 0 0 929.61847169154498 -91.452473962865952 0 -91.452473962865952 -894.49704759155952 0 0 0 0 2733.0299650949892 -668.59090884496072 0 -668.59090884496072 -4.3994043980128481 0 0 0 0 522.38104264355934 -548.55324953263937 0 -548.55324953263937 760.41940820231639 0 0 0 0 2235.9545104825811 -1606.1965660800677 0 -1606.1965660800677 735.66160766783685 0 0 0 0 4.8468700492145871 2.144273623428461 0 2.144273623428461 -4.8248061163012306 0 0 0 0 1602.3264823249119 -560.3236261467016 0 -560.3236261467016 -165.57715697470547 0 0 0 0 737.98932222921212 -455.39651581531206 0 -455.39651581531206 -0.27003254595918896 0 0 0 0 853.73237359025734 -417.5006598634053 0 -417.5006598634053 -116.95785605723938 0 0 0 0 587.47877679428348 -420.87032349605988 0 -420.87032349605988 -24.400373153430309 0 0 0 0 393.40744082538731 59.966837960688096 0 59.966837960688096 -498.56603289957849 0 0 0 0 150.04625138690244 16.346762419866096 0 16.346762419866096 -42.135676293890413 0 0 0 0 77.964664685117896 203.88213271760733 0 203.88213271760733 -193.57449315500969 0 0 0 0 -445.32280552635348 299.3076677154296 0 299.3076677154296 -134.56495833258293 0 0 0 0 3900.9448776387289 -2012.3879655785497 0 -2012.3879655785497 -77.666247072623491 0 0 0 0 -243.24289742917608 277.98563202187933 0 277.98563202187933 -52.408399397902599 0 0 0 0 15.06573407636769 11.270616698819168 0 11.270616698819168 -11.066700927930423 0 0 0 0 -57.179349970407202 62.622482074448044 0 62.622482074448044 -81.169336464958263 0 0 0 0 109.75784119846503 190.54793554598101 0 190.54793554598101 -80.469794240355213 0 0 0 0 325.18132393540873 75.075110348584303 0 75.075110348584303 -146.96355521293663 0 0 0 0 1729.5266506812186 -233.58758670582108 0 -233.58758670582108 -0.17599281013044799 0 0 0 0 213.7507496161852 -40.206882538310197 0 -40.206882538310197 2.2930364789738178 0 0 0 0 773.01856606865476 -102.56331633546441 0 -102.56331633546441 -98.111634453579782 0 0 0 0 423.82717730772492 -501.62465954730624 0 -501.62465954730624 309.88965009072803 0 0 0 0 1950.2726162934559 -486.61775720060683 0 -486.61775720060683 2.0893125886518753 0 0 0 0 273.79691604337131 107.55807981210694 0 107.55807981210694 7.2058965212728481 0 0 0 0 568.83029238227755 -349.1532612055837 0 -349.1532612055837 258.1014155265014 0 0 0 0 3495.6295920603588 -779.54892863640544 0 -779.54892863640544 -409.85560209491331 0 0 0 0 1625.7265762214665 -1073.9969269349392 0 -1073.9969269349392 -204.14767735738178 0 0 0 0 1282.8757017492171 -571.10268085622056 0 -571.10268085622056 97.956941572928258 0 0 0 0 864.57514398773492 -2121.1531457955161 0 -2121.1531457955161 1599.2596648727085 0 0 0 0 3495.9225396494367 -1660.4118298633318 0 -1660.4118298633318 -42.241274813839993 0 0 0 0 -932.2330378118204 59.017807309642194 0 59.017807309642194 2196.5838983160356 0 0 0 0 3464.5697512963816 -38.023643172454761 0 -38.023643172454761 14.092956720870234 0 0 0 0 2.767578922394506 -4.9992163411287436 0 -4.9992163411287436 6.279963537259591 0 0 0 0 1774.4497431082127 3079.7942361123892 0 3079.7942361123892 3864.5413351317011 0 0 0 0 5.0343219242106443 -3.8640116998938918 0 -3.8640116998938918 4.8332805904840379 0 0 0 0 3498.0888115348498 2477.7461008432579 0 2477.7461008432579 911.85322584555013 0 0 0 0 2870.1526743601717 1783.7689085542995 0 1783.7689085542995 365.86054210615271 0 0 0 0 938.88130891453329 1312.7257032622858 0 1312.7257032622858 1583.7343072169758 0 0 0 0 1822.0290113894298 1070.2948312228896 0 1070.2948312228896 -30.557495379316492 0 0 0 0 44.733627783123637 -14.696491581301331 0 -14.696491581301331 3.2870494175699552 0 0 0 0 1259.5226663470166 1047.2393784367921 0 1047.2393784367921 713.82384542523891 0 0 0 0 1672.3587453793734 1314.2344495488783 0 1314.2344495488783 664.0091010575577 0 0 0 0 -43.733326409826986 -122.6405113208989 0 -122.6405113208989 12.651210265785267 0 0 0 0 1043.8708254424273 -812.62159362684656 0 -812.62159362684656 -79.603910176220381 0 0 0 0 -7.782303810995586 -8.0156385722555825 0 -8.0156385722555825 2.9296863190622369 0 0 0 0 -411.83866547279467 -331.61979981269576 0 -331.61979981269576 479.67391552835466 0 0 0 0 143.44395240135782 56.018712996825116 0 56.018712996825116 -67.912664928900995 0 0 0 0 -0.79871086982751649 -1.7031220599361454 0 -1.7031220599361454 -0.085491479319718788 0 0 0 0 439.12033490043541 -124.30535026570533 0 -124.30535026570533 -725.38440750661016 0 0 0 0 -62.687910293919231 17.912433809718237 0 17.912433809718237 208.96345933727798 0 0 0 0 252.26408358194749 69.481386322122262 0 69.481386322122262 -194.76058811401782 0 0 0 0 131.83934865318588 15.51126856565088 0 15.51126856565088 -198.94199778493805 0 0 0 0 104.87421360494045 -22.680576028176574 0 -22.680576028176574 -110.44672751948428 0 0 0 0 125.67307375429664 -185.14031783425025 0 -185.14031783425025 -70.718862779238862 0 0 0 0 61.496552088590079 -26.466242758429274 0 -26.466242758429274 7.4068340431604582 0 0 0 0 754.08442880278744 371.60725167775382 0 371.60725167775382 -482.85498662758232 0 0 0 0 801.4764595546585 28.476330726277524 0 28.476330726277524 -539.92356654959485 0 0 0 0 -324.38623412887682 -390.06948825658685 0 -390.06948825658685 -540.18881572306191 0 0 0 0 1025.5616712786723 264.22725135846929 0 264.22725135846929 -649.66718453514113 0 0 0 0 114.02087103330268 -28.677108798588392 0 -28.677108798588392 -72.886227571812924 0 0 0 0 185.46815314173 -912.37192538371437 0 -912.37192538371437 -1204.6889298569877 0 0 0 0 70.232331066831023 -34.585163922399062 0 -34.585163922399062 9.6713443770287384 0 0 0 0 94.839675678987987 -10.007273317403929 0 -10.007273317403929 -69.976499771255476 0 0 0 0 184.70587670599343 -327.65728631734873 0 -327.65728631734873 -1240.2329791410466 0 0 0 0 240.40933966585726 -630.03082203501663 0 -630.03082203501663 -774.55407504209234 0 0 0 0 873.16656431139563 31.103276699799153 0 31.103276699799153 -623.48675247852043 0 0 0 0 305.28377334043034 -501.58273082750839 0 -501.58273082750839 -461.23146902164626 0 0 0 0 415.70692817104282 5.8466091453337867 0 5.8466091453337867 -434.26969119843852 0 0 0 0 1358.4914138844615 497.61662967887901 0 497.61662967887901 -652.99929029106443 0 0 0 0 874.10528198187239 -74.826028121260833 0 -74.826028121260833 -410.25129198471132 0 0 0 0 1461.0673062728747 163.76713673483732 0 163.76713673483732 -436.95951184643582 0 0 0 0 1147.9629110243113 331.0755171315709 0 331.0755171315709 -126.84556393870275 0 0 0 0 1562.271994672381 214.22430538644289 0 214.22430538644289 -24.500226568937933 0 0 0 0 1786.2770073136344 230.7846312708416 0 230.7846312708416 -502.69992547264906 0 0 0 0 1851.3492600625905 488.98300959109815 0 488.98300959109815 -763.1988197114058 0 0 0 0 1667.2931980600952 551.35446527328497 0 551.35446527328497 -607.51042971733114 0 0 0 0 1966.0730342504285 276.21636835815463 0 276.21636835815463 -1155.9268428885039 0 0 0 0 9.2110777678055911 -0.32953549726794051 0 -0.32953549726794051 -6.2393680003287519 0 0 0 0 1549.8932560243511 86.136423988116206 0 86.136423988116206 -751.29455041433891 0 0 0 0 3498.2137635139734 1470.8550603688348 0 1470.8550603688348 184.98030235531269 0 0 0 0 3493.2258867486307 1343.7218694686087 0 1343.7218694686087 -668.76609021829495 0 0 0 0 2133.6040787865059 496.10691693289527 0 496.10691693289527 -1186.766872324921 0 0 0 0 1673.7621470718514 906.02644053519271 0 906.02644053519271 -297.57480751479238 0 0 0 0 588.85933145089075 485.87233701154503 0 485.87233701154503 34.12469304483659 0 0 0 0 2174.3862365147506 717.49491774263106 0 717.49491774263106 -946.57475024569044 0 0 0 0 965.76032399704854 -25.622458361240881 0 -25.622458361240881 421.85308982891098 0 0 0 0 1475.7207545479905 466.05823874725536 0 466.05823874725536 -93.489211803681201 0 0 0 0 1194.987307091651 -99.856799920333174 0 -99.856799920333174 -96.764662781082507 0 0 0 0 239.79092315482558 -151.83774937114003 0 -151.83774937114003 147.66707844832172 0 0 0 0 1161.1616441754013 895.69405270636787 0 895.69405270636787 593.38107343982745 0 0 0 0 10.644432414494588 -0.33782102786172885 0 -0.33782102786172885 0.2169010069810593 0 0 0 0 988.91846799872292 360.65823689152114 0 360.65823689152114 606.95208533124071 0 0 0 0 347.07045294423733 -437.21812518024336 0 -437.21812518024336 241.763768359284 0 0 0 0 664.49492318879675 209.88645826626069 0 209.88645826626069 95.983639364324972 0 0 0 0 680.1863115828528 61.902989066324039 0 61.902989066324039 334.66718971356613 0 0 0 0 924.13413831267098 336.33056787727651 0 336.33056787727651 256.74376918254848 0 0 0 0 634.07355594205546 269.87010213563246 0 269.87010213563246 142.43077092980593 0 0 0 0 638.59826243449061 293.30306119481713 0 293.30306119481713 128.12043485121717 0 0 0 0 643.48485558346965 187.35306506417368 0 187.35306506417368 259.24809662837515 0 0 0 0 650.96390019393584 357.12975221797137 0 357.12975221797137 252.05353525364444 0 0 0 0 1512.6984570636123 285.85666831982167 0 285.85666831982167 126.90559513133098 0 0 0 0 1573.7914475416183 35.512638808689758 0 35.512638808689758 -178.14720539893915 0 0 0 0 1090.8430038367405 -24.473621540394333 0 -24.473621540394333 428.43713039726617 0 0 0 0 177.78687714901753 237.06001561896642 0 237.06001561896642 -1.7672529147894238 0 0 0 0 834.35624622591422 545.61671048306766 0 545.61671048306766 -92.194631874124298 0 0 0 0 170.83450102658389 -200.47037666165261 0 -200.47037666165261 -234.05089134791388 0 0 0 0 808.74942267917504 -667.33009829985247 0 -667.33009829985247 534.94503984598748 0 0 0 0 5.8506218743222576 0.33537582269637412 0 0.33537582269637412 0.080640880875449072 0 0 0 0 176.94299348734057 -163.07575179360828 0 -163.07575179360828 210.49414092660618 0 0 0 0 222.33685335429618 -134.35613944452439 0 -134.35613944452439 78.720351164614385 0 0 0 0 -73.501420207117917 -80.872613588019931 0 -80.872613588019931 -70.524331120475836 0 0 0 0 14.668113875221366 1.6780855477261341 0 1.6780855477261341 -2.1294049278730842 0 0 0 0 8.8567917966591949 1.7211658767751743 0 1.7211658767751743 -1.0637716117149021 0 0 0 0 14.666982249356806 -1.0731472032906595 0 -1.0731472032906595 -9.9834856538437862 0 0 0 0 6.5617644414596725 4.0466417566073005 0 4.0466417566073005 -38.620073593973586 0 0 0 0 17.101547049562214 -2.1688246488707819 0 -2.1688246488707819 -12.154882505772548 0 0 0 0 3.4268307735328563 3.5808065756037877 0 3.5808065756037877 -10.108377040856112 0 0 0 0 18.618104330409551 4.6290100579637965 0 4.6290100579637965 -67.093254354746932 0 0 0 0 14.60191805489012 -44.202104535972921 0 -44.202104535972921 -17.692128955941826 0 0 0 0 22.26053353480529 -33.206483086903404 0 -33.206483086903404 -79.169028028321691 0 0 0 0 -6.8462604508531513 65.148311395957194 0 65.148311395957194 -146.98920995500021 0 0 0 0 3.7542009750322904 -125.69644246081361 0 -125.69644246081361 -245.89221619433545 0 0 0 0 -115.4849187922955 -204.53243156391824 0 -204.53243156391824 73.043586321076873 0 0 0 0 3.3875065857974676 -1.6244736462708147 0 -1.6244736462708147 -2.7147913650737774 0 0 0 0 2.8988698192333686 -17.986968936204505 0 -17.986968936204505 -33.613864971105386 0 0 0 0 3.1374329151122424 -1.9551323856088061 0 -1.9551323856088061 1.1661756614636927 0 0 0 0 107.9794455103256 -42.823478486360045 0 -42.823478486360045 17.780110779453139 0 0 0 0 64.065158409546711 -22.706014335153213 0 -22.706014335153213 8.8928206009331916 0 0 0 0 8.5499766232205729 0.73640083437939552 0 0.73640083437939552 -0.13480950272425374 0 0 0 0 8.5576291712350212 7.5192281883513488 0 7.5192281883513488 -11.446687644269787 0 0 0 0 6.7185071260028053 -10.549545382919973 0 -10.549545382919973 -22.416304492245899 0 0 0 0 2.1137777878029738 -5.881069895543078 0 -5.881069895543078 -10.849297724715484 0 0 0 0 14.420813371616532 -10.650075056913693 0 -10.650075056913693 -56.330661856948609 0 0 0 0 17.421200255557778 3.6783560042948693 0 3.6783560042948693 -26.742200921776657 0 0 0 0 22.411550125078065 -30.297458505719987 0 -30.297458505719987 -51.079958493641101 0 0 0 0 0.19797149756050203 -25.309393990432568 0 -25.309393990432568 -29.785213681473692 0 0 0 0 -39.239835741740535 -65.056070524309291 0 -65.056070524309291 -39.409617929400156 0 0 0 0 -11.36897987962584 -38.135658724143013 0 -38.135658724143013 -31.467010928717741 0 0 0 0 -18.213918523833854 -70.387754202710596 0 -70.387754202710596 -71.28829910420427 0 0 0 0 29.047906690146192 -35.002108929423457 0 -35.002108929423457 -48.139469784714947 0 0 0 0 7.463630728332646 -35.226601265801094 0 -35.226601265801094 -43.195123747511843 0 0 0 0 18.859976776067924 -8.6010749744124269 0 -8.6010749744124269 7.6907391811048456 0 0 0 0 40.572388978532899 -7.6295040171952095 0 -7.6295040171952095 0.98969511250353825 0 0 0 0 43.317816899056197 -28.857013566152773 0 -28.857013566152773 -83.74948908331362 0 0 0 0 9.4365859117024229 -102.46971220320745 0 -102.46971220320745 -71.461939070211429 0 0 0 0 -29.281006318939035 57.807188474466557 0 57.807188474466557 192.59495099731129 0 0 0 0 -53.051891037102905 -27.528433366757326 0 -27.528433366757326 -18.670035415860099 0 0 0 0 27.748478720766741 -3.8153918118282277 0 -3.8153918118282277 0.28399220207595 0 0 0 0 13.768452291811627 11.263746509004477 0 11.263746509004477 -1.72507905581665 0 0 0 0 440.96969326063117 217.12230116282046 0 217.12230116282046 95.027469982279854 0 0 0 0 185.32321493845666 219.09510441213467 0 219.09510441213467 192.05687981750316 0 0 0 0 562.35517426123261 182.00579721294821 0 182.00579721294821 114.74023209813595 0 0 0 0 305.51116020696645 198.85891001578329 0 198.85891001578329 210.81350192820059 0 0 0 0 1192.8949790186598 346.11867903647453 0 346.11867903647453 64.560889796721085 0 0 0 0 505.0372743256321 345.85379320266929 0 345.85379320266929 187.1538468225192 0 0 0 0 -22.656904040894005 54.183933195817758 0 54.183933195817758 119.29397701015171 0 0 0 0 138.76467725713155 -192.46091081599945 0 -192.46091081599945 -119.40607613976204 0 0 0 0 118.74807636384321 3.4113154916267945 0 3.4113154916267945 117.60114719556145 0 0 0 0 154.05545172494021 52.999999307927339 0 52.999999307927339 -134.63417630209301 0 0 0 0 137.41508077505569 157.31620678265631 0 157.31620678265631 190.01870082553319 0 0 0 0 90.308870616718195 61.823982323952464 0 61.823982323952464 250.78515681561521 0 0 0 0 277.60745589995349 91.174443239358197 0 91.174443239358197 173.16895161991488 0 0 0 0 151.82665565183561 69.594120009823143 0 69.594120009823143 114.67487767836246 0 0 0 0 274.46037380862981 210.21799326690336 0 210.21799326690336 273.97608644313334 0 0 0 0 71.796279833302833 66.98988703030318 0 66.98988703030318 327.63442339642154 0 0 0 0 7.584593750667409 -28.36342507290783 0 -28.36342507290783 215.11243738339044 0 0 0 0 0.45011272468725849 0.45924828828796649 0 0.45924828828796649 4.9379445176791688 0 0 0 0 73.579432845428073 25.39403021297327 0 25.39403021297327 211.38543790084123 0 0 0 0 121.50456636949093 -36.050970470686025 0 -36.050970470686025 23.821112791787073 0 0 0 0 208.64308302953577 67.906289355808212 0 67.906289355808212 96.103288806009914 0 0 0 0 186.49192114600737 67.13835320312478 0 67.13835320312478 187.03271346956626 0 0 0 0 279.14119394066074 160.32112779187969 0 160.32112779187969 189.18872256016493 0 0 0 0 317.2703904172522 168.15284290768466 0 168.15284290768466 34.214256504557852 0 0 0 0 294.76397721710964 143.59118837548976 0 143.59118837548976 10.603346114160558 0 0 0 0 240.96473128933576 122.35941939633176 0 122.35941939633176 117.80916429627496 0 0 0 0 -0.20349566001960895 1.0104361232542374 0 1.0104361232542374 14.658846355330303 0 0 0 0 117.94250851045217 80.177374543974793 0 80.177374543974793 28.811082407135473 0 0 0 0 216.16686579115776 80.614676850026399 0 80.614676850026399 -31.685313409619994 0 0 0 0 216.88995104232163 67.257098611913307 0 67.257098611913307 21.113740425575088 0 0 0 0 308.68918455977109 127.40843121571629 0 127.40843121571629 -9.7578924379704404 0 0 0 0 905.93074839012115 154.99190077687217 0 154.99190077687217 62.629682797630949 0 0 0 0 596.99304718558051 158.90713736202298 0 158.90713736202298 105.6519947165134 0 0 0 0 361.51053295962629 104.05061592863103 0 104.05061592863103 144.37748161865784 0 0 0 0 574.61513141723844 212.54218425374762 0 212.54218425374762 138.40294663231816 0 0 0 0 385.41374652681407 196.40112751569814 0 196.40112751569814 126.80078016261496 0 0 0 0 523.65536812152277 123.99359367557713 0 123.99359367557713 48.386401568955989 0 0 0 0 322.50287805740663 146.53753370861534 0 146.53753370861534 93.201097723245766 0 0 0 0 529.17538473626337 145.18766588333995 0 145.18766588333995 129.53102055114323 0 0 0 0 750.39538068146794 -84.645064563189408 0 -84.645064563189408 184.79765601395229 0 0 0 0 834.76697594879806 -75.539719059354638 0 -75.539719059354638 -46.479650666547968 0 0 0 0 1109.273052794324 -44.321925223565245 0 -44.321925223565245 -20.20242133283773 0 0 0 0 1003.2226533055509 -302.04454504892692 0 -302.04454504892692 257.69723088833098 0 0 0 0 1078.046860533781 -53.613148320356686 0 -53.613148320356686 -48.100924141778847 0 0 0 0 148.32342793636781 84.480792310316701 0 84.480792310316701 111.71977368104763 0 0 0 0 419.65258356483537 284.67526087061742 0 284.67526087061742 34.694536389663654 0 0 0 0 239.67061521914729 -80.939226532493649 0 -80.939226532493649 41.55434306007146 0 0 0 0 2.1261384920555315 2.3029026251183495 0 2.3029026251183495 0.36806471557468257 0 0 0 0 -388.88400675941375 426.9380957283621 0 426.9380957283621 -156.64833397827078 0 0 0 0 1495.94254819458 -226.07410734376356 0 -226.07410734376356 -67.704547496841599 0 0 0 0 885.50733261386631 -190.81522605053874 0 -190.81522605053874 -32.309766296010366 0 0 0 0 291.96075095397828 474.84322340846484 0 474.84322340846484 -225.30152558698455 0 0 0 0 1194.0227648609216 249.52254069044142 0 249.52254069044142 -169.02460380312846 0 0 0 0 423.39628230400331 347.03776381342578 0 347.03776381342578 215.39682541432001 0 0 0 0 798.71843827595148 428.9949390860906 0 428.9949390860906 157.35235208219444 0 0 0 0 368.21163553491351 319.93086051435955 0 319.93086051435955 240.1608918416415 0 0 0 0 863.35022481484339 86.149462998709112 0 86.149462998709112 -217.95861525159791 0 0 0 0 315.87707709436654 -132.65341382077531 0 -132.65341382077531 -102.90181348887035 0 0 0 0 434.49281049311685 -172.64945036665222 0 -172.64945036665222 -237.02657796097037 0 0 0 0 295.86399880823592 -35.028299739135036 0 -35.028299739135036 -333.81439899632687 0 0 0 0 404.32752309968055 -182.87453535103617 0 -182.87453535103617 -179.91284744932773 0 0 0 0 204.72400680443388 -181.6422684994244 0 -181.6422684994244 -178.48708774423903 0 0 0 0 170.98455694531731 -42.137107058507809 0 -42.137107058507809 -184.82352152768681 0 0 0 0 323.51621167318081 -129.15339767074875 0 -129.15339767074875 -229.93333175711905 0 0 0 0 174.46400824832381 -72.003266081440415 0 -72.003266081440415 -235.13294045361803 0 0 0 0 198.3704133406136 26.983147381605932 0 26.983147381605932 -268.32903406675769 0 0 0 0 236.10243886772514 90.937936138209352 0 90.937936138209352 -391.1718086541573 0 0 0 0 -66.364096163903014 -86.128802944154359 0 -86.128802944154359 7.2611971879754833 0 0 0 0 118.5181376626133 200.35556471749987 0 200.35556471749987 -202.59216141764955 0 0 0 0 10.732730401789752 0.148462818800283 0 0.148462818800283 0.204705628855681 0 0 0 0 113.125203979871 65.01046958442339 0 65.01046958442339 -222.04936378895218 0 0 0 0 16.230163214345879 -7.8173459386649284 0 -7.8173459386649284 -1.3744195908171211 0 0 0 0 202.28653565667628 12.564870611551214 0 12.564870611551214 -228.84850484450908 0 0 0 0 158.9231471454259 -39.70080038785909 0 -39.70080038785909 -180.29307292881185 0 0 0 0 86.069199011326418 12.339943155950323 0 12.339943155950323 -155.3281291742469 0 0 0 0 117.05396196660877 -52.618736799848136 0 -52.618736799848136 -138.14510790893382 0 0 0 0 70.077493232748807 -30.346494367173676 0 -30.346494367173676 -53.942200082634102 0 0 0 0 139.98679718308995 -4.7871325981459449 0 -4.7871325981459449 -76.148697348259248 0 0 0 0 141.55192949088814 -67.442412656223041 0 -67.442412656223041 -129.8064915417981 0 0 0 0 175.61509012902388 -144.45610180615699 0 -144.45610180615699 -140.37293480550875 0 0 0 0 172.49806247134575 -104.13490618225849 0 -104.13490618225849 -115.08439797414121 0 0 0 0 146.85508776736242 21.913469968564641 0 21.913469968564641 -24.121351178107489 0 0 0 0 118.22396555318846 11.752170331250454 0 11.752170331250454 -12.745271739691816 0 0 0 0 142.11981679396558 -15.122870438548716 0 -15.122870438548716 -69.2644632786687 0 0 0 0 138.46245835054287 18.24140907661058 0 18.24140907661058 -65.940431629755039 0 0 0 0 100.28565305063967 28.953500486493795 0 28.953500486493795 -64.02866723606121 0 0 0 0 91.702128322263889 36.37316744724194 0 36.37316744724194 7.3587017593163182 0 0 0 0 113.38053906291316 83.725035533964729 0 83.725035533964729 -77.842295764983646 0 0 0 0 68.910900665650843 11.456335575777302 0 11.456335575777302 4.1708788287323841 0 0 0 0 26.543735021150496 -6.4711931998208456 0 -6.4711931998208456 6.5556283889018232 0 0 0 0 119.37647442429443 2.8365366637290208 0 2.8365366637290208 -32.283599037233216 0 0 0 0 93.590763562810025 -8.5758300698662424 0 -8.5758300698662424 -13.665844661652955 0 0 0 0 110.96570668823551 14.15908104315713 0 14.15908104315713 -18.745856664812891 0 0 0 0 144.27403139535454 -9.251088043953132 0 -9.251088043953132 -23.002012129960349 0 0 0 0 96.672766086412594 6.7128110137473413 0 6.7128110137473413 -6.7535335049719833 0 0 0 0 65.037901342174592 -27.715065367057584 0 -27.715065367057584 -21.815970091528293 0 0 0 0 99.943132213782519 -30.00893698996515 0 -30.00893698996515 20.151974238466209 0 0 0 0 81.866692943047383 -5.3936502361889325 0 -5.3936502361889325 -11.582042575104424 0 0 0 0 24.337187452930408 -6.5955547622260866 0 -6.5955547622260866 -7.0597696860011396 0 0 0 0 150.55012336885557 45.749470373579925 0 45.749470373579925 -61.780658399352234 0 0 0 0 52.826378338781069 -167.85516951063528 0 -167.85516951063528 -67.735370083064026 0 0 0 0 153.38987992476905 8.8930338634617669 0 8.8930338634617669 -69.592176859055712 0 0 0 0 99.301171761549057 2.6374952292452107 0 2.6374952292452107 -4.7477946188903744 0 0 0 0 130.575648099104 18.746564740749079 0 18.746564740749079 -1.7441971225073303 0 0 0 0 141.96856000852131 31.685718743852135 0 31.685718743852135 -23.951419197149448 0 0 0 0 10.04186480706818 -3.5322997985583129 0 -3.5322997985583129 4.5270353802154384 0 0 0 0 -51.239769379790232 -143.49067959445293 0 -143.49067959445293 -137.8074726828022 0 0 0 0 55.450472083947346 -2.5305305817462909 0 -2.5305305817462909 -8.8105236185356652 0 0 0 0 61.459150721248136 -32.643576659529451 0 -32.643576659529451 -23.681609692365654 0 0 0 0 21.08511032917886 -41.462420987434143 0 -41.462420987434143 -52.384573456003636 0 0 0 0 65.615360836090986 10.617983069586444 0 10.617983069586444 18.373165772069342 0 0 0 0 0.44721655165051288 -7.8009729845713522 0 -7.8009729845713522 -2.2088732345944355 0 0 0 0 -27.147572059853701 -22.856445682890666 0 -22.856445682890666 16.027408177156133 0 0 0 0 -185.47037953906693 -75.568052377963227 0 -75.568052377963227 6.0319763107714834 0 0 0 0 -29.84216964567895 -187.5964534818691 0 -187.5964534818691 -488.4690372319908 0 0 0 0 -90.382341938719037 40.290816622521803 0 40.290816622521803 -277.88707159717956 0 0 0 0 -20.609440558386268 -466.58402348194682 0 -466.58402348194682 -172.50823208464504 0 0 0 0 -267.59674956051458 -294.77319148955451 0 -294.77319148955451 -197.8696300117947 0 0 0 0 71.588938523942488 -321.29273939051677 0 -321.29273939051677 -341.80137146228617 0 0 0 0 264.16288525334676 -483.49784254043846 0 -483.49784254043846 -335.90082040642369 0 0 0 0 -32.975540358471335 -115.35957306690841 0 -115.35957306690841 163.40811767388891 0 0 0 0 1.4470354041631595 2.1603060730793047 0 2.1603060730793047 -1.7954551589036805 0 0 0 0 68.336912510174074 -38.200067594515914 0 -38.200067594515914 -38.094812495427114 0 0 0 0 -32.477758082139189 -108.59194216750188 0 -108.59194216750188 -15.98463787599826 0 0 0 0 -7.3797000775387005 -14.945957563835847 0 -14.945957563835847 -3.5463817017075216 0 0 0 0 111.96168830473471 -99.802392570008578 0 -99.802392570008578 64.184981230435369 0 0 0 0 112.83841503724034 -83.50417902501249 0 -83.50417902501249 -62.348430901625761 0 0 0 0 173.49867079713658 -18.902064337898764 0 -18.902064337898764 -46.260425391283206 0 0 0 0 296.16809419428319 -197.43390397666644 0 -197.43390397666644 195.23649110137194 0 0 0 0 336.84126904694131 151.32691486016483 0 151.32691486016483 -23.167657451363993 0 0 0 0 101.64771614398342 41.170960311344061 0 41.170960311344061 -68.54908388561671 0 0 0 0 36.340696579224186 86.917315737038393 0 86.917315737038393 146.17632084373145 0 0 0 0 5.6365068785664221 0.89459912415761345 0 0.89459912415761345 0.47544907580059537 0 0 0 0 -9.8933938138752637 90.01184673337093 0 90.01184673337093 18.680671730160611 0 0 0 0 162.55809354980011 -31.462536689351623 0 -31.462536689351623 -127.76794989870643 0 0 0 0 48.479026971297571 -73.163417038195348 0 -73.163417038195348 -65.794765279793864 0 0 0 0 355.86372751624731 -177.67779408256229 0 -177.67779408256229 -343.09549333120594 0 0 0 0 117.66801730148904 -7.9428780527657139 0 -7.9428780527657139 -5.4957487543134249 0 0 0 0 588.40163165645936 8.0421786239248831 0 8.0421786239248831 -54.781484160155742 0 0 0 0 213.90084751390532 -279.86670238071201 0 -279.86670238071201 286.52438980483294 0 0 0 0 124.20395860407734 60.206343986050342 0 60.206343986050342 38.455792563436262 0 0 0 0 170.27733638163045 179.57433942004081 0 179.57433942004081 319.73802412426335 0 0 0 0 213.50258358991414 50.590267599891831 0 50.590267599891831 -217.55975403543152 0 0 0 0 213.31270094497813 159.54232513998181 0 159.54232513998181 -133.71035211303933 0 0 0 0 128.36345149752015 113.20689355306058 0 113.20689355306058 51.185979952321759 0 0 0 0 136.88134998988244 87.735519891088188 0 87.735519891088188 -51.478222062979512 0 0 0 0 132.72122260474862 39.626542314122162 0 39.626542314122162 -66.287320944809494 0 0 0 0 99.697239344954141 54.133968305166491 0 54.133968305166491 111.08077583327258 0 0 0 0 122.39757987605117 75.755083527802526 0 75.755083527802526 7.0383409169044171 0 0 0 0 508.83254627109272 204.15066215844354 0 204.15066215844354 -223.61207832273607 0 0 0 0 17.270789590619756 -3.3079931914568768 0 -3.3079931914568768 -0.13096664913530542 0 0 0 0 391.64217453310266 313.03578729488777 0 313.03578729488777 -232.15357715755658 0 0 0 0 586.45688342153153 123.74160308172577 0 123.74160308172577 -214.03272187783023 0 0 0 0 545.03078669781098 117.73725201780508 0 117.73725201780508 -171.79298596902453 0 0 0 0 1385.768476517318 -45.44222665932466 0 -45.44222665932466 -215.90131158420581 0 0 0 0 -131.98522640657029 -352.56451885887191 0 -352.56451885887191 425.95229551684588 0 0 0 0 12.988469476508044 16.419815053787282 0 16.419815053787282 -1.2244703162359576 0 0 0 0 1483.4995756183926 232.63248028371686 0 232.63248028371686 -596.62047022078286 0 0 0 0 15.72165916994885 -18.802920366267671 0 -18.802920366267671 -10.654756024837631 0 0 0 0 170.32434693892719 -85.039683156193405 0 -85.039683156193405 -96.144449921560067 0 0 0 0 135.97248286397129 -6.1643470309432828 0 -6.1643470309432828 -4.6133986433510481 0 0 0 0 292.24894541184767 -79.909828952276143 0 -79.909828952276143 -96.700268742619983 0 0 0 0 87.888147393125109 -4.3779844863086055 0 -4.3779844863086055 -63.789313250551913 0 0 0 0 142.27106636528333 -190.82860362198608 0 -190.82860362198608 336.44471418235207 0 0 0 0 -325.96173337565597 209.6530035614042 0 209.6530035614042 129.69627209352257 0 0 0 0 -477.81361281286809 -746.1101347353117 0 -746.1101347353117 1268.2097211446435 0 0 0 0 1224.7649439040397 -904.25857887916709 0 -904.25857887916709 361.75978735392073 0 0 0 0 73.948100016859826 -325.24067744963327 0 -325.24067744963327 72.340310195412712 0 0 0 0 829.81486488736118 -284.47164546108957 0 -284.47164546108957 -20.272324040774265 0 0 0 0 26.735305430484004 -46.75237103655104 0 -46.75237103655104 159.09105557864652 0 0 0 0 124.19752237350622 -45.340605122776765 0 -45.340605122776765 108.93593561406487 0 0 0 0 107.29029456185526 -13.694409726905292 0 -13.694409726905292 52.113436195714712 0 0 0 0 99.877582712862932 13.970552795583018 0 13.970552795583018 -38.962204515258804 0 0 0 0 39.515779314904648 17.581982038795786 0 17.581982038795786 -38.351503362826634 0 0 0 0 122.11870247150364 -43.691221455495338 0 -43.691221455495338 53.011013288695366 0 0 0 0 117.35609176314028 -45.205785056198351 0 -45.205785056198351 -60.204503826291557 0 0 0 0 98.803826475103051 51.565919105723466 0 51.565919105723466 8.3087898725482319 0 0 0 0 125.10301286332697 28.42479920800039 0 28.42479920800039 -5.8031548662847854 0 0 0 0 173.52448334905421 61.924916921122446 0 61.924916921122446 67.663820307335072 0 0 0 0 221.23813809148851 -26.557645327896353 0 -26.557645327896353 25.408912749369165 0 0 0 0 445.33369209188822 81.59930554279282 0 81.59930554279282 33.88358375974758 0 0 0 0 248.97297729536513 -110.31395932487442 0 -110.31395932487442 73.071033201440059 0 0 0 0 64.376464379805839 -71.718261276270596 0 -71.718261276270596 81.082029014090949 0 0 0 0 84.864227152589592 -203.845219964747 0 -203.845219964747 -284.5943299913244 0 0 0 0 156.07764408677758 25.44770828769083 0 25.44770828769083 -185.07634848141424 0 0 0 0 -8.3357806476124097 -89.044873673595248 0 -89.044873673595248 -83.506339652887675 0 0 0 0 71.409479603375075 37.965259175319034 0 37.965259175319034 -96.488345286771391 0 0 0 0 133.80875985132298 -44.810263805151408 0 -44.810263805151408 56.541560591203961 0 0 0 0 126.93184663899592 7.7858992328397107 0 7.7858992328397107 -65.682245535231061 0 0 0 0 115.53506505300174 -30.999388541782537 0 -30.999388541782537 106.87891169140482 0 0 0 0 112.10879888256022 -48.967386811471897 0 -48.967386811471897 55.969933037472401 0 0 0 0 180.78871966543375 -132.49244998353947 0 -132.49244998353947 154.75486156288929 0 0 0 0 319.62429726247501 -87.906903659459203 0 -87.906903659459203 -30.867117896942545 0 0 0 0 429.21305255615152 -48.73621801421541 0 -48.73621801421541 -90.533323342744779 0 0 0 0 322.98964179316681 -84.033570262085902 0 -84.033570262085902 -99.064421821804444 0 0 0 0 336.73323126178002 35.047828735598614 0 35.047828735598614 -116.8021046546155 0 0 0 0 286.0465748962597 19.318629536983053 0 19.318629536983053 -119.17190239149204 0 0 0 0 197.99023625630798 15.147456590466845 0 15.147456590466845 -70.776969134270075 0 0 0 0 259.44930679773097 -40.952775692951946 0 -40.952775692951946 -20.319276131221784 0 0 0 0 212.59489372133976 -7.9229227824023383 0 -7.9229227824023383 -89.620906978929497 0 0 0 0 167.86589567689225 51.379753751149792 0 51.379753751149792 -128.23110406457386 0 0 0 0 238.43310424327865 73.214141138657794 0 73.214141138657794 -121.89611627088789 0 0 0 0 217.94676731043728 155.08458503748682 0 155.08458503748682 -145.08111576910233 0 0 0 0 238.04639456295263 124.74741104085115 0 124.74741104085115 -104.85317378653099 0 0 0 0 212.21281814381655 175.67566628965506 0 175.67566628965506 -92.724235100201895 0 0 0 0 303.77958248113282 164.83272699814802 0 164.83272699814802 -145.58658832057677 0 0 0 0 274.63938801945187 240.66248085589928 0 240.66248085589928 -182.77388471946506 0 0 0 0 322.32554775249446 154.27539691636161 0 154.27539691636161 -186.47453124329559 0 0 0 0 529.25795497815125 106.35028658450437 0 106.35028658450437 -180.48745755815932 0 0 0 0 357.19805490909494 226.20863073589692 0 226.20863073589692 -210.64499819165394 0 0 0 0 -28.557805227062204 -134.79943718107032 0 -134.79943718107032 25.650822272959317 0 0 0 0 -102.42856146978738 4.7224314498448621 0 4.7224314498448621 86.07403123323644 0 0 0 0 4.7798151768668617 -2.2610565598844801 0 -2.2610565598844801 1.8158261144337722 0 0 0 0 -35.327661270668614 143.94969650994005 0 143.94969650994005 401.97584938214573 0 0 0 0 -179.16093687718603 -436.43094904923834 0 -436.43094904923834 -101.33649845622284 0 0 0 0 -177.90445283848385 -135.6471682820511 0 -135.6471682820511 86.557311339080528 0 0 0 0 -131.95729129295796 -170.14096659882307 0 -170.14096659882307 -129.23469368807073 0 0 0 0 176.0325882963225 25.584272997013045 0 25.584272997013045 -4.3104209403904861 0 0 0 0 190.59616753466253 104.346429821105 0 104.346429821105 38.027502550473685 0 0 0 0 2.5051489430018705 -3.4843061635570507 0 -3.4843061635570507 2.8659791346660723 0 0 0 0 -220.74679985517287 -86.595972895116461 0 -86.595972895116461 -73.398335274471208 0 0 0 0 -235.22319369306206 -222.65178501262778 0 -222.65178501262778 -51.245593196808272 0 0 0 0 -66.118919438464218 -154.1615364092616 0 -154.1615364092616 -86.279061425314467 0 0 0 0 -196.13014985273185 -191.61758356442078 0 -191.61758356442078 -96.282037873602746 0 0 0 0 0.74931672172382946 -1.0405877109101027 0 -1.0405877109101027 1.3437138359785612 0 0 0 0 -131.59436001373979 -281.09534566305706 0 -281.09534566305706 -4.7800867169629555 0 0 0 0 -300.81436202020268 -215.47602425849584 0 -215.47602425849584 -26.199926678143129 0 0 0 0 93.916983571645687 78.179561754689303 0 78.179561754689303 20.739319336185588 0 0 0 0 18.227456513300126 -11.691540010488495 0 -11.691540010488495 7.0514132314944007 0 0 0 0 222.33576284788433 167.9891652132867 0 167.9891652132867 87.589548009333271 0 0 0 0 8.986753641442192 62.295776637283495 0 62.295776637283495 164.08153393689054 0 0 0 0 63.595862970381859 -48.281553569537891 0 -48.281553569537891 -21.635897884744281 0 0 0 0 158.97440156033554 49.031437130398331 0 49.031437130398331 12.364203107558751 0 0 0 0 11.87306864557678 -7.4683118640105022 0 -7.4683118640105022 4.953234163887009 0 0 0 0 109.88893580413423 88.228676909584692 0 88.228676909584692 239.19195716947024 0 0 0 0 268.28220447196509 291.00693111621797 0 291.00693111621797 286.9056398743686 0 0 0 0 396.91613354309811 200.99593091284169 0 200.99593091284169 91.683561830085864 0 0 0 0 398.14135010488098 250.5569178011483 0 250.5569178011483 222.82251119937018 0 0 0 0 431.9956539309278 208.6953001459151 0 208.6953001459151 128.45384412772682 0 0 0 0 356.91331619613629 286.93947721371342 0 286.93947721371342 161.9913623207791 0 0 0 0 437.06014019103168 242.19978540040245 0 242.19978540040245 105.17986604531052 0 0 0 0 416.82007019574303 198.48967738550203 0 198.48967738550203 76.584693271927563 0 0 0 0 345.68187358308933 250.28548780982601 0 250.28548780982601 103.84380244890428 0 0 0 0 317.10364289149584 184.56421770272948 0 184.56421770272948 77.138424862641898 0 0 0 0 265.0132201959932 209.55957706677157 0 209.55957706677157 140.28638296618908 0 0 0 0 253.04791156048304 139.32172243991545 0 139.32172243991545 91.866060475966378 0 0 0 0 220.21536885353271 134.60178868826995 0 134.60178868826995 53.857651576285733 0 0 0 0 97.309480967167474 60.60533626762026 0 60.60533626762026 63.383245411325561 0 0 0 0 -3.2516224227510975 -4.7957344986067483 0 -4.7957344986067483 38.766458951561617 0 0 0 0 155.25803530139092 61.251611590008338 0 61.251611590008338 4.7446710294859713 0 0 0 0 117.78488929786545 80.695839851289122 0 80.695839851289122 72.119723854062386 0 0 0 0 271.61503875777998 128.17241905395019 0 128.17241905395019 48.635151494080219 0 0 0 0 206.95645439010696 136.94302592355103 0 136.94302592355103 103.12577261337992 0 0 0 0 248.02546918295047 175.0118741363174 0 175.0118741363174 100.49574634352098 0 0 0 0 153.44983841318754 83.844722599650709 0 83.844722599650709 64.79771342736052 0 0 0 0 408.6273605521128 194.71589383250537 0 194.71589383250537 78.975932471813536 0 0 0 0 335.58135235769441 114.84015058646406 0 114.84015058646406 23.215240325278728 0 0 0 0 291.92524113642867 198.04539857623524 0 198.04539857623524 114.9708695979167 0 0 0 0 344.71350580427679 202.23946427626913 0 202.23946427626913 101.20789801884393 0 0 0 0 401.57580390952353 197.63656286092629 0 197.63656286092629 85.019239885957177 0 0 0 0 402.84207771404181 198.61085023498538 0 198.61085023498538 78.358760085267477 0 0 0 0 458.80810611808556 204.78316284848449 0 204.78316284848449 66.014558596673851 0 0 0 0 451.23627795695211 193.75001913323763 0 193.75001913323763 71.216922621387994 0 0 0 0 400.21093945937173 238.59880265493587 0 238.59880265493587 88.17334461907285 0 0 0 0 345.49939850617375 200.98003832090797 0 200.98003832090797 70.748168736819935 0 0 0 0 97.94448532127717 63.910479684521533 0 63.910479684521533 75.76339460460531 0 0 0 0 100.19982070013066 104.98705202056635 0 104.98705202056635 74.484812531687567 0 0 0 0 79.791969613783294 103.80292972652114 0 103.80292972652114 144.76469441265726 0 0 0 0 23.784235019730886 -12.830491358626077 0 -12.830491358626077 8.2178112341414042 0 0 0 0 56.385208761494141 42.386137526461425 0 42.386137526461425 -0.63231537271337857 0 0 0 0 119.50001687121403 116.03815118175453 0 116.03815118175453 11.164019684416417 0 0 0 0 170.34632461032015 170.59529214156498 0 170.59529214156498 20.606193835702925 0 0 0 0 151.44908256275812 128.18766331498591 0 128.18766331498591 -69.463703938952676 0 0 0 0 189.31936368433526 149.07408927644201 0 149.07408927644201 -59.627392033143224 0 0 0 0 176.92854147518665 110.01357582978909 0 110.01357582978909 -107.17756640988273 0 0 0 0 154.65160453128919 118.51443980072827 0 118.51443980072827 -42.168671468573848 0 0 0 0 80.851505034788715 -31.256400517556756 0 -31.256400517556756 -122.90419197059418 0 0 0 0 24.105577565675389 -13.831495224980941 0 -13.831495224980941 7.7090996381290582 0 0 0 0 135.87808270608366 24.283802061202096 0 24.283802061202096 -143.26822540320654 0 0 0 0 160.68282899538463 58.953627636220801 0 58.953627636220801 -126.065052744676 0 0 0 0 117.87361951582716 82.764610955534181 0 82.764610955534181 -73.518310523604214 0 0 0 0 -5.6047868877358269 -9.9810626509677149 0 -9.9810626509677149 18.903839496303817 0 0 0 0 -20.067567943959148 -45.773457409762159 0 -45.773457409762159 -10.193064323637941 0 0 0 0 21.477452108709258 -77.094125377085334 0 -77.094125377085334 -22.011955062533048 0 0 0 0 6.69579693056221 14.907188285752284 0 14.907188285752284 5.3040550079933837 0 0 0 0 50.16693980639684 -60.931174242570023 0 -60.931174242570023 -57.834480877813576 0 0 0 0 23.01267545782531 -13.866134941376345 0 -13.866134941376345 7.7238624784716183 0 0 0 0 51.292686082088039 -16.872712123731844 0 -16.872712123731844 26.828524272296193 0 0 0 0 200.87498668387707 34.670373305032683 0 34.670373305032683 19.923060000679818 0 0 0 0 12.508330024313182 14.462888294959967 0 14.462888294959967 74.100269006262806 0 0 0 0 42.799304085179756 -47.303503745987399 0 -47.303503745987399 69.391585271947292 0 0 0 0 19.505762655026047 -10.458278170835513 0 -10.458278170835513 15.738932484697557 0 0 0 0 -7.4752881830499973 -22.693606784960878 0 -22.693606784960878 40.039959145333 0 0 0 0 3.1762345056631602 6.0377372236085307 0 6.0377372236085307 44.387379049659785 0 0 0 0 12.211415279431094 9.4140214007233567 0 9.4140214007233567 24.865789895768955 0 0 0 0 6.1785696326405741 -6.4653373248568187 0 -6.4653373248568187 9.0933572403104392 0 0 0 0 -2.2543756923259934 -4.9856771315380115 0 -4.9856771315380115 22.01579704258279 0 0 0 0 -6.0389136002777377 -24.862008366036207 0 -24.862008366036207 16.205995278573937 0 0 0 0 9.3054143111909866 -8.845867218361974 0 -8.845867218361974 10.72774304840366 0 0 0 0 -3.7247783474012977 -17.177800398784655 0 -17.177800398784655 19.08839134588618 0 0 0 0 8.0244338484651507 -5.1145854040179302 0 -5.1145854040179302 3.9011254564599596 0 0 0 0 6.1400654823301011 -14.760633489704908 0 -14.760633489704908 28.199467911883367 0 0 0 0 7.0596739234460983 -5.1888123883299215 0 -5.1888123883299215 17.945048798600283 0 0 0 0 8.5522352223633789 4.5978577051594414 0 4.5978577051594414 23.793792774869964 0 0 0 0 10.652455903080408 5.8594488304099315 0 5.8594488304099315 20.306221849520909 0 0 0 0 8.3376606136283726 0.68116811240245245 0 0.68116811240245245 -0.22872129400766616 0 0 0 0 53.716789563266502 9.9523987633474444 0 9.9523987633474444 55.026342929459005 0 0 0 0 47.185310803062748 29.805432169214853 0 29.805432169214853 18.621550821712212 0 0 0 0 407.74171997631493 130.68450680432858 0 130.68450680432858 23.038220797962296 0 0 0 0 161.74688673135825 212.36254035437929 0 212.36254035437929 211.43243287512979 0 0 0 0 246.11357016719558 -79.02688438648066 0 -79.02688438648066 20.965442215813709 0 0 0 0 3.3487079600647007 0.070561952539494932 0 0.070561952539494932 0.21742748614438842 0 0 0 0 254.60383027227726 130.83322319333701 0 130.83322319333701 39.660468582709598 0 0 0 0 210.05437477280429 62.961491746899291 0 62.961491746899291 0.041143105525376283 0 0 0 0 104.99960034348624 97.911013799011272 0 97.911013799011272 81.957214780936511 0 0 0 0 57.429009148923797 14.090983124072048 0 14.090983124072048 0.068180979464731908 0 0 0 0 70.273446050036 25.80938212822949 0 25.80938212822949 10.514922363041205 0 0 0 0 47.362446478276979 31.396979065396579 0 31.396979065396579 34.313188362013605 0 0 0 0 375.94006540981354 131.67401600234899 0 131.67401600234899 43.223320301041952 0 0 0 0 373.35847999787075 128.2924142949735 0 128.2924142949735 44.658400596005727 0 0 0 0 401.36049435241148 112.70418395317037 0 112.70418395317037 -13.026660330981713 0 0 0 0 452.01266943589144 160.15430222582609 0 160.15430222582609 48.042131537026307 0 0 0 0 405.20173847956175 163.20700226120067 0 163.20700226120067 53.737766245537415 0 0 0 0 394.43885626156407 145.07051608675027 0 145.07051608675027 44.164726868364141 0 0 0 0 361.35726953654375 181.11772654756584 0 181.11772654756584 78.26487623924595 0 0 0 0 351.96132838760241 173.40298285466054 0 173.40298285466054 112.07854180721517 0 0 0 0 392.10845074863755 57.875194203039634 0 57.875194203039634 74.673098692223363 0 0 0 0 340.48773664685723 180.88710693010296 0 180.88710693010296 117.34185851588916 0 0 0 0 304.28865236854472 182.27810617180131 0 182.27810617180131 197.72183377414052 0 0 0 0 344.31470747801359 116.18871326494047 0 116.18871326494047 83.276750949385317 0 0 0 0 348.32167447224492 94.397106421893625 0 94.397106421893625 186.59860361413911 0 0 0 0 399.63016546124709 97.030660050662121 0 97.030660050662121 8.8878510605830741 0 0 0 0 368.48290696241747 88.847058698700408 0 88.847058698700408 -0.019980444933202071 0 0 0 0 378.82475501802401 99.112744684925175 0 99.112744684925175 9.2429352759227896 0 0 0 0 379.91633968541282 97.700865152855087 0 97.700865152855087 16.087797826300061 0 0 0 0 392.27634647609375 96.964936860209534 0 96.964936860209534 -0.0080473946728335244 0 0 0 0 381.58827597653726 88.106647837351503 0 88.106647837351503 27.452370833294822 0 0 0 0 383.57432268356024 87.88703131750691 0 87.88703131750691 -22.396616958852292 0 0 0 0 338.3724792443245 94.083426942172196 0 94.083426942172196 0.001085427141955142 0 0 0 0 286.5572250744226 38.786720132478258 0 38.786720132478258 -26.666647605494404 0 0 0 0 242.08034383507766 80.532472850587638 0 80.532472850587638 -0.083235105521852287 0 0 0 0 290.48962020788167 36.882507194124727 0 36.882507194124727 -18.142571200869043 0 0 0 0 291.48559608896903 37.009736418927815 0 37.009736418927815 -34.098570510739563 0 0 0 0 345.29596064442012 99.832870321301542 0 99.832870321301542 4.1461405874235595 0 0 0 0 361.57190049381461 86.831219041828689 0 86.831219041828689 -34.38821920337179 0 0 0 0 20.157430360937724 -15.20121984983251 0 -15.20121984983251 -0.15376278621798056 0 0 0 0 7.273399538033118 52.751880335738079 0 52.751880335738079 -38.385095115604059 0 0 0 0 1.9494798294794293 0.77070410145390156 0 0.77070410145390156 -0.087782734975431737 0 0 0 0 15.277555537883018 -3.3796055595417283 0 -3.3796055595417283 -15.602977441150143 0 0 0 0 -0.020953190435371027 -0.093056331970558404 0 -0.093056331970558404 -0.46183551050402283 0 0 0 0 87.998635470372392 17.790712948822033 0 17.790712948822033 10.703694497352757 0 0 0 0 -32.521080912469188 -9.6145453827736738 0 -9.6145453827736738 1.0524211334486999 0 0 0 0 415.30640962766483 -276.77463038465692 0 -276.77463038465692 160.06395577892903 0 0 0 0 346.94101824541576 -194.96172057114427 0 -194.96172057114427 156.17941470988455 0 0 0 0 279.03313759394223 -107.03826307858759 0 -107.03826307858759 35.623255726562491 0 0 0 0 278.4964084740468 -116.04358583672948 0 -116.04358583672948 65.320916950676548 0 0 0 0 334.80735690626898 -105.91724251877235 0 -105.91724251877235 -3.0045657905090764 0 0 0 0 164.57974404889137 19.860123123357461 0 19.860123123357461 26.493225119254589 0 0 0 0 15.439779182765051 11.877764430675121 0 11.877764430675121 -3.7701481275076425 0 0 0 0 1.3092991653607697 -0.2258682555059579 0 -0.2258682555059579 -1.7356756513228382 0 0 0 0 4.0426425867603086 3.0568599273146617 0 3.0568599273146617 -0.15028191401584767 0 0 0 0 220.0612415484502 -57.51200093655973 0 -57.51200093655973 17.933441388278197 0 0 0 0 2.3041418404550029 2.1511966632968722 0 2.1511966632968722 -2.2099549760477029 0 0 0 0 254.48938963012188 -94.595561560969202 0 -94.595561560969202 35.061580735593509 0 0 0 0 294.31428060660255 -83.888634856542751 0 -83.888634856542751 -9.4079885387641298 0 0 0 0 294.36785741326094 -83.747433412585352 0 -83.747433412585352 -15.130052121493236 0 0 0 0 303.29550462626503 -97.36730203452538 0 -97.36730203452538 1.9227356246086345 0 0 0 0 415.02368363981077 144.89465153206612 0 144.89465153206612 22.831870865099063 0 0 0 0 412.37462691061955 83.161546092384185 0 83.161546092384185 -27.789113193841686 0 0 0 0 325.15787564062339 -73.042305583429766 0 -73.042305583429766 -15.352643381289909 0 0 0 0 576.3491674948018 -33.497616476987105 0 -33.497616476987105 -9.2196148287451933 0 0 0 0 1.2866402466567592 1.3426271211157541 0 1.3426271211157541 0.17452191664811689 0 0 0 0 392.21252084758453 85.437951301772216 0 85.437951301772216 18.515749999211607 0 0 0 0 499.50575222040061 104.56460155531022 0 104.56460155531022 21.919322659596162 0 0 0 0 449.83436666343187 162.6020967740846 0 162.6020967740846 65.147776478798505 0 0 0 0 515.96139088991913 145.74865082211716 0 145.74865082211716 56.340785261024621 0 0 0 0 553.90735358491656 220.19591261975529 0 220.19591261975529 52.825037988532586 0 0 0 0 565.83219402900431 162.48949769023784 0 162.48949769023784 37.153902082520503 0 0 0 0 560.07858425738232 168.40809658469664 0 168.40809658469664 36.389762282293304 0 0 0 0 613.17987213790184 209.95182625562433 0 209.95182625562433 66.463115752917474 0 0 0 0 631.32733893438854 56.275288263891355 0 56.275288263891355 -4.9306221575272957 0 0 0 0 677.07937679572206 129.05467152504377 0 129.05467152504377 -5.4583452509050403 0 0 0 0 571.14232354357955 108.19911998671296 0 108.19911998671296 -12.327009655138454 0 0 0 0 493.37554945930606 115.76932226450475 0 115.76932226450475 84.413081799813881 0 0 0 0 623.75242351995257 66.627444205103188 0 66.627444205103188 -98.11263858926668 0 0 0 0 614.6374810404086 41.269620080188702 0 41.269620080188702 43.529309107829931 0 0 0 0 574.44208710710518 93.840626526998079 0 93.840626526998079 -16.764721539453149 0 0 0 0 40.282504726899788 63.502079049160102 0 63.502079049160102 87.662795484642629 0 0 0 0 277.21771216460183 -44.880849123651529 0 -44.880849123651529 -9.3198573201168529 0 0 0 0 291.43964739425428 -76.689140104196042 0 -76.689140104196042 -12.692231784619025 0 0 0 0 313.61919111793395 -40.862519466092408 0 -40.862519466092408 -12.377431526990108 0 0 0 0 301.29021041643864 -83.05909958852493 0 -83.05909958852493 -15.566504836909758 0 0 0 0 296.56925192923518 -76.407713719748642 0 -76.407713719748642 -24.67884022559997 0 0 0 0 323.86923697916791 -71.694769498004234 0 -71.694769498004234 -24.078730721188748 0 0 0 0 303.29061291065591 -88.007937410762395 0 -88.007937410762395 -25.561433185441274 0 0 0 0 330.67046966842463 -89.346908082046127 0 -89.346908082046127 -25.52660968108853 0 0 0 0 331.93509348874795 -86.987341254713442 0 -86.987341254713442 -38.045040362929285 0 0 0 0 292.45491414095159 -24.98708033192446 0 -24.98708033192446 -15.874136447744831 0 0 0 0 1.2324694378642533 2.1606091595507735 0 2.1606091595507735 -0.86754433947254217 0 0 0 0 368.2900721670303 -56.055509194856313 0 -56.055509194856313 -34.494704167196659 0 0 0 0 306.49640141897544 -54.333183940777303 0 -54.333183940777303 -34.517540400832786 0 0 0 0 326.17272453975602 -15.339943626664706 0 -15.339943626664706 -29.709822555062601 0 0 0 0 226.90874800157326 31.176562809317261 0 31.176562809317261 -6.5907972228147855 0 0 0 0 444.89093577814856 91.847621118264868 0 91.847621118264868 -39.164462405119821 0 0 0 0 400.28061045909999 -2.5877225571305189 0 -2.5877225571305189 -27.688020615451194 0 0 0 0 351.5149343280209 -113.93387124900664 0 -113.93387124900664 -55.875553908744905 0 0 0 0 353.28418238168524 -123.67975011813269 0 -123.67975011813269 -14.074421296823857 0 0 0 0 399.12051365725347 -86.897270399276294 0 -86.897270399276294 -41.807338247829875 0 0 0 0 545.85267745589954 -171.17349797712973 0 -171.17349797712973 -39.039954544117563 0 0 0 0 319.36891662275411 -181.63534415795087 0 -181.63534415795087 17.210067875829282 0 0 0 0 675.09724468529748 -280.07237830908434 0 -280.07237830908434 44.436372294163903 0 0 0 0 294.38065326409742 -290.95906313973637 0 -290.95906313973637 216.55320936264479 0 0 0 0 815.66043537274527 37.222947626413429 0 37.222947626413429 40.584629575193162 0 0 0 0 805.59021057433347 99.703210532726814 0 99.703210532726814 -40.084824471575985 0 0 0 0 929.53958943792895 289.75308998724944 0 289.75308998724944 32.318420553408259 0 0 0 0 673.78589722262404 154.75264676306483 0 154.75264676306483 49.208451983457735 0 0 0 0 601.27794821529824 272.16311239093261 0 272.16311239093261 73.937260732598247 0 0 0 0 1.1274064892384814 1.0828547851512837 0 1.0828547851512837 -0.38716679389968522 0 0 0 0 773.7728254153044 268.12539345106427 0 268.12539345106427 29.367765966532659 0 0 0 0 1072.6069422024957 60.840306275013546 0 60.840306275013546 -34.836299081399375 0 0 0 0 14.534927784203319 12.200602910326836 0 12.200602910326836 -10.363901099222744 0 0 0 0 16.65587011660682 8.3020930156791621 0 8.3020930156791621 -7.8326441744490012 0 0 0 0 13.876146978873294 6.8830146123357281 0 6.8830146123357281 -6.7619973433966427 0 0 0 0 11.835653026006185 6.8496520104977208 0 6.8496520104977208 -6.7622590769572959 0 0 0 0 12.184908460461884 5.9941711437654845 0 5.9941711437654845 -5.057083053662609 0 0 0 0 10.421877678997589 7.2445922933950353 0 7.2445922933950353 -4.0580823543575661 0 0 0 0 14.184354178723879 3.385331856202356 0 3.385331856202356 -0.88053723000382433 0 0 0 0 13.940987558104098 6.5711957287635698 0 6.5711957287635698 -5.3725630032931804 0 0 0 0 14.512724270753097 5.9398224207733961 0 5.9398224207733961 -5.6127147396210262 0 0 0 0 24.416978629422374 -10.149176295676888 0 -10.149176295676888 1.1350884478047121 0 0 0 0 12.689902225218248 1.9998893698186748 0 1.9998893698186748 4.1517754794331267 0 0 0 0 19.585109385690885 0.98376205766334124 0 0.98376205766334124 -0.96311351716667559 0 0 0 0 10.454820238798675 4.7126547467623388 0 4.7126547467623388 0.73904432711674417 0 0 0 0 10.182734498288482 4.7540488199804258 0 4.7540488199804258 1.9576712889910368 0 0 0 0 26.145628870173823 -2.2844177062339561 0 -2.2844177062339561 -12.232327957772346 0 0 0 0 23.088512644724688 6.6056498957692611 0 6.6056498957692611 -7.6894703681258676 0 0 0 0 22.502468228252837 9.5366728362615589 0 9.5366728362615589 -17.060080011465402 0 0 0 0 19.092377346736612 -9.1006837361396329 0 -9.1006837361396329 -28.057078631876067 0 0 0 0 29.186741206183797 12.468603061904105 0 12.468603061904105 -34.860272872816566 0 0 0 0 37.154993985168403 24.468559358260904 0 24.468559358260904 -21.672142996562172 0 0 0 0 17.585175826738123 17.961503163520092 0 17.961503163520092 -13.45097957790648 0 0 0 0 26.12319455089164 14.00789433593016 0 14.00789433593016 -12.077146758309482 0 0 0 0 20.374412718447275 22.420370948460857 0 22.420370948460857 -8.3112657938590928 0 0 0 0 17.31541129888501 24.062426543515926 0 24.062426543515926 -7.7186750692961539 0 0 0 0 11.686797840608051 21.99361908874414 0 21.99361908874414 3.8238648832644913 0 0 0 0 1.8175194841517168 -0.78157295505252478 0 -0.78157295505252478 -0.098536675092071868 0 0 0 0 2.7091419277567184 10.0292448527901 0 10.0292448527901 43.39701649421545 0 0 0 0 12.178205236981739 36.753754261919397 0 36.753754261919397 31.547709075567013 0 0 0 0 11.080324784736149 -2.4019454230813722 0 -2.4019454230813722 -1.0928708752007879 0 0 0 0 3.7204890105494997 7.8800405866116989 0 7.8800405866116989 -11.217225876831435 0 0 0 0 1.7173310665393728 0.29461347310760289 0 0.29461347310760289 -0.22356206743175311 0 0 0 0 9.1144920191145502 6.8070288765806026 0 6.8070288765806026 -10.072455389595461 0 0 0 0 4.1652101645013317 14.130429882720421 0 14.130429882720421 -4.2136173200195799 0 0 0 0 17.830267587924027 16.150947560976675 0 16.150947560976675 -6.6478936502130637 0 0 0 0 11.503406486066524 7.2328077953304728 0 7.2328077953304728 -8.7504083292043333 0 0 0 0 10.875613298427197 5.5057241901468501 0 5.5057241901468501 -9.167025270630802 0 0 0 0 12.833524618239608 9.4843436044579903 0 9.4843436044579903 -7.6225013005882829 0 0 0 0 13.535415363381617 6.7551706474026787 0 6.7551706474026787 -8.654039674614296 0 0 0 0 10.697204009746201 8.7157427954459763 0 8.7157427954459763 -7.7707869741766729 0 0 0 0 11.519244367314968 6.3925239548837993 0 6.3925239548837993 -10.130607096325548 0 0 0 0 9.280780331697315 7.2190793637557817 0 7.2190793637557817 -10.20456668116249 0 0 0 0 10.844223649968626 7.7204692483402368 0 7.7204692483402368 -11.585703692529705 0 0 0 0 55.826109957932204 -27.649622702543532 0 -27.649622702543532 8.2339152034653864 0 0 0 0 12.402916806866415 4.0767645025134698 0 4.0767645025134698 -11.17849052816166 0 0 0 0 26.980507936532376 3.488330272785106 0 3.488330272785106 -12.668535946974316 0 0 0 0 10.367616435418313 4.6541357970070294 0 4.6541357970070294 -11.342170733777721 0 0 0 0 14.097774263267638 4.9420063010738886 0 4.9420063010738886 -12.816308771535887 0 0 0 0 12.100993823201861 5.954862586444051 0 5.954862586444051 -13.047345209953761 0 0 0 0 173.22499057353707 -139.41784946890493 0 -139.41784946890493 41.683462631726798 0 0 0 0 10.960963584773708 6.9818264746731984 0 6.9818264746731984 -11.240689746565522 0 0 0 0 10.404403920110781 6.4211570301862366 0 6.4211570301862366 -7.8633248009434737 0 0 0 0 10.948554648668505 6.5518314753236382 0 6.5518314753236382 -9.2824436982584757 0 0 0 0 11.362547940632794 5.8720971342737585 0 5.8720971342737585 -10.993414320204238 0 0 0 0 11.894140189338941 5.4997369154759781 0 5.4997369154759781 -10.949548192929342 0 0 0 0 6.8374578732592965 1.2708858226148152 0 1.2708858226148152 -5.5903036123291407 0 0 0 0 116.69521065270237 -139.67501485627758 0 -139.67501485627758 147.59090722045175 0 0 0 0 106.99258868726611 -43.867320995272621 0 -43.867320995272621 71.685673742916151 0 0 0 0 260.25669223747536 -119.24936890387349 0 -119.24936890387349 62.017702601330711 0 0 0 0 224.74250530608697 -134.18736407729057 0 -134.18736407729057 27.421662815117088 0 0 0 0 201.60860638780287 -141.29460111644266 0 -141.29460111644266 35.463771045724798 0 0 0 0 315.07987929900628 -198.95816012296461 0 -198.95816012296461 75.243958455936536 0 0 0 0 225.28379499603761 -131.77611044791843 0 -131.77611044791843 37.649162933845673 0 0 0 0 268.14067190329661 -161.67029384358557 0 -161.67029384358557 41.785860042606629 0 0 0 0 207.07650806783931 -122.86795393023613 0 -122.86795393023613 38.188848807921204 0 0 0 0 191.40745419514133 -127.27289008081561 0 -127.27289008081561 45.116570546752428 0 0 0 0 225.96682853111997 -128.71297361638426 0 -128.71297361638426 35.81283650542764 0 0 0 0 238.39891353363055 -122.4039990126721 0 -122.4039990126721 24.796116868526724 0 0 0 0 235.42932352065691 -106.16526883157235 0 -106.16526883157235 19.718544663261127 0 0 0 0 233.34918606238352 -117.71906296886129 0 -117.71906296886129 21.348852910470669 0 0 0 0 203.63442009376013 -109.73137485260918 0 -109.73137485260918 30.094796121669788 0 0 0 0 158.25046421583102 -91.203327086199295 0 -91.203327086199295 48.883286561735531 0 0 0 0 59.703111983952112 -22.2567915559992 0 -22.2567915559992 15.670721774612502 0 0 0 0 0.093318228797329539 0.30452764103171148 0 0.30452764103171148 -0.25938590229047209 0 0 0 0 9.7136756503605284 7.2069100389007872 0 7.2069100389007872 -7.1709890171497364 0 0 0 0 4.0956354993838886 2.701783833853284 0 2.701783833853284 -4.5533201561913428 0 0 0 0 9.4349450112786144 7.0915466860128049 0 7.0915466860128049 -3.2172591031567777 0 0 0 0 12.068580835075409 6.529797196449195 0 6.529797196449195 -7.136703917486102 0 0 0 0 11.881794292507038 5.8020798371521263 0 5.8020798371521263 -7.6240388385390361 0 0 0 0 148.34254816678003 -120.02830048712622 0 -120.02830048712622 54.517614206330109 0 0 0 0 186.91773933891091 -109.64289286524064 0 -109.64289286524064 44.433785123766029 0 0 0 0 193.93238973373082 -113.62308909164904 0 -113.62308909164904 45.52880484734419 0 0 0 0 178.9784408819105 -101.86321057377518 0 -101.86321057377518 40.392906841741933 0 0 0 0 180.45058524227352 -87.696072104917164 0 -87.696072104917164 34.305341846846204 0 0 0 0 207.18462312815245 -110.47467592776457 0 -110.47467592776457 30.249922426628245 0 0 0 0 205.19923842934077 -98.584499916733989 0 -98.584499916733989 30.004624776957826 0 0 0 0 199.27845584333409 -98.098126687572403 0 -98.098126687572403 30.845464686452033 0 0 0 0 197.21839294180973 -91.864295334146391 0 -91.864295334146391 29.89667031504905 0 0 0 0 189.06842571153538 -93.121131662092921 0 -93.121131662092921 36.474940348012751 0 0 0 0 183.64128171282937 -84.617261570834216 0 -84.617261570834216 31.663354725365934 0 0 0 0 189.76796229443426 -87.182002066760361 0 -87.182002066760361 27.850830695450895 0 0 0 0 180.99195072763541 -86.17384225626688 0 -86.17384225626688 31.075426254320519 0 0 0 0 192.1438268845086 -90.935393671209567 0 -90.935393671209567 29.323016259456267 0 0 0 0 205.15307262644637 -87.568920702328796 0 -87.568920702328796 19.577832922316702 0 0 0 0 192.3184146929998 -91.537459876751655 0 -91.537459876751655 30.593991374519192 0 0 0 0 220.23418271215633 -96.33874760113099 0 -96.33874760113099 21.789374018725084 0 0 0 0 225.67136573704192 -90.671236026337056 0 -90.671236026337056 19.400731724056129 0 0 0 0 196.58912919042632 -72.763812476239195 0 -72.763812476239195 13.367335685058151 0 0 0 0 287.00821947510121 -110.47327023843104 0 -110.47327023843104 -1.8814728474744697 0 0 0 0 286.64324406342348 -107.46800981316755 0 -107.46800981316755 -17.961012227898436 0 0 0 0 220.0221149936242 -98.702505940203764 0 -98.702505940203764 20.228047181247348 0 0 0 0 226.04894534029972 -100.87897845303925 0 -100.87897845303925 20.106320061692713 0 0 0 0 256.09352391329594 -91.457053154170126 0 -91.457053154170126 -2.8593553911699345 0 0 0 0 255.73480390443001 -94.706263995469271 0 -94.706263995469271 -2.7306483658628622 0 0 0 0 285.72777708220383 -86.314356065223649 0 -86.314356065223649 -16.703561321816323 0 0 0 0 286.87090741106658 -81.21517205272886 0 -81.21517205272886 -20.377766835303873 0 0 0 0 259.66393557630363 -74.619542856889552 0 -74.619542856889552 -14.005178898997656 0 0 0 0 263.28081459581153 -76.784342843906416 0 -76.784342843906416 -13.870942983086969 0 0 0 0 283.27485876555875 -70.014121205235256 0 -70.014121205235256 -20.394393606772951 0 0 0 0 299.64246992915287 -86.374877067441162 0 -86.374877067441162 -22.140313129416171 0 0 0 0 232.59606310108211 -78.735102337839976 0 -78.735102337839976 0.17517006922093969 0 0 0 0 208.12163944769418 -65.77887343501834 0 -65.77887343501834 2.1848616175377629 0 0 0 0 232.8343078190519 -76.412605022549542 0 -76.412605022549542 4.1532583566684025 0 0 0 0 254.27262160592363 -60.743061720183732 0 -60.743061720183732 -14.133161226532025 0 0 0 0 228.62429443057044 -56.060409295263867 0 -56.060409295263867 -10.49571820741005 0 0 0 0 228.7427376890264 -54.851774712882275 0 -54.851774712882275 -10.775091132242551 0 0 0 0 194.92349026238662 -45.203168506242264 0 -45.203168506242264 -1.2182293401745028 0 0 0 0 135.65107676274783 -28.24359390413116 0 -28.24359390413116 6.0322635696425095 0 0 0 0 135.98260558240872 -38.355354226248721 0 -38.355354226248721 16.263000310219013 0 0 0 0 5.2836150630631664 4.2840489704965137 0 4.2840489704965137 -3.0700615019561313 0 0 0 0 76.799689689069055 -17.344534734096896 0 -17.344534734096896 14.790710127270813 0 0 0 0 2.8500356248046614 -1.0091218972122817 0 -1.0091218972122817 -0.38723384288338103 0 0 0 0 176.87294506940816 -73.122744490802404 0 -73.122744490802404 14.759376651534922 0 0 0 0 76.45710479018453 -34.768700669981769 0 -34.768700669981769 8.3789786157285846 0 0 0 0 2.6786465454203778 -0.4614362420589373 0 -0.4614362420589373 0.062102601706097285 0 0 0 0 4.7886308489904366 3.3003690539536024 0 3.3003690539536024 -4.1975996502564286 0 0 0 0 177.298190860658 -61.779889694637831 0 -61.779889694637831 20.122018982311147 0 0 0 0 34.849257946349098 -11.240402905881171 0 -11.240402905881171 -5.9699792348927829 0 0 0 0 31.659553202604002 -2.0222334993410209 0 -2.0222334993410209 -7.0196321254708849 0 0 0 0 16.270404969913216 -4.0478810014433542 0 -4.0478810014433542 -6.0401778767943313 0 0 0 0 4.939062663448567 -3.710777456478386 0 -3.710777456478386 -4.8713931082833568 0 0 0 0 21.207082333159633 -2.2749919884947722 0 -2.2749919884947722 -6.1548803740788998 0 0 0 0 15.224294108207687 -5.1961223446455449 0 -5.1961223446455449 6.4626227373242386 0 0 0 0 28.56384756694024 -13.126795738480013 0 -13.126795738480013 1.0939993645471731 0 0 0 0 64.012307788801991 5.2775102736652961 0 5.2775102736652961 22.236108599860984 0 0 0 0 19.919131297909189 -9.2180977686585379 0 -9.2180977686585379 4.5823961467016829 0 0 0 0 0.13928703099969653 0.14903754191686858 0 0.14903754191686858 -0.30735026290699707 0 0 0 0 37.416625537502114 -40.521949127626044 0 -40.521949127626044 2.2208091435843187 0 0 0 0 18.438537063630065 1.2532462740583554 0 1.2532462740583554 1.2536372825682633 0 0 0 0 135.29310156425345 -53.273141150343122 0 -53.273141150343122 -15.596078208692404 0 0 0 0 189.57343001371191 -29.882542245341426 0 -29.882542245341426 -7.5668803447681512 0 0 0 0 176.19342771594529 -49.942166176606861 0 -49.942166176606861 -4.4596443903803902 0 0 0 0 146.40024925963371 -26.54385813981321 0 -26.54385813981321 1.1097409527826585 0 0 0 0 179.48333945526974 -43.75377724740207 0 -43.75377724740207 -1.1108450060078212 0 0 0 0 176.5779048438053 -32.094971330845638 0 -32.094971330845638 -11.966878132514921 0 0 0 0 130.98783272865694 -31.266332463580454 0 -31.266332463580454 5.4097049685194634 0 0 0 0 70.484898403519765 -40.128505076932811 0 -40.128505076932811 19.598074645012389 0 0 0 0 131.32905537477927 -14.052883875500982 0 -14.052883875500982 5.1770074074601098 0 0 0 0 116.06175958531094 -22.718006324631034 0 -22.718006324631034 9.2334165717054333 0 0 0 0 171.88145050600724 -13.793301602336879 0 -13.793301602336879 -8.648374850475534 0 0 0 0 128.0609502295265 -12.287786171151055 0 -12.287786171151055 5.8278604125749212 0 0 0 0 187.58018630940933 -19.940415621460716 0 -19.940415621460716 -1.5170013854448143 0 0 0 0 173.43480453075608 -32.525760083395767 0 -32.525760083395767 0.0056996172404524259 0 0 0 0 168.72052358215296 -32.238759127503485 0 -32.238759127503485 7.6131410584249579 0 0 0 0 168.38812673659413 -19.641674188099273 0 -19.641674188099273 17.497884216155114 0 0 0 0 221.06892931796028 -24.914809713845045 0 -24.914809713845045 -1.1105193665033539 0 0 0 0 121.17929832176014 -11.261398385856069 0 -11.261398385856069 22.751239190360707 0 0 0 0 158.49530095263617 -34.959468599657967 0 -34.959468599657967 3.5441789471484384 0 0 0 0 5.9613107926500675 3.9681861121896986 0 3.9681861121896986 -2.6216280657647051 0 0 0 0 120.57186803303193 -16.218979744520247 0 -16.218979744520247 -12.180824690860362 0 0 0 0 80.189533631666563 -28.207266233452614 0 -28.207266233452614 1.8964154287001591 0 0 0 0 64.734465425863164 12.626254000017894 0 12.626254000017894 1.4602403637582029 0 0 0 0 72.67860671429662 2.0242745502528692 0 2.0242745502528692 -19.022845213798604 0 0 0 0 109.60460842227985 10.252142246426924 0 10.252142246426924 -7.0952122136272351 0 0 0 0 309.63040182770419 -71.256919059418976 0 -71.256919059418976 -17.366703392124919 0 0 0 0 291.95435045351041 -79.452080577016204 0 -79.452080577016204 -18.428179991630046 0 0 0 0 276.93725416026427 -67.107882085088136 0 -67.107882085088136 -10.640158312303981 0 0 0 0 261.41215346078388 -38.557168230258412 0 -38.557168230258412 -13.063262693663432 0 0 0 0 259.30111579870572 -61.406661738853415 0 -61.406661738853415 -15.594900230515805 0 0 0 0 271.14730710937874 -51.838193056384284 0 -51.838193056384284 -16.162513893352184 0 0 0 0 232.0086869992665 -38.454854727224131 0 -38.454854727224131 -14.547115511729771 0 0 0 0 204.19101749052061 -52.407228473555563 0 -52.407228473555563 -3.5295801413875552 0 0 0 0 219.54634094476933 -28.539951507536273 0 -28.539951507536273 -9.2100392341137649 0 0 0 0 239.13725333646289 -52.567239773330357 0 -52.567239773330357 -11.728562314273063 0 0 0 0 209.47015232336707 -44.838527934192655 0 -44.838527934192655 -1.4316368431882154 0 0 0 0 250.2624839526834 -23.958591965630688 0 -23.958591965630688 -3.850762503622434 0 0 0 0 288.43031718744896 -31.276125176342667 0 -31.276125176342667 -1.1539916685161131 0 0 0 0 217.49437728502744 -39.43719844939811 0 -39.43719844939811 10.202054132028763 0 0 0 0 279.50632897784817 -60.134326247240345 0 -60.134326247240345 23.224178214027958 0 0 0 0 332.90207854178152 -65.895486317589047 0 -65.895486317589047 -3.9801829743170742 0 0 0 0 278.63383204104321 -54.990116183726315 0 -54.990116183726315 3.384011653098014 0 0 0 0 278.53268842457328 -57.71298979603813 0 -57.71298979603813 -7.4314677787997425 0 0 0 0 312.78052310913336 -54.454764579319658 0 -54.454764579319658 -14.398604923939274 0 0 0 0 313.25168768467847 -89.98414643856637 0 -89.98414643856637 -4.0440732820667336 0 0 0 0 330.00697154105001 -61.652979718870263 0 -61.652979718870263 17.084341604309344 0 0 0 0 352.52837795754203 -99.384150897448365 0 -99.384150897448365 46.18917115278677 0 0 0 0 354.58157955302158 -113.28996524048452 0 -113.28996524048452 23.150437947287202 0 0 0 0 323.60451889724936 -79.171236678037559 0 -79.171236678037559 6.9054433366163153 0 0 0 0 502.31438594592328 -176.75179326181191 0 -176.75179326181191 42.573583436130548 0 0 0 0 383.51755187974777 -158.44337003053474 0 -158.44337003053474 90.554781649589103 0 0 0 0 402.69275115959317 -85.139004914455469 0 -85.139004914455469 25.018516677459715 0 0 0 0 336.65497403001064 -94.441762298695309 0 -94.441762298695309 38.408907434499383 0 0 0 0 350.9067077820655 -88.69902803912899 0 -88.69902803912899 48.989994864833136 0 0 0 0 440.49090063234325 -158.44747495664967 0 -158.44747495664967 48.726168237071931 0 0 0 0 472.93647591210902 -94.068897536312988 0 -94.068897536312988 21.088312766360346 0 0 0 0 356.46718298026099 -82.56110357918827 0 -82.56110357918827 20.62465833622484 0 0 0 0 339.77527666022797 -47.367881781828437 0 -47.367881781828437 9.8507933892767028 0 0 0 0 209.293858793244 -25.583355880304005 0 -25.583355880304005 28.151921267081846 0 0 0 0 285.62879809600418 -49.762924018725805 0 -49.762924018725805 7.9694540862456122 0 0 0 0 289.59975892904913 -37.307606216898627 0 -37.307606216898627 45.69121177161577 0 0 0 0 389.45282517149462 -39.72769065778779 0 -39.72769065778779 30.031716317920356 0 0 0 0 277.11211019629536 -75.974556016617015 0 -75.974556016617015 66.538747946411306 0 0 0 0 362.30049745275755 -67.700512069613225 0 -67.700512069613225 53.174884505076363 0 0 0 0 363.02677673395374 -67.482688491699179 0 -67.482688491699179 18.737636616697625 0 0 0 0 525.09581423155032 -150.8197788943076 0 -150.8197788943076 0.057807329502289569 0 0 0 0 586.10035663400777 -293.72292483029923 0 -293.72292483029923 58.133087907467704 0 0 0 0 540.94692302509793 -60.837475799158405 0 -60.837475799158405 11.65039480894616 0 0 0 0 248.26307847024873 66.263063174780996 0 66.263063174780996 -153.05472117302671 0 0 0 0 646.07619319594232 -162.30088841994726 0 -162.30088841994726 -10.352157360638088 0 0 0 0 11.070164097822271 1.9068461374250125 0 1.9068461374250125 -3.2266882610835212 0 0 0 0 2.3205084485441461 0.17077763429861648 0 0.17077763429861648 -0.19811288461752696 0 0 0 0 48.078265424031997 -29.98281590889486 0 -29.98281590889486 14.76126898879653 0 0 0 0 118.13138998724753 0.33648625653900588 0 0.33648625653900588 3.8419041714895599 0 0 0 0 57.161018228987814 -11.694143106705408 0 -11.694143106705408 36.355473297192702 0 0 0 0 170.55198888320592 -6.4300000502201051 0 -6.4300000502201051 4.0167121824983525 0 0 0 0 199.99429747665999 -39.667950780071074 0 -39.667950780071074 9.1005272261209846 0 0 0 0 191.25066857367347 -7.7465031272496514 0 -7.7465031272496514 20.164970777509339 0 0 0 0 152.20040991401765 -41.3250465236803 0 -41.3250465236803 21.793292619105209 0 0 0 0 172.60490196484898 -9.3866768406747934 0 -9.3866768406747934 0.035558536009415539 0 0 0 0 277.61396225900626 -70.51063777146166 0 -70.51063777146166 9.4730714398461195 0 0 0 0 81.819150191979134 -53.322163207158574 0 -53.322163207158574 22.956735068114654 0 0 0 0 69.181251105346746 -20.314644220045064 0 -20.314644220045064 -0.71055053959318659 0 0 0 0 26.829509286173561 2.5214821412788 0 2.5214821412788 0.041428002426452455 0 0 0 0 1.229039152395984 0.81053532698157937 0 0.81053532698157937 0.40569695756923524 0 0 0 0 578.94442804348364 -78.465026843060443 0 -78.465026843060443 -119.20466896489785 0 0 0 0 2.772453828839474 1.211065717759368 0 1.211065717759368 1.6837685283312189 0 0 0 0 353.38127530601923 -24.659309407926173 0 -24.659309407926173 -93.38899762855749 0 0 0 0 133.52220455145289 65.09516598087265 0 65.09516598087265 286.08763637824768 0 0 0 0 130.42089616128942 113.30732526768929 0 113.30732526768929 32.178782949117249 0 0 0 0 3.1555620767268238 0.59250082648802405 0 0.59250082648802405 0.10476594257692046 0 0 0 0 333.51322971977788 -36.595692384670485 0 -36.595692384670485 -84.519413715537723 0 0 0 0 165.25103102991125 126.85715219570807 0 126.85715219570807 127.56305154781774 0 0 0 0 323.34621981161035 134.44896213335576 0 134.44896213335576 0.17683605549544901 0 0 0 0 -38.689564473832434 -9.6286260876020151 0 -9.6286260876020151 30.405887709422188 0 0 0 0 -44.705024048540508 42.964905096684845 0 42.964905096684845 19.599429448107117 0 0 0 0 -4.2052490132045932 -0.34151195283753666 0 -0.34151195283753666 0.0055399867426525638 0 0 0 0 -53.970984240077087 36.244763846727409 0 36.244763846727409 43.737501127286237 0 0 0 0 -0.74892690965157271 0.087500037635514616 0 0.087500037635514616 -0.012803973577649355 0 0 0 0 7.6416884504973268 1.6638812003345649 0 1.6638812003345649 0.30408665763817511 0 0 0 0 16.102378157709609 0.45820787665974194 0 0.45820787665974194 -5.7269458661231738 0 0 0 0 -14.336841087191715 36.240463397387828 0 36.240463397387828 -50.935942159024336 0 0 0 0 5.7937468972472743 44.402408747120887 0 44.402408747120887 88.448758887870213 0 0 0 0 8.9980856237420994 -18.81092260397687 0 -18.81092260397687 19.110220182393505 0 0 0 0 0.66500413080211729 4.4582844622288462 0 4.4582844622288462 51.221090995701843 0 0 0 0 17.45598118234193 29.01776008131003 0 29.01776008131003 46.374407817639778 0 0 0 0 1.8534509920427809 13.64739430127392 0 13.64739430127392 31.911379686096609 0 0 0 0 -16.81247796115349 38.199001947516962 0 38.199001947516962 28.248575894973854 0 0 0 0 68.667773289882462 39.881164775116403 0 39.881164775116403 29.641431739259929 0 0 0 0 58.006879884778755 10.698446078147512 0 10.698446078147512 28.178830398619425 0 0 0 0 198.61378119290748 0.85238562498511072 0 0.85238562498511072 4.5139140202072667 0 0 0 0 210.18210110341897 13.905481835006213 0 13.905481835006213 -16.455694099251289 0 0 0 0 210.16290070078685 12.779960963785072 0 12.779960963785072 -11.944627836364873 0 0 0 0 212.20029499923112 9.7125515119339525 0 9.7125515119339525 -18.572471250272542 0 0 0 0 212.09754608621006 9.3356889832185743 0 9.3356889832185743 -15.029548922437982 0 0 0 0 135.77642815438594 -70.822192291395623 0 -70.822192291395623 4.0547593292462807 0 0 0 0 2.9741116677068788 -3.9933654147337165 0 -3.9933654147337165 3.5370221126130721 0 0 0 0 324.91960176656721 -121.98732423948854 0 -121.98732423948854 -13.413830035314277 0 0 0 0 257.29052732488708 29.752844946867299 0 29.752844946867299 -16.466278204723039 0 0 0 0 563.38414730793738 14.864531408027631 0 14.864531408027631 -31.994969963255528 0 0 0 0 215.94187305451487 75.503645549517103 0 75.503645549517103 36.795647822632077 0 0 0 0 221.52723945991602 11.46532743694496 0 11.46532743694496 -24.752362187663721 0 0 0 0 9.9654650384323418 0.52187489906052065 0 0.52187489906052065 -1.404332673617456 0 0 0 0 2.4989883253661986 0.61258832560437781 0 0.61258832560437781 -0.023140502849095468 0 0 0 0 3.5635364066902184 14.05053383349215 0 14.05053383349215 -26.219351742300617 0 0 0 0 38.787586520891637 -18.792171108009292 0 -18.792171108009292 -8.3498066290515958 0 0 0 0 199.9796557791251 47.316322856438582 0 47.316322856438582 -31.082056189948652 0 0 0 0 16.621530305274064 -12.086978443276696 0 -12.086978443276696 0.050312974847434612 0 0 0 0 13.001925786607899 -6.8475654071068632 0 -6.8475654071068632 -5.5408451397244081 0 0 0 0 12.654803862504195 5.7586503576262995 0 5.7586503576262995 -28.31735943230742 0 0 0 0 -1.1714943766273791 -5.5765141454938547 0 -5.5765141454938547 -5.6379436844646342 0 0 0 0 0.31480535396264031 -1.3210767281545444 0 -1.3210767281545444 -0.96533874860427127 0 0 0 0 10.434579279506579 -2.5350149037642211 0 -2.5350149037642211 -8.9391641081242028 0 0 0 0 17.120701694511808 0.07549763035046908 0 0.07549763035046908 -3.2745979163555603 0 0 0 0 11.29343482695549 3.828209476737868 0 3.828209476737868 1.0210822454437221 0 0 0 0 12.390695202135248 1.117271193311467 0 1.117271193311467 -1.0062969640159736 0 0 0 0 11.116879225708544 3.0772911429986607 0 3.0772911429986607 -0.68357580705958298 0 0 0 0 10.144191470748012 1.7614250980454642 0 1.7614250980454642 -0.1286007560481629 0 0 0 0 11.706911095359828 3.4572790462384546 0 3.4572790462384546 1.2674472239407351 0 0 0 0 11.699574186844984 4.1340873040807082 0 4.1340873040807082 0.56677686399598315 0 0 0 0 12.238387094170321 3.7865682580161319 0 3.7865682580161319 0.54671322902640895 0 0 0 0 1.3991516419628169 -7.1121665647866177 0 -7.1121665647866177 -0.025305611838054867 0 0 0 0 5.2206877144199098 -7.9928028483163231 0 -7.9928028483163231 -7.5970010192344883 0 0 0 0 -1.0008576536011446 1.3433720219104757 0 1.3433720219104757 -0.0059493580968556503 0 0 0 0 16.950166789261857 -32.495968575867352 0 -32.495968575867352 17.142974902161797 0 0 0 0 -4.2332020044850651 0.82751928609304493 0 0.82751928609304493 -5.6401926825223292 0 0 0 0 6.3002005394664593 0.02500583371141829 0 0.02500583371141829 1.8063157726322743 0 0 0 0 9.5938962784130126 31.913641540629072 0 31.913641540629072 0.68465062875523586 0 0 0 0 2.1703411770431558 1.3237181432290299 0 1.3237181432290299 15.35870309990446 0 0 0 0 -0.0096804721979424357 9.0519509661993993 0 9.0519509661993993 27.005788572065626 0 0 0 0 3.9424847803638841 0.5009345245333634 0 0.5009345245333634 15.533758339665837 0 0 0 0 1.5720561507587263 11.084719557463643 0 11.084719557463643 15.096028652851942 0 0 0 0 -0.7357165057619568 18.428667526837728 0 18.428667526837728 25.098520836452735 0 0 0 0 -0.13405737549146579 21.368789248922525 0 21.368789248922525 12.594537479033193 0 0 0 0 12.612924681001459 22.298464928334965 0 22.298464928334965 7.2898210844163884 0 0 0 0 15.782819930842379 16.295430448592299 0 16.295430448592299 0.29713460249814716 0 0 0 0 22.423924983115285 18.45195504284429 0 18.45195504284429 -13.93863208658388 0 0 0 0 16.766455390228657 12.450067359287061 0 12.450067359287061 5.1878174707863991 0 0 0 0 11.554411815552157 9.8810956480660934 0 9.8810956480660934 4.1709742387433835 0 0 0 0 9.0983001903223339 9.1926126772095813 0 9.1926126772095813 7.1947021140305196 0 0 0 0 9.6745145957393106 6.6796730711560031 0 6.6796730711560031 8.4624316116061777 0 0 0 0 8.7289632382453419 3.2911558966274015 0 3.2911558966274015 6.1243221835350141 0 0 0 0 10.160361407753953 5.940044068155629 0 5.940044068155629 2.8879253312502442 0 0 0 0 13.192133988806745 5.2187443371876725 0 5.2187443371876725 2.1995451696560622 0 0 0 0 13.240644962948863 5.18618691476496 0 5.18618691476496 1.6125841564794428 0 0 0 0 16.909776408312609 2.7564839731168149 0 2.7564839731168149 -1.1949437456516279 0 0 0 0 20.300399340761942 4.8799613418449326 0 4.8799613418449326 -1.0040705509704821 0 0 0 0 16.976441615974181 6.557665134317574 0 6.557665134317574 0.49155373390647128 0 0 0 0 14.684392028866569 8.5913419024334416 0 8.5913419024334416 4.2138487684122765 0 0 0 0 15.620828912302386 5.8659842858023694 0 5.8659842858023694 1.6109228229915515 0 0 0 0 17.095634748475277 11.404520906032843 0 11.404520906032843 -2.851607694138238 0 0 0 0 28.994755051127868 8.9518549698945264 0 8.9518549698945264 -2.4363853077583926 0 0 0 0 21.56015363620827 6.4660586466573591 0 6.4660586466573591 0.40876179350740927 0 0 0 0 20.229992862092331 4.9417402068853846 0 4.9417402068853846 -0.15143293559646054 0 0 0 0 30.55370972387027 -5.4384343096371168 0 -5.4384343096371168 -1.132391356586921 0 0 0 0 25.312238339858595 4.2398305113945298 0 4.2398305113945298 -2.3156154053739897 0 0 0 0 20.106018520949874 0.96978749622707028 0 0.96978749622707028 -3.0449887200445573 0 0 0 0 0.67709757592963626 -3.7555951303550046 0 -3.7555951303550046 -2.6507904692295896 0 0 0 0 114.04666589999397 183.8729484408031 0 183.8729484408031 100.12865623969685 0 0 0 0 415.35079643889912 145.50762534994294 0 145.50762534994294 -244.44733089176418 0 0 0 0 140.16915360442363 -44.06688121004477 0 -44.06688121004477 -207.66633062231037 0 0 0 0 550.28196748546361 -70.503568053256501 0 -70.503568053256501 -14.677577173714877 0 0 0 0 7.6457049691362045 -37.386509814305505 0 -37.386509814305505 -45.071722733569061 0 0 0 0 0.16844700384986311 -2.380342675830093 0 -2.380342675830093 -0.44615454987647124 0 0 0 0 79.003168302908307 34.540992522894356 0 34.540992522894356 -35.286506796410791 0 0 0 0 44.986328448576387 14.979725898518623 0 14.979725898518623 -45.005597208274764 0 0 0 0 93.256038883235306 57.163880181454495 0 57.163880181454495 -37.103729297959688 0 0 0 0 27.84842180092528 2.4970795834834689 0 2.4970795834834689 -23.800337965498557 0 0 0 0 42.409052960883855 25.751621384718199 0 25.751621384718199 -14.940350916688317 0 0 0 0 43.010557511897787 44.385553317236223 0 44.385553317236223 -28.686301122582861 0 0 0 0 43.45015103654805 48.431568392895279 0 48.431568392895279 2.7913898534610979 0 0 0 0 53.774994316889206 84.487654926349947 0 84.487654926349947 -55.746622026972744 0 0 0 0 49.863863251026487 68.493370419941741 0 68.493370419941741 -1.9175572898146811 0 0 0 0 21.041232562216464 58.257181318801557 0 58.257181318801557 48.680864596218385 0 0 0 0 11.763704698707443 39.721113374179879 0 39.721113374179879 11.746340498439906 0 0 0 0 21.759435916465009 18.992999359299191 0 18.992999359299191 6.8584296866077636 0 0 0 0 53.609361550319591 31.63009640554224 0 31.63009640554224 -6.1626868005777169 0 0 0 0 28.520771085020897 41.445484108902349 0 41.445484108902349 -9.5417288922547527 0 0 0 0 7.3106354840128915 31.844003807280927 0 31.844003807280927 1.0383365214524609 0 0 0 0 29.970824190299027 31.463112629230551 0 31.463112629230551 -14.603578793339011 0 0 0 0 -13.676129088096786 64.18794496680573 0 64.18794496680573 -26.33118176364929 0 0 0 0 7.7818315033655381 30.440117659199803 0 30.440117659199803 4.955361773713463 0 0 0 0 -53.596651411440689 78.693122038127598 0 78.693122038127598 -20.225759071733791 0 0 0 0 -0.34937830905917622 -0.060914976600571435 0 -0.060914976600571435 0.31871619377003418 0 0 0 0 66.394213655185013 -14.172248627787329 0 -14.172248627787329 0.61140333283699988 0 0 0 0 16.934044219640782 -4.8708575716818245 0 -4.8708575716818245 1.5529827130488982 0 0 0 0 27.486682861184818 -3.6644667764109045 0 -3.6644667764109045 -10.752074271960112 0 0 0 0 15.83129091554656 -1.0849575188466147 0 -1.0849575188466147 -7.3013759996803174 0 0 0 0 16.125442445038061 3.7861001188912873 0 3.7861001188912873 -11.99423699319027 0 0 0 0 16.621943708105391 -0.19362901388413079 0 -0.19362901388413079 -7.0483601490061574 0 0 0 0 7.2934898916719249 22.417249315785114 0 22.417249315785114 -17.163692281785472 0 0 0 0 16.097011700483563 13.009689697499731 0 13.009689697499731 -27.29632796384476 0 0 0 0 18.162214908137685 5.3573498200312883 0 5.3573498200312883 -11.208020573288195 0 0 0 0 1.1884498386425548 -4.3958011709827076 0 -4.3958011709827076 -15.327867481886358 0 0 0 0 20.665512295159715 16.801019445120151 0 16.801019445120151 7.5651679925806548 0 0 0 0 -25.559352628042689 20.13743494060094 0 20.13743494060094 27.256696498774119 0 0 0 0 1.319575330966444 1.5462643971628438 0 1.5462643971628438 1.9283783446525278 0 0 0 0 -9.2308711493242299 65.125030412549393 0 65.125030412549393 64.888109002195918 0 0 0 0 351.32306325894024 -44.727019361378893 0 -44.727019361378893 6.1407132640420059 0 0 0 0 314.0887718735612 -113.15431831013768 0 -113.15431831013768 7.8825862554802058 0 0 0 0 383.6423201373982 -89.963346285592365 0 -89.963346285592365 67.251147577679603 0 0 0 0 0.61008711452253905 -0.31145236161128764 0 -0.31145236161128764 0.36702542387367698 0 0 0 0 648.37193610953727 -90.625711017917752 0 -90.625711017917752 -32.21808079652078 0 0 0 0 492.1002566057723 -147.75465281765497 0 -147.75465281765497 50.354050782327022 0 0 0 0 207.23754070120049 -143.52114688496854 0 -143.52114688496854 2.9186824388822288 0 0 0 0 177.48401032706897 117.7207170940047 0 117.7207170940047 257.84480633972987 0 0 0 0 198.96982303014374 46.411659730598515 0 46.411659730598515 10.013220379401053 0 0 0 0 1.1344787293838152 -1.9630000567948116 0 -1.9630000567948116 0.20698818549839551 0 0 0 0 4.874902031806414 -7.6835952634746789 0 -7.6835952634746789 4.1064520948984296 0 0 0 0 295.16036310996788 9.9415780672339125 0 9.9415780672339125 -24.612807955296205 0 0 0 0 1.3171444970475861 -3.1915845734296511 0 -3.1915845734296511 1.5629197429417008 0 0 0 0 211.96706290042493 -37.226805069859225 0 -37.226805069859225 9.581380423111078 0 0 0 0 139.65656952164863 22.608402509565607 0 22.608402509565607 6.724497315514725 0 0 0 0 83.16591871179844 -28.190066671616496 0 -28.190066671616496 9.5181172750519067 0 0 0 0 13.09854888706468 37.328987179807861 0 37.328987179807861 24.554476980887795 0 0 0 0 20.695337734636269 8.9569341056229916 0 8.9569341056229916 36.102914359087919 0 0 0 0 -7.1998803361884711 14.931588388694095 0 14.931588388694095 2.0115041713663118 0 0 0 0 -18.518852660214179 71.218023255782441 0 71.218023255782441 -22.182969057412532 0 0 0 0 -13.412820572208147 48.970647442328726 0 48.970647442328726 -67.793117636009256 0 0 0 0 -42.740894984061015 2.5191146568352352 0 2.5191146568352352 21.988421059915638 0 0 0 0 159.77341797578265 -85.407512992120516 0 -85.407512992120516 -65.295918863207959 0 0 0 0 -7.0804517328433576 114.70800776275871 0 114.70800776275871 -82.677805244126205 0 0 0 0 -106.47169986795052 -30.301149126847463 0 -30.301149126847463 5.3371768616985378 0 0 0 0 1.6718413681373931 17.693140298540186 0 17.693140298540186 -79.040123984542319 0 0 0 0 1.309404161225558 0.31458298225317094 0 0.31458298225317094 -1.4293895075689966 0 0 0 0 0.86787836225045112 1.799608838476189 0 1.799608838476189 0.23882672219107498 0 0 0 0 9.6051134570561771 18.940766843356243 0 18.940766843356243 -12.313246281662487 0 0 0 0 9.6554207644658163 18.146148626502054 0 18.146148626502054 -3.6764934496900423 0 0 0 0 6.4957662195733405 2.6580054733541374 0 2.6580054733541374 -7.9463795233324808 0 0 0 0 -60.367728190816706 53.122811321657366 0 53.122811321657366 12.157718407019416 0 0 0 0 6.485982791740355 7.4275918845142712 0 7.4275918845142712 5.7777480788822002 0 0 0 0 -61.179930611193413 60.609288850958819 0 60.609288850958819 51.876701119080622 0 0 0 0 209.08127336787584 -65.246619737281179 0 -65.246619737281179 -1.6764590450416108 0 0 0 0 504.33240223958273 93.698063254233205 0 93.698063254233205 -79.242299052626322 0 0 0 0 204.04730228309927 -17.522721243006675 0 -17.522721243006675 -29.113432017796548 0 0 0 0 197.40318915734406 68.068402912348034 0 68.068402912348034 62.008626837245799 0 0 0 0 -11.849869651407062 -28.443205946767044 0 -28.443205946767044 -34.951169138909194 0 0 0 0 410.16552287373634 -1.2242685629024095 0 -1.2242685629024095 -57.459301021853818 0 0 0 0 31.924329167024553 5.8534230411815678 0 5.8534230411815678 -63.445881963121366 0 0 0 0 0.41001585595169843 -0.3474657701290198 0 -0.3474657701290198 0.042815498775248484 0 0 0 0 -123.56862777764036 -148.39585753702255 0 -148.39585753702255 122.12713650216233 0 0 0 0 42.349118533325964 48.670803551165648 0 48.670803551165648 -25.54629573853498 0 0 0 0 164.31084516570263 0.24616607400565726 0 0.24616607400565726 -23.194063115731524 0 0 0 0 189.33245098406042 -49.336257993963756 0 -49.336257993963756 -111.78242144035539 0 0 0 0 82.059665428059816 36.907949209842343 0 36.907949209842343 -39.134005765927213 0 0 0 0 186.39853196300101 -30.13014441496432 0 -30.13014441496432 -47.028271139275603 0 0 0 0 85.342003594945709 63.348142387323776 0 63.348142387323776 -3.4962131106771039 0 0 0 0 2.195743462918216 1.8709160058297414 0 1.8709160058297414 1.4202157892376377 0 0 0 0 4.8177829143751296 -17.085198161127607 0 -17.085198161127607 -73.943464077073259 0 0 0 0 378.26470815266657 37.461411545127703 0 37.461411545127703 -44.330265224598463 0 0 0 0 378.04187128020567 -92.154896012779545 0 -92.154896012779545 -31.615947827030936 0 0 0 0 263.04516569297994 -77.122393273182752 0 -77.122393273182752 -18.992016859195701 0 0 0 0 216.96236362487252 80.753889911408351 0 80.753889911408351 -53.96334485930015 0 0 0 0 122.89769430350862 40.332162489367875 0 40.332162489367875 374.74145100785245 0 0 0 0 -38.906747595869092 -67.402672870828312 0 -67.402672870828312 -46.666763736928715 0 0 0 0 2.2300387716507259 -2.7099746226981836 0 -2.7099746226981836 2.3985074685132011 0 0 0 0 -55.571729876683094 -45.75992123443234 0 -45.75992123443234 -60.385006690791215 0 0 0 0 319.89380872619222 195.00776821176169 0 195.00776821176169 -151.17253829617675 0 0 0 0 429.74685043968202 370.7226433390183 0 370.7226433390183 -104.61872563027191 0 0 0 0 180.09297007351415 250.75214731502183 0 250.75214731502183 110.67371220656878 0 0 0 0 -50.423060833418276 135.73564556918336 0 135.73564556918336 69.122419310949226 0 0 0 0 43.561494260764448 110.69844391468473 0 110.69844391468473 38.258526324691957 0 0 0 0 48.42173678002473 10.272172761206932 0 10.272172761206932 12.176281011852552 0 0 0 0 140.17872178097605 183.04517267688698 0 183.04517267688698 36.350286739419971 0 0 0 0 369.98729238592205 139.43631680170779 0 139.43631680170779 -94.773258695853656 0 0 0 0 314.25379954717937 212.42925639050873 0 212.42925639050873 -27.035693486761375 0 0 0 0 244.29166280005302 143.84611462411306 0 143.84611462411306 -66.795861623304518 0 0 0 0 317.80829296348384 125.95753376190032 0 125.95753376190032 -67.569345447605087 0 0 0 0 163.44526984772529 86.820674077352123 0 86.820674077352123 -9.0750299128976621 0 0 0 0 162.47198557404727 12.509707523510023 0 12.509707523510023 9.9847189739803071 0 0 0 0 245.80223111574014 131.98920490584817 0 131.98920490584817 12.834945755106673 0 0 0 0 187.34094598446973 12.876767185662175 0 12.876767185662175 -1.8380416835561846 0 0 0 0 199.0122148928931 -29.147617592212555 0 -29.147617592212555 55.758454027614789 0 0 0 0 278.85782088103588 34.967028938005114 0 34.967028938005114 -27.055900566124365 0 0 0 0 291.08488563238643 38.969560389969956 0 38.969560389969956 -26.942305826742469 0 0 0 0 403.02504919978674 59.274541195006805 0 59.274541195006805 -64.512141479514867 0 0 0 0 395.20849765569983 -51.57999080835495 0 -51.57999080835495 -1.6999264404021233 0 0 0 0 -144.0021506244484 -128.39495772659316 0 -128.39495772659316 -39.352801120804088 0 0 0 0 1.2150311589108469 -1.3375740682431569 0 -1.3375740682431569 1.3692274426846893 0 0 0 0 -132.55252156607457 -47.794911873984972 0 -47.794911873984972 -37.189238625750477 0 0 0 0 -108.54722641024273 -73.149174189323276 0 -73.149174189323276 -48.624440459459947 0 0 0 0 -56.528189104690682 -79.70073413437467 0 -79.70073413437467 -51.835818649718931 0 0 0 0 -99.253385235089809 -37.104631583655646 0 -37.104631583655646 -53.772388691299284 0 0 0 0 38.431819318560883 0.59562341433638721 0 0.59562341433638721 -5.8688063986230645 0 0 0 0 32.434506872144993 31.829765724110985 0 31.829765724110985 -2.9797133922889145 0 0 0 0 28.777513497654581 11.106380159331366 0 11.106380159331366 32.75546510390177 0 0 0 0 70.049743911542464 18.324677067441826 0 18.324677067441826 15.402118911005346 0 0 0 0 119.12405830671196 26.305386563321463 0 26.305386563321463 26.474043977094425 0 0 0 0 79.228820034593809 -7.3504023107986995 0 -7.3504023107986995 34.096049034613316 0 0 0 0 71.071883485652506 35.265063523007484 0 35.265063523007484 31.723354021849445 0 0 0 0 71.928532299934886 -1.6317165803075113 0 -1.6317165803075113 13.240987367568778 0 0 0 0 38.26037092867773 2.1445389149248513 0 2.1445389149248513 36.563045615667761 0 0 0 0 24.830866523378063 12.157363228707936 0 12.157363228707936 16.891848187696496 0 0 0 0 52.399126995049301 15.998741192561056 0 15.998741192561056 -0.75876301012749536 0 0 0 0 15.480208413515356 -11.633709161528259 0 -11.633709161528259 17.996645611874328 0 0 0 0 12.30764929133511 -3.9050684710956034 0 -3.9050684710956034 -0.72820699435055758 0 0 0 0 22.047402611133293 -7.5895746308901835 0 -7.5895746308901835 -40.017492031607617 0 0 0 0 16.131109940542956 -3.6901017756299552 0 -3.6901017756299552 -0.77048174130754887 0 0 0 0 3.8854222275986103 9.2874459703125467 0 9.2874459703125467 -1.6842995976572865 0 0 0 0 4.7931959551765999 4.867002791390405 0 4.867002791390405 4.6570676715513368 0 0 0 0 -10.184519585440285 48.840600899609626 0 48.840600899609626 -49.055671859147424 0 0 0 0 -6.2850064877075056 20.535571236103095 0 20.535571236103095 -21.878913165635367 0 0 0 0 11.971533977717627 8.6800222373642555 0 8.6800222373642555 -5.434212417717788 0 0 0 0 11.853624958501314 9.8263412358489859 0 9.8263412358489859 -15.810284622865197 0 0 0 0 17.726763485479751 7.0644189638117041 0 7.0644189638117041 -17.116738312392044 0 0 0 0 17.782971097451082 6.2934770414342438 0 6.2934770414342438 -9.8146718404796047 0 0 0 0 7.1119312222993472 2.781113138794268 0 2.781113138794268 -9.388451482997457 0 0 0 0 7.6486909677187214 16.888358007549868 0 16.888358007549868 -6.5834503334217231 0 0 0 0 4.9469888736661289 4.629108257344285 0 4.629108257344285 4.4783625574597412 0 0 0 0 25.63570955688192 -21.640808128108631 0 -21.640808128108631 29.988981115970546 0 0 0 0 6.048530409205199 -3.4545343727572799 0 -3.4545343727572799 3.5120702069070417 0 0 0 0 18.869084216988995 -0.64312236563614533 0 -0.64312236563614533 -11.87516732835212 0 0 0 0 8.5473858320382305 2.4679142758498926 0 2.4679142758498926 -7.547694418595789 0 0 0 0 18.843362184416037 -0.10264773250401049 0 -0.10264773250401049 -16.174407820210945 0 0 0 0 383.4738989493635 -57.258134564824104 0 -57.258134564824104 -21.460022414356331 0 0 0 0 420.80765802252608 -107.32027153956614 0 -107.32027153956614 11.78973524447224 0 0 0 0 158.09199155570241 15.865168161705469 0 15.865168161705469 15.272339816242038 0 0 0 0 158.37934757545008 4.0783953170306404 0 4.0783953170306404 28.543563412596086 0 0 0 0 386.12278211093508 -8.3103810278792025 0 -8.3103810278792025 -15.303155390231836 0 0 0 0 133.18261971198081 -53.272844905903185 0 -53.272844905903185 -0.85037698762607761 0 0 0 0 621.07827978994465 44.411501048452692 0 44.411501048452692 -12.537371574691917 0 0 0 0 191.9922074349488 56.703138116875095 0 56.703138116875095 1.4337769138410295 0 0 0 0 0.87192945306594538 -1.5331669178883942 0 -1.5331669178883942 2.5302352829718067 0 0 0 0 278.7925659402681 86.354621098607254 0 86.354621098607254 201.42220247907358 0 0 0 0 413.93330088681978 -193.96089384128004 0 -193.96089384128004 212.19741716275234 0 0 0 0 256.16500894673663 -241.8201835688335 0 -241.8201835688335 130.61698880500171 0 0 0 0 -25.2540814011154 -73.173978917082422 0 -73.173978917082422 294.80098004598153 0 0 0 0 464.64152287739125 -17.843651159258684 0 -17.843651159258684 -37.918057537050117 0 0 0 0 218.31513211430865 -100.67407621492521 0 -100.67407621492521 -65.535363580630701 0 0 0 0 311.65442854071443 83.71388942719642 0 83.71388942719642 -80.980887286948473 0 0 0 0 7.6582688781532227 7.234481867761076 0 7.234481867761076 -1.0973385032741927 0 0 0 0 41.993271140148863 -71.860549490403173 0 -71.860549490403173 93.182151976931664 0 0 0 0 48.399868555468856 -7.2632873018935697 0 -7.2632873018935697 37.725605461581154 0 0 0 0 121.30106076762604 -76.728498316606988 0 -76.728498316606988 -50.304229983350069 0 0 0 0 56.483461669784447 -98.616455624813284 0 -98.616455624813284 17.662260191652877 0 0 0 0 31.20312054468171 -0.13529447755047386 0 -0.13529447755047386 -2.7512163240242433 0 0 0 0 97.177219682067516 13.992520508593771 0 13.992520508593771 -5.3971446273217225 0 0 0 0 110.73782374482835 -6.265867388879542 0 -6.265867388879542 -32.443304382929909 0 0 0 0 144.53696862708603 -121.55053549151012 0 -121.55053549151012 -62.01916075026827 0 0 0 0 104.1211896545974 -82.606949417483406 0 -82.606949417483406 -99.271357551884194 0 0 0 0 155.55332062317939 88.465494593966582 0 88.465494593966582 -35.603568316959354 0 0 0 0 174.3883441407088 60.07546271236879 0 60.07546271236879 -114.58105355463874 0 0 0 0 147.11515382863792 2.5916789112038199 0 2.5916789112038199 -1.8138308383441171 0 0 0 0 77.682254420786194 11.181622801840604 0 11.181622801840604 10.847388055271949 0 0 0 0 140.1349297811139 10.074544719629785 0 10.074544719629785 -111.20996698939598 0 0 0 0 240.95679611100059 -74.49262532071657 0 -74.49262532071657 -294.01414407248012 0 0 0 0 183.49304375291831 -16.720978480664144 0 -16.720978480664144 -157.87914014854778 0 0 0 0 204.87344821176521 -1.966155538561452 0 -1.966155538561452 -245.23401107153495 0 0 0 0 158.77789775373745 -1.6792340432453194 0 -1.6792340432453194 -0.69195503885914089 0 0 0 0 171.29388542371998 -75.68998792410531 0 -75.68998792410531 0.33254198927625112 0 0 0 0 237.42675695755315 103.21508667918556 0 103.21508667918556 -96.343288457006565 0 0 0 0 188.9726956939212 49.193085912559965 0 49.193085912559965 7.1710670701986601 0 0 0 0 191.58956313353269 135.62593434334883 0 135.62593434334883 46.722875785704673 0 0 0 0 406.60263126364589 133.62260165640487 0 133.62260165640487 35.875390207562077 0 0 0 0 141.38018546219973 143.77469815357199 0 143.77469815357199 86.666129546917091 0 0 0 0 103.49140070108115 70.017016339763131 0 70.017016339763131 10.09742244240897 0 0 0 0 38.184769780869864 29.470515336938419 0 29.470515336938419 8.3368967365063096 0 0 0 0 177.79589684178791 82.27152015861202 0 82.27152015861202 -33.99646098208018 0 0 0 0 137.48001407183619 121.19193599006644 0 121.19193599006644 80.236580560414268 0 0 0 0 111.53933507737383 51.997516129020823 0 51.997516129020823 -15.810227455943732 0 0 0 0 4.2908462608180855 8.0476985285955855 0 8.0476985285955855 0.73561726657877724 0 0 0 0 11.461821208346073 10.2989643248427 0 10.2989643248427 1.9121269197343729 0 0 0 0 4.140096401082701 33.940781984704472 0 33.940781984704472 16.57501060220784 0 0 0 0 47.543863984814379 14.768712240081186 0 14.768712240081186 -37.466634669961422 0 0 0 0 49.321765264598071 14.379586091939473 0 14.379586091939473 -6.9679860201722477 0 0 0 0 37.605760519323667 19.584000119673647 0 19.584000119673647 3.1899801086356092 0 0 0 0 47.87762289280505 11.024019680043473 0 11.024019680043473 -4.1399836275476032 0 0 0 0 66.41158566068043 22.016607498911071 0 22.016607498911071 13.684892596881127 0 0 0 0 47.162904653639998 12.970710857925951 0 12.970710857925951 19.32900587099175 0 0 0 0 53.742110112252703 24.455263713699878 0 24.455263713699878 10.22541384987835 0 0 0 0 42.592735658506825 8.6265207085281688 0 8.6265207085281688 2.4387008958559999 0 0 0 0 50.3636037321412 6.0598379116895558 0 6.0598379116895558 12.474457814702191 0 0 0 0 57.995137953475933 27.318279687546692 0 27.318279687546692 6.2452662670775112 0 0 0 0 48.01233698087708 19.555864425817333 0 19.555864425817333 6.036100992113461 0 0 0 0 59.109399930617656 22.084711045628865 0 22.084711045628865 2.585238656407455 0 0 0 0 48.557599023559106 15.928088190177689 0 15.928088190177689 -18.060775319319273 0 0 0 0 58.223956460686168 112.49328748899734 0 112.49328748899734 -72.374314051212423 0 0 0 0 18.353326133027878 15.85412200806735 0 15.85412200806735 2.6055143476103835 0 0 0 0 249.52691649663029 56.30766205327204 0 56.30766205327204 -18.618766416069548 0 0 0 0 41.151995260297554 91.609406676199882 0 91.609406676199882 53.718645892516342 0 0 0 0 40.120178983755835 47.792680181188189 0 47.792680181188189 41.70973662309337 0 0 0 0 0.64446352116647176 46.92948223688245 0 46.92948223688245 23.510216954436146 0 0 0 0 106.48893265768129 126.00184362880395 0 126.00184362880395 7.1220681903409968 0 0 0 0 152.49262964623153 60.876804981499411 0 60.876804981499411 83.022306352017722 0 0 0 0 566.0062942913064 64.177544581894594 0 64.177544581894594 -51.582170455325922 0 0 0 0 274.39409849283402 -31.41991749585236 0 -31.41991749585236 20.646494541885517 0 0 0 0 164.66543102826108 454.15107281031658 0 454.15107281031658 155.65796201626563 0 0 0 0 35.990472343750383 27.317609671700808 0 27.317609671700808 18.193507094329259 0 0 0 0 53.213518913340522 26.084396613614445 0 26.084396613614445 5.964485928571321 0 0 0 0 -20.399671886545548 93.679809809717881 0 93.679809809717881 102.77448738303542 0 0 0 0 2.0901005418563727 -3.2675583717391419 0 -3.2675583717391419 69.996896587677952 0 0 0 0 49.515069395514729 53.798954053151419 0 53.798954053151419 7.7862404899075273 0 0 0 0 -0.024094565493612663 6.6816994774037859 0 6.6816994774037859 5.4652274254158133 0 0 0 0 47.696561951306649 -31.220515802552995 0 -31.220515802552995 83.69294579315158 0 0 0 0 -33.92155964759877 -96.940355942941977 0 -96.940355942941977 96.644452931285059 0 0 0 0 -34.079225879046135 -42.755146729424041 0 -42.755146729424041 747.14491466093318 0 0 0 0 -64.301159310401999 94.055432261237513 0 94.055432261237513 298.35527629147055 0 0 0 0 -34.009182913025143 54.968389002583535 0 54.968389002583535 109.85436535808458 0 0 0 0 -82.048903734881605 -12.61849257472204 0 -12.61849257472204 180.58397471837634 0 0 0 0 113.41037040186347 -126.55216744854715 0 -126.55216744854715 44.763900350063523 0 0 0 0 -29.671151735208696 -31.954736373535525 0 -31.954736373535525 71.084660404197166 0 0 0 0 25.469120992696844 -142.7494410116401 0 -142.7494410116401 290.09027413160902 0 0 0 0 428.79966860319837 -235.40365982735403 0 -235.40365982735403 202.66835941740646 0 0 0 0 245.88632078515366 -74.404955248514852 0 -74.404955248514852 61.242195310108627 0 0 0 0 54.81073161875247 -36.231345824727896 0 -36.231345824727896 54.699717034291496 0 0 0 0 184.30413241869246 -122.60210019220477 0 -122.60210019220477 -264.54400126674068 0 0 0 0 -82.502523846458644 -112.31442567097383 0 -112.31442567097383 -66.136052685236109 0 0 0 0 50.268821413876367 -12.01744340393919 0 -12.01744340393919 1.9679870845107232 0 0 0 0 -73.367921965458663 61.826144816063277 0 61.826144816063277 -98.763829738071877 0 0 0 0 -54.953549655241659 -127.54968014477663 0 -127.54968014477663 -67.99041548760124 0 0 0 0 184.41539256920805 -11.292890615227407 0 -11.292890615227407 -139.68245643621776 0 0 0 0 57.848668262681599 -10.448042814288684 0 -10.448042814288684 4.5609584001293486 0 0 0 0 89.419369182825903 -124.19354977518253 0 -124.19354977518253 -86.199766723882249 0 0 0 0 290.94059246248798 51.438625071434217 0 51.438625071434217 -161.01130030922923 0 0 0 0 181.91700707620475 4.4304874893605302 0 4.4304874893605302 -71.223735940026472 0 0 0 0 -148.24091416230658 -112.57312505088328 0 -112.57312505088328 95.156997565030196 0 0 0 0 279.9413954927295 180.70283573373354 0 180.70283573373354 -92.590535921822266 0 0 0 0 259.40297360857949 -64.561610049469891 0 -64.561610049469891 119.79474848067002 0 0 0 0 234.7708661195793 2.2359271016248385 0 2.2359271016248385 11.292230834233123 0 0 0 0 219.65300757694058 65.283240116089473 0 65.283240116089473 127.50417209007355 0 0 0 0 227.07802314843866 59.945475825029916 0 59.945475825029916 -43.194912913289954 0 0 0 0 163.81044135512093 23.692648247673532 0 23.692648247673532 -24.857517441903838 0 0 0 0 163.21881563664647 17.574841431865934 0 17.574841431865934 44.707595475068047 0 0 0 0 101.24904896836961 20.267640728905917 0 20.267640728905917 14.93629887678253 0 0 0 0 119.95363811246352 -18.397797096085014 0 -18.397797096085014 36.184249682936752 0 0 0 0 67.323445728456136 -6.1793319752745219 0 -6.1793319752745219 9.1169830093967903 0 0 0 0 41.321353715844452 -6.4402546955816433 0 -6.4402546955816433 10.552988636627106 0 0 0 0 147.06834310927661 26.192460934314113 0 26.192460934314113 -23.114102171953164 0 0 0 0 121.64747011067811 -14.063264579862334 0 -14.063264579862334 -76.349618746251508 0 0 0 0 65.549157773551997 -44.656006049001917 0 -44.656006049001917 -87.628491510134211 0 0 0 0 102.64526421099436 -33.912281818658812 0 -33.912281818658812 -88.185395154954676 0 0 0 0 86.688401561055798 11.530870543028414 0 11.530870543028414 -25.678958087284627 0 0 0 0 48.640359495067969 -17.675366325845516 0 -17.675366325845516 -40.463447790070859 0 0 0 0 -5.3887449362373445 -16.764496863321028 0 -16.764496863321028 -12.235648314553146 0 0 0 0 25.843056846468244 -41.429427384203564 0 -41.429427384203564 -61.466942844936966 0 0 0 0 30.788886298541911 19.308948156826204 0 19.308948156826204 15.73546966365393 0 0 0 0 56.632414484440233 19.691296752930725 0 19.691296752930725 14.236556500776715 0 0 0 0 100.5229996102571 0.7990906585259836 0 0.7990906585259836 12.417443932503375 0 0 0 0 23.236869735019638 6.5969196103491754 0 6.5969196103491754 5.8443908337733088 0 0 0 0 29.473028663429432 -7.7510162920043513 0 -7.7510162920043513 32.293383099529819 0 0 0 0 113.4494793946451 -18.860565228420739 0 -18.860565228420739 5.9440087411276181 0 0 0 0 -3.438754187853192 31.921890907887018 0 31.921890907887018 11.754407166984038 0 0 0 0 63.769983089325251 10.715067519717195 0 10.715067519717195 17.828607768192342 0 0 0 0 63.764034027767536 4.9690430325374635 0 4.9690430325374635 4.0701953541107088 0 0 0 0 55.085589171911124 15.186633802434699 0 15.186633802434699 18.914383201633882 0 0 0 0 17.613756030380813 6.6524001910096757 0 6.6524001910096757 17.728611298809437 0 0 0 0 0.596153756962849 -6.6712599573951668 0 -6.6712599573951668 5.9527272302948786 0 0 0 0 42.631383785614162 -12.134455560456928 0 -12.134455560456928 24.860911553635447 0 0 0 0 51.937268377791042 10.110481004756821 0 10.110481004756821 16.621147154025493 0 0 0 0 52.253189610848494 8.1282606432664579 0 8.1282606432664579 28.91754283665432 0 0 0 0 49.423499347628479 -4.5631735275199716 0 -4.5631735275199716 15.37086610553655 0 0 0 0 112.01830461207027 -7.0190910216663731 0 -7.0190910216663731 -5.6073375449561302 0 0 0 0 84.412689743321209 -2.4673663166517992 0 -2.4673663166517992 1.0085510860118949 0 0 0 0 128.43316527651041 -60.619204283201725 0 -60.619204283201725 -53.123933337303242 0 0 0 0 86.930962303245906 42.241213115340543 0 42.241213115340543 -54.961205769779554 0 0 0 0 94.617028897075215 56.571282115831082 0 56.571282115831082 -173.37898356211019 0 0 0 0 86.039743410336087 3.4593371309896384 0 3.4593371309896384 -42.871303021323911 0 0 0 0 65.019375203351956 -56.448092434714681 0 -56.448092434714681 -41.365274168955239 0 0 0 0 58.339186839963077 9.1389406157795747 0 9.1389406157795747 -109.05985624302048 0 0 0 0 157.19762037784676 -6.7316998144372064 0 -6.7316998144372064 -43.315981551820187 0 0 0 0 265.25644135745074 -42.336616500738671 0 -42.336616500738671 -42.56671796156531 0 0 0 0 34.691235062117016 -2.0335976336641295 0 -2.0335976336641295 -5.6858232192133098 0 0 0 0 94.319012924890558 47.032243484906303 0 47.032243484906303 -17.231830331239053 0 0 0 0 174.73390286054928 51.376971586842501 0 51.376971586842501 -27.087311305623643 0 0 0 0 155.56683766123024 9.9343043605631465 0 9.9343043605631465 -28.105302518545614 0 0 0 0 160.91696307416714 -56.459392656831824 0 -56.459392656831824 -57.561111458324376 0 0 0 0 148.42160862943274 -30.310618076287028 0 -30.310618076287028 -36.210318524151262 0 0 0 0 82.529326405812753 -29.57072054303444 0 -29.57072054303444 25.500468980828828 0 0 0 0 77.955571599246468 -87.448990733801907 0 -87.448990733801907 52.728893554630872 0 0 0 0 86.619948143081274 -30.577375213858886 0 -30.577375213858886 12.419415311607281 0 0 0 0 44.875377098505851 -57.742909757812868 0 -57.742909757812868 -4.0338598104572156 0 0 0 0 75.461617310866131 -30.113197474504545 0 -30.113197474504545 -45.329836357090244 0 0 0 0 62.001073366947821 -45.807799266030997 0 -45.807799266030997 -102.21675435579391 0 0 0 0 31.748760508227861 -36.501237925101577 0 -36.501237925101577 -45.949769057005597 0 0 0 0 83.09287153952755 -56.902067424589859 0 -56.902067424589859 -39.830005632693883 0 0 0 0 40.488444076792803 -9.6226726466411492 0 -9.6226726466411492 -31.035594003280721 0 0 0 0 145.07096358475974 66.989228310391354 0 66.989228310391354 11.359590715044078 0 0 0 0 117.71362479187519 82.115300172804581 0 82.115300172804581 26.979100667104376 0 0 0 0 32.142761889321264 0.7818132915285787 0 0.7818132915285787 21.445851653821364 0 0 0 0 99.127508462610422 -9.5441302160650139 0 -9.5441302160650139 19.155659986479918 0 0 0 0 52.079374594279216 -23.663074275556255 0 -23.663074275556255 -82.412200696597665 0 0 0 0 -8.6118143493658863 -58.441491416678218 0 -58.441491416678218 -23.195938478312655 0 0 0 0 -147.92744431992469 -20.027856235499144 0 -20.027856235499144 23.717917265860706 0 0 0 0 29.294811429226684 75.651405657178941 0 75.651405657178941 46.704457115100467 0 0 0 0 29.846127280497967 -346.15503339102168 0 -346.15503339102168 -71.122379642155465 0 0 0 0 -11.406445450120373 -125.24855126322041 0 -125.24855126322041 -142.30912842956764 0 0 0 0 239.70188657309336 3.4366585281284188 0 3.4366585281284188 -421.22469354885891 0 0 0 0 92.859366471704561 -34.224031383607098 0 -34.224031383607098 -241.88685845198063 0 0 0 0 51.016220462097579 -2.8684183931382949 0 -2.8684183931382949 -0.655491404708062 0 0 0 0 149.11928625957052 -13.607057810872517 0 -13.607057810872517 1.0999226533475199 0 0 0 0 72.51192007624195 -70.105775882072521 0 -70.105775882072521 63.697641850616264 0 0 0 0 8.8235206787358038 -0.35837019260202396 0 -0.35837019260202396 -44.668143127217434 0 0 0 0 49.78070120056509 40.261559680876871 0 40.261559680876871 -138.937536234307 0 0 0 0 89.674162172144861 -15.379490930889688 0 -15.379490930889688 -242.00443124081357 0 0 0 0 144.08788317177095 -8.9720185165233488 0 -8.9720185165233488 -291.19300468251345 0 0 0 0 240.41119789919321 62.9617100917892 0 62.9617100917892 -250.70902903426827 0 0 0 0 110.71017505653072 -44.31711952296024 0 -44.31711952296024 -279.39692101045011 0 0 0 0 175.95359614341578 32.453308385969876 0 32.453308385969876 -254.10204936095454 0 0 0 0 240.85381944094843 -47.063804035628209 0 -47.063804035628209 -218.05495543992924 0 0 0 0 238.69945451965032 -106.30860122957216 0 -106.30860122957216 -263.290623215712 0 0 0 0 42.857758448360983 -73.095070204367488 0 -73.095070204367488 -268.80992384503861 0 0 0 0 162.67464045748056 65.556477681578372 0 65.556477681578372 -307.88586076402441 0 0 0 0 142.47828090621624 72.710744061050036 0 72.710744061050036 -307.22879020162122 0 0 0 0 311.84069577011905 62.079061240914143 0 62.079061240914143 -80.018833388185044 0 0 0 0 183.05941369906213 14.56355333194324 0 14.56355333194324 -118.76898403463429 0 0 0 0 204.24330273592204 85.961398198112306 0 85.961398198112306 -203.20361422614394 0 0 0 0 109.8114546765355 78.575950395633072 0 78.575950395633072 -187.46732491217347 0 0 0 0 117.4148748271873 35.141306437589719 0 35.141306437589719 -205.9303096243716 0 0 0 0 158.24851891013896 77.951403660805425 0 77.951403660805425 -206.69418294371735 0 0 0 0 74.587554621979507 107.10859628952409 0 107.10859628952409 -168.39762751117632 0 0 0 0 50.858237958882455 103.82253608181915 0 103.82253608181915 -162.979990670598 0 0 0 0 24.711307036771665 -7.769111198855164 0 -7.769111198855164 -14.761499709532613 0 0 0 0 109.41079821417225 79.413698860914337 0 79.413698860914337 -179.96210260321368 0 0 0 0 62.159998754730623 70.213090905686386 0 70.213090905686386 -177.82601819824686 0 0 0 0 38.172158145789581 75.73182482061577 0 75.73182482061577 -166.34002387802263 0 0 0 0 -0.34679227023586634 0.065181047959704586 0 0.065181047959704586 -10.353390702096819 0 0 0 0 224.70892903780623 -53.668309060083629 0 -53.668309060083629 110.41942306082501 0 0 0 0 442.75732244225219 -276.76733309579095 0 -276.76733309579095 -61.392136477415306 0 0 0 0 86.648817926368793 162.26775204121168 0 162.26775204121168 -56.736818987074912 0 0 0 0 240.06114614703984 -172.42487317313226 0 -172.42487317313226 65.469959120513522 0 0 0 0 321.94378899173716 90.514035927364716 0 90.514035927364716 -160.844230889149 0 0 0 0 35.454812688721233 1.9809141201581397 0 1.9809141201581397 3.9628967989222517 0 0 0 0 283.68979169131489 -69.281361277209726 0 -69.281361277209726 -69.982972127392713 0 0 0 0 120.92910862302961 -21.626074730419532 0 -21.626074730419532 -34.351632051611887 0 0 0 0 272.60794391882519 1.9307662819664984 0 1.9307662819664984 -46.859468190928965 0 0 0 0 302.35491273572188 -25.762667067325992 0 -25.762667067325992 18.363368249348923 0 0 0 0 -182.82889404398884 127.8475052364447 0 127.8475052364447 -27.484281937160858 0 0 0 0 346.60872823362297 -242.30986547243947 0 -242.30986547243947 128.83756094635544 0 0 0 0 5.1460469583651047 8.0518918385805023 0 8.0518918385805023 5.3320782820730024 0 0 0 0 159.63931062314805 -30.143940910083074 0 -30.143940910083074 32.566625101628915 0 0 0 0 266.6119569834409 -45.939920765991246 0 -45.939920765991246 -294.41614909667351 0 0 0 0 167.39227693151844 -3.3067207749831375 0 -3.3067207749831375 -1.0060299426839121 0 0 0 0 192.65812261015526 -22.108008442048231 0 -22.108008442048231 -265.10357577217769 0 0 0 0 214.71200363952084 73.518661773426174 0 73.518661773426174 -125.27225158031979 0 0 0 0 275.61911606312424 -171.32881302193027 0 -171.32881302193027 -130.26596492134831 0 0 0 0 216.83717358701688 61.871262946177922 0 61.871262946177922 -98.582511459035061 0 0 0 0 155.46791601651057 77.459807866250003 0 77.459807866250003 -40.205272091684492 0 0 0 0 165.49351010484679 65.764507951718599 0 65.764507951718599 -98.874236694406136 0 0 0 0 239.84269282434252 65.808768390094656 0 65.808768390094656 -191.98369837639075 0 0 0 0 108.95035388934556 -0.98721687708353745 0 -0.98721687708353745 -6.9490083121763142 0 0 0 0 221.56882158543885 -68.935491974664728 0 -68.935491974664728 -48.195624712010613 0 0 0 0 94.135810116787383 10.17717831647167 0 10.17717831647167 0.29683617449959465 0 0 0 0 222.51761356918723 2.9659205654197649 0 2.9659205654197649 -67.98943091975849 0 0 0 0 271.47267968665983 49.062185789749719 0 49.062185789749719 -25.400520735976897 0 0 0 0 117.2929611976142 -263.15540391720879 0 -263.15540391720879 -10.777014666942705 0 0 0 0 229.96721345424885 35.86917322292993 0 35.86917322292993 -148.57495597015736 0 0 0 0 173.12713220158298 5.4571638548198784 0 5.4571638548198784 1.5887484533832978 0 0 0 0 120.99794608023512 -24.497028966978633 0 -24.497028966978633 -133.67433876491123 0 0 0 0 233.2305810758844 -0.10010042589419754 0 -0.10010042589419754 -169.71073252689894 0 0 0 0 5.1315466899759201 -32.707088765789287 0 -32.707088765789287 -1.5205365695548043 0 0 0 0 193.42199188102933 -35.36685733488801 0 -35.36685733488801 -3.3024551946828034 0 0 0 0 182.95650265109725 36.791176339297635 0 36.791176339297635 -48.434457682635184 0 0 0 0 71.899748542212535 -7.0997989384289326 0 -7.0997989384289326 -30.935530694958391 0 0 0 0 262.90628605088568 76.075587154252389 0 76.075587154252389 -84.754647961535284 0 0 0 0 223.4651261005929 46.960115014968324 0 46.960115014968324 -92.0262790292918 0 0 0 0 224.41672860443214 65.494660142728208 0 65.494660142728208 -44.854769519217371 0 0 0 0 222.70527281146497 84.439304930699109 0 84.439304930699109 -80.301418684732198 0 0 0 0 191.6924065387866 41.743363894418962 0 41.743363894418962 -1.4885448492082105 0 0 0 0 209.90568563441047 46.75213961257441 0 46.75213961257441 -56.12531734526101 0 0 0 0 294.45562602907739 14.257899154551296 0 14.257899154551296 -75.970880533788659 0 0 0 0 229.03105232617236 27.566061562752566 0 27.566061562752566 -68.130747571889515 0 0 0 0 224.12498564619455 11.5880026180389 0 11.5880026180389 -44.747444758492747 0 0 0 0 186.75341267187468 66.726440065815382 0 66.726440065815382 -6.3026508112998272 0 0 0 0 196.23070973656286 76.429486560229975 0 76.429486560229975 -6.7178280989423911 0 0 0 0 202.2554211387469 93.169961725683947 0 93.169961725683947 -6.0512491295144173 0 0 0 0 205.70022526514367 80.35646214910139 0 80.35646214910139 -43.806844940288528 0 0 0 0 197.15685854705225 66.244642875972204 0 66.244642875972204 11.503090272005579 0 0 0 0 227.48698629442515 71.319957759700429 0 71.319957759700429 -7.4914093620197946 0 0 0 0 198.67295252950862 74.727520084024036 0 74.727520084024036 -7.6780445909145101 0 0 0 0 154.03200179986015 90.721698572337459 0 90.721698572337459 32.067154585079834 0 0 0 0 219.94203169112006 87.037988486410768 0 87.037988486410768 17.848099202462208 0 0 0 0 252.62513024367217 -9.0106156795155812 0 -9.0106156795155812 17.27518242151632 0 0 0 0 228.50894482778676 56.196899704102179 0 56.196899704102179 -39.084825198853139 0 0 0 0 257.91849380452186 -5.5442519098639877 0 -5.5442519098639877 75.048309018522332 0 0 0 0 304.86635721106722 -20.12799575076474 0 -20.12799575076474 26.808224440071285 0 0 0 0 301.33677163610992 -63.17167671577522 0 -63.17167671577522 68.886177992480157 0 0 0 0 291.00407576841462 9.7051042532499139 0 9.7051042532499139 31.227306304090462 0 0 0 0 307.68239215583526 -29.028601296605956 0 -29.028601296605956 34.815037483383776 0 0 0 0 368.9962612662639 -30.499866350839682 0 -30.499866350839682 14.791618686962693 0 0 0 0 364.30958226357325 -41.660379081271969 0 -41.660379081271969 -5.035206323188504 0 0 0 0 54.271963348364807 23.029685752888895 0 23.029685752888895 30.697319449044699 0 0 0 0 294.37679982128611 10.550570344026028 0 10.550570344026028 19.740802714742841 0 0 0 0 190.02642697552074 146.37106118919016 0 146.37106118919016 69.466895482820405 0 0 0 0 1.0028856671598305 -0.088175156963304246 0 -0.088175156963304246 -0.096369649317561701 0 0 0 0 12.270702675756183 10.743828679980311 0 10.743828679980311 8.179625948792804 0 0 0 0 1.4968276894499013 0.50873393309640669 0 0.50873393309640669 -0.1498456520968583 0 0 0 0 1.4264848291303025 1.6669017478783417 0 1.6669017478783417 0.60285603329733295 0 0 0 0 0.4308552563743433 5.6349410942783607 0 5.6349410942783607 -4.1887174878443147 0 0 0 0 60.160402727226028 -8.2277120642976342 0 -8.2277120642976342 -7.6518769923986838 0 0 0 0 97.106651662754302 1.5091752264071374 0 1.5091752264071374 -14.060600578242884 0 0 0 0 35.498975473470637 33.351790147262136 0 33.351790147262136 20.16494833635204 0 0 0 0 0.72638065186026779 1.112594397256828 0 1.112594397256828 0.68342832926439812 0 0 0 0 -8.0464765374017588 9.2229814590198202 0 9.2229814590198202 -6.5766871631917638 0 0 0 0 -11.395212965893734 12.073515211116046 0 12.073515211116046 -5.0266899724308587 0 0 0 0 5.1961600346531327 5.8008376713663665 0 5.8008376713663665 -5.5341504137960875 0 0 0 0 -17.67600818414212 15.734990276687142 0 15.734990276687142 -8.4147199521630682 0 0 0 0 139.39249834463408 -92.469036577258862 0 -92.469036577258862 33.8014356074018 0 0 0 0 -20.758410958733293 18.840503463165646 0 18.840503463165646 -0.286889724276989 0 0 0 0 0.62876535834148228 0.74171741554349069 0 0.74171741554349069 0.013985501606697426 0 0 0 0 218.38441423751647 37.503397029008056 0 37.503397029008056 -4.676807941555694 0 0 0 0 171.0120453651034 -13.491643036805385 0 -13.491643036805385 22.173107662181451 0 0 0 0 102.45898203311663 7.1559657013556262 0 7.1559657013556262 39.394057989125145 0 0 0 0 97.5698768998991 -56.473460202846695 0 -56.473460202846695 37.206745243127557 0 0 0 0 104.51378784797998 -49.990488588188299 0 -49.990488588188299 43.169602802249983 0 0 0 0 7.7844315569239768 5.5114823051246162 0 5.5114823051246162 -5.5975888055102301 0 0 0 0 131.16881168782129 -47.092842529162283 0 -47.092842529162283 42.718291777969377 0 0 0 0 138.10444590553379 -59.504215219469415 0 -59.504215219469415 30.468985554403844 0 0 0 0 190.34272314947157 -15.549101975932103 0 -15.549101975932103 19.596767113669557 0 0 0 0 242.86490479692293 -32.94686107759793 0 -32.94686107759793 -2.109544055876313 0 0 0 0 244.0391287272214 -30.233541165139968 0 -30.233541165139968 -1.3994293310690864 0 0 0 0 185.94664450941491 -51.239206504232271 0 -51.239206504232271 32.386076863884625 0 0 0 0 203.33697676798329 -48.355552863832997 0 -48.355552863832997 18.789171735432888 0 0 0 0 207.57654583579642 -58.686560245396151 0 -58.686560245396151 11.663501450937247 0 0 0 0 244.31293933224515 -61.857693297999162 0 -61.857693297999162 15.871873129616461 0 0 0 0 240.16002791497158 -61.339977374225555 0 -61.339977374225555 15.873606069340175 0 0 0 0 -2.5589532877202146 5.2654937500187771 0 5.2654937500187771 -3.6740127780569196 0 0 0 0 8.752822808221481 4.9716316376233749 0 4.9716316376233749 -5.2033388965174971 0 0 0 0 -3.1256774221983505 7.4125850295972668 0 7.4125850295972668 -3.0095416189176376 0 0 0 0 -22.758433351147687 7.2177558698743951 0 7.2177558698743951 4.4699349964854989 0 0 0 0 -5.5317104342320818 7.3480320162149155 0 7.3480320162149155 -2.4371781070476572 0 0 0 0 1.3686453444385052 3.333383190713608 0 3.333383190713608 -0.53096464544230337 0 0 0 0 214.35006328963209 -94.429107234277751 0 -94.429107234277751 39.174565873926213 0 0 0 0 248.69036688562483 -99.603113573141172 0 -99.603113573141172 34.702575625172074 0 0 0 0 233.9414552327944 -84.704108728717756 0 -84.704108728717756 37.776300390520646 0 0 0 0 276.88395854170085 -70.060321303456249 0 -70.060321303456249 11.91900201514386 0 0 0 0 251.99381834702217 -71.038186664154807 0 -71.038186664154807 12.451016921543442 0 0 0 0 196.73735367879272 -67.95620773728001 0 -67.95620773728001 32.90196705513938 0 0 0 0 184.75768306406098 -82.071309554032567 0 -82.071309554032567 47.642380645295361 0 0 0 0 192.12439734156942 -88.198817318283659 0 -88.198817318283659 44.55395527407552 0 0 0 0 269.61177307952312 -109.83303603676219 0 -109.83303603676219 43.023728940827596 0 0 0 0 21.940188076026971 42.365114277653063 0 42.365114277653063 -77.725172401103165 0 0 0 0 6.805659333771473 36.134107544647016 0 36.134107544647016 -80.270843401957706 0 0 0 0 4.9941018214547626 6.3941680954285687 0 6.3941680954285687 -0.9152139878000165 0 0 0 0 332.62611893098801 -109.13764162677616 0 -109.13764162677616 35.265056062131691 0 0 0 0 -56.817981222244271 132.99255028312695 0 132.99255028312695 -123.35120385333485 0 0 0 0 13.538367958753952 71.971097852513154 0 71.971097852513154 -95.783899884891611 0 0 0 0 -47.645937703971867 87.282580575010343 0 87.282580575010343 -92.083254913900191 0 0 0 0 0.25263532382086851 45.766623488861576 0 45.766623488861576 -63.041486705532982 0 0 0 0 6.5988125696167117 -37.040808150364214 0 -37.040808150364214 -42.928336956969076 0 0 0 0 17.469390570644464 63.022810016959802 0 63.022810016959802 -161.15577607276123 0 0 0 0 23.18331520902575 -10.243744720707156 0 -10.243744720707156 -128.00860299594069 0 0 0 0 5.7925080356872058 32.301034163212826 0 32.301034163212826 -45.250273532300071 0 0 0 0 -56.032730954058934 90.472329714736176 0 90.472329714736176 -146.25353984968217 0 0 0 0 0.46180619686948887 0.60719746458121904 0 0.60719746458121904 -1.4479972072014364 0 0 0 0 19.849206234779558 39.095464641708588 0 39.095464641708588 -144.15252993752523 0 0 0 0 53.152410301830969 42.164785049701209 0 42.164785049701209 -159.2587396666548 0 0 0 0 4.6354935179915628 50.351482698463009 0 50.351482698463009 -43.35313414099366 0 0 0 0 4.3301576293015387 11.029720044435322 0 11.029720044435322 -167.40745761739879 0 0 0 0 62.102277291822247 -24.986994506130515 0 -24.986994506130515 -58.096599991575943 0 0 0 0 85.434345421017497 13.432741410176176 0 13.432741410176176 4.3388333241241384 0 0 0 0 42.188118152524112 -35.215480226884083 0 -35.215480226884083 47.639428448206594 0 0 0 0 49.197945697436808 2.5112645525968134 0 2.5112645525968134 9.2707640005834584 0 0 0 0 60.958842806590837 -16.507638022183524 0 -16.507638022183524 -8.2392406110674123 0 0 0 0 10.55913187826809 59.663425059873788 0 59.663425059873788 -46.340498584801693 0 0 0 0 138.32573776735808 -18.232377278341801 0 -18.232377278341801 -34.523635208848148 0 0 0 0 33.129289984834031 47.627432910481858 0 47.627432910481858 -106.82851719874833 0 0 0 0 17.931475361976482 52.08906982663494 0 52.08906982663494 -60.880395535243771 0 0 0 0 451.75067193243012 -81.206024847829582 0 -81.206024847829582 9.766668244138593 0 0 0 0 485.65932157634779 -28.572246855866826 0 -28.572246855866826 -4.7639978931275095 0 0 0 0 380.83833101084019 -30.275418220344307 0 -30.275418220344307 37.205430384752049 0 0 0 0 426.59080018165696 -37.009000750100967 0 -37.009000750100967 -7.4693201275533738 0 0 0 0 332.26339977869065 -5.095964303134167 0 -5.095964303134167 16.16299208835585 0 0 0 0 335.46517694863724 0.62538972028011131 0 0.62538972028011131 12.680252327745563 0 0 0 0 390.00391380311339 -26.113631333709719 0 -26.113631333709719 -19.591811243237885 0 0 0 0 334.06550399573462 -79.37073583729449 0 -79.37073583729449 -37.910442744116153 0 0 0 0 361.99757526961184 10.880267230733836 0 10.880267230733836 -55.830972183584606 0 0 0 0 305.41135256364942 28.989430999263547 0 28.989430999263547 -11.426563396061965 0 0 0 0 246.8374037261965 -87.557167340350091 0 -87.557167340350091 -198.71240193788202 0 0 0 0 26.484921809857042 -4.0209857956856965 0 -4.0209857956856965 -34.812204317598116 0 0 0 0 228.11657917490811 -44.141324421484597 0 -44.141324421484597 -54.048704446329012 0 0 0 0 100.31521741102551 -40.423549132640098 0 -40.423549132640098 25.113304906762778 0 0 0 0 267.48129413538845 -38.326435817386809 0 -38.326435817386809 0.10213520162555056 0 0 0 0 228.34892204837342 -48.677182261041636 0 -48.677182261041636 17.204086578008571 0 0 0 0 401.07549342634593 -88.27087001543984 0 -88.27087001543984 3.0376987325062146 0 0 0 0 346.93118895404041 -32.600996515745969 0 -32.600996515745969 -16.127323552482892 0 0 0 0 398.49665278389875 -23.085085759250411 0 -23.085085759250411 -9.7917077446132055 0 0 0 0 355.53619305406755 -84.122000774066535 0 -84.122000774066535 8.7527122343940427 0 0 0 0 457.36268262284284 -47.49561000685631 0 -47.49561000685631 0.00089610248357629985 0 0 0 0 452.22250756935682 -84.309890830208289 0 -84.309890830208289 4.6333358450746811 0 0 0 0 476.00885651524004 -81.642031226274469 0 -81.642031226274469 31.568348112251414 0 0 0 0 530.52360318886349 -15.156272882999787 0 -15.156272882999787 18.695669775489989 0 0 0 0 494.15327432541017 -51.487610901364107 0 -51.487610901364107 -6.1772407653974426 0 0 0 0 466.85494707370526 -30.729031160337811 0 -30.729031160337811 17.817098780966091 0 0 0 0 467.49599303019568 -34.26626892647613 0 -34.26626892647613 17.355460419596724 0 0 0 0 458.49639016542642 -65.863513395030964 0 -65.863513395030964 22.696493625969687 0 0 0 0 452.78653805128852 -53.240514860655665 0 -53.240514860655665 -0.99307770248168481 0 0 0 0 486.73646968141838 -31.788644871231526 0 -31.788644871231526 6.5839261863945637 0 0 0 0 382.75347680647246 -39.425570261579367 0 -39.425570261579367 20.480919162295677 0 0 0 0 388.28196137777559 -40.941251161224969 0 -40.941251161224969 32.92530505384407 0 0 0 0 402.41653512787889 -59.783352052067471 0 -59.783352052067471 18.843020114922538 0 0 0 0 313.69217186541937 -61.793204338929577 0 -61.793204338929577 50.342666013106189 0 0 0 0 272.63119706470752 -20.909122261100123 0 -20.909122261100123 16.183169861478056 0 0 0 0 360.51358957390767 -70.413051449724847 0 -70.413051449724847 11.791308499726867 0 0 0 0 107.17431815411692 17.780065202841328 0 17.780065202841328 42.583652983436039 0 0 0 0 306.83203180012242 7.8449154493112747 0 7.8449154493112747 11.525155345995088 0 0 0 0 1.5466095743245774 0.1727853798742558 0 0.1727853798742558 0.025566311296079086 0 0 0 0 260.69540657767357 -127.81398128041118 0 -127.81398128041118 17.851799063357134 0 0 0 0 73.889205387466063 101.72581638266774 0 101.72581638266774 15.861308801498925 0 0 0 0 353.22426402584824 2.657667183943774 0 2.657667183943774 30.850858114117827 0 0 0 0 380.75544384410023 -9.1078794045520137 0 -9.1078794045520137 -0.082878231677258662 0 0 0 0 354.11914181559769 -27.066698700958327 0 -27.066698700958327 75.997355627507972 0 0 0 0 359.64953788370985 -44.049468807648445 0 -44.049468807648445 43.864015491119908 0 0 0 0 399.21043066304992 -27.260576421313374 0 -27.260576421313374 27.610841497802497 0 0 0 0 382.65849807865743 -15.582535848502175 0 -15.582535848502175 21.937415134309781 0 0 0 0 451.72351554801571 -8.0915737237667287 0 -8.0915737237667287 12.3308202422206 0 0 0 0 343.31284188304562 -15.712453679739589 0 -15.712453679739589 12.296416155306936 0 0 0 0 389.72770063302596 -23.206099738563665 0 -23.206099738563665 -0.038490706166273203 0 0 0 0 186.45892349434143 113.24478201404322 0 113.24478201404322 32.870594684899828 0 0 0 0 524.41280464379815 39.847965030222326 0 39.847965030222326 24.898203681841466 0 0 0 0 519.76178125489969 -46.123825407027908 0 -46.123825407027908 5.6107423781862735 0 0 0 0 405.67441429762403 -42.779360266456663 0 -42.779360266456663 33.972503020411438 0 0 0 0 550.28462316552759 -11.159902640450078 0 -11.159902640450078 -9.525600772614041 0 0 0 0 523.90396915073507 -12.650214984312669 0 -12.650214984312669 12.965456691658773 0 0 0 0 452.34884663583944 -12.444299900256851 0 -12.444299900256851 18.321723833183825 0 0 0 0 425.46716026993818 -11.768460280637385 0 -11.768460280637385 32.063033748142118 0 0 0 0 451.4429397789645 -38.528049180379696 0 -38.528049180379696 16.421121543577435 0 0 0 0 471.15801015635952 -24.433851225390711 0 -24.433851225390711 19.62198804652337 0 0 0 0 473.11467521835584 -35.360573591888624 0 -35.360573591888624 21.099308317296078 0 0 0 0 507.02890856750309 -47.349670924559206 0 -47.349670924559206 21.198096760231348 0 0 0 0 470.61849017196801 -24.200022784651793 0 -24.200022784651793 21.244896701170433 0 0 0 0 462.93962924426887 -38.0695598247775 0 -38.0695598247775 15.092746676738926 0 0 0 0 187.23603954634746 -18.985463911819981 0 -18.985463911819981 37.055885109660345 0 0 0 0 0.72677521923057498 0.50392610334699839 0 0.50392610334699839 0.41495221997339138 0 0 0 0 233.25647927829414 -114.97457426161527 0 -114.97457426161527 4.423548423939323 0 0 0 0 72.497961929882877 23.229441967525815 0 23.229441967525815 44.936805030434527 0 0 0 0 47.183901508979034 -45.786535523233596 0 -45.786535523233596 75.765373571081071 0 0 0 0 41.073714642392588 -10.696055573209264 0 -10.696055573209264 89.06616030111465 0 0 0 0 98.87942134666082 -16.452706093927226 0 -16.452706093927226 50.7467985384529 0 0 0 0 7.6058126322022872 -45.514268062321591 0 -45.514268062321591 59.130389222964027 0 0 0 0 39.072172332918853 -16.154390459343119 0 -16.154390459343119 76.425816234935439 0 0 0 0 46.726833671367785 8.2321402097627097 0 8.2321402097627097 -62.044568372525738 0 0 0 0 2.9452220021473181 0.28964943944686183 0 0.28964943944686183 -0.088783104073754893 0 0 0 0 28.203958351310575 17.545129354161727 0 17.545129354161727 0.10378498488659113 0 0 0 0 11.864683033316396 -4.8426760841488727 0 -4.8426760841488727 -26.587547741841902 0 0 0 0 -24.495201515732333 -4.8957132956498652 0 -4.8957132956498652 0.029608605405252945 0 0 0 0 5.52950298225187 -23.873003544352429 0 -23.873003544352429 57.569016393398826 0 0 0 0 204.52445772451756 -108.66518792473107 0 -108.66518792473107 8.3292496115909529 0 0 0 0 143.2675176874327 -132.45840965746893 0 -132.45840965746893 52.46081069020417 0 0 0 0 70.848871558351675 37.61043304845338 0 37.61043304845338 -25.90896462984373 0 0 0 0 1.4588779348505341 -0.012854530819105037 0 -0.012854530819105037 -0.04713035025008265 0 0 0 0 1.1494052033219191 0.53078820225434242 0 0.53078820225434242 0.28994000833480971 0 0 0 0 195.26264899184753 24.029579512112186 0 24.029579512112186 100.75322371646098 0 0 0 0 300.62857575208182 -43.769873553922665 0 -43.769873553922665 -0.19572746724162141 0 0 0 0 557.472016652202 26.854131885008783 0 26.854131885008783 -29.992388094616331 0 0 0 0 0.67719586187831027 -0.43682876931003989 0 -0.43682876931003989 -0.48441579800511292 0 0 0 0 507.30616395460675 92.483478992599515 0 92.483478992599515 -3.8319891069558594 0 0 0 0 517.478284566605 102.0074539294184 0 102.0074539294184 0.080070852913373639 0 0 0 0 454.99290301110887 81.170203810863541 0 81.170203810863541 32.880782525531231 0 0 0 0 427.44216663780389 -45.972266275797523 0 -45.972266275797523 -70.547846522193851 0 0 0 0 207.4073985475552 -81.615434584338132 0 -81.615434584338132 36.974083179384309 0 0 0 0 89.353723835658457 86.273750482618198 0 86.273750482618198 51.352254834460695 0 0 0 0 577.42941559763858 39.465874544240847 0 39.465874544240847 -60.90232289500625 0 0 0 0 363.87990314084163 111.61279683312456 0 111.61279683312456 0.19020698741840647 0 0 0 0 441.5017416717601 -18.881693506778255 0 -18.881693506778255 1.6125275898065392 0 0 0 0 210.75868162250845 -13.12367843073946 0 -13.12367843073946 28.03948755839987 0 0 0 0 158.43029637006111 24.240410877466672 0 24.240410877466672 21.578299711257728 0 0 0 0 130.57313155228621 -44.761726994504329 0 -44.761726994504329 -7.8874684164465521 0 0 0 0 147.06100304277788 -24.162065286810215 0 -24.162065286810215 31.416610062005994 0 0 0 0 0.97131400701339032 -1.7996271007691576 0 -1.7996271007691576 -1.6831727529366431 0 0 0 0 37.545786190778017 28.406708426281508 0 28.406708426281508 41.185713529786952 0 0 0 0 238.33177250211884 77.829761191823536 0 77.829761191823536 32.544968277627504 0 0 0 0 227.35313351106743 25.170096640146774 0 25.170096640146774 87.321220662860981 0 0 0 0 170.73197760968469 41.843398121749956 0 41.843398121749956 -0.061350163961981501 0 0 0 0 192.72821987251518 80.749282774666483 0 80.749282774666483 -0.045298729084848333 0 0 0 0 56.732057201870703 40.190220516752554 0 40.190220516752554 57.254606773856707 0 0 0 0 380.75593541498529 148.10211373912074 0 148.10211373912074 46.214390958669831 0 0 0 0 491.7321370731006 92.732826652967432 0 92.732826652967432 0.37586811080120047 0 0 0 0 715.44218195739086 220.24646652425579 0 220.24646652425579 71.144592578991251 0 0 0 0 418.07176129390427 -22.884371964184883 0 -22.884371964184883 178.13151538081328 0 0 0 0 378.59260207867192 67.482233301934428 0 67.482233301934428 38.549434660318994 0 0 0 0 378.45189935575763 303.25507405730002 0 303.25507405730002 226.54796710416889 0 0 0 0 842.11643220880069 329.04020233480088 0 329.04020233480088 146.59331504190499 0 0 0 0 392.80348218159634 142.16812179051763 0 142.16812179051763 -40.962927767428766 0 0 0 0 -38.57105490808317 39.534219680978779 0 39.534219680978779 352.79363193605241 0 0 0 0 1.2444831741671862 -1.7924337236853205 0 -1.7924337236853205 2.5358971066945073 0 0 0 0 566.24874973681654 508.74636459064442 0 508.74636459064442 345.41014392018803 0 0 0 0 101.48268017800001 35.230621654715208 0 35.230621654715208 392.5100016602122 0 0 0 0 474.63051700084179 66.013930605652604 0 66.013930605652604 -16.998378565057635 0 0 0 0 286.59212633290008 20.650613908561599 0 20.650613908561599 65.04813095273046 0 0 0 0 470.7471587992477 103.85632376962616 0 103.85632376962616 -32.769588622169749 0 0 0 0 1.0268723259727608 -0.57659415985270357 0 -0.57659415985270357 1.5274095591409491 0 0 0 0 657.57464370502203 40.17620779525371 0 40.17620779525371 -28.752083554873273 0 0 0 0 714.36201105275541 148.45177664368538 0 148.45177664368538 -104.15776458249968 0 0 0 0 270.5822643621068 126.27121833677683 0 126.27121833677683 52.35572005508925 0 0 0 0 142.99452128841949 53.213157300888724 0 53.213157300888724 28.296646619350668 0 0 0 0 160.69479046373453 54.639897950504349 0 54.639897950504349 -4.1193742109858249 0 0 0 0 394.71853454365191 341.02435657757678 0 341.02435657757678 39.002763884514025 0 0 0 0 1506.5428673430724 -360.53861315871376 0 -360.53861315871376 -113.99912010133204 0 0 0 0 4.9048595185404622 4.4534721218191748 0 4.4534721218191748 3.5058057368820883 0 0 0 0 -180.38685225509107 287.81171160848601 0 287.81171160848601 34.408001954393228 0 0 0 0 644.8301995449292 -244.83715180462104 0 -244.83715180462104 60.49111936725933 0 0 0 0 -2.5969008285501332 -12.980605891620911 0 -12.980605891620911 -32.115612416771228 0 0 0 0 70.721470046089962 46.019856333260464 0 46.019856333260464 -112.42957212840935 0 0 0 0 213.42104393508635 -83.329248398719642 0 -83.329248398719642 -93.579820943941996 0 0 0 0 107.68826518118294 111.60322043708963 0 111.60322043708963 -4.916012021613767 0 0 0 0 476.07298393495876 -317.60631416190233 0 -317.60631416190233 3.1765862679412749 0 0 0 0 831.27296349129756 686.81871985962948 0 686.81871985962948 139.86750574652797 0 0 0 0 -0.82470231374877301 -0.25004098580720324 0 -0.25004098580720324 -5.5078173461125086 0 0 0 0 44.654751336034678 -12.887571077891266 0 -12.887571077891266 259.99539081121679 0 0 0 0 33.981127848514006 -45.222054589624577 0 -45.222054589624577 -45.363373309949566 0 0 0 0 118.34783728068578 29.912594880160782 0 29.912594880160782 -28.632421601810165 0 0 0 0 184.31683336363312 61.444260963565178 0 61.444260963565178 -77.929603166727475 0 0 0 0 92.711349503777456 29.289790486580387 0 29.289790486580387 -28.088939501408163 0 0 0 0 703.90497294526722 -26.792110024340445 0 -26.792110024340445 -152.18343952155396 0 0 0 0 261.54588117283129 127.19962852364165 0 127.19962852364165 -119.6856385856363 0 0 0 0 188.70412709878292 -11.976409306824735 0 -11.976409306824735 -54.55226445441167 0 0 0 0 57.456736263484345 15.616837162681577 0 15.616837162681577 -6.7294219339851225 0 0 0 0 72.114570446748985 29.238713405678482 0 29.238713405678482 -15.722693751493352 0 0 0 0 8.6038181924073314 6.4467382145354861 0 6.4467382145354861 -22.628090020764716 0 0 0 0 10.92210812740359 12.797197904793649 0 12.797197904793649 12.094330246145713 0 0 0 0 -108.29693442639109 114.75069854993598 0 114.75069854993598 -48.781263583181271 0 0 0 0 564.99835853123659 129.48489919261237 0 129.48489919261237 -429.96205463853221 0 0 0 0 691.77453046476876 -114.32565747543345 0 -114.32565747543345 -86.123190884977021 0 0 0 0 576.7910084617979 -192.72584502931886 0 -192.72584502931886 -69.716935134765663 0 0 0 0 607.14746839099098 -610.57240573662352 0 -610.57240573662352 409.65460932399037 0 0 0 0 136.54248749732506 -105.99972443300521 0 -105.99972443300521 -77.024454964297036 0 0 0 0 -446.42856022996421 756.5948852151239 0 756.5948852151239 710.0769538526929 0 0 0 0 1302.6490483483358 -255.52072052890799 0 -255.52072052890799 -462.33951814064767 0 0 0 0 -32.561026997354929 99.362609655034817 0 99.362609655034817 -19.748774822622124 0 0 0 0 11.261248381983023 -13.657463617448457 0 -13.657463617448457 36.211494015943799 0 0 0 0 10.901347792437633 15.886979912636292 0 15.886979912636292 19.345850829674777 0 0 0 0 74.617211744203814 -38.571013567481145 0 -38.571013567481145 -13.319288225606797 0 0 0 0 37.935345605321345 23.16897650032729 0 23.16897650032729 -40.894870919683513 0 0 0 0 60.095135894924169 63.905104955896661 0 63.905104955896661 3.278653356476525 0 0 0 0 165.40455699063023 37.831320503195798 0 37.831320503195798 -56.026595298239954 0 0 0 0 1.1935909422892799 -4.3790266958080508 0 -4.3790266958080508 -6.6663855070134233 0 0 0 0 368.9985847660646 5.4196889465846425 0 5.4196889465846425 2.4354421121346093 0 0 0 0 396.95428179273586 6.8017423381555986 0 6.8017423381555986 -20.923092543788641 0 0 0 0 378.40509823692264 -32.847127785002868 0 -32.847127785002868 -8.6620090170889199 0 0 0 0 500.47257696164888 -37.961431212541029 0 -37.961431212541029 -20.787144253286911 0 0 0 0 420.81886979524279 -141.2263407079223 0 -141.2263407079223 64.549196839434245 0 0 0 0 327.54136570953415 -88.919749934206919 0 -88.919749934206919 35.503234030957543 0 0 0 0 366.35106681594334 -89.391841957825761 0 -89.391841957825761 19.342797985220955 0 0 0 0 544.22685688783531 -159.40446182864926 0 -159.40446182864926 36.604434223902402 0 0 0 0 4.9974712285600447 3.7293602309218556 0 3.7293602309218556 -0.87506215717529345 0 0 0 0 413.07873093937815 22.921757876518186 0 22.921757876518186 -17.179021493145058 0 0 0 0 622.71796083457593 -43.998144148625443 0 -43.998144148625443 -39.058844279018956 0 0 0 0 507.45513650080829 -157.6599398612351 0 -157.6599398612351 115.6431771078008 0 0 0 0 1036.0415040460502 -319.96635870267119 0 -319.96635870267119 34.853560455400142 0 0 0 0 2.0855814252794858 1.3103086648961835 0 1.3103086648961835 -0.38629339879753744 0 0 0 0 -224.29525389409537 272.46876073285318 0 272.46876073285318 -106.88172674317659 0 0 0 0 275.42173535194161 160.59195607497529 0 160.59195607497529 -105.88836955139816 0 0 0 0 557.56390465373261 62.264629526550678 0 62.264629526550678 -38.202642884914326 0 0 0 0 833.58384053847112 91.600602119204041 0 91.600602119204041 -97.982525981689946 0 0 0 0 65.224430240865331 -32.236004829879192 0 -32.236004829879192 21.646348969883093 0 0 0 0 1.257579888044738 -3.3008908844922473 0 -3.3008908844922473 -2.7084463767145142 0 0 0 0 109.26754316484585 -23.478745341389924 0 -23.478745341389924 -18.277014784826633 0 0 0 0 101.58455130438961 -22.06386864522085 0 -22.06386864522085 14.374768787912231 0 0 0 0 461.19627014127036 -28.763590494124202 0 -28.763590494124202 115.1319215641598 0 0 0 0 1.3917841082297286 -3.9652698992653939 0 -3.9652698992653939 -4.1786459196188606 0 0 0 0 145.79343482803051 -4.1144665151840272 0 -4.1144665151840272 -31.166269918770467 0 0 0 0 1173.692128057337 164.57813312427257 0 164.57813312427257 0.60697280368898365 0 0 0 0 2070.5951943286054 -74.132416538652308 0 -74.132416538652308 98.404619842904651 0 0 0 0 17.78622490126439 -14.451173956678019 0 -14.451173956678019 6.6106783892734944 0 0 0 0 3492.111422176451 -888.97160712616301 0 -888.97160712616301 22.325831052686837 0 0 0 0 68.534183872785491 7.6085704976008302 0 7.6085704976008302 -5.446900057600244 0 0 0 0 18.361629287486721 -203.76151260344108 0 -203.76151260344108 -522.1645331792372 0 0 0 0 179.1439647480147 70.492351875824852 0 70.492351875824852 -71.843307263257771 0 0 0 0 -22.599814503344533 -187.8457246869649 0 -187.8457246869649 -355.52772127087815 0 0 0 0 83.533803514947067 -51.684015073273599 0 -51.684015073273599 63.868432209435809 0 0 0 0 11.01955379238332 3.8826280633232955 0 3.8826280633232955 -4.6125178306020711 0 0 0 0 1489.0672919630742 1336.2388523198031 0 1336.2388523198031 1221.8225887975575 0 0 0 0 11.16075662081164 0.71398565374580869 0 0.71398565374580869 3.0838895171233132 0 0 0 0 3490.7310360592628 931.24686149173203 0 931.24686149173203 -266.86686602332543 0 0 0 0 102.09256536672183 -0.44068305815039821 0 -0.44068305815039821 184.99649167417829 0 0 0 0 1075.9088860704796 52.253330070224301 0 52.253330070224301 70.809601280392215 0 0 0 0 894.8944131287717 -170.25000337443112 0 -170.25000337443112 -110.87343988594557 0 0 0 0 194.11855864993413 124.77509569372006 0 124.77509569372006 124.68998652239236 0 0 0 0 66.07745272865435 11.133305251240543 0 11.133305251240543 -3.7368390543840126 0 0 0 0 864.88428477314301 -384.56992886975524 0 -384.56992886975524 180.98429497663085 0 0 0 0 1788.9966429226406 -320.02981752385472 0 -320.02981752385472 -234.02865402480251 0 0 0 0 1744.9201412701314 464.17314652887075 0 464.17314652887075 -176.66583070666746 0 0 0 0 947.43763715403475 226.94453314232479 0 226.94453314232479 -0.29735837105749729 0 0 0 0 1605.790226153862 378.5733598013241 0 378.5733598013241 -46.478526393661809 0 0 0 0 675.47273296961794 401.45962086384395 0 401.45962086384395 90.65395025179572 0 0 0 0 2016.9949552845792 443.77341851985756 0 443.77341851985756 -203.78956897966043 0 0 0 0 1756.6116129530346 1052.4506690862936 0 1052.4506690862936 315.95716699352732 0 0 0 0 -31.869934840273345 460.65056190510745 0 460.65056190510745 1132.0022524245069 0 0 0 0 299.80804536040523 -35.581007823415518 0 -35.581007823415518 1.8023413678837414 0 0 0 0 -528.49033756237259 -104.81459257966725 0 -104.81459257966725 903.31407311931662 0 0 0 0 1752.1863697829758 812.68338544504036 0 812.68338544504036 -188.91452929537331 0 0 0 0 0.19225035840246107 -1.0018113067668253 0 -1.0018113067668253 -9.3019439273529674 0 0 0 0 109.16041569181107 65.424870397920131 0 65.424870397920131 -23.532566136500918 0 0 0 0 113.39083899595425 51.169723589630394 0 51.169723589630394 -79.060030970459081 0 0 0 0 91.573682087255293 33.498541307056257 0 33.498541307056257 3.6280624491791968 0 0 0 0 95.87845684500644 30.407888061498397 0 30.407888061498397 -31.381865190275676 0 0 0 0 57.640097181411704 18.00285412296596 0 18.00285412296596 -4.9291134329780979 0 0 0 0 98.244354081514757 22.177303321306681 0 22.177303321306681 -20.952750098055276 0 0 0 0 115.28613316244446 31.420123249305107 0 31.420123249305107 -21.707999841977653 0 0 0 0 121.44015629485875 48.592790090861286 0 48.592790090861286 -18.399476332910126 0 0 0 0 21.981482098466216 10.697539427378047 0 10.697539427378047 -25.176778394912006 0 0 0 0 -141.83821361308219 -340.47670037972648 0 -340.47670037972648 -279.86746778447196 0 0 0 0 855.49121439628652 271.82961071953514 0 271.82961071953514 102.24588208274417 0 0 0 0 0.31709794043348438 5.382287933082134 0 5.382287933082134 4.3237517177811231 0 0 0 0 -673.04704319144366 -210.2983848690601 0 -210.2983848690601 78.219993585296834 0 0 0 0 22.257443524722476 20.031458341773941 0 20.031458341773941 -20.683885978911349 0 0 0 0 69.851220743337763 52.693079323366874 0 52.693079323366874 3.0199648652178439 0 0 0 0 54.967919116978749 23.197406232535798 0 23.197406232535798 -9.524277588552355 0 0 0 0 72.785218378491777 35.736465489049905 0 35.736465489049905 1.8250882576705516 0 0 0 0 51.020680493533746 20.620665804382071 0 20.620665804382071 -6.742562574240587 0 0 0 0 992.81400911782112 84.447428428367402 0 84.447428428367402 119.2185895269605 0 0 0 0 183.07316488575452 163.8546274481655 0 163.8546274481655 -731.34736934411194 0 0 0 0 52.974860834813853 38.821308228673843 0 38.821308228673843 17.301013866742515 0 0 0 0 1135.99708403369 -183.6937803042872 0 -183.6937803042872 -608.61875783937444 0 0 0 0 575.37394321388274 -685.38274311902342 0 -685.38274311902342 -115.38995248467381 0 0 0 0 418.26065854672925 1826.8520261748226 0 1826.8520261748226 1318.2544150106767 0 0 0 0 5598.7155757772998 -1473.8576428865449 0 -1473.8576428865449 141.00575837466613 0 0 0 0 20.926214943589883 13.596752440853848 0 13.596752440853848 10.741677523871694 0 0 0 0 1464.589824742804 -530.5879356180003 0 -530.5879356180003 199.97404821850432 0 0 0 0 1316.513995436093 309.96898613265034 0 309.96898613265034 -39.855037986270872 0 0 0 0 3239.6739334893646 536.02932786913311 0 536.02932786913311 -25.368492161426957 0 0 0 0 5319.3438983206979 1586.8130368440507 0 1586.8130368440507 505.43493283311 0 0 0 0 2593.0400475746719 1365.3772741003329 0 1365.3772741003329 2576.3795705078842 0 0 0 0 2856.3805241329683 -173.0405725910648 0 -173.0405725910648 1587.2691488762339 0 0 0 0 5177.3737687310495 2654.8919219375189 0 2654.8919219375189 -311.46836787448228 0 0 0 0 4429.3992868888599 2077.949335983998 0 2077.949335983998 -635.45312105965809 0 0 0 0 4350.3710225360846 1520.5275119763023 0 1520.5275119763023 -120.79537134462566 0 0 0 0 1898.7511599148347 184.94553206912855 0 184.94553206912855 2346.3521199885458 0 0 0 0 2594.9599534418376 3359.7876440759401 0 3359.7876440759401 -1497.5846438621011 0 0 0 0 30.151830018086741 7.5316808442332572 0 7.5316808442332572 -0.039407771029100314 0 0 0 0 3634.7408736247889 -1681.2764677701921 0 -1681.2764677701921 453.59117102411813 0 0 0 0 510.1968608055904 151.40403025550347 0 151.40403025550347 -2081.9874023647772 0 0 0 0 266.22914945721277 -636.62924015835335 0 -636.62924015835335 -187.71471899739709 0 0 0 0 -260.78340344328899 -971.92906541948082 0 -971.92906541948082 1347.6660583035036 0 0 0 0 -123.45212617258221 1221.946934685272 0 1221.946934685272 951.06025418237436 0 0 0 0 1302.3249607149628 -1058.6233013341289 0 -1058.6233013341289 -1009.5700363802558 0 0 0 0 1915.0919763586498 291.48717108008731 0 291.48717108008731 1192.6173140904039 0 0 0 0 3097.9689918581025 1114.748176861536 0 1114.748176861536 286.4693548412497 0 0 0 0 436.9124183638196 709.62380947930046 0 709.62380947930046 864.55842284116363 0 0 0 0 1940.3985558971872 551.10746384957099 0 551.10746384957099 -364.11977749291395 0 0 0 0 11.35941485359308 -4.666235370833391 0 -4.666235370833391 2.5870283131975711 0 0 0 0 -407.08008216474263 -216.05448117187908 0 -216.05448117187908 497.11823829387549 0 0 0 0 860.15550142684515 -1505.5696827319698 0 -1505.5696827319698 1167.6479263948318 0 0 0 0 10.412655640909747 -5.7885589055047291 0 -5.7885589055047291 3.126289883819894 0 0 0 0 3359.7758868341043 -928.03405596387279 0 -928.03405596387279 -483.4327787807743 0 0 0 0 3490.3391767526409 -1209.5306127109116 0 -1209.5306127109116 -190.15723471635698 0 0 0 0 1485.2291772902099 40.787802646316365 0 40.787802646316365 -305.62514920309815 0 0 0 0 3.6151967084124337 -5.6891968069037375 0 -5.6891968069037375 2.4711445503666609 0 0 0 0 -911.1527873333107 -618.20838581615362 0 -618.20838581615362 93.559518662045775 0 0 0 0 4780.698703634218 -897.95625206616319 0 -897.95625206616319 -139.49194700863848 0 0 0 0 -169.6026606617088 -815.60705413199366 0 -815.60705413199366 -129.63230990643336 0 0 0 0 -128.86384388193255 -227.99298009035732 0 -227.99298009035732 -93.548413448742167 0 0 0 0 -469.43601541210228 -439.34999614414272 0 -439.34999614414272 84.930528777688494 0 0 0 0 -237.78053808123514 -367.45143226699781 0 -367.45143226699781 -157.44767868033273 0 0 0 0 -234.00575252607814 -394.41700670780028 0 -394.41700670780028 -2.430064494252747 0 0 0 0 -57.219182740707765 -333.67524948964797 0 -333.67524948964797 -449.72049301564869 0 0 0 0 -528.95777675505087 -230.22727125756194 0 -230.22727125756194 -65.30027968335753 0 0 0 0 -66.361520493715943 -335.31391776217788 0 -335.31391776217788 -121.54923939526998 0 0 0 0 3506.1032660686542 243.39029336751366 0 243.39029336751366 122.41071277659843 0 0 0 0 2780.3302130363518 -275.21385938013611 0 -275.21385938013611 -49.070977403279876 0 0 0 0 3109.1490645252561 -262.83466590355096 0 -262.83466590355096 -48.767923283601668 0 0 0 0 3499.1009224029549 -143.99297589159752 0 -143.99297589159752 -197.35700496157094 0 0 0 0 3501.9981232299033 -676.30922495981531 0 -676.30922495981531 72.921030566218647 0 0 0 0 2451.4397132289159 -734.64263501269249 0 -734.64263501269249 264.70082202166736 0 0 0 0 3490.6965902550069 -1180.4753226158273 0 -1180.4753226158273 452.75444045243103 0 0 0 0 2172.8856811056339 -108.78498936867382 0 -108.78498936867382 353.43580373332009 0 0 0 0 2748.9915963767926 -170.10573792438336 0 -170.10573792438336 349.8736519044034 0 0 0 0 2003.0803272760022 227.68300163845893 0 227.68300163845893 842.40732149756889 0 0 0 0 2801.0513742723851 431.40236295885535 0 431.40236295885535 -81.767990006019772 0 0 0 0 2159.9800874009379 854.81453976816806 0 854.81453976816806 253.83513826617582 0 0 0 0 2572.464524249197 78.956061155610797 0 78.956061155610797 20.45642567510356 0 0 0 0 2564.6726423080472 69.347954954827813 0 69.347954954827813 55.862004038980359 0 0 0 0 2798.9631152900474 -114.0145179482777 0 -114.0145179482777 10.057102783465432 0 0 0 0 2859.509425919965 -63.783662908745796 0 -63.783662908745796 -49.252989192213391 0 0 0 0 2656.6141029052742 45.794442702897506 0 45.794442702897506 -88.780025695987149 0 0 0 0 2588.2563145718741 -50.978188968437081 0 -50.978188968437081 -167.53758331906766 0 0 0 0 1771.1210906552878 184.41812153882444 0 184.41812153882444 -108.94948939014307 0 0 0 0 2870.0757105335506 40.620178578790984 0 40.620178578790984 -86.273898139386631 0 0 0 0 2.3742064305327091 -2.88539081182833 0 -2.88539081182833 1.008272783539768 0 0 0 0 2455.3068023219093 -119.13657988181296 0 -119.13657988181296 -104.74488486114757 0 0 0 0 2494.5916790107585 139.05268788096421 0 139.05268788096421 -23.829326094117846 0 0 0 0 2631.4918221260086 165.45492252766587 0 165.45492252766587 93.723583968057937 0 0 0 0 3174.3117863507941 604.4593714744733 0 604.4593714744733 -80.713677227807921 0 0 0 0 1757.5329134409039 150.33733574362589 0 150.33733574362589 17.920716549933616 0 0 0 0 3325.3156809538486 -503.86826159811267 0 -503.86826159811267 -186.64934052615706 0 0 0 0 2634.4347381469202 146.51201648841715 0 146.51201648841715 -132.58259470906171 0 0 0 0 107.42945183312986 15.304498102330001 0 15.304498102330001 -84.086427363361963 0 0 0 0 224.55366027417767 34.486224278930067 0 34.486224278930067 -81.461088059015779 0 0 0 0 1447.5378847546162 -387.70890752243037 0 -387.70890752243037 121.62726151749882 0 0 0 0 93.116336996667087 -2.4731971834573869 0 -2.4731971834573869 -44.605055065776469 0 0 0 0 16.956245844905126 -3.4492953525773657 0 -3.4492953525773657 2.2903765385431472 0 0 0 0 95.491809051178279 13.701544775564116 0 13.701544775564116 22.713883163822928 0 0 0 0 47.613397043533041 25.853761697544655 0 25.853761697544655 -27.916294935692576 0 0 0 0 95.346049907020642 15.749257258549676 0 15.749257258549676 -40.383893054186245 0 0 0 0 61.467892020122463 8.0602529206240519 0 8.0602529206240519 -10.825838386266296 0 0 0 0 98.836350544610468 -4.64180416898499 0 -4.64180416898499 -32.808814927448566 0 0 0 0 75.086507904419705 46.917451483523678 0 46.917451483523678 -26.305548848351464 0 0 0 0 66.132225130017105 58.13777107526456 0 58.13777107526456 -33.110887299949866 0 0 0 0 87.653111620091295 125.20565289769857 0 125.20565289769857 -43.75413130281774 0 0 0 0 -272.80300965762581 86.305334850648379 0 86.305334850648379 54.139027881142511 0 0 0 0 339.68958494465915 14.235030294541161 0 14.235030294541161 -70.347086635914309 0 0 0 0 -18.266730924096919 -206.39575326868496 0 -206.39575326868496 -62.682518548640147 0 0 0 0 566.58357066239842 227.26090637641761 0 227.26090637641761 -43.685464109072882 0 0 0 0 1045.7622680454369 -417.278792476398 0 -417.278792476398 -24.812407721866293 0 0 0 0 299.36583967927436 51.265709911029035 0 51.265709911029035 209.88275172610105 0 0 0 0 -153.13938991683972 269.38779264490211 0 269.38779264490211 -66.63245352596914 0 0 0 0 300.13153055350995 52.4098194313828 0 52.4098194313828 -122.53208198350326 0 0 0 0 32.188039508633665 298.16423896101628 0 298.16423896101628 -96.887940862715254 0 0 0 0 -16.532601937719548 23.152284907229969 0 23.152284907229969 15.346736146690365 0 0 0 0 -57.683573528418492 3.1350378691153651 0 3.1350378691153651 221.53293320823994 0 0 0 0 201.00825663114665 267.37651871402807 0 267.37651871402807 196.98903773710958 0 0 0 0 1171.8097977081998 357.05227195352813 0 357.05227195352813 67.240729817616625 0 0 0 0 672.441968887244 -85.498359949739836 0 -85.498359949739836 107.89280583940356 0 0 0 0 475.06082053095452 -47.156665759219926 0 -47.156665759219926 -39.257426325662323 0 0 0 0 404.24596290465706 34.691606384061458 0 34.691606384061458 283.70328780027603 0 0 0 0 43.747927194801974 -8.5857168090959135 0 -8.5857168090959135 10.628714542891212 0 0 0 0 228.07810141416849 52.31786136465189 0 52.31786136465189 -220.53052870265628 0 0 0 0 -21.369345405311932 42.301050999967629 0 42.301050999967629 15.053070960317983 0 0 0 0 108.11434796539106 59.79562511682866 0 59.79562511682866 -2.3001480184029788 0 0 0 0 12.13925295904005 8.9433070474859022 0 8.9433070474859022 3.3962530931611212 0 0 0 0 -112.53489480779535 200.60923894105417 0 200.60923894105417 -109.75746186334527 0 0 0 0 -190.46711865789257 59.269902447878849 0 59.269902447878849 29.631894756616703 0 0 0 0 -35.615703236922855 -164.4847924531075 0 -164.4847924531075 -670.71380180430629 0 0 0 0 121.78839043848711 122.52871850445132 0 122.52871850445132 -237.28582669422326 0 0 0 0 261.53931765466405 -28.679059588991493 0 -28.679059588991493 -159.20812790158197 0 0 0 0 360.27472186177329 -89.357412069432485 0 -89.357412069432485 2.9853269448756237 0 0 0 0 144.00622300497344 -42.155866901367148 0 -42.155866901367148 221.86307097168259 0 0 0 0 1041.4280117417147 -462.85491669601385 0 -462.85491669601385 122.92779617134295 0 0 0 0 219.62391166535417 -550.95561026176824 0 -550.95561026176824 418.53927169043777 0 0 0 0 30.096992338174459 153.75102579106408 0 153.75102579106408 37.704473587229586 0 0 0 0 118.88184837094741 -46.47526618023403 0 -46.47526618023403 343.66772883174991 0 0 0 0 114.21299901307066 -325.47526182954448 0 -325.47526182954448 -493.21827412155926 0 0 0 0 431.06079135596519 297.28131655908328 0 297.28131655908328 -615.39418349926189 0 0 0 0 167.43076153490983 412.79118062260795 0 412.79118062260795 202.29397045268161 0 0 0 0 296.79247859946918 481.46221239636634 0 481.46221239636634 198.17110590806169 0 0 0 0 2.8751440772312833 18.964367303632848 0 18.964367303632848 6.6109862511730784 0 0 0 0 2967.8151777188541 994.4774281395396 0 994.4774281395396 324.74838438117837 0 0 0 0 11.944740687771713 -7.807537785696347 0 -7.807537785696347 4.9798999545422848 0 0 0 0 392.40621474258296 -741.53046840895217 0 -741.53046840895217 447.95839884467091 0 0 0 0 1032.3813233074179 -500.12381309509266 0 -500.12381309509266 227.83302809575071 0 0 0 0 2675.445459861643 -1001.91679396785 0 -1001.91679396785 -16.787931860917013 0 0 0 0 2814.0266230175621 522.483298450956 0 522.483298450956 442.14175457252884 0 0 0 0 2232.1894156373019 -13.747006192876256 0 -13.747006192876256 54.308280997719692 0 0 0 0 3230.2799580445862 -287.48210869778228 0 -287.48210869778228 61.326778374764295 0 0 0 0 2491.5853751640461 -204.55700778196979 0 -204.55700778196979 943.03258528273216 0 0 0 0 2430.2064837475191 -36.922955185151721 0 -36.922955185151721 58.126243464321114 0 0 0 0 2557.3076858958229 202.65431201876345 0 202.65431201876345 -166.19235350570074 0 0 0 0 1013.8897962707379 762.87928228363603 0 762.87928228363603 323.58536035445536 0 0 0 0 2207.1015419602336 -35.360490905354993 0 -35.360490905354993 -236.64263181250195 0 0 0 0 1246.1742247365491 174.99345511240881 0 174.99345511240881 -44.567820504554334 0 0 0 0 2263.5436273411833 83.288732162710048 0 83.288732162710048 -76.973149775315733 0 0 0 0 2660.9306153003126 -17.905224578920752 0 -17.905224578920752 -221.09888713947163 0 0 0 0 2649.9150465113767 -189.00013850840656 0 -189.00013850840656 8.9854329367670402 0 0 0 0 2751.8698476268619 5.5863533901687275 0 5.5863533901687275 37.194650653366466 0 0 0 0 2748.0792043110341 -52.735923199404624 0 -52.735923199404624 174.30823954039539 0 0 0 0 2659.0847275858032 130.38053531217309 0 130.38053531217309 269.59125928368542 0 0 0 0 2464.3217901636672 -21.230813708122721 0 -21.230813708122721 173.52005128781732 0 0 0 0 2411.7805635935511 337.41191646070769 0 337.41191646070769 277.67143237346977 0 0 0 0 2705.8552387474228 79.959480970545357 0 79.959480970545357 58.97638775937321 0 0 0 0 3012.8359250519643 261.49584500572013 0 261.49584500572013 -53.627924341861657 0 0 0 0 2793.0786259013476 381.90276614133143 0 381.90276614133143 -72.118019257313875 0 0 0 0 3499.8920695278393 359.27816084850389 0 359.27816084850389 -310.81912412967358 0 0 0 0 3037.5999369802084 233.42588992966247 0 233.42588992966247 -264.90415083592592 0 0 0 0 3499.7248235875886 91.866026011283452 0 91.866026011283452 -233.67807027043182 0 0 0 0 3062.194194219097 -87.889125739580464 0 -87.889125739580464 -72.388514277525331 0 0 0 0 3079.6597587284705 -41.25499592439899 0 -41.25499592439899 -210.62633833972083 0 0 0 0 2.1073338323994548 0.78021671707043083 0 0.78021671707043083 -1.0002839774388459 0 0 0 0 13.385727171684266 4.7223118979605374 0 4.7223118979605374 -8.1424906746050283 0 0 0 0 398.71322614486417 -55.185757289091327 0 -55.185757289091327 -11.383523488920787 0 0 0 0 2.1835623023725361 0.48688687040009881 0 0.48688687040009881 -0.2211830649626747 0 0 0 0 -280.601594875101 -56.764212359156659 0 -56.764212359156659 103.07100548214385 0 0 0 0 1.9540153920424927 -98.746730728980765 0 -98.746730728980765 142.45785347183954 0 0 0 0 -21.08204557640056 32.446654635980742 0 32.446654635980742 -22.597960183908526 0 0 0 0 -58.614222193151363 -142.3851827855126 0 -142.3851827855126 -7.1998482016651906 0 0 0 0 9.3947807921067579 -65.048628199418545 0 -65.048628199418545 31.79411477429403 0 0 0 0 -3.821086746653215 0.42913727073616315 0 0.42913727073616315 -15.487701299005632 0 0 0 0 -85.318838154315017 -104.99304226834545 0 -104.99304226834545 68.383154022493045 0 0 0 0 162.83155504064052 27.132382392243699 0 27.132382392243699 -72.116632013225171 0 0 0 0 321.64365422559786 -24.879334081828688 0 -24.879334081828688 -115.63057055911486 0 0 0 0 295.40142096864292 -120.28271929247308 0 -120.28271929247308 -62.405039354199289 0 0 0 0 416.74172636235016 -33.239613407125262 0 -33.239613407125262 -100.39768013841797 0 0 0 0 387.30248779463 -10.358280127003582 0 -10.358280127003582 -109.20737573958968 0 0 0 0 365.82203113581636 -33.239546980017394 0 -33.239546980017394 -62.521837859489551 0 0 0 0 356.72862606524723 -1.7801019015452084 0 -1.7801019015452084 -54.597335522126741 0 0 0 0 354.08774418896064 -57.222179319478528 0 -57.222179319478528 -102.43232822732851 0 0 0 0 237.9088565268612 48.969515765606729 0 48.969515765606729 -3.3999312617800115 0 0 0 0 280.36052878368355 109.08541531797505 0 109.08541531797505 -33.898443632951057 0 0 0 0 431.06989314097154 39.866295286418449 0 39.866295286418449 -69.034664633428292 0 0 0 0 313.00336376932682 25.970530869713912 0 25.970530869713912 -69.894828573788956 0 0 0 0 284.80016295464884 3.3918830266529767 0 3.3918830266529767 -27.939655209957436 0 0 0 0 230.17663757629634 49.914016596659508 0 49.914016596659508 -2.7414659140242179 0 0 0 0 295.5518406778865 -3.1081283168663276 0 -3.1081283168663276 -24.561570965307169 0 0 0 0 295.65093420942867 -3.8344458540706796 0 -3.8344458540706796 -39.851837054724456 0 0 0 0 297.36093676500604 -24.999191080044397 0 -24.999191080044397 -16.653811447894441 0 0 0 0 325.60918394231703 -18.964607561880598 0 -18.964607561880598 -33.133722133532274 0 0 0 0 299.14235644505243 -14.470656360028556 0 -14.470656360028556 -20.252099818061311 0 0 0 0 256.87779674833291 -7.199932478817459 0 -7.199932478817459 -16.306368145623878 0 0 0 0 328.62636021326762 -25.872301458583138 0 -25.872301458583138 -4.0017191669618342 0 0 0 0 306.14907277727616 -65.143701656134084 0 -65.143701656134084 -37.633438373276022 0 0 0 0 332.50669170959736 -37.12335788816722 0 -37.12335788816722 -49.511294645614271 0 0 0 0 341.03998175787274 -24.911141852776154 0 -24.911141852776154 -25.901310758910313 0 0 0 0 325.68525598789711 -17.81831436182955 0 -17.81831436182955 -26.311652352489091 0 0 0 0 351.30385376128834 -5.682062086054998 0 -5.682062086054998 -22.543133612626605 0 0 0 0 324.90153465399635 -21.962263875971132 0 -21.962263875971132 -23.619536953058514 0 0 0 0 326.28959674926591 -13.629130186216685 0 -13.629130186216685 -13.00901199550276 0 0 0 0 334.30597839631082 -16.906037164779903 0 -16.906037164779903 -24.259327706996487 0 0 0 0 344.74445646433742 -10.51030806732507 0 -10.51030806732507 -22.058398981806988 0 0 0 0 344.06203689354152 -12.827119813393608 0 -12.827119813393608 -16.202418918163403 0 0 0 0 275.58258380298503 -43.094338181464877 0 -43.094338181464877 -6.012861787136444 0 0 0 0 282.63567407231312 -22.832928409589954 0 -22.832928409589954 -9.4889292474606464 0 0 0 0 315.64170633655158 -35.26693303473553 0 -35.26693303473553 -13.893695743908665 0 0 0 0 312.96432364660723 -37.504489384746705 0 -37.504489384746705 -15.552277458005165 0 0 0 0 331.1790577568463 -14.269552502113527 0 -14.269552502113527 -18.286170906649943 0 0 0 0 249.33264951921592 -44.259619106964593 0 -44.259619106964593 1.5276160558237279 0 0 0 0 288.76970609195996 -50.951783776299749 0 -50.951783776299749 2.2989637941783485 0 0 0 0 327.30675724090543 -65.968672149901323 0 -65.968672149901323 5.3308659669480107 0 0 0 0 298.38258773976122 -58.498718275068313 0 -58.498718275068313 -1.1930872703360365 0 0 0 0 288.74152888025856 -76.681825977852782 0 -76.681825977852782 11.166004745650852 0 0 0 0 305.9014055748703 -53.656449008355708 0 -53.656449008355708 0.87850407280006948 0 0 0 0 354.17203557377798 -42.564548301075263 0 -42.564548301075263 -13.291742371646222 0 0 0 0 315.22024759955821 -65.120816615543021 0 -65.120816615543021 8.1679459656826339 0 0 0 0 321.07392487171455 -76.605337766534007 0 -76.605337766534007 10.984777516713443 0 0 0 0 369.60447575210128 -19.803336465975946 0 -19.803336465975946 -25.971676506502334 0 0 0 0 345.49666810124472 -31.983497099923973 0 -31.983497099923973 -11.32442689849529 0 0 0 0 395.33700974751264 -36.824484641476637 0 -36.824484641476637 -16.067134918614045 0 0 0 0 2.8602823181724162 -3.2233788788858249 0 -3.2233788788858249 -8.5624442009341166 0 0 0 0 56.687373302927881 50.904051593656121 0 50.904051593656121 -22.683345225390894 0 0 0 0 297.40029664247413 2.6212697833724405 0 2.6212697833724405 -10.630813639351004 0 0 0 0 283.6263975392867 -14.279716616980323 0 -14.279716616980323 2.9136558528919068 0 0 0 0 333.55008882193215 15.087688580534518 0 15.087688580534518 -20.322539543235877 0 0 0 0 315.52517005491245 -29.418967108865616 0 -29.418967108865616 -7.3375730278042965 0 0 0 0 -552.08220809277555 178.84461227939255 0 178.84461227939255 97.333623446682623 0 0 0 0 8.591949446443806 12.643961439666754 0 12.643961439666754 17.504396944892715 0 0 0 0 -60.597635932099365 -114.21109981583922 0 -114.21109981583922 27.474067010683939 0 0 0 0 -42.315369952411857 -4.2075161443831348 0 -4.2075161443831348 -72.012306303819059 0 0 0 0 -347.56548665857554 -294.12348095130687 0 -294.12348095130687 164.88969221987827 0 0 0 0 574.66350539348787 -508.97232792478781 0 -508.97232792478781 37.307470742868873 0 0 0 0 1333.9453664928442 -0.8169490208224488 0 -0.8169490208224488 -248.53610097442197 0 0 0 0 1129.7166540687467 542.11636168247946 0 542.11636168247946 2.4225666294355506 0 0 0 0 13.345713907203788 0.49711736379159754 0 0.49711736379159754 0.68584752652639702 0 0 0 0 521.05741228582337 459.27121370011901 0 459.27121370011901 430.08074572902933 0 0 0 0 18.586145776760532 110.37452363417106 0 110.37452363417106 203.65660292884786 0 0 0 0 459.69886483100709 381.39325525852246 0 381.39325525852246 151.36037874997237 0 0 0 0 763.59915799835289 236.9972340641682 0 236.9972340641682 -131.5719537765799 0 0 0 0 762.45576705716667 214.07535292606553 0 214.07535292606553 -131.01400324809291 0 0 0 0 801.66352469533012 164.35598800262358 0 164.35598800262358 -77.895946564783117 0 0 0 0 484.44287262237049 -148.94499052516653 0 -148.94499052516653 -64.208520084816428 0 0 0 0 454.78690599187394 -27.838965199892982 0 -27.838965199892982 -157.25289363175762 0 0 0 0 33.517105652731793 12.853509686998365 0 12.853509686998365 -14.406097954074699 0 0 0 0 88.40449074911885 17.305422631957981 0 17.305422631957981 -45.776945400932618 0 0 0 0 65.681414657214191 16.403166637860952 0 16.403166637860952 -22.978499396995772 0 0 0 0 55.375842051296786 9.33151111119696 0 9.33151111119696 -6.7529686953039345 0 0 0 0 47.555163794426221 20.253380523994835 0 20.253380523994835 -5.2141518385103183 0 0 0 0 -68.030816265905742 -71.286868963020424 0 -71.286868963020424 -92.57231521556605 0 0 0 0 11.375988957489696 0.76461431267625812 0 0.76461431267625812 -2.2983494865405696 0 0 0 0 -173.09842089957601 -43.142101356192939 0 -43.142101356192939 133.98290254655331 0 0 0 0 36.962782937510269 2.3127693188732215 0 2.3127693188732215 -6.640968841818963 0 0 0 0 42.694564134377288 -52.608315241474884 0 -52.608315241474884 -132.04226047743259 0 0 0 0 174.00043395163084 -12.204217872457775 0 -12.204217872457775 41.745899492820172 0 0 0 0 -146.771704961051 83.574871250680189 0 83.574871250680189 148.45481483736967 0 0 0 0 415.71621657222568 20.348317408054982 0 20.348317408054982 -31.506029196265899 0 0 0 0 -45.953308473690413 -51.365515547704945 0 -51.365515547704945 38.217341280192613 0 0 0 0 19.387364368898837 3.936056317097453 0 3.936056317097453 -9.4198838384457559 0 0 0 0 25.15616699848033 51.033568715731718 0 51.033568715731718 -20.080150930959476 0 0 0 0 175.5557504812532 79.163707255032591 0 79.163707255032591 44.914953430758942 0 0 0 0 44.055736523560654 37.235350902606584 0 37.235350902606584 -5.6718598429006271 0 0 0 0 266.73081963130971 81.488915850744092 0 81.488915850744092 -55.435012984176637 0 0 0 0 -11.848771954228411 31.708581474764102 0 31.708581474764102 -3.3256600630009299 0 0 0 0 -0.92316542542690172 1.4733764718374687 0 1.4733764718374687 -2.5524526774114182 0 0 0 0 -13.304334357901098 42.475168776323471 0 42.475168776323471 150.31445525318827 0 0 0 0 -1.5199042525349853 7.2713909739230758 0 7.2713909739230758 4.8819510239621655 0 0 0 0 -2.211870162456762 80.366358407885826 0 80.366358407885826 263.37841207470319 0 0 0 0 1.4009966896778963 1.1342582405477657 0 1.1342582405477657 -2.9811681601123254 0 0 0 0 189.1400208744235 322.74329471695347 0 322.74329471695347 254.04102326812358 0 0 0 0 89.230693558056373 10.509936893786289 0 10.509936893786289 -217.44741867155631 0 0 0 0 95.448443114524707 134.20726453897919 0 134.20726453897919 -125.21029796580979 0 0 0 0 57.891153953954927 26.312690080664652 0 26.312690080664652 -58.604835927047475 0 0 0 0 226.68464677892916 -154.15469522005188 0 -154.15469522005188 215.15740238829767 0 0 0 0 66.767056119344488 162.24038541686878 0 162.24038541686878 -32.999278406211943 0 0 0 0 355.23191660564044 36.933735022456062 0 36.933735022456062 -42.439012606054874 0 0 0 0 354.84697449252417 34.111513953754184 0 34.111513953754184 15.312372381856903 0 0 0 0 722.03552638045221 10.106153672591745 0 10.106153672591745 -48.73990215600918 0 0 0 0 627.78592586722516 295.46805539679229 0 295.46805539679229 199.36132356978726 0 0 0 0 650.07779324917647 205.80858125125019 0 205.80858125125019 -106.64333334430285 0 0 0 0 568.78492788106087 -156.96478513433794 0 -156.96478513433794 -39.356333060697125 0 0 0 0 249.68202386357007 -129.51438466861373 0 -129.51438466861373 282.46001587594083 0 0 0 0 253.96181688587239 -123.95143892186661 0 -123.95143892186661 -32.464044087357252 0 0 0 0 184.86769938250427 -31.879231600080956 0 -31.879231600080956 -71.607435782067114 0 0 0 0 344.50529852720501 24.145155618733497 0 24.145155618733497 -90.831401832804659 0 0 0 0 214.9449688202003 98.14781451570434 0 98.14781451570434 -80.405306967499655 0 0 0 0 99.042442134101293 3.8069315630509664 0 3.8069315630509664 -88.484731481625204 0 0 0 0 201.40233687327782 -72.840211191125491 0 -72.840211191125491 -158.62521179783289 0 0 0 0 16.115811875287505 13.764713978734449 0 13.764713978734449 -2.0338063239145576 0 0 0 0 153.92774267873028 200.29262052732793 0 200.29262052732793 96.555056064811652 0 0 0 0 89.171104079170618 81.857832018886938 0 81.857832018886938 -1.806795424138727 0 0 0 0 267.12622718224156 270.80164846135176 0 270.80164846135176 170.36418268387661 0 0 0 0 194.71333743317518 80.276305081497412 0 80.276305081497412 -17.14977921278205 0 0 0 0 54.364133138165926 57.501789861647921 0 57.501789861647921 2.5575410586552607 0 0 0 0 259.55924457000947 10.643649111529612 0 10.643649111529612 -244.6670834691904 0 0 0 0 169.93054667628894 104.85994416500398 0 104.85994416500398 -94.587056839584875 0 0 0 0 109.29840370594667 17.559372770962117 0 17.559372770962117 -3.6386259120064746 0 0 0 0 255.79448303350364 29.472520528062091 0 29.472520528062091 -402.50095738848484 0 0 0 0 125.4064533363271 -46.104750962491352 0 -46.104750962491352 -205.64052834409378 0 0 0 0 156.46958158789494 55.823580686737102 0 55.823580686737102 -25.749854694646785 0 0 0 0 104.03626504968224 122.46247603011351 0 122.46247603011351 -57.060733054537991 0 0 0 0 196.96537119773166 98.765598110367407 0 98.765598110367407 -5.1137245830900611 0 0 0 0 152.74950811066083 51.034400055327666 0 51.034400055327666 -50.501971306363771 0 0 0 0 158.91716992717073 10.998924199243827 0 10.998924199243827 -6.1813220117854764 0 0 0 0 158.62269152305089 63.51534879233526 0 63.51534879233526 -199.5494472154241 0 0 0 0 135.98950749648301 13.325903517924992 0 13.325903517924992 -1.5730591237292464 0 0 0 0 127.77699875886901 46.473801090917675 0 46.473801090917675 -28.638390849265306 0 0 0 0 129.45129020312743 52.902634595560215 0 52.902634595560215 0.60580890210659355 0 0 0 0 120.06991640222259 73.943785312794319 0 73.943785312794319 -42.162855727978361 0 0 0 0 140.49231967273226 -90.90824519500427 0 -90.90824519500427 1.1112271699611256 0 0 0 0 41.113724748771347 -81.717408950700019 0 -81.717408950700019 0.28207806998511842 0 0 0 0 169.07859684391588 -67.445065430274056 0 -67.445065430274056 -71.174573498461172 0 0 0 0 177.2714394765535 -89.572239662773356 0 -89.572239662773356 -126.68483943052229 0 0 0 0 149.71860323839064 -135.51580043944159 0 -135.51580043944159 -89.431340082231543 0 0 0 0 46.780988962021638 -6.2888590828591617 0 -6.2888590828591617 -4.3363046070734645 0 0 0 0 188.42845031645265 25.625573206969079 0 25.625573206969079 -32.783114728446833 0 0 0 0 44.551862419897255 5.6912191255835864 0 5.6912191255835864 -33.246304734427845 0 0 0 0 122.27899843848718 -59.775592400654659 0 -59.775592400654659 -86.698810610351757 0 0 0 0 -127.97999451414216 60.775194988542353 0 60.775194988542353 41.545329072274626 0 0 0 0 196.2158365371283 -12.986287612115774 0 -12.986287612115774 -5.5800348543686171 0 0 0 0 318.92677377494692 385.25455578746232 0 385.25455578746232 -717.89370696871219 0 0 0 0 177.26152698503574 -202.40842165345356 0 -202.40842165345356 25.53680179081698 0 0 0 0 -28.114810173650767 109.86503905402884 0 109.86503905402884 50.284029014831731 0 0 0 0 330.79616843543772 -62.899668648222701 0 -62.899668648222701 -50.149377941812872 0 0 0 0 188.43156920854881 -95.404944558870312 0 -95.404944558870312 -71.896591871514829 0 0 0 0 402.29165215958892 101.89462818143274 0 101.89462818143274 -34.465209349603356 0 0 0 0 415.55041825951776 193.35851934911079 0 193.35851934911079 -10.385346456720526 0 0 0 0 35.248844048735918 163.81827740423137 0 163.81827740423137 44.965974629008542 0 0 0 0 187.32475518775755 170.15822337014293 0 170.15822337014293 0.69239410980935645 0 0 0 0 386.52141726703849 103.8352859881079 0 103.8352859881079 -37.495428712465468 0 0 0 0 423.25469231887837 140.25980219965311 0 140.25980219965311 -37.024451941144889 0 0 0 0 669.25393891960266 -5.9031488377061123 0 -5.9031488377061123 -109.79865036012697 0 0 0 0 390.21900062132045 -128.81185226197181 0 -128.81185226197181 -7.4459248612424744 0 0 0 0 959.3687854798336 -338.81237460940974 0 -338.81237460940974 42.283330199024533 0 0 0 0 827.28062366408994 163.95589188472582 0 163.95589188472582 -89.2234538661844 0 0 0 0 168.35641855233553 -332.73863608877457 0 -332.73863608877457 826.98448067605341 0 0 0 0 66.840602466807468 1098.8755569193581 0 1098.8755569193581 681.7490427338887 0 0 0 0 754.4806629861414 -989.70006440773523 0 -989.70006440773523 -467.76012743791216 0 0 0 0 359.72348121227697 208.82386455203391 0 208.82386455203391 -3.0162414044755224 0 0 0 0 181.60566265170576 -14.086582129162544 0 -14.086582129162544 0.64344207777783713 0 0 0 0 -65.299038878463762 184.50935187077374 0 184.50935187077374 508.28292097036888 0 0 0 0 16.942874272594111 -2.5536892920476992 0 -2.5536892920476992 0.015727075362958864 0 0 0 0 255.96888827698422 -110.07636216827552 0 -110.07636216827552 -404.7977400970077 0 0 0 0 216.19007196937309 -51.016699198187666 0 -51.016699198187666 -205.81691109900612 0 0 0 0 310.64289415691746 -132.93381517860973 0 -132.93381517860973 -270.30161888016323 0 0 0 0 239.17804887461534 -17.055921558603586 0 -17.055921558603586 -316.99840143821541 0 0 0 0 136.64574919272854 -97.186723535300189 0 -97.186723535300189 -95.638303094123785 0 0 0 0 127.29468941879895 -78.706477658123049 0 -78.706477658123049 -131.52943940883665 0 0 0 0 145.63135426415829 -121.24206520797225 0 -121.24206520797225 -127.70788029573131 0 0 0 0 153.85979678724107 -173.85024772963357 0 -173.85024772963357 -38.33613881272359 0 0 0 0 183.48739643101726 -189.03400360510545 0 -189.03400360510545 -38.042217305499889 0 0 0 0 97.974919607393531 -174.28804668052783 0 -174.28804668052783 142.37000190415506 0 0 0 0 457.05883141490267 -172.09023525590078 0 -172.09023525590078 -145.00702273795798 0 0 0 0 259.72163686443673 -326.60257525324937 0 -326.60257525324937 179.76827441958858 0 0 0 0 30.252831279925886 -120.56604937204065 0 -120.56604937204065 330.46969143504293 0 0 0 0 4.1788697864801634 -1.9892297096122213 0 -1.9892297096122213 1.6141986008008746 0 0 0 0 -14.075219613208901 -20.222853394599895 0 -20.222853394599895 111.49451761884984 0 0 0 0 336.92204180329281 -73.886389609772436 0 -73.886389609772436 -155.10163539962872 0 0 0 0 155.2035261560776 -157.10791226885831 0 -157.10791226885831 103.32148897394194 0 0 0 0 160.02892027352937 -68.601464979966863 0 -68.601464979966863 -18.906075062788773 0 0 0 0 -25.642484216110461 -32.631354635644158 0 -32.631354635644158 7.8793498208617052 0 0 0 0 5.9657405315720098 -20.26462147261676 0 -20.26462147261676 65.51278077624886 0 0 0 0 1.7637085564656445 -42.485748047516765 0 -42.485748047516765 -43.058646679053254 0 0 0 0 6.8939494544375499 -2.1060076166365533 0 -2.1060076166365533 -0.9775117345836335 0 0 0 0 -319.36044630373362 -234.81886088432378 0 -234.81886088432378 -139.9038631969114 0 0 0 0 -9.8935246419587202 -76.411470032773423 0 -76.411470032773423 -326.02268675040341 0 0 0 0 -171.7502088961628 -216.54847949701156 0 -216.54847949701156 -385.48422478259226 0 0 0 0 -241.51084570445892 -125.1889489387145 0 -125.1889489387145 5.968152946706482 0 0 0 0 -52.193794817707385 -84.80805510985698 0 -84.80805510985698 -154.59533879696869 0 0 0 0 -94.565328203141689 -79.749429375358773 0 -79.749429375358773 -150.02856747812558 0 0 0 0 -52.780454197971267 -86.380322677632762 0 -86.380322677632762 -121.88990777380803 0 0 0 0 -12.181992174577317 -30.852356389154608 0 -30.852356389154608 -46.528621384152757 0 0 0 0 -67.149303808379045 -87.088809832828588 0 -87.088809832828588 -0.70015191107694363 0 0 0 0 -35.93731420175618 -107.42699159891441 0 -107.42699159891441 -40.882783329771087 0 0 0 0 -25.920457456947588 -20.654862165500589 0 -20.654862165500589 29.696670532787834 0 0 0 0 -75.218074352455005 -62.935666869571264 0 -62.935666869571264 -31.585315300622085 0 0 0 0 5.926617970308758 -16.29044545430888 0 -16.29044545430888 1.9207589735063402 0 0 0 0 -77.539006949704344 -67.07414992331266 0 -67.07414992331266 -38.693258683569638 0 0 0 0 25.303257175363797 19.762939207070168 0 19.762939207070168 41.304998297915176 0 0 0 0 4.1503104613924808 -9.9705704456000461 0 -9.9705704456000461 -7.4028424498340275 0 0 0 0 -42.784862958262238 -96.408059897887625 0 -96.408059897887625 -58.487998701383162 0 0 0 0 -3.304892134234251 -14.98264711925151 0 -14.98264711925151 -17.288279211823806 0 0 0 0 7.0423813235752135 -8.9118558993503072 0 -8.9118558993503072 3.0218348541206979 0 0 0 0 23.118411751560416 -2.1485163720435594 0 -2.1485163720435594 -11.53790593168037 0 0 0 0 23.529238125443953 -58.816992864154145 0 -58.816992864154145 52.916354899564112 0 0 0 0 -1.2330942908858482 -9.3504339400870435 0 -9.3504339400870435 -5.7710437728981194 0 0 0 0 117.59478459725779 52.775998226905799 0 52.775998226905799 3.2620967688316593 0 0 0 0 81.361329137544089 43.161944319892882 0 43.161944319892882 4.1471027522331383 0 0 0 0 78.580220275124248 77.302042531501812 0 77.302042531501812 66.034924533917604 0 0 0 0 123.29751385799682 112.14875014952521 0 112.14875014952521 11.455162471286712 0 0 0 0 136.53597080670443 62.294540310826619 0 62.294540310826619 43.387953330075561 0 0 0 0 238.05119012446085 -39.789819266770678 0 -39.789819266770678 73.800229996179809 0 0 0 0 340.49101293893909 21.147099621970028 0 21.147099621970028 97.347522912162958 0 0 0 0 170.60846504893198 108.57504572403273 0 108.57504572403273 86.446006738007043 0 0 0 0 133.31774742708512 59.127327633346852 0 59.127327633346852 117.94115209300674 0 0 0 0 268.81636655991315 22.119583702578097 0 22.119583702578097 69.369595943847685 0 0 0 0 277.25546823565674 69.640084425081483 0 69.640084425081483 68.628881586685111 0 0 0 0 296.39230701069027 49.809342053765306 0 49.809342053765306 92.681116551845435 0 0 0 0 330.49097708861518 -31.797322286593385 0 -31.797322286593385 119.36419641718328 0 0 0 0 571.89053885728936 -144.54518431946795 0 -144.54518431946795 98.963500145014905 0 0 0 0 450.12309285340598 -45.767472606437195 0 -45.767472606437195 110.76321111176139 0 0 0 0 378.07911386589694 -85.553721070252834 0 -85.553721070252834 134.69626919345399 0 0 0 0 467.44845943888504 14.103602846553315 0 14.103602846553315 50.661061455431991 0 0 0 0 392.28256136590062 -31.520917013722851 0 -31.520917013722851 77.526386584427144 0 0 0 0 173.13538825341311 -3.3457646786220607 0 -3.3457646786220607 99.252885994235612 0 0 0 0 329.77464985890401 88.612400206221196 0 88.612400206221196 74.24424020475567 0 0 0 0 330.59261497833359 13.263591896020898 0 13.263591896020898 33.191625520167349 0 0 0 0 179.28771523878095 89.218602059158229 0 89.218602059158229 2.2178849201741286 0 0 0 0 405.02576012225836 118.91443190172231 0 118.91443190172231 36.08635145739504 0 0 0 0 684.70634780182445 89.857333100394953 0 89.857333100394953 -0.71653835732513471 0 0 0 0 -3.1222965024996654 -4.07420558989417 0 -4.07420558989417 0.51925771793494757 0 0 0 0 28.860264057955646 -11.53742545219194 0 -11.53742545219194 2.6203175366891855 0 0 0 0 23.571928824058432 48.548328833017337 0 48.548328833017337 88.47512773933363 0 0 0 0 166.85522159111133 32.151560757072787 0 32.151560757072787 -0.19479158337372837 0 0 0 0 -80.233885635054321 -0.32375042164301249 0 -0.32375042164301249 138.12308814645723 0 0 0 0 0.8192990791756074 0.27332132794823139 0 0.27332132794823139 -0.024172893057194056 0 0 0 0 -16.663168031795067 -73.043497047902974 0 -73.043497047902974 -39.59195683446444 0 0 0 0 27.604560512653805 -10.900487644361913 0 -10.900487644361913 1.6794731703708481 0 0 0 0 30.921884337127267 -100.87972917102033 0 -100.87972917102033 -325.27981197728252 0 0 0 0 2.7519457078915366 -3.8771087411783327 0 -3.8771087411783327 -185.02841209179508 0 0 0 0 -4.2726651362172561 -27.919655823369624 0 -27.919655823369624 -133.04322335886013 0 0 0 0 70.769618302059826 18.116694444147186 0 18.116694444147186 -328.70846357796421 0 0 0 0 -12.936838709109452 -297.82189509990366 0 -297.82189509990366 -443.63998232771598 0 0 0 0 395.21435203795409 32.092743421137243 0 32.092743421137243 -421.56522929903156 0 0 0 0 -83.268696482464293 48.590390807281153 0 48.590390807281153 126.94127340147691 0 0 0 0 -24.299079597560194 26.215793008028754 0 26.215793008028754 38.573498548614225 0 0 0 0 23.053001183670858 40.138763023308456 0 40.138763023308456 -130.77993879859525 0 0 0 0 918.47922741741786 177.90395691491142 0 177.90395691491142 -14.8650764251488 0 0 0 0 93.522563022546819 268.30464637340901 0 268.30464637340901 192.15942770129254 0 0 0 0 25.523267596091785 -9.3802225416769431 0 -9.3802225416769431 2.3492037308783824 0 0 0 0 97.86461672794394 -161.15800782429505 0 -161.15800782429505 -83.256007428840462 0 0 0 0 -236.4527506695531 24.30201291953415 0 24.30201291953415 216.25976171831485 0 0 0 0 1147.6694544009006 540.82412736075707 0 540.82412736075707 181.87544999858164 0 0 0 0 66.435536549081007 -632.87527258030968 0 -632.87527258030968 53.040388170961705 0 0 0 0 11.015462674738558 -4.4311535711408041 0 -4.4311535711408041 1.8333024116640884 0 0 0 0 353.30362380476663 -314.22480475642152 0 -314.22480475642152 -33.279811411086939 0 0 0 0 1181.4707207765896 -579.25267388985708 0 -579.25267388985708 -27.719980465876006 0 0 0 0 235.63188698554586 -27.246609305050583 0 -27.246609305050583 212.05460216063864 0 0 0 0 375.20150957989972 -91.72746417575263 0 -91.72746417575263 75.245583582117433 0 0 0 0 301.34621703376797 29.506751046173349 0 29.506751046173349 -36.532751596489106 0 0 0 0 333.94190547791732 -43.146333040136142 0 -43.146333040136142 46.692912135596998 0 0 0 0 748.40935897432792 -314.28502694173812 0 -314.28502694173812 -46.893229064297884 0 0 0 0 506.59357156485203 -34.735449057143796 0 -34.735449057143796 -87.094288638019407 0 0 0 0 30.558729473370164 2.1451471648874367 0 2.1451471648874367 -3.5570211152781641 0 0 0 0 -21.409854890283896 13.689639092076618 0 13.689639092076618 137.97701380225863 0 0 0 0 45.799667962492094 -6.066444486768205 0 -6.066444486768205 126.20067202962795 0 0 0 0 -13.564517263592279 27.052679289202615 0 27.052679289202615 38.620918552443527 0 0 0 0 -64.797123838478001 24.040973772189545 0 24.040973772189545 131.38462476716177 0 0 0 0 235.19095428859509 -10.846358104633737 0 -10.846358104633737 112.03263833518122 0 0 0 0 69.573413085163338 -87.230982789984637 0 -87.230982789984637 133.51882805872924 0 0 0 0 171.70702139382774 -90.935814594818567 0 -90.935814594818567 41.607191049958601 0 0 0 0 11.265491862173803 -68.478637648172764 0 -68.478637648172764 155.48118366073095 0 0 0 0 5.7832799502567411 1.4274407801746634 0 1.4274407801746634 -1.1075382947151295 0 0 0 0 36.4954510157404 -48.808588923907791 0 -48.808588923907791 288.02057205915548 0 0 0 0 -1.3116167910438463 -3.2834641454228155 0 -3.2834641454228155 0.07506933739161159 0 0 0 0 129.3743475919473 -52.420876373153533 0 -52.420876373153533 96.950527936848175 0 0 0 0 -128.52129141484329 3.2715312286472908 0 3.2715312286472908 66.937186226167796 0 0 0 0 124.72035587181745 -39.661893632334795 0 -39.661893632334795 69.898501066369136 0 0 0 0 72.150471224887951 -157.05178357280357 0 -157.05178357280357 29.803400261351271 0 0 0 0 -10.481676015259907 -13.167451732341181 0 -13.167451732341181 -11.657583196566362 0 0 0 0 50.364119538873638 -41.519655901811348 0 -41.519655901811348 -49.104006095323484 0 0 0 0 50.884570197782523 -52.73078119450588 0 -52.73078119450588 7.2580481010591029 0 0 0 0 18.702128538294346 -15.430078704417838 0 -15.430078704417838 -28.752513206394724 0 0 0 0 51.964260696156998 29.707592865334107 0 29.707592865334107 34.894480587653334 0 0 0 0 -9.7402350884658517 -4.8376205711421107 0 -4.8376205711421107 124.35496788229534 0 0 0 0 18.076759857038269 76.383720613400783 0 76.383720613400783 79.729696410793338 0 0 0 0 74.634421510054381 60.788539863524306 0 60.788539863524306 79.953268354734064 0 0 0 0 66.219805213739164 6.8172192377305691 0 6.8172192377305691 -93.368792316776307 0 0 0 0 37.925501400112196 5.9343544488454825 0 5.9343544488454825 -2.8162243611928037 0 0 0 0 67.494244014225842 7.6230187738456152 0 7.6230187738456152 -92.938205227541403 0 0 0 0 79.424031704191293 -14.560821539731478 0 -14.560821539731478 -79.378638628409135 0 0 0 0 47.319219757453538 -10.604715969599965 0 -10.604715969599965 -61.409947514763189 0 0 0 0 68.24126903108845 7.4868309503208366 0 7.4868309503208366 -95.288952945997153 0 0 0 0 94.946815182200226 -24.518134245929105 0 -24.518134245929105 -79.906120132364777 0 0 0 0 61.086849999057449 9.741625155613292 0 9.741625155613292 -107.85067358519063 0 0 0 0 85.364847838725836 7.0766601539235126 0 7.0766601539235126 -125.38688015437765 0 0 0 0 57.952721711873892 55.149953218186511 0 55.149953218186511 -144.75355832389292 0 0 0 0 67.790320352753042 26.271994143135998 0 26.271994143135998 -144.35615964703305 0 0 0 0 84.781844666285906 6.6959352332214621 0 6.6959352332214621 -112.41132374106564 0 0 0 0 -6.2580429122244823 75.611876544260667 0 75.611876544260667 -171.86105068467441 0 0 0 0 -21.191761691251031 86.947825725936241 0 86.947825725936241 11.137585805919571 0 0 0 0 -8.7960905418749462 -2.9012107213138165 0 -2.9012107213138165 35.649859712051239 0 0 0 0 42.600052912792307 51.579774504035072 0 51.579774504035072 -100.01846420696887 0 0 0 0 45.240587609324791 16.930269371477415 0 16.930269371477415 1.4539902367327411 0 0 0 0 -5.3326719019749049 7.8393166593281585 0 7.8393166593281585 0.4762224872087113 0 0 0 0 32.795863806204579 33.551662270303495 0 33.551662270303495 -104.44214732959188 0 0 0 0 3.2581738467197283 76.039447139828667 0 76.039447139828667 100.7629051329302 0 0 0 0 7.3128760527631584 -2.8419543995942504 0 -2.8419543995942504 -7.256879048550541 0 0 0 0 4.9968034512780832 38.109731049545573 0 38.109731049545573 -28.826999335494293 0 0 0 0 32.309739534844994 98.107676639070405 0 98.107676639070405 -20.66956255651175 0 0 0 0 36.839755329419859 87.696992493513335 0 87.696992493513335 -25.354824721998813 0 0 0 0 42.721116141885432 83.476262680817371 0 83.476262680817371 -29.613752398912084 0 0 0 0 46.378754750461667 92.436554891813444 0 92.436554891813444 -25.355037874388017 0 0 0 0 36.219487279326131 94.143689819774067 0 94.143689819774067 -54.061525888675646 0 0 0 0 36.453476412447344 89.275708171211988 0 89.275708171211988 -25.88473262927409 0 0 0 0 19.631229544513189 80.404865574979738 0 80.404865574979738 -26.032878519692986 0 0 0 0 30.403875397772936 46.676388903528846 0 46.676388903528846 17.984002447518151 0 0 0 0 78.362756177455594 -19.618959071852785 0 -19.618959071852785 79.441391019942273 0 0 0 0 -25.286852413195447 82.312134711380622 0 82.312134711380622 82.265213581820433 0 0 0 0 29.172343762245873 91.050622207368576 0 91.050622207368576 -14.200124293506747 0 0 0 0 25.465948090539314 35.915214344411339 0 35.915214344411339 0.97831241697178939 0 0 0 0 27.043883753467526 46.747738815424839 0 46.747738815424839 -43.524463262393155 0 0 0 0 7.1495642265945207 24.282159993711105 0 24.282159993711105 -65.838715046575771 0 0 0 0 47.65542737038777 78.924888941381482 0 78.924888941381482 -60.629139945911795 0 0 0 0 6.6095300793094793 57.646386547715792 0 57.646386547715792 -88.625422959564503 0 0 0 0 -38.022738306302927 30.282321916947581 0 30.282321916947581 -76.944288476420979 0 0 0 0 13.42246032994808 24.005344230084262 0 24.005344230084262 -141.79011432339337 0 0 0 0 -33.054703506757505 -6.4789474179375475 0 -6.4789474179375475 -91.80447636468395 0 0 0 0 -100.9385238598552 -7.8033359173509211 0 -7.8033359173509211 -138.60840887295535 0 0 0 0 -30.287049026126624 -33.602402781808792 0 -33.602402781808792 -244.85099774478681 0 0 0 0 -86.037512738810619 13.985576294178372 0 13.985576294178372 -254.94114464598613 0 0 0 0 -104.66159308181523 -118.05253496434801 0 -118.05253496434801 -251.10586656791457 0 0 0 0 -63.456954904759186 -14.785564877462377 0 -14.785564877462377 -65.328446732358543 0 0 0 0 -33.604589501657756 49.140569374424899 0 49.140569374424899 -97.829506882876444 0 0 0 0 -22.336193187264143 -1.7814218095654724 0 -1.7814218095654724 -156.97389847283739 0 0 0 0 -32.147670486403513 28.564504692786102 0 28.564504692786102 -44.238064411778396 0 0 0 0 20.370232729721465 39.747340840367713 0 39.747340840367713 -45.61525529954406 0 0 0 0 6.2902484546575579 28.937295224546233 0 28.937295224546233 -62.771040755727228 0 0 0 0 -25.767408479980077 40.08492535391639 0 40.08492535391639 33.798206028091954 0 0 0 0 63.966696341478382 25.634881614874871 0 25.634881614874871 27.029695414333787 0 0 0 0 92.095667081724969 102.12471570482643 0 102.12471570482643 -23.996196020110574 0 0 0 0 34.27718684703359 80.328278423825566 0 80.328278423825566 -26.94370181229101 0 0 0 0 8.4660378068947466 78.245262889329524 0 78.245262889329524 -13.308486319948088 0 0 0 0 7.3624508530047024 41.724087931334509 0 41.724087931334509 -37.237291337580928 0 0 0 0 2520.5596169795281 1281.4778352280734 0 1281.4778352280734 -427.97943253593428 0 0 0 0 2537.7118569971808 1220.6895285713508 0 1220.6895285713508 -299.9184509464082 0 0 0 0 3499.1430455733534 1010.2966319196698 0 1010.2966319196698 -538.31725861026484 0 0 0 0 3499.5320586976773 605.59173318172031 0 605.59173318172031 -416.12121149386013 0 0 0 0 3051.1670568418122 598.03681655668902 0 598.03681655668902 -392.51330133937387 0 0 0 0 2729.3762260265466 949.95520179958589 0 949.95520179958589 -502.23737525378533 0 0 0 0 2750.2866079541091 577.75856312571887 0 577.75856312571887 -249.45819360476412 0 0 0 0 2720.4222431989947 460.14045784669213 0 460.14045784669213 -55.995225852727458 0 0 0 0 2343.8066827303774 587.5264189637677 0 587.5264189637677 -98.971927686740912 0 0 0 0 2495.2089722548917 369.5737030819223 0 369.5737030819223 15.260732003124986 0 0 0 0 2265.1508939480673 209.69728789161454 0 209.69728789161454 -47.547404254975504 0 0 0 0 2003.4344695297568 677.54779544011717 0 677.54779544011717 -208.5750379105209 0 0 0 0 1961.4244573434335 739.98785407616742 0 739.98785407616742 -153.6757872382276 0 0 0 0 1893.1305284794289 706.62272337096169 0 706.62272337096169 -165.2747985634536 0 0 0 0 1936.3151403250813 638.50109663198782 0 638.50109663198782 -229.63116490244812 0 0 0 0 945.36004591075107 -239.12476644919093 0 -239.12476644919093 -22.759209070062752 0 0 0 0 1187.8821007180013 13.061113384143482 0 13.061113384143482 -37.932446862345216 0 0 0 0 1269.4760503916586 -167.51844878782236 0 -167.51844878782236 -52.026163388393115 0 0 0 0 1196.4668089546758 -134.28352394783792 0 -134.28352394783792 2.2393850914950235 0 0 0 0 1551.8078622733519 22.144464510454327 0 22.144464510454327 -114.79790561903127 0 0 0 0 1456.5129257514527 125.65159155398891 0 125.65159155398891 -61.886880134063404 0 0 0 0 1981.4655879573038 328.4247115824063 0 328.4247115824063 3.8066734321136266 0 0 0 0 1725.1073065833116 -180.27553263707355 0 -180.27553263707355 -87.653618055094739 0 0 0 0 1741.9329912049034 -581.95752042095705 0 -581.95752042095705 10.156630370050266 0 0 0 0 2038.3326989401903 59.983468913205627 0 59.983468913205627 65.221079470350674 0 0 0 0 1507.2600695843648 -77.606799705789967 0 -77.606799705789967 -32.847432528661614 0 0 0 0 1287.4877232038561 -374.21980198305346 0 -374.21980198305346 20.392141314914397 0 0 0 0 1061.8481613528711 -283.41571363332264 0 -283.41571363332264 108.38452778574973 0 0 0 0 993.23193790112055 -397.24287311429538 0 -397.24287311429538 98.808789851482516 0 0 0 0 489.31771222715906 -324.06852018508886 0 -324.06852018508886 280.36633184220648 0 0 0 0 536.61092340288451 -186.1224333210036 0 -186.1224333210036 120.652050834983 0 0 0 0 336.36858340562321 -127.85771469321412 0 -127.85771469321412 201.52246529783076 0 0 0 0 586.88591181339871 -224.16900978080582 0 -224.16900978080582 152.95665336699761 0 0 0 0 673.05794579412031 -171.77719921511709 0 -171.77719921511709 97.863663572731184 0 0 0 0 887.87076621296728 -287.64967520611435 0 -287.64967520611435 73.555297916218223 0 0 0 0 674.78431786975852 -80.837711593022618 0 -80.837711593022618 -1.0856952361702952 0 0 0 0 770.3407718871822 -142.9806184016727 0 -142.9806184016727 13.370761541472064 0 0 0 0 946.34207261875417 -218.33464580569819 0 -218.33464580569819 31.827523273247607 0 0 0 0 1093.5692506777705 -295.46066135620208 0 -295.46066135620208 -53.483215368282004 0 0 0 0 1045.5660699633663 -286.19821121851851 0 -286.19821121851851 -50.30714319001379 0 0 0 0 1171.5231593683784 -312.40974663802365 0 -312.40974663802365 -176.12966324473064 0 0 0 0 1040.3702938701535 -340.72304408129963 0 -340.72304408129963 -136.13865557682129 0 0 0 0 1258.0851810845052 -115.88471321404802 0 -115.88471321404802 -141.39218917643183 0 0 0 0 978.91192682589462 -107.92683562740945 0 -107.92683562740945 -141.61590522082383 0 0 0 0 884.70188392606906 73.583113478279955 0 73.583113478279955 -92.274797842002954 0 0 0 0 1398.1612369803115 -195.20159166627502 0 -195.20159166627502 -115.86962597521529 0 0 0 0 1488.6277293445746 -373.52157927370712 0 -373.52157927370712 53.730128398903844 0 0 0 0 966.25212192596518 -268.28633191616336 0 -268.28633191616336 462.80547263388314 0 0 0 0 1723.1943300722123 30.51963162614345 0 30.51963162614345 -116.32869595970939 0 0 0 0 1559.4799532219749 291.37779421706352 0 291.37779421706352 158.90152454067083 0 0 0 0 1166.5275452067672 -138.66058404170667 0 -138.66058404170667 -310.43250307537119 0 0 0 0 1075.5449913563352 -64.344463361488579 0 -64.344463361488579 -146.40256696373262 0 0 0 0 995.97706617345102 -109.85882029231084 0 -109.85882029231084 -113.17270752549916 0 0 0 0 947.67728913989095 180.74089062789994 0 180.74089062789994 -13.632490934224734 0 0 0 0 439.26525579785084 85.607680201927337 0 85.607680201927337 264.06804178100822 0 0 0 0 355.08412816656346 37.305720993998875 0 37.305720993998875 -2.9644557819140118 0 0 0 0 348.5438251320229 155.61933212937356 0 155.61933212937356 38.383066287933616 0 0 0 0 88.476948068902857 27.281906617263985 0 27.281906617263985 121.3784998729268 0 0 0 0 438.66226397459832 70.101346457134753 0 70.101346457134753 -22.963477573248838 0 0 0 0 205.77652829494764 -105.66986371353397 0 -105.66986371353397 -248.86006112395592 0 0 0 0 3.0506551535156774 1.2159802811914133 0 1.2159802811914133 -7.2545585591982311 0 0 0 0 1066.7192567621123 211.60779924207898 0 211.60779924207898 -46.488331835166946 0 0 0 0 1537.6697206889512 96.869340773731778 0 96.869340773731778 -34.710706603405697 0 0 0 0 2.3051235508829393 -0.42315970999479191 0 -0.42315970999479191 -1.7018905758917073 0 0 0 0 201.4560219683699 -413.09013387192567 0 -413.09013387192567 -203.35777679639466 0 0 0 0 1014.4106841687535 407.70439253274492 0 407.70439253274492 -170.71495299077642 0 0 0 0 908.3417142182243 553.99365078109713 0 553.99365078109713 79.846650961208752 0 0 0 0 1402.3390661578269 1084.6882920968794 0 1084.6882920968794 139.72827099617004 0 0 0 0 1817.3999023495235 1275.8821981574522 0 1275.8821981574522 197.26539826446626 0 0 0 0 1184.2429797842342 478.29226897442095 0 478.29226897442095 -192.62284076235028 0 0 0 0 651.31975579159189 654.16489763030336 0 654.16489763030336 276.50732312292155 0 0 0 0 -4.3667066368720953 6.5374533477263839 0 6.5374533477263839 -15.659221540316803 0 0 0 0 186.40467828760302 32.138445274253854 0 32.138445274253854 8.5386913115424932 0 0 0 0 17.972198680580092 28.258194222214577 0 28.258194222214577 -25.787593468665214 0 0 0 0 111.25053959428624 -177.49274423517045 0 -177.49274423517045 114.71815015989296 0 0 0 0 382.95435726013966 550.30380166814712 0 550.30380166814712 532.64757858142264 0 0 0 0 415.77539637362042 604.92019050460476 0 604.92019050460476 291.30331625398594 0 0 0 0 1021.1331665896287 1620.7624245703132 0 1620.7624245703132 1726.8375265014147 0 0 0 0 -85.483304032997694 14.179747877289628 0 14.179747877289628 892.62041114259955 0 0 0 0 362.85423106404414 357.7161797982767 0 357.7161797982767 31.764711524459017 0 0 0 0 14.874866621980445 11.563649061393903 0 11.563649061393903 10.501821428418296 0 0 0 0 486.71944371031714 1613.8438474013992 0 1613.8438474013992 3750.3546111876431 0 0 0 0 2171.5201025435235 1791.89348102035 0 1791.89348102035 321.80608967177318 0 0 0 0 3493.6564360847588 3037.3872167136615 0 3037.3872167136615 1322.5875166524224 0 0 0 0 2012.1633032819518 1688.3610035901841 0 1688.3610035901841 272.71540169292899 0 0 0 0 3500.8922192254308 1684.1109313535965 0 1684.1109313535965 -323.9169078300323 0 0 0 0 3501.2069494017596 738.06996165195108 0 738.06996165195108 84.258841610633027 0 0 0 0 -45.094644717862593 -2357.0996664600511 0 -2357.0996664600511 1979.8431431322135 0 0 0 0 8.5180050657161708 -6.8849237926800662 0 -6.8849237926800662 7.1945969319466094 0 0 0 0 540.14666142111128 -570.87250795305579 0 -570.87250795305579 -391.01194117569287 0 0 0 0 217.38432067983433 -149.47936615895111 0 -149.47936615895111 -857.00864701291448 0 0 0 0 -32.903404031004357 -557.93258497283477 0 -557.93258497283477 -291.70989472704127 0 0 0 0 18.290235231212876 -24.129579255139369 0 -24.129579255139369 8.0753778902148774 0 0 0 0 720.83005638802206 61.161698195829494 0 61.161698195829494 16.42404937388088 0 0 0 0 390.23847963132539 485.42358826343531 0 485.42358826343531 413.00981022886981 0 0 0 0 15.083508891641216 -3.6814721962260037 0 -3.6814721962260037 -2.343425804443227 0 0 0 0 3489.2774750078379 -490.90763230190203 0 -490.90763230190203 -58.38405236747883 0 0 0 0 3483.4371912274232 -611.0552719772586 0 -611.0552719772586 -508.17864170866289 0 0 0 0 255.76847131467957 -40.836286180793032 0 -40.836286180793032 -7.4785283694861135 0 0 0 0 46.967656716406879 18.764848200163339 0 18.764848200163339 1.8525609343004565 0 0 0 0 79.066448979102105 -21.928377922630094 0 -21.928377922630094 -39.606901354220923 0 0 0 0 182.58324098805156 -169.08683413206609 0 -169.08683413206609 -41.806109188592927 0 0 0 0 152.35857957957617 51.400533164139389 0 51.400533164139389 4.4293588025480091 0 0 0 0 112.79903121899406 140.73748372836019 0 140.73748372836019 -56.299874162868036 0 0 0 0 221.70740132103992 -53.885979146326463 0 -53.885979146326463 -403.07583903962313 0 0 0 0 255.02239180573179 351.26470729694597 0 351.26470729694597 -1983.1053551940358 0 0 0 0 -16.190723934494038 -16.230206047118511 0 -16.230206047118511 -13.129041488986596 0 0 0 0 381.83693241282828 -463.63681597182949 0 -463.63681597182949 220.1561487507679 0 0 0 0 -24.983742575875084 -40.418958682074631 0 -40.418958682074631 -22.260554054243443 0 0 0 0 590.7098825204007 -499.02493573632398 0 -499.02493573632398 -688.40678806695291 0 0 0 0 39.562502680080343 -201.06081832623954 0 -201.06081832623954 -550.91392413235531 0 0 0 0 243.50353604324391 -631.8141225436168 0 -631.8141225436168 -900.43084545349689 0 0 0 0 -217.83464346723645 544.68299576507627 0 544.68299576507627 -832.56802196745389 0 0 0 0 1927.7147581827758 -1219.6048299214804 0 -1219.6048299214804 -1529.3122605194192 0 0 0 0 1192.7022667259548 955.01298303687997 0 955.01298303687997 -4082.9386041016182 0 0 0 0 -4.5071665324830299 -4.0880076061720994 0 -4.0880076061720994 -4.7142226414318111 0 0 0 0 149.26547421006671 906.88833481091592 0 906.88833481091592 -1329.0965620853731 0 0 0 0 369.40899323939976 257.30164299004701 0 257.30164299004701 -977.19511320946731 0 0 0 0 800.95305031787211 -1012.4047390800879 0 -1012.4047390800879 513.86385447365001 0 0 0 0 313.6791108684447 139.97236820660032 0 139.97236820660032 -189.94899136099457 0 0 0 0 124.40594365259881 42.668014502041984 0 42.668014502041984 12.835154273476594 0 0 0 0 67.792263434173947 92.05272190639289 0 92.05272190639289 50.684991330631419 0 0 0 0 761.53822967848828 -42.460442224429244 0 -42.460442224429244 -93.759286123298352 0 0 0 0 211.63191267536422 -56.212567906658478 0 -56.212567906658478 21.484745132645003 0 0 0 0 687.04553047167428 -290.02691352933471 0 -290.02691352933471 6.5202166226431473 0 0 0 0 746.7959747543282 -215.81970552321127 0 -215.81970552321127 -83.808691605324157 0 0 0 0 737.96883232178607 -150.39015877932502 0 -150.39015877932502 -133.7521528534362 0 0 0 0 1084.1488146750053 -300.0037880220184 0 -300.0037880220184 -128.71511249308787 0 0 0 0 1159.139820234268 -188.95717890133494 0 -188.95717890133494 -303.60403210733057 0 0 0 0 1162.5032297975522 -766.23240674403542 0 -766.23240674403542 451.73845970792991 0 0 0 0 2177.5155922823615 -2012.0509643304449 0 -2012.0509643304449 1193.1421599790938 0 0 0 0 30.463622480981186 11.967406323865887 0 11.967406323865887 5.6910140796227475 0 0 0 0 87.413973968133305 29.593918043065472 0 29.593918043065472 7.4586338347337833 0 0 0 0 137.63055649222042 389.74222286329393 0 389.74222286329393 -835.11928739035955 0 0 0 0 -392.3120255195754 1044.1575812127121 0 1044.1575812127121 486.61529850741067 0 0 0 0 252.92029971513148 1581.457522571141 0 1581.457522571141 -147.40358509509406 0 0 0 0 326.56155342070997 892.34724048990176 0 892.34724048990176 518.62511622066995 0 0 0 0 441.17597823791493 401.99381733021875 0 401.99381733021875 -184.1189022677745 0 0 0 0 -275.89322633365737 383.85361237388315 0 383.85361237388315 104.49303216493718 0 0 0 0 231.08856076898701 328.93131868168791 0 328.93131868168791 -167.46990330817334 0 0 0 0 288.60127216426554 403.61734350186453 0 403.61734350186453 -270.53414651540334 0 0 0 0 9.9371385731865303 298.74557544194431 0 298.74557544194431 -285.25655780959983 0 0 0 0 41.056275411769747 -68.471324404164889 0 -68.471324404164889 -629.54409336866001 0 0 0 0 15.774773864021371 4.2006570402963748 0 4.2006570402963748 -5.3760341541434915 0 0 0 0 56.318034753154734 490.53048038866632 0 490.53048038866632 -485.9866415444194 0 0 0 0 10.169135482921355 14.546047206078962 0 14.546047206078962 5.9942229992290557 0 0 0 0 230.7973461064181 60.028610011388821 0 60.028610011388821 162.51611325191857 0 0 0 0 227.44872981560093 39.464753971411483 0 39.464753971411483 37.271222108390361 0 0 0 0 51.682620165811841 52.375472730634094 0 52.375472730634094 43.328803417027444 0 0 0 0 982.74244618730245 -457.75133073446949 0 -457.75133073446949 102.56508396900938 0 0 0 0 1785.9332277337876 233.57370059326581 0 233.57370059326581 -114.57272698833422 0 0 0 0 1166.5304343534426 9.7172257379548839 0 9.7172257379548839 -504.38694012205536 0 0 0 0 1220.7709056645331 -180.72368537318101 0 -180.72368537318101 -100.74804225227703 0 0 0 0 1550.5359772710153 79.777000437299819 0 79.777000437299819 -114.36653364158792 0 0 0 0 1562.1616845492715 321.60146357967653 0 321.60146357967653 132.66830874485709 0 0 0 0 1562.4519840190276 340.62745162017234 0 340.62745162017234 243.8679918223701 0 0 0 0 2494.2310497549306 815.1530129127633 0 815.1530129127633 350.79900025888503 0 0 0 0 2437.8302321735091 -313.88464833422267 0 -313.88464833422267 68.943103497773592 0 0 0 0 15.072641417213635 17.136979528336212 0 17.136979528336212 22.759374905667137 0 0 0 0 1851.6140185032964 1889.7816663377039 0 1889.7816663377039 363.91146195239571 0 0 0 0 -322.85504511368441 624.23506851705065 0 624.23506851705065 1347.682531234524 0 0 0 0 -94.429303084056755 -1082.6777938468986 0 -1082.6777938468986 1116.8951139421911 0 0 0 0 1065.7367617421507 982.55033723435849 0 982.55033723435849 1702.2914517791103 0 0 0 0 822.78291252389977 -528.08396564591476 0 -528.08396564591476 243.58995160684972 0 0 0 0 6.3353348909504348 -307.78659208466058 0 -307.78659208466058 228.50844537579781 0 0 0 0 1059.7056891685083 -295.76827258387141 0 -295.76827258387141 459.45221104723566 0 0 0 0 329.74993144252426 -60.208827974694316 0 -60.208827974694316 710.46744896876226 0 0 0 0 1300.7747954139793 316.95904650342334 0 316.95904650342334 798.98067553199758 0 0 0 0 1782.0274352912525 125.027426010836 0 125.027426010836 88.737016298061818 0 0 0 0 1677.2565937966069 -98.003487660684257 0 -98.003487660684257 134.66962108485757 0 0 0 0 3.3335262937214778 -1.1200558730450625 0 -1.1200558730450625 0.26998427411806669 0 0 0 0 2439.9548168864617 -267.82404659654173 0 -267.82404659654173 194.57752084044799 0 0 0 0 1066.0547891007939 -235.16011669528257 0 -235.16011669528257 347.32714596449603 0 0 0 0 2142.6840638241692 -404.32625994503354 0 -404.32625994503354 -416.33004042819255 0 0 0 0 1503.7505099324048 -839.19871250609094 0 -839.19871250609094 82.004432144369787 0 0 0 0 3501.7274687472927 -948.2168745911215 0 -948.2168745911215 -412.50303110160939 0 0 0 0 1987.8135874105751 -1493.6490344756655 0 -1493.6490344756655 -276.59199387927367 0 0 0 0 1113.1719497699787 -1310.1676331697042 0 -1310.1676331697042 608.18469165312251 0 0 0 0 2001.1354911384938 -904.45717308434223 0 -904.45717308434223 85.740996855776331 0 0 0 0 332.0986466249733 -638.56940106015418 0 -638.56940106015418 402.25450704050138 0 0 0 0 3490.9450943568263 -2197.9982057542079 0 -2197.9982057542079 -147.99894635028852 0 0 0 0 19.252840079378075 -13.415351043516239 0 -13.415351043516239 -18.774166605876417 0 0 0 0 21.853437123100889 -12.950583607216636 0 -12.950583607216636 -4.4167454738936929 0 0 0 0 31.37368648447773 -18.001266904719614 0 -18.001266904719614 -37.852619714244156 0 0 0 0 6.4695149298931938 -3.6904324204706427 0 -3.6904324204706427 -24.635914509877693 0 0 0 0 -17.108315745412256 -31.08668664025754 0 -31.08668664025754 29.477531704304226 0 0 0 0 13.475698668834603 -13.185008693579558 0 -13.185008693579558 -16.705216461018544 0 0 0 0 -11.419603657457628 -7.8127997561896336 0 -7.8127997561896336 -20.897084695980425 0 0 0 0 0.10499533480992795 -2.7296956217942316 0 -2.7296956217942316 -2.0866531122599246 0 0 0 0 45.134603555226931 -7.8874760284656986 0 -7.8874760284656986 -30.422273925021727 0 0 0 0 78.030834747223707 -44.600773997019132 0 -44.600773997019132 -8.2111699751817966 0 0 0 0 34.604998416878516 -30.780005801356765 0 -30.780005801356765 -8.0561391681153509 0 0 0 0 41.590055310318348 -18.323945155013689 0 -18.323945155013689 6.4821827015475719 0 0 0 0 6.0440108862033028 -8.3250573155050276 0 -8.3250573155050276 -10.053534634227399 0 0 0 0 44.170563231939013 -11.377914866384799 0 -11.377914866384799 -8.3712130523363157 0 0 0 0 19.990528517224448 -8.9114772127877586 0 -8.9114772127877586 -6.8899348298091354 0 0 0 0 14.170268411710914 -1.7803093065269806 0 -1.7803093065269806 -9.4058754068881214 0 0 0 0 24.732867454968073 -4.3217171682258595 0 -4.3217171682258595 -4.6920341032003989 0 0 0 0 22.916155012411764 -46.685778860342452 0 -46.685778860342452 101.01242070990338 0 0 0 0 298.46683065742036 94.442770124519939 0 94.442770124519939 49.220719144072973 0 0 0 0 19.79042002943968 -9.9679704508258169 0 -9.9679704508258169 3.1730994095435356 0 0 0 0 129.64310242846841 167.23471805320787 0 167.23471805320787 72.460597173570022 0 0 0 0 34.493425510177985 -72.002729411098244 0 -72.002729411098244 108.79768645465629 0 0 0 0 -31.828511085514037 -22.114800537424344 0 -22.114800537424344 183.70410635665939 0 0 0 0 47.943095995218755 -125.84137940527671 0 -125.84137940527671 109.36696810200269 0 0 0 0 -3.7553881673502474 -182.80616392711408 0 -182.80616392711408 242.9846033814465 0 0 0 0 63.344223285432236 -32.061164914424808 0 -32.061164914424808 15.354341867001494 0 0 0 0 -19.885764619157271 -24.995077956240493 0 -24.995077956240493 16.378697320571519 0 0 0 0 215.96520637549474 -127.3248725903095 0 -127.3248725903095 48.973089056596109 0 0 0 0 2.6772567848491899 -3.2341807278718591 0 -3.2341807278718591 -0.2381266064205505 0 0 0 0 73.343858721174911 -180.51923957972031 0 -180.51923957972031 135.02901230225871 0 0 0 0 79.507288329159564 -114.37892073665898 0 -114.37892073665898 -51.961788052733027 0 0 0 0 102.78492267357069 -46.090861692838189 0 -46.090861692838189 90.569741405667173 0 0 0 0 193.65170107013182 -115.21964857599414 0 -115.21964857599414 -11.606262138595412 0 0 0 0 13.028575299103977 -177.24082757511314 0 -177.24082757511314 34.692121708982086 0 0 0 0 47.148572358928504 -89.780304370934573 0 -89.780304370934573 25.265643642516579 0 0 0 0 61.97057545311327 -130.42059365101159 0 -130.42059365101159 -161.56819732218355 0 0 0 0 25.33648738766351 -18.814210517612082 0 -18.814210517612082 -150.70433510831936 0 0 0 0 101.74092935584122 -51.311986043061552 0 -51.311986043061552 -204.48906098332372 0 0 0 0 96.555763379150449 -62.143149038530282 0 -62.143149038530282 -32.52328463835147 0 0 0 0 117.76371360198027 -71.407627729402066 0 -71.407627729402066 -72.261279959671811 0 0 0 0 97.076133007089084 -14.996195130808701 0 -14.996195130808701 -114.31979187824254 0 0 0 0 109.84020797917765 -35.271852933510672 0 -35.271852933510672 -126.22612650994779 0 0 0 0 95.954097754507529 -57.471815710787496 0 -57.471815710787496 -37.888368947833442 0 0 0 0 69.766503867118445 -58.960801175974666 0 -58.960801175974666 -4.7564935751161102 0 0 0 0 89.954046270955587 -28.563382875641764 0 -28.563382875641764 -82.957143975791041 0 0 0 0 87.011904862059964 -62.393001953214991 0 -62.393001953214991 -18.362922306267137 0 0 0 0 78.551814969596307 -98.601941546634862 0 -98.601941546634862 66.944498776296314 0 0 0 0 113.62860302796616 -75.83055553347549 0 -75.83055553347549 -43.946718045338002 0 0 0 0 -8.4149082244475579 -9.6024137413181911 0 -9.6024137413181911 -3.763291336026974 0 0 0 0 47.780931238262838 -87.360800403505095 0 -87.360800403505095 66.322345709644651 0 0 0 0 37.891405288231908 -37.705832940142045 0 -37.705832940142045 -9.5755979421545021 0 0 0 0 53.062107432753692 -139.01657338638324 0 -139.01657338638324 188.31545581209139 0 0 0 0 20.24927322721669 -14.140405796813184 0 -14.140405796813184 -2.8051879636877857 0 0 0 0 75.133208198290959 -85.372548182191338 0 -85.372548182191338 13.711260923852024 0 0 0 0 68.556722916924627 -70.304723312386159 0 -70.304723312386159 22.407407169506769 0 0 0 0 -12.484647665816929 -10.47810457271925 0 -10.47810457271925 -7.995434760558858 0 0 0 0 24.903683537755569 -201.21853590540468 0 -201.21853590540468 -1.2855789141513014 0 0 0 0 8.1584490830937284 19.997078619172044 0 19.997078619172044 -24.952946305287924 0 0 0 0 67.202631373620534 -13.770337365900104 0 -13.770337365900104 -21.603558082492782 0 0 0 0 165.84482162336644 38.444967194064702 0 38.444967194064702 -226.97034003779208 0 0 0 0 0.79231609030199124 1.4725933014820356 0 1.4725933014820356 -2.6340154994772575 0 0 0 0 -142.70667721571954 -63.440337375455329 0 -63.440337375455329 -13.43671443443418 0 0 0 0 63.354929877656105 -20.264081185440773 0 -20.264081185440773 -26.860321279068557 0 0 0 0 -51.925401890148351 -37.836240768921016 0 -37.836240768921016 18.40420027496225 0 0 0 0 79.892159506045573 30.192046548025246 0 30.192046548025246 -14.331117821076077 0 0 0 0 39.829934004992538 -14.59141246281024 0 -14.59141246281024 -39.337046817668124 0 0 0 0 -11.749022684853117 -0.36212586449528317 0 -0.36212586449528317 -10.689244415358189 0 0 0 0 -1.296697314837715 -2.7476263823614246 0 -2.7476263823614246 -4.564492528922905 0 0 0 0 843.09399758031213 43.166480713934561 0 43.166480713934561 -188.0850518572388 0 0 0 0 844.69800016640511 58.286086887789679 0 58.286086887789679 -443.92329626127867 0 0 0 0 462.14321090785234 -62.212961502596954 0 -62.212961502596954 -74.189136856993628 0 0 0 0 174.12086538163567 -8.3199386967648934 0 -8.3199386967648934 -15.668524534241214 0 0 0 0 428.17336437792983 62.796770055616435 0 62.796770055616435 -138.02153392605032 0 0 0 0 80.072210167325636 14.057809886220525 0 14.057809886220525 -46.135977231811012 0 0 0 0 436.74358924795888 155.6586356666885 0 155.6586356666885 -14.75819671904037 0 0 0 0 15.879461364791496 141.05948480240022 0 141.05948480240022 169.89919985492634 0 0 0 0 1810.4413616316124 -152.09666351165856 0 -152.09666351165856 -470.75225295825021 0 0 0 0 467.65670907009189 144.39186927788614 0 144.39186927788614 -195.45650913896179 0 0 0 0 984.23197978165626 648.50165986375214 0 648.50165986375214 -856.13212959189514 0 0 0 0 809.32364503130884 1432.0321772112843 0 1432.0321772112843 793.15257262922069 0 0 0 0 3319.6572191795276 -771.89833549054447 0 -771.89833549054447 -662.76344260769429 0 0 0 0 -9.7562367687868914 4.3084688174252861 0 4.3084688174252861 -0.58042293703700809 0 0 0 0 509.74828969259397 443.83328802132928 0 443.83328802132928 -1389.1482402268684 0 0 0 0 -135.17743005290686 -42.927488034988414 0 -42.927488034988414 278.9074925852201 0 0 0 0 -270.18142226659256 31.158592058591466 0 31.158592058591466 1781.9845571064311 0 0 0 0 1363.2332316855536 -1045.4878795397947 0 -1045.4878795397947 551.85549374014863 0 0 0 0 -24.017494183741704 -39.646427433330409 0 -39.646427433330409 8.1544270276041324 0 0 0 0 -308.55006374844379 144.79233920189176 0 144.79233920189176 126.41414773611314 0 0 0 0 26.01084797049748 -18.208891479662544 0 -18.208891479662544 -1.0014881461746403 0 0 0 0 60.262948115541803 -43.00394661258747 0 -43.00394661258747 -16.284835501227072 0 0 0 0 -237.37988696240063 252.74785540765083 0 252.74785540765083 -285.921489513898 0 0 0 0 -31.79977773843946 -2.1385595800340447 0 -2.1385595800340447 4.237630453317994 0 0 0 0 -331.02286159086361 301.85561645907978 0 301.85561645907978 428.12050001971875 0 0 0 0 -336.09626963351184 1.9897004546494372 0 1.9897004546494372 447.92437821076078 0 0 0 0 -326.57762167323381 -53.585694147055165 0 -53.585694147055165 19.655891483664959 0 0 0 0 111.86592442607071 -38.859082828422288 0 -38.859082828422288 -15.988546864742602 0 0 0 0 87.021915018915024 -57.716494939028507 0 -57.716494939028507 8.9023530375270639 0 0 0 0 86.349353410820186 13.766097616298339 0 13.766097616298339 -9.3590947514821892 0 0 0 0 -290.38816143809527 -86.165485533894525 0 -86.165485533894525 46.844368270854829 0 0 0 0 2.2393647446935603 -45.531338070960373 0 -45.531338070960373 -22.085845977805533 0 0 0 0 0.15997663951969798 -0.48365054689040221 0 -0.48365054689040221 -1.8971261566692057 0 0 0 0 -161.36101250545471 -413.85423774388619 0 -413.85423774388619 -295.6801862968664 0 0 0 0 -160.51055381860351 -504.47258146422291 0 -504.47258146422291 163.28920120175462 0 0 0 0 134.97418270037451 31.619709820931803 0 31.619709820931803 -19.153732557457033 0 0 0 0 37.685829798088506 26.693398135093446 0 26.693398135093446 -3.7395802685458861 0 0 0 0 125.58861259962022 -17.524868916064534 0 -17.524868916064534 -30.670658185967721 0 0 0 0 142.25181178762034 46.1990328782544 0 46.1990328782544 3.313359680952999 0 0 0 0 144.45360594370959 3.1243166652247965 0 3.1243166652247965 -33.443974260294453 0 0 0 0 11.966907845864068 7.5659190829549168 0 7.5659190829549168 -8.1540012797045787 0 0 0 0 1930.0348274743847 955.78754329331264 0 955.78754329331264 -259.22342029496394 0 0 0 0 144.30643154952031 -88.870816034647646 0 -88.870816034647646 -196.95594421541227 0 0 0 0 110.99999891719031 -1.6157749852737702 0 -1.6157749852737702 -35.245067028280516 0 0 0 0 231.99210185912671 -560.01071411311386 0 -560.01071411311386 -548.01484640418039 0 0 0 0 533.74470190050488 234.72392558757292 0 234.72392558757292 -484.00279603132913 0 0 0 0 216.81688547272097 13.307684564701958 0 13.307684564701958 -579.97022486005153 0 0 0 0 91.183707327548305 19.859314106394702 0 19.859314106394702 -35.473940684395934 0 0 0 0 70.149930051877845 -52.96735529732382 0 -52.96735529732382 -14.057765329082031 0 0 0 0 77.200007197249761 -57.637659297783784 0 -57.637659297783784 -59.750777940347234 0 0 0 0 200.30557621932576 40.678483869385445 0 40.678483869385445 -82.723355324955719 0 0 0 0 145.20524201865646 -36.657042566995187 0 -36.657042566995187 -111.3075499199897 0 0 0 0 75.067678226943826 -19.142812141250943 0 -19.142812141250943 -48.638799735764223 0 0 0 0 71.582509524812849 -11.112327627260584 0 -11.112327627260584 4.6033673042124974 0 0 0 0 140.10171750707832 59.779211562412456 0 59.779211562412456 21.768126024855974 0 0 0 0 157.12584190919733 -35.890098286113698 0 -35.890098286113698 -44.284841303469875 0 0 0 0 131.37746769369119 23.459009972759929 0 23.459009972759929 -9.2450998423328201 0 0 0 0 114.24674453891157 16.746130896599198 0 16.746130896599198 -16.287471271541563 0 0 0 0 147.70697587252653 40.490632822918542 0 40.490632822918542 -33.245031447268161 0 0 0 0 242.19414880185559 156.16966764493159 0 156.16966764493159 72.09303518392278 0 0 0 0 131.63496806489547 64.534056056287227 0 64.534056056287227 19.303919925688206 0 0 0 0 144.58893317381398 67.901532045492218 0 67.901532045492218 15.438458389131938 0 0 0 0 105.97942935324613 41.956208736754192 0 41.956208736754192 64.724475606943088 0 0 0 0 106.60456511767006 44.557614933658954 0 44.557614933658954 49.084265415157461 0 0 0 0 136.15521201318967 111.09632109120625 0 111.09632109120625 134.55200887260457 0 0 0 0 114.22143011690059 -49.17486935986733 0 -49.17486935986733 62.189153988201269 0 0 0 0 -21.667995130866984 -16.440991810951154 0 -16.440991810951154 292.95479666000665 0 0 0 0 -0.15587061315160877 -2.0320836113999512 0 -2.0320836113999512 3.9432047644692729 0 0 0 0 23.525769903832042 326.9492033696651 0 326.9492033696651 277.01378017409644 0 0 0 0 -25.449012383627633 336.23114925154135 0 336.23114925154135 557.36559411519715 0 0 0 0 75.922375768273923 1.763796574499338 0 1.763796574499338 2.1487213931486622 0 0 0 0 9.4115638359114886 -3.5296653517098733 0 -3.5296653517098733 0.28708845653933324 0 0 0 0 96.344460451115083 14.640681070860182 0 14.640681070860182 31.15194727916878 0 0 0 0 43.340660389546699 -12.625843956244818 0 -12.625843956244818 0.09879737200288119 0 0 0 0 7.9780435576702784 -3.5613445993505408 0 -3.5613445993505408 8.5205199412071835 0 0 0 0 -121.42238294046911 -94.181281614819113 0 -94.181281614819113 97.261435327604431 0 0 0 0 48.474989104882297 -0.24123969162883441 0 -0.24123969162883441 6.6298402296010863 0 0 0 0 12.058732664917937 -5.4863910415911974 0 -5.4863910415911974 -2.88084139895901 0 0 0 0 26.867697213824613 -14.573474729143413 0 -14.573474729143413 5.899861315079761 0 0 0 0 67.361561546647863 -19.055128778842118 0 -19.055128778842118 -4.2261301124763122 0 0 0 0 84.421977395868453 -35.285593143693404 0 -35.285593143693404 5.481795968280494 0 0 0 0 77.036607063942938 -19.000754460892495 0 -19.000754460892495 -9.3821703460407662 0 0 0 0 86.621724748403125 -39.057115506739507 0 -39.057115506739507 5.8421909909629903 0 0 0 0 78.252979855809826 -27.479187764341077 0 -27.479187764341077 17.078690102753171 0 0 0 0 -0.48754000464214187 145.55402861745529 0 145.55402861745529 64.324189320406276 0 0 0 0 250.56101700771069 112.47449977884912 0 112.47449977884912 43.320632554945405 0 0 0 0 237.15441367086896 65.825362353696164 0 65.825362353696164 50.44114936447113 0 0 0 0 4.5486328909190377 -2.6850681433412404 0 -2.6850681433412404 1.5542110780991063 0 0 0 0 21.7975332506212 -4.1348787351162173 0 -4.1348787351162173 -4.5835946854443819 0 0 0 0 113.21666040751006 -61.51345951765461 0 -61.51345951765461 -71.303550157771042 0 0 0 0 19.511541186233728 -6.3058395719380549 0 -6.3058395719380549 0.41852404592034809 0 0 0 0 483.23804472555821 344.5636531264451 0 344.5636531264451 108.91991513138845 0 0 0 0 234.34248759360707 78.766153381703361 0 78.766153381703361 -38.616381466505288 0 0 0 0 131.75537114916187 107.24225035247741 0 107.24225035247741 169.83682210995721 0 0 0 0 -186.35310391366664 -468.74285514353204 0 -468.74285514353204 319.8370123446569 0 0 0 0 5.895770869033182 -2.9564921665131543 0 -2.9564921665131543 0.2023810226707865 0 0 0 0 493.91325044743098 -152.9094548332825 0 -152.9094548332825 -95.934430631795465 0 0 0 0 12.177054187117392 400.22952296553518 0 400.22952296553518 77.6592538450262 0 0 0 0 -340.98632356211056 -179.36006518204971 0 -179.36006518204971 332.13964001692136 0 0 0 0 -34.794864522576972 -130.13294866227733 0 -130.13294866227733 258.47913992688723 0 0 0 0 476.99196657743232 374.9776512020228 0 374.9776512020228 440.63611951168627 0 0 0 0 -17.650947529443329 -246.64384929895465 0 -246.64384929895465 922.49646274511099 0 0 0 0 227.73856895719018 -415.72101203658531 0 -415.72101203658531 466.15505054942901 0 0 0 0 342.55263089850632 306.29201313450017 0 306.29201313450017 150.04980895012932 0 0 0 0 803.85464063093241 644.07955185070114 0 644.07955185070114 389.8826627369541 0 0 0 0 12.787769883624435 -2.6601342250328797 0 -2.6601342250328797 1.2617277626192094 0 0 0 0 -197.13454875997027 -13.473209015082222 0 -13.473209015082222 202.38202841804241 0 0 0 0 825.21288678923702 -544.74662981203414 0 -544.74662981203414 454.23558249141161 0 0 0 0 1352.5670503685242 201.14938117572592 0 201.14938117572592 -102.01348131811767 0 0 0 0 6.1372704852109869 -1.948579078927704 0 -1.948579078927704 -1.4862861670671963 0 0 0 0 96.429038635918005 -59.755799606434607 0 -59.755799606434607 33.512258935518275 0 0 0 0 129.40638339026918 -40.456128350779636 0 -40.456128350779636 40.24009386956692 0 0 0 0 31.859666239257216 -12.2161302143044 0 -12.2161302143044 2.1868553349881705 0 0 0 0 150.00158814391034 25.71000285009336 0 25.71000285009336 -5.8087588705400321 0 0 0 0 -41.34739522955666 -29.25653733495481 0 -29.25653733495481 17.945888213519538 0 0 0 0 2.7191265769033635 -44.379487308261332 0 -44.379487308261332 21.439609144322276 0 0 0 0 5.0676414081949552 -20.312977633066446 0 -20.312977633066446 -0.25534992280353741 0 0 0 0 254.47778507563999 -43.517595722785472 0 -43.517595722785472 -73.036974385406211 0 0 0 0 130.66728653213067 -68.824550548352363 0 -68.824550548352363 -77.592840220761218 0 0 0 0 1086.9454712522356 -367.54966774432961 0 -367.54966774432961 -215.06894323605775 0 0 0 0 -478.9537027577062 -700.32486075099541 0 -700.32486075099541 -143.73473465394954 0 0 0 0 116.222731884734 -126.9039233486825 0 -126.9039233486825 30.859241624457354 0 0 0 0 88.693304488740978 38.415445593538607 0 38.415445593538607 -537.34400913616264 0 0 0 0 -1.0492998937867384 -8.176801051323265 0 -8.176801051323265 -6.0698749910236991 0 0 0 0 -455.03735523236901 74.158741221456694 0 74.158741221456694 -22.914134125921692 0 0 0 0 -125.96755942764219 148.04036141015493 0 148.04036141015493 -203.08947619675746 0 0 0 0 0.079310840213430989 -3.4483075245844894 0 -3.4483075245844894 0.14604297361918483 0 0 0 0 78.561096758978238 77.41858386079366 0 77.41858386079366 -288.07805548257602 0 0 0 0 69.292830660637264 7.8094928165173769 0 7.8094928165173769 -12.668348722814699 0 0 0 0 223.73137890188173 -85.85116034329188 0 -85.85116034329188 23.435464889626019 0 0 0 0 661.10067724274813 86.602779337490119 0 86.602779337490119 -363.18256534388365 0 0 0 0 564.63697322367443 92.191560341292643 0 92.191560341292643 -105.05641754489054 0 0 0 0 568.1410636474393 207.83658550973405 0 207.83658550973405 -270.92222543088155 0 0 0 0 734.11552146456961 258.38025927665979 0 258.38025927665979 -270.15005662065732 0 0 0 0 883.56420572758543 335.17299233516462 0 335.17299233516462 -418.1860063979093 0 0 0 0 314.03715041646319 306.58505575771846 0 306.58505575771846 -227.66908437378561 0 0 0 0 573.92361777900987 422.75604371694999 0 422.75604371694999 -389.08353242098019 0 0 0 0 12.808156041638185 -6.5548186429199475 0 -6.5548186429199475 0.75177170551286654 0 0 0 0 235.0992275448516 147.31151269334396 0 147.31151269334396 -26.310243446391723 0 0 0 0 360.63792913311045 -81.05324720244289 0 -81.05324720244289 -332.6709258295549 0 0 0 0 125.45222006573749 358.06868851796389 0 358.06868851796389 43.647659933466684 0 0 0 0 126.36032676987838 200.38603511170314 0 200.38603511170314 300.06242117823422 0 0 0 0 6.5052360089401731 -3.2069807800698271 0 -3.2069807800698271 2.4992691239468066 0 0 0 0 21.751750419058226 -339.96171888009303 0 -339.96171888009303 552.23182691257057 0 0 0 0 -17.354304350921211 59.525287325613704 0 59.525287325613704 644.15373583524888 0 0 0 0 257.20905826483795 220.52110683672254 0 220.52110683672254 303.12662355001976 0 0 0 0 720.11495885801196 -445.09823409187743 0 -445.09823409187743 586.75072899841871 0 0 0 0 319.3910693391008 -15.784256921982887 0 -15.784256921982887 850.37896433801961 0 0 0 0 9.0315423981887761 -3.1213028773915852 0 -3.1213028773915852 -0.53645256778863093 0 0 0 0 2525.9270956965156 962.37508007169481 0 962.37508007169481 -244.96013349239161 0 0 0 0 171.43919188038319 -143.87898477943133 0 -143.87898477943133 433.12150836085584 0 0 0 0 1861.4778633901587 71.575927629135549 0 71.575927629135549 1018.2093628320081 0 0 0 0 -1470.7986099093105 -166.25224588267019 0 -166.25224588267019 903.28495375454258 0 0 0 0 1779.6006270387006 -1398.5154366271461 0 -1398.5154366271461 -508.10412419566728 0 0 0 0 -360.32263998601775 471.32899284148448 0 471.32899284148448 729.26191424809963 0 0 0 0 127.10506563682065 -151.34742397168611 0 -151.34742397168611 -358.64671558833561 0 0 0 0 32.715298307986814 -271.46817180876178 0 -271.46817180876178 -149.23378234190932 0 0 0 0 116.93880050993175 -131.69420406674726 0 -131.69420406674726 -324.2722951728324 0 0 0 0 11.535850156338711 -421.88698187225509 0 -421.88698187225509 -621.26914436271636 0 0 0 0 114.03784254910715 -101.25112396830627 0 -101.25112396830627 -643.73070994175032 0 0 0 0 57.739647458103718 -283.46458926981813 0 -283.46458926981813 -64.465514989862641 0 0 0 0 169.20734866549174 -159.34206087943312 0 -159.34206087943312 -99.521502578483705 0 0 0 0 307.83640242755064 -182.35859090026338 0 -182.35859090026338 -120.52432854120593 0 0 0 0 266.9910926822804 -297.89197581902181 0 -297.89197581902181 -72.48173222575133 0 0 0 0 986.68006618528307 1352.9402798997962 0 1352.9402798997962 -223.68766491627139 0 0 0 0 940.59430406495812 1409.6234220637634 0 1409.6234220637634 -162.41692631227943 0 0 0 0 17.965217831909364 -9.6836248127122495 0 -9.6836248127122495 6.9870550249151488 0 0 0 0 1537.4368947172552 654.56990575706004 0 654.56990575706004 83.875273019139058 0 0 0 0 1553.7896967152501 834.38476368953116 0 834.38476368953116 -45.914828719554862 0 0 0 0 1496.2788897966166 -762.11744174173418 0 -762.11744174173418 268.05724387030386 0 0 0 0 493.38315670277734 1662.7434080870862 0 1662.7434080870862 -355.82811870292062 0 0 0 0 -505.7891352343795 983.38410352530354 0 983.38410352530354 83.506339503353956 0 0 0 0 15.152508833973926 6.6203213066370576 0 6.6203213066370576 1.654750098853679 0 0 0 0 -358.25458721914219 -263.34244209221106 0 -263.34244209221106 2118.3940493756218 0 0 0 0 1660.2085852560776 488.15646313819116 0 488.15646313819116 110.73403485293966 0 0 0 0 2046.4019819987225 5.2080328765287049 0 5.2080328765287049 -195.20226231508968 0 0 0 0 691.75951528912992 377.48572774624427 0 377.48572774624427 159.44051855363432 0 0 0 0 1128.0163768193088 -185.59401757556975 0 -185.59401757556975 -205.27519548007604 0 0 0 0 705.96859579126249 -65.670973975089055 0 -65.670973975089055 -136.5848168824341 0 0 0 0 1376.2261851959083 -93.703694616066969 0 -93.703694616066969 -93.268344914391491 0 0 0 0 925.45125993996771 51.786366506675222 0 51.786366506675222 -136.69120713179109 0 0 0 0 508.80481885326299 -435.69759546492469 0 -435.69759546492469 215.85480286445318 0 0 0 0 36.310960510990554 14.632662658748284 0 14.632662658748284 2.0233941210582085 0 0 0 0 255.35321861005741 61.579685410908382 0 61.579685410908382 -123.22467444259837 0 0 0 0 275.85619506544754 333.28912674540152 0 333.28912674540152 -1254.7778683425004 0 0 0 0 59.732879497641989 -126.09955674703724 0 -126.09955674703724 -262.83697908847353 0 0 0 0 100.63174041662569 -33.066836825378232 0 -33.066836825378232 -427.52547303186236 0 0 0 0 -58.421773917485552 73.813699645219685 0 73.813699645219685 -253.91195064144995 0 0 0 0 23.521652624132912 -102.01938771472169 0 -102.01938771472169 -63.917631380776584 0 0 0 0 32.140866318975895 -231.6967714475195 0 -231.6967714475195 -57.764970614191043 0 0 0 0 492.82524289126377 -553.52991912982907 0 -553.52991912982907 -228.24741293185616 0 0 0 0 702.47310477636711 317.71163673646515 0 317.71163673646515 71.590060353098124 0 0 0 0 -162.55057842410997 -326.29254099277966 0 -326.29254099277966 -399.8004017083822 0 0 0 0 -65.409703457877185 -210.08689221944132 0 -210.08689221944132 -583.56561347392221 0 0 0 0 -250.06855956037907 601.33558031190296 0 601.33558031190296 -630.97427922549275 0 0 0 0 87.501644183529606 -617.80689079770093 0 -617.80689079770093 242.81369878621757 0 0 0 0 -317.7844573405564 -31.021751394217972 0 -31.021751394217972 456.92455549935448 0 0 0 0 -509.09834136846212 50.804288395614208 0 50.804288395614208 85.444753366102759 0 0 0 0 180.57592994627112 94.997713743488731 0 94.997713743488731 -139.01381988405683 0 0 0 0 136.52604497572156 221.38871592022792 0 221.38871592022792 -389.36586712407097 0 0 0 0 -48.102743693135835 -223.86731793708316 0 -223.86731793708316 -208.63541688787916 0 0 0 0 -18.120847982887426 -106.79154614394167 0 -106.79154614394167 125.60259509282434 0 0 0 0 68.855501726513467 0.43133702209101443 0 0.43133702209101443 22.33865876578102 0 0 0 0 57.712628648619109 -19.123897609550866 0 -19.123897609550866 0.00092917908498169055 0 0 0 0 -157.76263921491409 -136.97248243715461 0 -136.97248243715461 -57.554417332437197 0 0 0 0 17.185589788880797 -7.3360864101090613 0 -7.3360864101090613 -5.5995255779801063 0 0 0 0 29.286835456215464 1.4482428793649689 0 1.4482428793649689 10.428161012650133 0 0 0 0 -303.73899835789416 70.046384931314151 0 70.046384931314151 215.77877638417158 0 0 0 0 30.794205811347638 -9.8867182759675956 0 -9.8867182759675956 14.10257293724105 0 0 0 0 15.2899387942145 -12.4373307986844 0 -12.4373307986844 22.000002810435895 0 0 0 0 431.15244620507656 302.50790725245861 0 302.50790725245861 -52.087968564896755 0 0 0 0 193.76609902844757 -38.760825221324808 0 -38.760825221324808 -32.309041308940323 0 0 0 0 587.32060207502218 115.51871562277302 0 115.51871562277302 16.412338724732763 0 0 0 0 39.412175101081253 -28.650396824625375 0 -28.650396824625375 19.369558283888317 0 0 0 0 177.83862731905174 428.68565080155622 0 428.68565080155622 37.828593471896966 0 0 0 0 -12.379554219281999 -129.01755738714382 0 -129.01755738714382 -139.17459313046857 0 0 0 0 401.10266309513099 -539.52282690480206 0 -539.52282690480206 -66.114050145186411 0 0 0 0 147.89734318080377 -447.4768894023839 0 -447.4768894023839 -398.29956119344979 0 0 0 0 1222.2716550332443 -638.01374801605652 0 -638.01374801605652 -364.62663450874356 0 0 0 0 30.7554297504036 -17.867419344984636 0 -17.867419344984636 15.072120728111988 0 0 0 0 -338.94177259638309 -22.649380165127354 0 -22.649380165127354 -94.143244334474574 0 0 0 0 -947.55114208813802 -215.06358503930238 0 -215.06358503930238 -108.63059497056702 0 0 0 0 8.8414587691594946 -7.0091352149926944 0 -7.0091352149926944 -4.3497244512482283 0 0 0 0 -310.95623690381217 -68.686097312413494 0 -68.686097312413494 -37.569723933028399 0 0 0 0 0.70246280948182704 -2.0512556783493618 0 -2.0512556783493618 8.24193941839426 0 0 0 0 -390.30157030175815 -71.501216207942377 0 -71.501216207942377 12.836482609331597 0 0 0 0 -349.35462882561205 -123.85545520656569 0 -123.85545520656569 57.702457036428768 0 0 0 0 41.796349780757737 -355.73818282294997 0 -355.73818282294997 54.39681337283298 0 0 0 0 -241.16899148484299 -241.74092777041415 0 -241.74092777041415 68.576273650980966 0 0 0 0 -181.07995685799324 -161.19217609412726 0 -161.19217609412726 -11.900756189536423 0 0 0 0 -165.33233546389965 -263.58473504150243 0 -263.58473504150243 30.083199819656329 0 0 0 0 54.205615146384844 -273.67974393574877 0 -273.67974393574877 -91.510867909369153 0 0 0 0 -87.822277821998796 -91.245668857639203 0 -91.245668857639203 -55.227225458966132 0 0 0 0 126.8696882673097 -148.71668363304727 0 -148.71668363304727 -185.82686547342018 0 0 0 0 5.6003946195232857 -198.7263280764937 0 -198.7263280764937 -123.19595737391501 0 0 0 0 234.24951381216397 -112.98211330453216 0 -112.98211330453216 11.681758159647302 0 0 0 0 -195.14098782536712 -174.84910443592344 0 -174.84910443592344 2.4706757529456809 0 0 0 0 2.8536849782610707 -7.919511316680488 0 -7.919511316680488 22.725274533223242 0 0 0 0 319.49725024488407 -75.279497495821431 0 -75.279497495821431 45.742596743296417 0 0 0 0 321.77462503412607 -81.251942944491134 0 -81.251942944491134 5.9600061245662346 0 0 0 0 988.72646122492552 -159.10900430934674 0 -159.10900430934674 -41.054929593525458 0 0 0 0 96.980502753819565 22.76564267963272 0 22.76564267963272 48.775400928561112 0 0 0 0 94.100777831206415 -60.89910827082042 0 -60.89910827082042 158.33473631263803 0 0 0 0 147.50193675114326 114.61636660088749 0 114.61636660088749 -0.58705201257362205 0 0 0 0 257.01341166143834 34.959028908555382 0 34.959028908555382 49.831395276268609 0 0 0 0 312.30631871425703 -30.503321087562767 0 -30.503321087562767 5.5218370207004455 0 0 0 0 339.00448402407619 46.701557564987809 0 46.701557564987809 43.81730810001136 0 0 0 0 415.46750163369916 -1.2954481062266723 0 -1.2954481062266723 2.9174214597170476 0 0 0 0 388.96955919762087 -108.45457082522135 0 -108.45457082522135 -13.786921861223618 0 0 0 0 430.14703180754236 -67.838633385983684 0 -67.838633385983684 109.28130443270999 0 0 0 0 4.4701755000300594 -15.628041642827126 0 -15.628041642827126 34.016800925473582 0 0 0 0 2.5302253076588386 -82.616855198300073 0 -82.616855198300073 -11.675363496760838 0 0 0 0 11.449932487324986 -35.77207066626579 0 -35.77207066626579 40.727698967808465 0 0 0 0 -4.6622722045249247 -88.717487664960572 0 -88.717487664960572 17.570679406827821 0 0 0 0 -7.9499064061965328 -76.458727053213806 0 -76.458727053213806 -17.130579450778896 0 0 0 0 70.482779483658305 -17.755356610554372 0 -17.755356610554372 -185.11255298541073 0 0 0 0 -5.3378568786596361 -56.72356010490978 0 -56.72356010490978 -43.195444549781314 0 0 0 0 1.577263003433039 -1.96542826191869 0 -1.96542826191869 1.2658930692631807 0 0 0 0 210.3563284028055 72.401524762558608 0 72.401524762558608 32.478013061160198 0 0 0 0 22.723625311304659 -69.896950754843999 0 -69.896950754843999 161.01281263857516 0 0 0 0 21.710873402329796 -20.95382239606456 0 -20.95382239606456 -0.61507762824294332 0 0 0 0 12.336517316225127 -15.124122432853049 0 -15.124122432853049 26.548284076097502 0 0 0 0 7.0601894916703536 -15.466191622479251 0 -15.466191622479251 16.185612339875902 0 0 0 0 6.4067668593285774 -11.113369214620629 0 -11.113369214620629 2.2815324056664452 0 0 0 0 7.3791660021815915 -14.200804635539953 0 -14.200804635539953 -0.36414522299048713 0 0 0 0 12.899811529175201 -15.147854635108281 0 -15.147854635108281 -2.3799736101427076 0 0 0 0 16.590618479698605 -18.236083229541237 0 -18.236083229541237 -1.8333525105572335 0 0 0 0 12.392120285705303 -11.596573779767869 0 -11.596573779767869 -16.427326216469044 0 0 0 0 49.772992488562522 -17.742498157428372 0 -17.742498157428372 -26.557897270782632 0 0 0 0 4.3563858039971741 -2.362078782924951 0 -2.362078782924951 -1.9088321207714811 0 0 0 0 14.763414703068548 -14.702296680435023 0 -14.702296680435023 3.629676418131714 0 0 0 0 6.7512461733358577 -18.516129515080365 0 -18.516129515080365 -23.95031456559218 0 0 0 0 8.307756001031521 -8.6656158102323388 0 -8.6656158102323388 4.2978961590525842 0 0 0 0 8.357649670016194 -9.5481829119480928 0 -9.5481829119480928 -47.223306081382134 0 0 0 0 1.2441136642646953 -4.5358804460548736 0 -4.5358804460548736 -2.7704352907822649 0 0 0 0 16.802603022752919 -56.53679973019797 0 -56.53679973019797 -67.815143788251447 0 0 0 0 68.762794421164813 -84.128223282588394 0 -84.128223282588394 -58.39710792758865 0 0 0 0 1.8252883219045088 -75.472690326955671 0 -75.472690326955671 -28.082866501961007 0 0 0 0 16.850031556934482 -58.509450626330761 0 -58.509450626330761 -12.781413782463119 0 0 0 0 386.74613396652762 -137.58978999691618 0 -137.58978999691618 0.74909767183987697 0 0 0 0 56.598991445350215 159.67083765233383 0 159.67083765233383 -183.59960143692399 0 0 0 0 0.87995267678956246 -0.49181572735731294 0 -0.49181572735731294 -2.2890260130769633 0 0 0 0 630.81626709544366 -119.79254359174504 0 -119.79254359174504 -35.044173305276132 0 0 0 0 527.40869499568521 22.069760448931589 0 22.069760448931589 52.743407183082013 0 0 0 0 -486.99255672051322 -453.35376302748364 0 -453.35376302748364 -278.18023081725016 0 0 0 0 7.6656699774138648 -8.1362566363944993 0 -8.1362566363944993 -1.0952132228419102 0 0 0 0 536.1319501679925 22.859291844743808 0 22.859291844743808 27.77298530357649 0 0 0 0 -440.49430352162881 -279.17753724571628 0 -279.17753724571628 -95.997035380045219 0 0 0 0 -110.33177057020566 -194.36843624086976 0 -194.36843624086976 -209.87579508986391 0 0 0 0 39.978388831573284 -183.0037954383159 0 -183.0037954383159 -123.89686958972393 0 0 0 0 22.814135083557176 -222.6469418581444 0 -222.6469418581444 -171.28952900613052 0 0 0 0 -185.16288842853692 -254.96707998559688 0 -254.96707998559688 -83.371725422211071 0 0 0 0 -196.62653713489445 -187.70327064310663 0 -187.70327064310663 -174.10553858619431 0 0 0 0 -92.189965833828865 -286.62771022605114 0 -286.62771022605114 -149.74661988660202 0 0 0 0 -34.48148810978455 -232.61225079945018 0 -232.61225079945018 -215.13319171402736 0 0 0 0 -73.382006221895608 -182.34510856415878 0 -182.34510856415878 -149.05653599101424 0 0 0 0 -190.08801655290995 -195.0961613019484 0 -195.0961613019484 -145.17319669062758 0 0 0 0 226.11830800714006 17.091112662919613 0 17.091112662919613 45.321620210548957 0 0 0 0 322.90146853303418 80.087354539315356 0 80.087354539315356 12.499917635975635 0 0 0 0 10.299633379188249 -10.483694130480304 0 -10.483694130480304 -2.3204748779402751 0 0 0 0 -286.61471275834117 -332.93295189264029 0 -332.93295189264029 -198.69870918497867 0 0 0 0 515.10617566964083 -96.28444788201773 0 -96.28444788201773 -29.864081781043467 0 0 0 0 647.79472645254543 -101.88324946000783 0 -101.88324946000783 89.211776433132741 0 0 0 0 426.43533802371167 -6.8562117550659565 0 -6.8562117550659565 64.363873132588623 0 0 0 0 340.5145105313552 -166.34938741231639 0 -166.34938741231639 86.041805622680783 0 0 0 0 328.35773412769686 -135.03277414556769 0 -135.03277414556769 -117.48201986082813 0 0 0 0 288.00089153927911 -34.599109978133924 0 -34.599109978133924 -34.833693095075887 0 0 0 0 140.93326300073932 -170.49493684290911 0 -170.49493684290911 -8.0714659393926382 0 0 0 0 167.95591778345852 -171.90182112684147 0 -171.90182112684147 -126.9577493100598 0 0 0 0 143.72598016201528 -174.54435089381187 0 -174.54435089381187 58.018364590663793 0 0 0 0 202.60677291008778 -58.444435602840485 0 -58.444435602840485 65.707807835301821 0 0 0 0 292.16623141084801 -94.778317572856565 0 -94.778317572856565 -19.420251886523832 0 0 0 0 163.05641138668034 -165.17792707801578 0 -165.17792707801578 -82.832941076072245 0 0 0 0 33.23896106255313 -122.68395938708774 0 -122.68395938708774 32.558850783765479 0 0 0 0 13.907253940865303 -225.40856601799214 0 -225.40856601799214 -48.179039433998014 0 0 0 0 39.943962124852078 -237.91466200029015 0 -237.91466200029015 -130.30854900928128 0 0 0 0 10.659157846324661 -212.44024786516695 0 -212.44024786516695 -152.42156936468132 0 0 0 0 22.083971385589848 -241.17496874144354 0 -241.17496874144354 -214.05857669097497 0 0 0 0 17.924790085468885 -187.31548654516484 0 -187.31548654516484 -319.37798547673901 0 0 0 0 82.88512296533554 -206.42691029901158 0 -206.42691029901158 -239.82141171325543 0 0 0 0 4.8574986994117353 -222.52725020539418 0 -222.52725020539418 -239.91848859872479 0 0 0 0 23.681405439589071 -193.23456460383358 0 -193.23456460383358 -176.41934834128881 0 0 0 0 79.199157634619041 -186.81669478931832 0 -186.81669478931832 -330.3569711098977 0 0 0 0 5.2830818994498259 -157.90990014403542 0 -157.90990014403542 -248.38963017889466 0 0 0 0 190.22554945538104 -180.39187528747101 0 -180.39187528747101 -182.90546083946663 0 0 0 0 119.72168569680252 -136.76182005632813 0 -136.76182005632813 -105.43021602636011 0 0 0 0 285.40019766334808 -129.73919322892903 0 -129.73919322892903 -193.34418591033693 0 0 0 0 80.392599192256966 -103.8894888115708 0 -103.8894888115708 -192.17948977478954 0 0 0 0 166.73662025971771 -168.68678475518107 0 -168.68678475518107 -250.16184518934949 0 0 0 0 65.895140857108345 -58.425737867289968 0 -58.425737867289968 -276.2477747198609 0 0 0 0 259.05814589544116 -69.743429613257035 0 -69.743429613257035 -281.17110025780516 0 0 0 0 247.14038998329715 -84.302778021542224 0 -84.302778021542224 -200.20694002535458 0 0 0 0 409.9729743229388 -59.071913239610353 0 -59.071913239610353 -339.53909811569042 0 0 0 0 388.8701527436333 43.835980986283062 0 43.835980986283062 -287.23881219759357 0 0 0 0 436.47530262307737 -76.053462716837316 0 -76.053462716837316 -145.4987386159346 0 0 0 0 431.93688155945438 52.871567724628392 0 52.871567724628392 -89.773244088028832 0 0 0 0 241.4166947509666 -13.851008866896123 0 -13.851008866896123 -155.71719246266582 0 0 0 0 3.5075651817001834 -1.6259329407280294 0 -1.6259329407280294 -0.59343340161440772 0 0 0 0 438.41079013979015 -467.06662832607481 0 -467.06662832607481 331.62600913356437 0 0 0 0 388.46500394168743 58.416815420186595 0 58.416815420186595 -973.74775263487561 0 0 0 0 32.006601531802517 -310.95162487000744 0 -310.95162487000744 387.68558780041303 0 0 0 0 247.59823032818167 -52.483119533173294 0 -52.483119533173294 -438.27520886752245 0 0 0 0 523.47618314905912 -133.47553767919675 0 -133.47553767919675 -817.84092033123761 0 0 0 0 257.55736586788771 52.988917881782072 0 52.988917881782072 -421.79645466530405 0 0 0 0 235.13918460055766 -77.76061599978901 0 -77.76061599978901 -410.47478906560991 0 0 0 0 246.08655237188941 -17.814424999556024 0 -17.814424999556024 -631.8753247051136 0 0 0 0 -32.447205325996038 15.552426935397534 0 15.552426935397534 -440.2567256121788 0 0 0 0 -27.386185801409738 -104.3206786281487 0 -104.3206786281487 -378.03300850393418 0 0 0 0 128.66131609537842 -154.62839552715042 0 -154.62839552715042 -361.93353667298334 0 0 0 0 46.485254992600403 -133.91988392153701 0 -133.91988392153701 -465.19617442177878 0 0 0 0 -243.50520863377824 -57.000255996998021 0 -57.000255996998021 -479.6627606346658 0 0 0 0 -1.1774049535859437 -0.19107914612488308 0 -0.19107914612488308 0.17769089435526797 0 0 0 0 64.653360783364406 -104.31595700379694 0 -104.31595700379694 193.08015069025328 0 0 0 0 0.80632314194008359 221.14361973611904 0 221.14361973611904 201.60765244751678 0 0 0 0 -33.981426170045779 174.26934146778672 0 174.26934146778672 -722.02420149411375 0 0 0 0 -4.1077239949022282 0.39303909672145121 0 0.39303909672145121 0.37740284645130551 0 0 0 0 11.753427160228966 -11.005448910601444 0 -11.005448910601444 24.538776341820494 0 0 0 0 7.0132022034141954 -4.4631564308228659 0 -4.4631564308228659 -0.41477050849634911 0 0 0 0 -5.5091476436346056 -70.876522587829641 0 -70.876522587829641 -24.191531432837564 0 0 0 0 -49.966910867950901 -226.10102574846587 0 -226.10102574846587 -550.2621389338708 0 0 0 0 74.041007773030287 -91.828003690243008 0 -91.828003690243008 -684.70849019616549 0 0 0 0 61.106818941314486 -150.57857865790959 0 -150.57857865790959 -524.46778623352918 0 0 0 0 -5.4859835316265162 -173.84718065505029 0 -173.84718065505029 -330.67990383391134 0 0 0 0 28.995595203145058 -218.53184823898061 0 -218.53184823898061 -470.3183470843353 0 0 0 0 11.708215466298498 -132.33311589431452 0 -132.33311589431452 -448.27621037575796 0 0 0 0 20.752670892165952 -162.45280322800227 0 -162.45280322800227 -391.66034594458517 0 0 0 0 6.8864237275168989 -192.17777402037183 0 -192.17777402037183 -321.48097578115153 0 0 0 0 21.638580451515452 -220.87911389765608 0 -220.87911389765608 -275.59170164836587 0 0 0 0 2.5963441779908862 -162.8226222614488 0 -162.8226222614488 -290.44005399169953 0 0 0 0 74.438574051733667 51.581020498683756 0 51.581020498683756 -73.072617293354142 0 0 0 0 -10.908200363607193 -70.023543949517475 0 -70.023543949517475 -242.32001161345397 0 0 0 0 -15.98924941273799 -28.206880161213007 0 -28.206880161213007 -402.73966897765121 0 0 0 0 -12.347238028497031 -6.9851481956061434 0 -6.9851481956061434 -0.03154642645677086 0 0 0 0 -13.336777508183332 -6.4929736403857987 0 -6.4929736403857987 17.367984106029326 0 0 0 0 -7.9404808876251991 -15.530819444771623 0 -15.530819444771623 32.245920402101547 0 0 0 0 10.267552395940584 -26.435805137582065 0 -26.435805137582065 21.400475001788436 0 0 0 0 -0.76997583613319875 -21.736669296346918 0 -21.736669296346918 20.519418358422627 0 0 0 0 13.390908882143322 -50.89095329973361 0 -50.89095329973361 18.277755912529756 0 0 0 0 -13.271056839363155 -25.177464108465301 0 -25.177464108465301 -8.617729266101378 0 0 0 0 -3.4720507402344083 -25.820639640772242 0 -25.820639640772242 14.347332110533671 0 0 0 0 -8.950916551923001 -17.949086530638851 0 -17.949086530638851 3.2526214885328955 0 0 0 0 -18.184248404708342 -29.23898307208492 0 -29.23898307208492 6.4057269560744317 0 0 0 0 5.673291720693669 -33.308505089346454 0 -33.308505089346454 -15.382624085039424 0 0 0 0 6.7729726219586155 -39.303601070247623 0 -39.303601070247623 -9.5159254664795299 0 0 0 0 37.944076150804904 -66.897865011325848 0 -66.897865011325848 -29.314775894566992 0 0 0 0 23.918727246568778 -49.798585149673727 0 -49.798585149673727 -46.926267440010633 0 0 0 0 36.143408770180486 -71.674084300215668 0 -71.674084300215668 -22.766232893036431 0 0 0 0 21.861935444353549 -49.294252929041249 0 -49.294252929041249 6.8090502287528807 0 0 0 0 47.225236822086117 -91.048014391046308 0 -91.048014391046308 3.9783201881187438 0 0 0 0 95.713394946454173 -120.58826074428407 0 -120.58826074428407 -19.761666351386339 0 0 0 0 46.746828820864948 -90.940774407959907 0 -90.940774407959907 29.366497683342459 0 0 0 0 83.59635513307876 -115.09150417418596 0 -115.09150417418596 64.130978323890304 0 0 0 0 58.444389997686812 -80.688799279432715 0 -80.688799279432715 22.713041054734731 0 0 0 0 31.19068848334723 -73.295399560290889 0 -73.295399560290889 89.287828410097063 0 0 0 0 34.391551558418541 -57.265290908739189 0 -57.265290908739189 43.366201269972862 0 0 0 0 33.697830838272239 -74.150402006926925 0 -74.150402006926925 57.364420111728577 0 0 0 0 8.006863624123298 -34.1847171947839 0 -34.1847171947839 68.281104486911318 0 0 0 0 5.1652908973719605 1.9668382219952036 0 1.9668382219952036 43.591852541496337 0 0 0 0 94.105454272703355 -104.5231537512509 0 -104.5231537512509 100.98110733367685 0 0 0 0 -7.6627269071212822 -40.116737327327314 0 -40.116737327327314 137.40862186443064 0 0 0 0 138.74149930859357 -117.00477812479812 0 -117.00477812479812 134.62174928076365 0 0 0 0 190.3286791989608 -155.64913429586068 0 -155.64913429586068 97.896287351954925 0 0 0 0 92.826123075422174 -101.36067250739688 0 -101.36067250739688 129.83192439004324 0 0 0 0 95.234241742304221 -100.29206795153777 0 -100.29206795153777 67.514839236471744 0 0 0 0 162.07649961273501 -142.78630977292323 0 -142.78630977292323 28.358098010743561 0 0 0 0 95.851660402942798 -110.15481068740974 0 -110.15481068740974 14.845818368778055 0 0 0 0 179.2928492387507 -103.8933484235672 0 -103.8933484235672 41.539241018572284 0 0 0 0 232.51220066406449 -136.53595456579706 0 -136.53595456579706 51.814789545232088 0 0 0 0 265.19726056910122 -115.08169654166704 0 -115.08169654166704 -13.03680786116729 0 0 0 0 439.423970460492 -56.575344298616983 0 -56.575344298616983 1.7092703020362023 0 0 0 0 256.7790905269303 -122.84651466620562 0 -122.84651466620562 40.49102572140162 0 0 0 0 512.59415861257708 -124.03593127906333 0 -124.03593127906333 -12.365443930415495 0 0 0 0 347.30265367285119 -77.649068480025562 0 -77.649068480025562 40.210774499197754 0 0 0 0 528.8061053276042 -237.24623561898625 0 -237.24623561898625 32.84503702993652 0 0 0 0 345.00134582075862 -156.18753947020559 0 -156.18753947020559 5.95071356600738 0 0 0 0 264.86852314091084 -111.98234446871174 0 -111.98234446871174 55.773818902506491 0 0 0 0 121.72513754440496 -246.11646090610304 0 -246.11646090610304 185.60280406860602 0 0 0 0 205.50134607515565 62.860253142087686 0 62.860253142087686 180.91257496008791 0 0 0 0 306.96338478946564 215.17508334375748 0 215.17508334375748 164.02251902024636 0 0 0 0 384.25326519893588 16.755829478247279 0 16.755829478247279 33.437063862684226 0 0 0 0 207.7099022949933 77.932371478779714 0 77.932371478779714 -5.4102801680409129 0 0 0 0 176.29429148182726 71.513376388962797 0 71.513376388962797 61.458042262285517 0 0 0 0 273.55369179871491 57.671908083864082 0 57.671908083864082 62.033234546841641 0 0 0 0 249.2036796640682 103.57759618994203 0 103.57759618994203 -5.1415843403371468 0 0 0 0 227.05685598845616 126.41657667116988 0 126.41657667116988 57.423847710666223 0 0 0 0 -70.883816514082355 -150.28581577574272 0 -150.28581577574272 -184.47821997500512 0 0 0 0 168.21444938918671 -53.813785529206058 0 -53.813785529206058 -1.8204324397611344 0 0 0 0 11.259284790638283 -11.412616590498867 0 -11.412616590498867 -5.3493621607938318 0 0 0 0 -73.286992707184709 -193.90701525102759 0 -193.90701525102759 -218.24545287409387 0 0 0 0 -22.437842581482982 -151.46704239232133 0 -151.46704239232133 -280.5674023055463 0 0 0 0 -27.24644946834178 -154.56427457375173 0 -154.56427457375173 -207.998366675912 0 0 0 0 7.9476153304449326 -4.2436324527225224 0 -4.2436324527225224 -52.793379484758134 0 0 0 0 -61.53571787441615 -133.25584680436637 0 -133.25584680436637 -217.08335006637998 0 0 0 0 -47.288542416180917 -31.9975620519416 0 -31.9975620519416 -39.950728327873094 0 0 0 0 -7.1080474610909814 -4.072635501670745 0 -4.072635501670745 -4.2750804543477505 0 0 0 0 -45.273531750724032 -108.52739831155594 0 -108.52739831155594 -195.25257441012269 0 0 0 0 7.3605688983507296 -8.2907317886032583 0 -8.2907317886032583 -3.0500455538361835 0 0 0 0 203.66823322666824 201.1521548351202 0 201.1521548351202 234.31607173998941 0 0 0 0 1.8647255338716562 -5.791951236984807 0 -5.791951236984807 -3.9514069052552934 0 0 0 0 -14.271468386518336 -30.454602397288681 0 -30.454602397288681 -11.759472061530687 0 0 0 0 12.264366717150754 -8.4731917024332191 0 -8.4731917024332191 -20.996962991378805 0 0 0 0 201.55836830381168 78.294646253753399 0 78.294646253753399 120.78631952687056 0 0 0 0 271.87896108914629 195.51390252727833 0 195.51390252727833 56.630258144035906 0 0 0 0 163.07581338973068 162.05885600951865 0 162.05885600951865 316.45392304277959 0 0 0 0 1.8657782064510009 -7.9992053376522581 0 -7.9992053376522581 -7.8990268294264023 0 0 0 0 194.4039160317825 68.473778573269556 0 68.473778573269556 32.481727146524406 0 0 0 0 207.77994929835313 141.32591282075168 0 141.32591282075168 -98.126451567381537 0 0 0 0 217.93936160607836 160.28095631492124 0 160.28095631492124 36.296202094498312 0 0 0 0 -34.752770147894807 -28.577903572657306 0 -28.577903572657306 -4.6160161852203601 0 0 0 0 12.611354870926425 -11.611969288296866 0 -11.611969288296866 -20.352182022991364 0 0 0 0 -19.041050625763091 -21.703066954004044 0 -21.703066954004044 -22.566996900566778 0 0 0 0 -18.427784727843459 -32.171521979266515 0 -32.171521979266515 -2.4310798881342635 0 0 0 0 -5.5748574783597178 -16.955907718356684 0 -16.955907718356684 -42.969394648263915 0 0 0 0 -33.67210138698556 -18.849737130416997 0 -18.849737130416997 -8.4794184484690049 0 0 0 0 113.6786262873411 148.49622569050985 0 148.49622569050985 25.314537838905835 0 0 0 0 201.77484458827348 209.15691858101104 0 209.15691858101104 -42.756981096144045 0 0 0 0 151.98077613560963 104.31637860354101 0 104.31637860354101 -207.03462329578554 0 0 0 0 226.90432175313617 -40.660344781210483 0 -40.660344781210483 -70.10453496021546 0 0 0 0 95.609810106718214 -94.80040300338112 0 -94.80040300338112 -362.99370340188614 0 0 0 0 58.548855046423341 34.425396542627823 0 34.425396542627823 -122.88914107662276 0 0 0 0 196.87160979544115 107.57114818201944 0 107.57114818201944 -164.00886473208084 0 0 0 0 -18.78224266738107 28.202499993234142 0 28.202499993234142 -136.52704191716629 0 0 0 0 -10.220277859205055 -151.64602386526002 0 -151.64602386526002 -93.018128607651761 0 0 0 0 17.419251931019808 8.0112077039629277 0 8.0112077039629277 -0.36501722330186714 0 0 0 0 22.596481891157964 78.00251702086166 0 78.00251702086166 -148.72209617937369 0 0 0 0 155.5808197615861 66.897906562103799 0 66.897906562103799 -309.28706489730041 0 0 0 0 91.619001307703911 -12.377404845264095 0 -12.377404845264095 -37.233217572671492 0 0 0 0 247.97707407722555 -51.459763922469278 0 -51.459763922469278 -120.80367515661783 0 0 0 0 141.84802218737514 -18.842486324662104 0 -18.842486324662104 65.013870365012735 0 0 0 0 265.16959267348466 99.349635316896865 0 99.349635316896865 -11.390045814520931 0 0 0 0 222.71548947564588 33.488774551306506 0 33.488774551306506 -91.877335004228826 0 0 0 0 232.04991738103945 -6.5894253199735431 0 -6.5894253199735431 62.426028363752721 0 0 0 0 540.33973063000485 52.43068347717599 0 52.43068347717599 -201.70089570558571 0 0 0 0 2.4721649498313383 -1.5500185609548043 0 -1.5500185609548043 0.53759830693650201 0 0 0 0 252.14537421740988 -247.15145743373864 0 -247.15145743373864 -384.96905257089793 0 0 0 0 185.72943908293746 324.8447299308084 0 324.8447299308084 279.49104683021505 0 0 0 0 569.25695345285726 46.986569656893153 0 46.986569656893153 -173.70704336566564 0 0 0 0 70.307371037931631 -6.7917535506436604 0 -6.7917535506436604 -1.4868657045961791 0 0 0 0 153.24275159143826 -187.11752877143158 0 -187.11752877143158 -210.35889222551168 0 0 0 0 226.85350776580833 171.04934941427814 0 171.04934941427814 -171.85424914206169 0 0 0 0 92.243154121981206 -21.655477489002749 0 -21.655477489002749 38.539273804878803 0 0 0 0 53.029788030116833 38.56879216396851 0 38.56879216396851 100.58050617863341 0 0 0 0 195.38075142677553 35.138052710703732 0 35.138052710703732 -63.952674335173469 0 0 0 0 26.319329643216136 -1.0519629501076508 0 -1.0519629501076508 4.5123145220144583 0 0 0 0 47.905079801311558 136.26600101044454 0 136.26600101044454 16.866162694132072 0 0 0 0 113.3260242715769 121.9813208881933 0 121.9813208881933 53.233468005774512 0 0 0 0 103.54271882186099 17.02868525066469 0 17.02868525066469 6.399786032804732 0 0 0 0 97.952011988789309 -8.7395739812377542 0 -8.7395739812377542 76.550483913129767 0 0 0 0 107.75429521301896 16.647485164289751 0 16.647485164289751 2.318480507543629 0 0 0 0 180.7920214185433 -8.2188582112921722 0 -8.2188582112921722 -186.93737963340209 0 0 0 0 178.63919178224751 66.640652638905522 0 66.640652638905522 -94.534965573097907 0 0 0 0 148.31284701485129 48.72687916582845 0 48.72687916582845 -45.651903029218374 0 0 0 0 203.67391416849705 100.77460606577584 0 100.77460606577584 -60.736688686145953 0 0 0 0 289.08296207298508 35.774436413730797 0 35.774436413730797 -23.91417093750033 0 0 0 0 8.7415390109531117 -13.685366189824316 0 -13.685366189824316 -4.7166312009764972 0 0 0 0 121.13913143993913 -6.153266289471139 0 -6.153266289471139 -7.0101612308154735 0 0 0 0 199.95059263984513 -187.34897082452778 0 -187.34897082452778 -27.471447000721355 0 0 0 0 113.16744361414902 -21.641649289188212 0 -21.641649289188212 -8.7965894610328412 0 0 0 0 467.28838163027831 325.18328263318858 0 325.18328263318858 141.40941025622936 0 0 0 0 203.19282378348362 124.6319028248152 0 124.6319028248152 -35.792800883324162 0 0 0 0 269.79345078140614 -188.44305540985192 0 -188.44305540985192 -222.07086869643808 0 0 0 0 117.55267918911704 48.721952243086662 0 48.721952243086662 112.02902873680978 0 0 0 0 181.37929853238893 8.7506461908819801 0 8.7506461908819801 -21.973027735519963 0 0 0 0 20.48392753754888 9.0098796272771438 0 9.0098796272771438 249.1703923146199 0 0 0 0 4.091809448563211 -3.5241473752338521 0 -3.5241473752338521 1.6928121226714383 0 0 0 0 347.1562496143215 -253.22976358730597 0 -253.22976358730597 351.51877926810403 0 0 0 0 313.60286466224352 228.94261679478598 0 228.94261679478598 121.06220772766994 0 0 0 0 372.76770093992673 -169.10704930671875 0 -169.10704930671875 -17.35605775697519 0 0 0 0 21.560615947004408 -6.4136048552688862 0 -6.4136048552688862 -30.896138485665787 0 0 0 0 -99.811496153430198 -52.977282081443661 0 -52.977282081443661 -24.675790791706227 0 0 0 0 -181.1396430408131 -185.42953366959637 0 -185.42953366959637 -77.115104018643535 0 0 0 0 19.616589758181362 -81.077163766868239 0 -81.077163766868239 -50.904128326853595 0 0 0 0 -38.756090027116443 -46.721291606621321 0 -46.721291606621321 13.850437610924473 0 0 0 0 21.660396447419771 -38.283511669670133 0 -38.283511669670133 47.706723011938436 0 0 0 0 44.913561822155316 -28.775430907180066 0 -28.775430907180066 14.83952332590502 0 0 0 0 21.096532634152368 -28.869832491831026 0 -28.869832491831026 19.479734154211201 0 0 0 0 -1.1072747708822135 -11.044690636264249 0 -11.044690636264249 88.999581642583053 0 0 0 0 234.31046043851961 -72.787838209399524 0 -72.787838209399524 -234.98288779604763 0 0 0 0 183.06180703660175 -0.87221603680336557 0 -0.87221603680336557 -335.49166776318725 0 0 0 0 174.48066651885188 -121.94809632349734 0 -121.94809632349734 -226.3344545957043 0 0 0 0 326.71428697153078 -102.7080309715875 0 -102.7080309715875 -224.27296948699359 0 0 0 0 261.30582208488477 -120.05965740920283 0 -120.05965740920283 10.426458099514093 0 0 0 0 172.65796439775932 -124.81995771429865 0 -124.81995771429865 -4.1662275069804764 0 0 0 0 296.41759388058563 -109.09630687838535 0 -109.09630687838535 -101.10249593687968 0 0 0 0 226.81374944574236 -127.92300026283965 0 -127.92300026283965 -102.58413026215294 0 0 0 0 93.418405252632965 -102.4346257305383 0 -102.4346257305383 -80.354863698594272 0 0 0 0 186.41074392515611 -137.60536587499905 0 -137.60536587499905 -67.057496190732309 0 0 0 0 213.34662840640021 -81.243272141269472 0 -81.243272141269472 -237.31013222627371 0 0 0 0 108.63639049657286 -127.34321155658108 0 -127.34321155658108 -142.45518771280786 0 0 0 0 232.03384655779519 -21.639490083762666 0 -21.639490083762666 -97.087775830848841 0 0 0 0 152.16739877754958 -18.347607819067385 0 -18.347607819067385 -17.983892704073298 0 0 0 0 104.38210600281843 -147.11432684765487 0 -147.11432684765487 -85.26546054181199 0 0 0 0 66.603679422055393 -88.151090923219272 0 -88.151090923219272 -49.677956655702474 0 0 0 0 67.156682923298831 -103.56214121806897 0 -103.56214121806897 -27.76618572958921 0 0 0 0 54.314346713227678 -63.392000188218844 0 -63.392000188218844 -41.275885233045756 0 0 0 0 43.960312208544202 -3.2904072638941222 0 -3.2904072638941222 -18.472286995410947 0 0 0 0 53.843957587097975 -67.689304697953958 0 -67.689304697953958 -79.383162857182469 0 0 0 0 -52.004107315966394 -188.03145232651696 0 -188.03145232651696 -25.90774300692965 0 0 0 0 199.5920518893472 16.773949837790269 0 16.773949837790269 -78.550810560905177 0 0 0 0 46.165355151669594 10.296033623018459 0 10.296033623018459 -1.716888339996526 0 0 0 0 71.944702853594208 -85.142209267609303 0 -85.142209267609303 190.52396828636847 0 0 0 0 112.51585950969456 200.9595161709351 0 200.9595161709351 390.66091991647977 0 0 0 0 85.546803429482679 147.83484442321185 0 147.83484442321185 168.4292173324302 0 0 0 0 92.786736811611263 127.712601894508 0 127.712601894508 166.19141056695275 0 0 0 0 269.43262159432379 -3.6268852981423834 0 -3.6268852981423834 29.247535135003545 0 0 0 0 174.16580861892726 146.31511522810183 0 146.31511522810183 128.1976495923218 0 0 0 0 111.52704931061453 181.10341052947268 0 181.10341052947268 110.34952891160185 0 0 0 0 170.93566684091638 -24.306077135721353 0 -24.306077135721353 -97.17744387807187 0 0 0 0 116.07964165647718 113.78926722815629 0 113.78926722815629 163.89138709922327 0 0 0 0 105.94231612481235 -30.808804795366314 0 -30.808804795366314 40.2708202038325 0 0 0 0 167.26828587391356 -95.463509197879091 0 -95.463509197879091 -32.851921354730621 0 0 0 0 172.76743426806934 -44.391392616776329 0 -44.391392616776329 74.264363561896971 0 0 0 0 -87.30024110544764 75.982841730398832 0 75.982841730398832 87.051186810669606 0 0 0 0 177.59408150798299 -37.322096703357374 0 -37.322096703357374 -2.6634304404951763 0 0 0 0 207.32402917577565 -127.28187546828485 0 -127.28187546828485 -17.829860221397212 0 0 0 0 56.707042291088456 24.404244097949757 0 24.404244097949757 29.10269589090338 0 0 0 0 158.78152660946682 -9.3123618467506546 0 -9.3123618467506546 -7.9297809917578901 0 0 0 0 -98.841086741165782 201.28041383975824 0 201.28041383975824 -125.84268237978222 0 0 0 0 -373.23577377637366 286.90139329675725 0 286.90139329675725 -121.1844310589961 0 0 0 0 49.251918771959026 312.91974620006204 0 312.91974620006204 -349.84412594284731 0 0 0 0 -45.089293813985933 122.49148229954716 0 122.49148229954716 -161.75390667034412 0 0 0 0 8.8254694829628022 16.06217481522323 0 16.06217481522323 21.486858286686338 0 0 0 0 132.34589167698141 95.693914973590608 0 95.693914973590608 -218.95395056664552 0 0 0 0 538.63519967499451 -122.38286367195467 0 -122.38286367195467 80.538178658730857 0 0 0 0 -76.468744264944689 169.02905621844775 0 169.02905621844775 -179.79023723231398 0 0 0 0 -135.43082113222772 183.02223452285193 0 183.02223452285193 -121.40517397563963 0 0 0 0 -127.47959421896667 291.65521859937962 0 291.65521859937962 -89.651028000127553 0 0 0 0 862.0099293278181 -1257.6600798000218 0 -1257.6600798000218 -430.97186570645601 0 0 0 0 3.2024201433068953 3.5312021876109156 0 3.5312021876109156 6.9447990761828899 0 0 0 0 -47.620563681419299 251.44801096943945 0 251.44801096943945 223.91969114078935 0 0 0 0 491.24162127434829 235.11837373902932 0 235.11837373902932 42.007536053558738 0 0 0 0 -2.98832884531339 -198.40465933992579 0 -198.40465933992579 -296.155326368251 0 0 0 0 93.637727261666441 13.16990001573398 0 13.16990001573398 -33.151226594601425 0 0 0 0 210.24373369032764 95.690552419923677 0 95.690552419923677 -49.676665621400161 0 0 0 0 102.13758420335944 68.827864072337675 0 68.827864072337675 -407.90757927596485 0 0 0 0 866.62200123204821 230.78818936523066 0 230.78818936523066 -454.30073786711455 0 0 0 0 9.0946022793717276 -4.9504985120013174 0 -4.9504985120013174 -11.292440277625904 0 0 0 0 401.0528221739587 486.65496117171256 0 486.65496117171256 827.61864619276639 0 0 0 0 -27.222061610482342 123.97325841152769 0 123.97325841152769 -231.77133242830212 0 0 0 0 51.983519999564692 1.0979042967194985 0 1.0979042967194985 -24.017480563483048 0 0 0 0 58.489913812132727 26.912738524433223 0 26.912738524433223 12.454973387982136 0 0 0 0 -10.404372172339208 5.2430223288416755 0 5.2430223288416755 21.502610118672237 0 0 0 0 17.821550159306177 11.953300677433234 0 11.953300677433234 7.8492255910363857 0 0 0 0 69.844066182420647 13.805751135360659 0 13.805751135360659 0.51763694243180591 0 0 0 0 129.23462478075817 -100.54498690436867 0 -100.54498690436867 -516.75803500260372 0 0 0 0 168.57345489363888 132.97891575931453 0 132.97891575931453 -68.635603087786876 0 0 0 0 -49.84791744991162 217.73204583623442 0 217.73204583623442 -77.677939465660529 0 0 0 0 20.198058701513219 332.47054738037923 0 332.47054738037923 -78.398958865592704 0 0 0 0 -58.66724066225288 231.03939758518209 0 231.03939758518209 -94.320652556530149 0 0 0 0 -79.923238900164506 163.14389866224792 0 163.14389866224792 -73.657970166816085 0 0 0 0 -5.0613492908887565 152.98189261545122 0 152.98189261545122 -78.462386007065106 0 0 0 0 27.295143793129682 121.0064368974904 0 121.0064368974904 -46.931805191699823 0 0 0 0 77.615420129377526 65.550163732094688 0 65.550163732094688 -12.993059191056091 0 0 0 0 10.099796196132957 211.20905120664338 0 211.20905120664338 -94.083431319214469 0 0 0 0 -21.964306325200596 104.45095540069178 0 104.45095540069178 6.3426254203259305 0 0 0 0 -52.346582668542396 130.72243823289045 0 130.72243823289045 -14.830873814556981 0 0 0 0 102.0910373948891 42.084596223748356 0 42.084596223748356 15.780541307962693 0 0 0 0 50.684322144254111 -22.701749174567531 0 -22.701749174567531 47.608274796099209 0 0 0 0 -34.862837391257926 99.741934811799183 0 99.741934811799183 -55.365729632909279 0 0 0 0 28.670438725999531 29.353880549443559 0 29.353880549443559 25.643151354512248 0 0 0 0 -100.24581499620399 115.89144862359444 0 115.89144862359444 -46.380206215701946 0 0 0 0 112.95486292098212 -121.46108483614915 0 -121.46108483614915 -256.68911371328693 0 0 0 0 -106.33620631186204 -255.19732241806202 0 -255.19732241806202 -271.62324496961509 0 0 0 0 17.926098985099784 -6.0008143094203703 0 -6.0008143094203703 -0.084561358283087862 0 0 0 0 216.09347848390462 148.39460805356021 0 148.39460805356021 -32.357081538666307 0 0 0 0 337.87074794654472 -35.915568194649381 0 -35.915568194649381 -118.82539642129376 0 0 0 0 234.09387337542285 96.347617271963657 0 96.347617271963657 -48.526286633676563 0 0 0 0 648.68477448634803 67.745894987872589 0 67.745894987872589 -49.298091285877717 0 0 0 0 324.3123659444791 248.04499601572022 0 248.04499601572022 55.929357687421771 0 0 0 0 8.2052863872850139 -6.4054087419065979 0 -6.4054087419065979 -84.050206486639809 0 0 0 0 194.40609032808425 -195.79223260016869 0 -195.79223260016869 -167.10020917815496 0 0 0 0 62.944426844533155 -100.78059304055338 0 -100.78059304055338 -226.75861203720805 0 0 0 0 148.40486439036431 -35.715588018577549 0 -35.715588018577549 -234.84587431268562 0 0 0 0 22.789777541534761 -9.0532714385675632 0 -9.0532714385675632 1.7407516130149201 0 0 0 0 103.9009991083658 -139.54201774039808 0 -139.54201774039808 -343.72961188332158 0 0 0 0 -52.309414476447273 -137.33657707340899 0 -137.33657707340899 36.730287275867113 0 0 0 0 157.7656939062872 93.123266464728431 0 93.123266464728431 61.753947173731149 0 0 0 0 -7.5277895969338715 -35.768625239724315 0 -35.768625239724315 -19.424067644305978 0 0 0 0 2.2082880048837978 63.557452420156736 0 63.557452420156736 -158.13449375561754 0 0 0 0 27.631312656331218 -9.1424283487030209 0 -9.1424283487030209 0.60427632736249604 0 0 0 0 -28.201952359468123 -24.234433159584682 0 -24.234433159584682 39.380373211468395 0 0 0 0 11.244780082481157 51.893838934330233 0 51.893838934330233 76.700306265417566 0 0 0 0 -6.0930346942623146 9.846098424660795 0 9.846098424660795 5.1573133633326051 0 0 0 0 7.0103230865679507 65.09010425262727 0 65.09010425262727 112.57497294670247 0 0 0 0 191.20260074452381 87.185750106334126 0 87.185750106334126 29.769308651403207 0 0 0 0 201.27992849099428 125.48416163779569 0 125.48416163779569 173.08559185015611 0 0 0 0 263.55086463986663 -5.6757967277900434 0 -5.6757967277900434 110.9939687472538 0 0 0 0 641.50138921901089 309.77765012534383 0 309.77765012534383 187.58261153523276 0 0 0 0 331.30832012558676 -27.636920425835797 0 -27.636920425835797 232.93111120617459 0 0 0 0 403.90997777332655 -140.84293643412587 0 -140.84293643412587 140.85129002538088 0 0 0 0 946.01131460314718 -293.7368694992133 0 -293.7368694992133 89.681197482742846 0 0 0 0 127.50377810133887 -194.88486070278287 0 -194.88486070278287 -13.411327688696474 0 0 0 0 170.28830756639763 -7.5494316640725287 0 -7.5494316640725287 -68.989844811275589 0 0 0 0 -299.85321403202397 454.80241849011531 0 454.80241849011531 2.8397854014506265 0 0 0 0 3.428668896912157 2.5506661425472927 0 2.5506661425472927 2.5022368366537755 0 0 0 0 128.71135949072777 320.41390682573274 0 320.41390682573274 -35.336538900980315 0 0 0 0 384.77168893544876 394.39497075755492 0 394.39497075755492 -142.10914290323353 0 0 0 0 201.89163539335277 368.83937750667769 0 368.83937750667769 -42.784098436082559 0 0 0 0 514.13705278578709 359.55983937135619 0 359.55983937135619 -135.9964414577662 0 0 0 0 377.73281321449031 209.9808264477021 0 209.9808264477021 -1.2216245564308394 0 0 0 0 13.359655053362076 97.495435747469287 0 97.495435747469287 -30.132936951514694 0 0 0 0 4.1631195734831579 1.9760930123507947 0 1.9760930123507947 -1.831044830860646 0 0 0 0 76.320916001888691 120.98819426292857 0 120.98819426292857 215.36974223403166 0 0 0 0 504.56829901539095 248.18403004614058 0 248.18403004614058 -22.424208117558692 0 0 0 0 147.99486376016648 356.92206695842032 0 356.92206695842032 152.73975262888848 0 0 0 0 2.2167306801041065 0.37309636297072757 0 0.37309636297072757 0.6633922281694522 0 0 0 0 11.062005868749878 -1.897741484275258 0 -1.897741484275258 -6.3777037233959648 0 0 0 0 -2.0206444403822559 5.6178963985077388 0 5.6178963985077388 5.8965452573202697 0 0 0 0 37.645961147398339 17.500821159297629 0 17.500821159297629 8.1607445827532956 0 0 0 0 102.83760130729934 -24.219458496150224 0 -24.219458496150224 75.572160833675298 0 0 0 0 7.3035146645727025 -1.7929249698019447 0 -1.7929249698019447 -0.45002577586883952 0 0 0 0 234.1051860778025 327.58565404036915 0 327.58565404036915 240.30821611790691 0 0 0 0 577.03559070811752 600.23815108081135 0 600.23815108081135 244.30672862273647 0 0 0 0 992.19240764187998 -60.817185503780138 0 -60.817185503780138 -318.5759606495817 0 0 0 0 125.82279109694355 217.07397244835215 0 217.07397244835215 252.24782796607224 0 0 0 0 30.872207091091695 84.152851060890029 0 84.152851060890029 68.048286154652374 0 0 0 0 -49.278579708792677 155.99053934405103 0 155.99053934405103 264.15859695088159 0 0 0 0 125.44630847762755 100.32443776478171 0 100.32443776478171 -26.988575175996743 0 0 0 0 38.062310805289599 373.00345623784449 0 373.00345623784449 -414.18616682238746 0 0 0 0 219.4876718441119 90.647574543300607 0 90.647574543300607 -215.73651392803299 0 0 0 0 -120.84850115994777 220.29919596218713 0 220.29919596218713 83.479895230148543 0 0 0 0 145.96765055938158 277.00162722679164 0 277.00162722679164 -223.38002469270305 0 0 0 0 -226.31510838496888 87.59433645791799 0 87.59433645791799 -224.2762590709151 0 0 0 0 332.11005978567846 136.02313236685768 0 136.02313236685768 -121.90737219294465 0 0 0 0 0.5740929693840684 -0.5165436399645813 0 -0.5165436399645813 -3.1250604810840432 0 0 0 0 796.63226624017261 -163.7015689600878 0 -163.7015689600878 -160.30686109505041 0 0 0 0 -561.84726653446705 650.54933332888936 0 650.54933332888936 -184.88293226601638 0 0 0 0 -162.70606895752644 308.08325164884809 0 308.08325164884809 -220.02149579927254 0 0 0 0 348.27104296414109 20.808108909688769 0 20.808108909688769 -238.11124784237677 0 0 0 0 91.831827219200932 137.7386877866486 0 137.7386877866486 -161.85502810816774 0 0 0 0 157.82126241633523 40.990837072897534 0 40.990837072897534 -137.19236129685805 0 0 0 0 231.9454824043496 -44.002494623708799 0 -44.002494623708799 129.87658176526747 0 0 0 0 309.55487583562353 -227.84823028200174 0 -227.84823028200174 139.31321604386443 0 0 0 0 294.52294116499252 -128.72546474591024 0 -128.72546474591024 -55.74285187215915 0 0 0 0 236.36034297195147 47.122130488183302 0 47.122130488183302 -100.22381091092689 0 0 0 0 283.0238528248492 -117.11204900009083 0 -117.11204900009083 -67.455694828002493 0 0 0 0 475.58875205786899 -193.40451720531195 0 -193.40451720531195 -92.770438473729115 0 0 0 0 384.69011216587842 -281.33952145417982 0 -281.33952145417982 -0.93195138970725111 0 0 0 0 340.53287973882107 -212.20759356188245 0 -212.20759356188245 -52.085127534344309 0 0 0 0 357.92763610073052 -259.90720745174661 0 -259.90720745174661 47.455071002696172 0 0 0 0 471.90291538809834 -282.84466521215234 0 -282.84466521215234 46.733929281857115 0 0 0 0 471.3512718878892 -217.80163327232842 0 -217.80163327232842 86.604820411776132 0 0 0 0 224.85333439699025 -258.4321309751387 0 -258.4321309751387 282.71196845404751 0 0 0 0 236.30914290199871 -186.07865345860819 0 -186.07865345860819 104.71750447001867 0 0 0 0 646.66130489765055 183.97128622045534 0 183.97128622045534 -30.813128420901176 0 0 0 0 207.77802495406286 128.73927374279461 0 128.73927374279461 -28.963314803834919 0 0 0 0 520.93234569339984 -16.235627779193578 0 -16.235627779193578 -160.76109935761784 0 0 0 0 558.48796843447781 -272.30772025355066 0 -272.30772025355066 -18.086903422948524 0 0 0 0 502.89730237657568 4.2082103030261635 0 4.2082103030261635 -80.881050515402478 0 0 0 0 538.09840215386794 -88.955401030562768 0 -88.955401030562768 12.518151064379632 0 0 0 0 851.71342261615064 -510.71357140143016 0 -510.71357140143016 309.08628383547682 0 0 0 0 1380.1393439468156 92.085881267583318 0 92.085881267583318 -19.94318604419135 0 0 0 0 136.83578408099129 162.37567530941129 0 162.37567530941129 326.0217836247237 0 0 0 0 590.23876418648069 625.86115291847671 0 625.86115291847671 619.69009517431471 0 0 0 0 315.90602471639431 170.73533094925392 0 170.73533094925392 285.16802414612539 0 0 0 0 54.616485975020623 168.64727825323689 0 168.64727825323689 526.26200537857653 0 0 0 0 29.474736540188132 -121.3644180438352 0 -121.3644180438352 187.17313177966662 0 0 0 0 5.7056592729576039 4.3020871565929255 0 4.3020871565929255 4.3900249397957669 0 0 0 0 1861.2273901301319 -648.2347331361633 0 -648.2347331361633 144.0814362764537 0 0 0 0 -9.9972587199663394 150.14833651360459 0 150.14833651360459 640.99036105595644 0 0 0 0 1752.7913336294973 236.96175711301649 0 236.96175711301649 236.11709314886102 0 0 0 0 855.86082304953743 122.88561328875396 0 122.88561328875396 238.94128509509736 0 0 0 0 1478.5070661750324 -280.6126245123836 0 -280.6126245123836 86.642225260207169 0 0 0 0 914.13940677484788 -95.232210875781675 0 -95.232210875781675 173.42666073335192 0 0 0 0 42.780649949068902 50.415337988805732 0 50.415337988805732 -52.797048443862423 0 0 0 0 1.5839749986540568 2.008425663946273 0 2.008425663946273 3.6688644505391426 0 0 0 0 624.20112203245571 162.54813214224083 0 162.54813214224083 61.068128191514006 0 0 0 0 -11.721546497486997 -7.5130882042230951 0 -7.5130882042230951 19.768849669476367 0 0 0 0 13.106822927966192 12.236944850807269 0 12.236944850807269 11.794044500467649 0 0 0 0 890.45435885599727 -616.30451102001734 0 -616.30451102001734 162.70947585880481 0 0 0 0 12.583342030826316 -35.669098056641076 0 -35.669098056641076 195.13379381214031 0 0 0 0 231.46010335866595 -204.8839658567326 0 -204.8839658567326 224.05043038892984 0 0 0 0 407.56931828843517 -142.37573225875798 0 -142.37573225875798 191.99924417633019 0 0 0 0 391.14360765954189 -189.5187048296184 0 -189.5187048296184 750.85505679556184 0 0 0 0 0.62389936423684844 -0.26710454077308299 0 -0.26710454077308299 0.064363517300815243 0 0 0 0 525.0549555424368 -311.05878096329508 0 -311.05878096329508 -324.55808515606896 0 0 0 0 27.494494872951236 -28.249143450667013 0 -28.249143450667013 -235.61768789425821 0 0 0 0 -94.387155668464402 80.024370744131033 0 80.024370744131033 267.56912815620495 0 0 0 0 99.862957657122024 116.78980574255758 0 116.78980574255758 -125.26846830538761 0 0 0 0 -1.6058633647603671 0.55496642963438703 0 0.55496642963438703 -0.51814170520321401 0 0 0 0 8.1790828725788742 58.248569652070273 0 58.248569652070273 117.70879118145649 0 0 0 0 70.350501706618161 -12.795196600188774 0 -12.795196600188774 103.4151624291294 0 0 0 0 586.07084953732556 332.52951862282544 0 332.52951862282544 221.33843541504541 0 0 0 0 14.585934949540388 115.64090310031173 0 115.64090310031173 103.23538910424259 0 0 0 0 515.31761069780623 -116.21923369980527 0 -116.21923369980527 -89.678858491168057 0 0 0 0 38.14140910810238 152.56266686407366 0 152.56266686407366 -102.49859332322103 0 0 0 0 42.114459944419082 16.908156429541197 0 16.908156429541197 3.0860513161604555 0 0 0 0 41.982814381475237 174.89571044696811 0 174.89571044696811 -434.36311150339498 0 0 0 0 765.58789542163868 -152.22836406165879 0 -152.22836406165879 -53.75007764838017 0 0 0 0 798.28636308944078 -198.51236250893589 0 -198.51236250893589 -138.05756703936549 0 0 0 0 286.49394765126635 -254.04680830124937 0 -254.04680830124937 162.49117892325148 0 0 0 0 780.92270636287321 -502.04208169972355 0 -502.04208169972355 274.39647413783541 0 0 0 0 1079.9082987115198 -98.158462311581616 0 -98.158462311581616 -48.375531391399818 0 0 0 0 935.86412309998195 -15.599578759793076 0 -15.599578759793076 -156.47592417229907 0 0 0 0 967.59626680486326 -112.66564493733745 0 -112.66564493733745 -65.586666429053366 0 0 0 0 562.46726472395858 -84.118631328066158 0 -84.118631328066158 -160.58480483615222 0 0 0 0 468.5601020853137 -74.089148795475467 0 -74.089148795475467 -162.28181971354525 0 0 0 0 867.47892210449299 -42.481904557634721 0 -42.481904557634721 -193.38716962091621 0 0 0 0 834.73479310869152 -159.59274254089132 0 -159.59274254089132 -191.61305312137438 0 0 0 0 75.77288695363859 102.29269220653305 0 102.29269220653305 -45.127354798984015 0 0 0 0 407.93304857033218 -155.85747402509162 0 -155.85747402509162 -32.378634203637375 0 0 0 0 202.89782465065946 -1.2240650350738633 0 -1.2240650350738633 -44.812445379391363 0 0 0 0 12.630390754374254 6.8713429976944909 0 6.8713429976944909 5.2878238914000733 0 0 0 0 18.880034706179586 6.2423092637297444 0 6.2423092637297444 4.6186445710243582 0 0 0 0 28.657245055976091 9.2541035606175228 0 9.2541035606175228 4.7169165627491338 0 0 0 0 17.386463257280411 4.6505169720946924 0 4.6505169720946924 10.564554862175129 0 0 0 0 28.906123308355745 6.0227647038331042 0 6.0227647038331042 8.1447627846113733 0 0 0 0 17.624595917626571 -4.0459006815151142 0 -4.0459006815151142 10.81235847116703 0 0 0 0 13.312056489038 6.5819043582080639 0 6.5819043582080639 11.412529447606428 0 0 0 0 71.880816050710564 -13.252344913048319 0 -13.252344913048319 21.433318310746472 0 0 0 0 62.262849544976234 -1.1538643790386232 0 -1.1538643790386232 17.682485920176077 0 0 0 0 58.096657402278652 -6.4618964155465619 0 -6.4618964155465619 18.3440783958265 0 0 0 0 62.307327805733891 1.27730424976032 0 1.27730424976032 0.41633141508718152 0 0 0 0 66.797259290498914 10.042227454608337 0 10.042227454608337 -5.8695288079311467 0 0 0 0 75.214359217476158 -8.228016678877907 0 -8.228016678877907 2.0447200482361723 0 0 0 0 73.086799026186782 -36.922284389592051 0 -36.922284389592051 43.088519417394991 0 0 0 0 58.675299007181763 8.445162626418357 0 8.445162626418357 -1.3039019002751462 0 0 0 0 68.815490280696395 -1.1082888261446442 0 -1.1082888261446442 -0.98350025879472014 0 0 0 0 84.677452474781603 1.3246153661248172 0 1.3246153661248172 3.6282749902073874 0 0 0 0 114.6624175240795 7.0795506772974477 0 7.0795506772974477 -104.84953340143488 0 0 0 0 7.6968849423958261 9.5263812380650918 0 9.5263812380650918 -2.2075635734672803 0 0 0 0 99.948315998990438 23.033891882236503 0 23.033891882236503 -23.858209826173606 0 0 0 0 79.169321821955236 -84.593258965722384 0 -84.593258965722384 -17.856864817985979 0 0 0 0 130.69571521047328 -40.113735537258435 0 -40.113735537258435 -16.974250540997161 0 0 0 0 -12.323201267248805 -108.20278188411856 0 -108.20278188411856 -22.691787877905881 0 0 0 0 243.75222739158198 -173.83300598581559 0 -173.83300598581559 -215.74341504192535 0 0 0 0 -39.709217119761888 -369.63746235884594 0 -369.63746235884594 -325.86414994042934 0 0 0 0 -4.4339712518148247 6.6260582887580171 0 6.6260582887580171 4.0773776274046778 0 0 0 0 33.41482436053775 17.499597013029529 0 17.499597013029529 8.6251842615176315 0 0 0 0 376.72716452784516 63.241293991486486 0 63.241293991486486 -97.553394937744741 0 0 0 0 -136.09848652766232 163.55722230849977 0 163.55722230849977 359.97648374372829 0 0 0 0 32.797027937019266 15.457961352637234 0 15.457961352637234 5.7236584224992839 0 0 0 0 29.553577283819322 149.62863269453374 0 149.62863269453374 263.63039063701518 0 0 0 0 8.1844232989765544 -2.2948398124938691 0 -2.2948398124938691 -6.3613333199051691 0 0 0 0 9.4840938300931157 92.701220137549797 0 92.701220137549797 141.89934234241127 0 0 0 0 5.112606577873521 34.721901648271114 0 34.721901648271114 317.95316895666889 0 0 0 0 26.866403358806565 9.4855114524661985 0 9.4855114524661985 6.1017774437341359 0 0 0 0 43.615797282687709 -47.982558311088269 0 -47.982558311088269 81.33324058659889 0 0 0 0 10.846744308081554 0.1926933546334908 0 0.1926933546334908 -4.3031058588617199 0 0 0 0 32.443703225670419 8.0269504358579766 0 8.0269504358579766 -1.9441343013112089 0 0 0 0 14.13325916937174 8.472044606326449 0 8.472044606326449 7.2046186140923965 0 0 0 0 33.910281252570712 11.463594289480426 0 11.463594289480426 3.7750269438845407 0 0 0 0 27.214749129212578 12.321671437374334 0 12.321671437374334 4.2574886173588311 0 0 0 0 
</DataArray>
<DataArray type="Float64" Name="cross_section_updated" format="ascii">
1 1 1 0.01152603024160679 1 1 1 1 1 1 1 0.011521532218481456 1 1 1 1 1 1 1 1 1 1 0.010015219711806826 1 1 0.0099115318731670399 1 1 1 1 1 1 0.016443263581275507 1 1 1 1 1 0.01241445211897357 1 1 0.014610686522265357 1 0.012521347165838683 1 1 1 1 1 1 1 1 1 0.011169670200608927 0.011555284304492069 1 1 0.011902788567079884 1 1 1 1 0.01336383816807782 1 1 1 1 1 0.010612112017135526 0.0088487749075092815 1 1 1 1 1 0.01003400877564397 1 1 1 1 1 0.0099803459517168978 1 1 1 0.012026836282937194 1 1 0.010068263127576513 0.011356581539277641 1 0.013906328314977087 1 0.011318167077540891 0.0095178222644099579 1 1 1 1 1 1 0.011556553486891278 1 1 1 0.011570015898759429 1 1 1 1 1 1 1 1 1 1 1 1 1 1 1 1 1 1 1 0.010567985131378188 1 1 0.0068796043912110662 0.010142045172144773 1 1 1 1 0.0089121379012202205 1 1 1 1 1 1 1 1 1 1 1 1 1 1 1 1 1 1 1 1 1 1 1 1 1 1 0.0099873868430864973 1 0.0099786706524406885 1 1 1 1 0.016875176150043927 1 1 0.011838538773123599 1 1 0.012347717639981427 1 1 1 1 1 0.01617204909989884 1 1 1 1 1 1 1 1 1 1 1 1 0.010014883759045204 1 1 1 0.015342019802751378 1 1 0.01275903673942058 1 1 1 1 0.011996725863625718 0.0099866979786758965 1 1 1 1 0.010676641626303857 1 1 1 1 1 1 1 1 1 1 1 1 1 1 1 1 1 1 1 1 1 1 1 0.012311800256219207 1 1 0.010806225557430719 1 1 1 1 1 1 1 1 1 0.0099856880491366665 1 0.011728080298386755 1 1 1 1 1 0.012447422172704972 1 0.018551659950867695 1 1 1 1 1 0.0096668022254119395 1 0.009461663009989742 1 1 1 1 1 1 1 0.011251281308902338 1 0.0094264947313869741 1 1 1 0.0099986038373474535 1 1 0.010073023324134884 1 1 1 0.010077174047764289 1 1 1 1 1 1 1 1 1 0.010626477959567011 1 1 0.009929047978294317 0.010163492518126527 1 0.010629218952274085 1 1 0.0099767109145493284 1 1 1 1 0.010078867358079639 1 1 1 1 1 1 1 1 1 1 1 1 1 1 1 1 1 1 1 0.010629336860606509 1 1 1 1 0.012444147850395307 1 1 1 0.016212735343887365 1 0.010208871339165187 1 1 1 1 1 1 1 0.010022867008774094 1 1 1 1 1 1 1 0.015352405198614964 1 1 1 0.01057705795952588 0.010153713572777725 1 1 1 1 1 1 1 1 1 0.012366334108173007 1 1 1 1 1 0.011765955984050031 1 1 1 1 1 1 1 1 1 0.010221718786836954 1 1 0.0090993247352076732 1 0.010972701037899785 1 1 1 1 0.013422628806800041 1 1 1 1 1 1 0.010034831727104504 1 0.014041648870126027 1 0.010907379698241779 1 0.013809750918226848 0.010050742079481917 1 1 1 1 1 1 1 1 1 0.0082471707669078687 1 1 0.010299290686547412 1 1 1 1 0.011665349001609376 1 0.0082695787440496757 1 1 1 0.009254696551734394 0.010751846209623149 1 1 1 1 0.010455650029942502 1 1 1 0.010122595214649659 0.010003825718936888 0.012222291567919151 1 1 0.010002148847370268 1 1 1 0.0094798387101691951 1 0.011468010790074871 0.011180614271728426 0.010209004026390082 1 0.010832036663763858 1 1 1 1 1 1 1 1 1 1 1 1 1 1 1 1 0.01096239462131781 1 0.0099516040167099314 1 0.010583236938594079 0.010863947412019435 1 1 1 1 0.010967244314919531 1 1 0.010218122620998093 1 0.011318025595308036 0.011744988591406887 1 0.013381441816185594 1 1 1 1 1 0.012025882561505392 1 1 1 1 1 1 1 1 1 1 0.010001295716705244 1 1 1 1 0.0099745624284278168 1 1 1 1 1 0.010894354219744166 1 0.012554141716018132 0.0099912255152631562 1 1 1 0.011330842540779019 1 0.011368814115706716 1 1 1 1 1 1 0.010055670422337109 1 0.010291877052997854 1 1 1 1 0.010689696460234786 1 1 1 1 1 0.010112326234117534 1 1 1 0.0097151884434521166 1 1 1 1 1 1 1 1 1 1 0.010611834619613394 1 1 1 1 0.011695026545882677 1 1 1 1 0.012340578003743644 1 1 1 1 1 1 1 1 1 0.017614311717808431 0.016683570691477578 1 1 1 1 1 1 1 1 1 1 0.010963034413275036 1 1 1 1 0.010595296825253587 1 1 1 1 1 1 1 0.010053195248302114 1 0.011274867445104404 1 0.014915338176552313 1 1 1 1 1 1 1 1 1 1 1 1 1 1 1 1 1 1 1 1 1 1 1 1 1 1 1 1 1 1 0.01226026395086461 1 0.015137491840968962 1 1 1 1 1 1 1 1 1 1 1 1 1 1 1 1 1 1 1 1 0.012037903381451866 1 1 1 1 1 1 1 1 1 1 1 1 1 0.015695075236030375 0.014705652519252311 1 1 1 1 1 0.011887805173326285 1 1 0.012507691802312072 1 1 1 0.010796164443125573 1 1 1 1 1 1 1 1 1 1 0.018184016152040263 1 1 1 1 1 0.010428984733323557 1 1 1 1 1 1 1 1 0.017869220105494611 0.011220623997192022 1 1 0.0099861722494045315 1 1 1 1 0.018540093444409145 1 1 1 1 1 1 1 1 1 1 1 1 1 1 1 0.013396732874620286 1 1 1 1 1 0.010348390410371546 1 1 1 0.01404405843750618 1 1 1 1 1 1 1 1 1 1 1 1 1 1 1 1 1 0.0094573565823581739 1 1 1 1 1 1 1 1 1 1 1 0.0097900416674042388 1 1 1 1 1 1 1 0.0098097764272692834 0.013687002736190172 1 1 1 0.010967482000249639 1 1 1 0.010305349730487662 1 1 1 1 1 1 0.014310409218324311 1 1 1 0.011079345943261926 1 0.015102675318406729 1 0.010003021212132878 1 1 1 1 1 1 1 1 1 1 1 1 1 0.010063158853115553 1 1 1 0.011324847109550496 1 1 0.010048901318947282 1 1 1 0.013931306257104436 0.008951662902147885 1 1 0.010049398573067237 1 1 1 1 1 1 1 0.0099788141734148926 1 0.017311502898202588 0.0099586267221277343 1 1 1 1 0.016037463895436397 1 1 1 1 1 1 1 1 1 1 0.015527424537499297 1 0.016207119746014725 1 1 1 1 1 1 1 1 1 1 1 1 1 1 1 1 1 1 1 1 0.01295049983690184 1 1 1 1 0.0095282145724012411 0.0084674912477366009 1 1 1 1 1 1 0.013316750767270702 1 1 1 1 1 0.0075723821484226144 0.010003256114717108 1 1 1 1 0.01676866459338619 1 1 1 1 1 1 1 0.010091620279374783 1 1 1 1 0.010036117597573231 0.012158571359289898 1 1 1 1 1 1 1 1 1 1 1 1 1 1 1 1 1 1 1 1 1 1 1 1 1 1 1 0.0099541414462065124 1 1 1 1 1 1 0.0099229512723416503 1 1 1 1 1 1 1 1 1 1 1 1 1 1 1 1 1 1 1 1 1 1 0.0098348218852930165 1 1 0.0095521663529291815 1 1 1 1 1 1 1 0.017822148830330675 1 1 0.016942763291615721 1 1 1 1 0.0081012656871528033 1 0.0067605502455661687 1 1 1 1 0.017968511106860614 1 1 1 1 1 1 1 1 1 1 1 1 1 1 1 1 1 0.0093884655584609428 1 1 1 1 0.012120465313388394 1 1 0.013806773165372052 1 1 0.013188001366521124 1 1 1 1 1 1 1 0.0099688098261351398 1 1 1 1 1 0.016950104264004943 1 1 1 1 1 0.0099895434922821994 1 1 1 1 1 1 1 1 1 1 1 1 1 1 1 1 1 1 1 1 1 1 1 1 1 1 1 1 1 1 1 1 1 1 1 0.010815589086463177 1 1 1 0.010512128533580387 1 1 1 1 1 1 1 1 1 1 0.011380032665182015 1 1 1 1 1 1 1 1 1 1 1 1 1 1 1 0.010066536154927811 1 0.010011170202363209 1 1 1 1 1 1 1 1 1 1 1 1 1 1 1 1 1 1 1 1 1 1 1 1 1 1 1 1 0.011339057001839081 1 1 1 1 1 1 0.0100055559852598 1 1 0.014643599799514533 0.0090703603810831177 1 1 1 1 1 1 1 0.014961210946565615 1 1 0.01015104958463554 1 0.010246571188552846 1 1 1 1 1 0.012278225016276581 1 1 1 1 1 1 1 1 1 1 1 1 1 0.010762473414313382 1 1 1 1 1 1 1 1 1 1 1 1 1 1 1 1 1 1 1 1 1 1 1 1 1 1 1 1 1 1 1 1 1 1 1 0.01080166255768404 1 1 0.010671021795714032 1 1 1 1 1 0.0093466609119792904 1 1 1 1 1 1 0.0098212342367973559 1 1 1 1 1 1 1 1 1 0.010288552891919338 1 1 1 1 1 1 1 1 1 1 1 1 1 1 1 1 1 1 1 1 1 1 1 1 1 1 1 1 1 1 1 1 1 1 1 1 1 1 1 1 1 1 1 1 1 1 1 1 1 0.010264171205838309 1 1 1 1 1 1 1 1 1 1 1 1 1 1 1 1 1 1 1 1 1 1 1 0.0099962423383681658 1 1 1 1 1 1 1 1 1 1 0.015978097194807278 1 1 0.0099960577901682737 1 1 1 1 1 1 1 0.014342552469830617 0.0062095654432604988 1 1 1 1 1 1 1 1 1 1 1 1 1 1 0.013290357878145106 1 1 1 1 1 1 0.012161540234745275 1 1 1 1 1 1 1 1 0.010080472827165171 1 1 1 1 1 1 1 1 1 0.0062598582718637573 1 1 1 1 1 1 1 1 1 1 1 1 0.010276492621200851 1 0.012637133508922004 0.0099975107182826654 1 1 1 1 0.0063573749789919039 1 1 1 1 0.011026010331020488 1 0.012138286715430954 1 0.014145033181262933 1 0.012549349297149646 0.013019907584162081 1 0.0088867432003922209 1 1 1 0.0075055168437084922 0.0099999024853553581 1 1 1 1 0.010021495673642326 1 1 1 1 1 1 1 1 1 1 1 1 0.0098603288159070535 1 1 1 1 1 1 0.010215044501212389 1 1 1 1 1 0.015325513127989014 1 1 1 0.011817772626891439 1 1 0.010610405758068495 1 1 1 0.013265157214039397 1 1 1 1 1 1 0.019855189850384335 1 1 0.0098817954400794022 1 0.016640827175221747 1 1 1 1 1 1 1 1 1 1 1 1 1 1 1 1 1 1 0.010012948441921132 1 1 1 0.013758521068294376 0.00491731821532412 1 1 0.010043688764636769 1 1 1 1 0.01852407812862716 1 1 1 1 1 1 1 1 1 1 1 1 1 1 1 1 1 0.010000248486319698 1 1 1 1 1 1 1 1 1 0.01126124610180617 1 1 1 1 1 1 0.015424915635154052 1 1 1 1 1 1 1 1 1 1 1 1 1 1 1 1 1 1 1 1 1 1 1 1 1 1 1 1 1 1 1 1 1 1 1 1 1 1 0.01045309812461544 1 1 1 1 1 1 1 0.010726653450541846 1 1 1 1 1 0.01068151762629801 1 1 1 1 1 1 1 0.011451401634334522 1 1 1 1 0.014975034280829636 0.016754265103256422 1 1 0.012237914965451695 0.018443210917160658 1 1 1 1 1 1 1 1 1 1 1 1 1 1 1 0.012745799703055978 1 1 1 1 1 1 1 1 1 0.0089520125701036991 1 1 1 1 1 1 1 1 1 1 0.011251201838926632 1 0.017842781085883278 1 1 1 0.013147377337221874 0.01177838864653835 1 1 1 1 1 1 1 1 1 1 1 1 1 1 1 1 1 1 1 1 1 0.010470182440716199 1 1 1 1 1 1 1 1 1 1 1 1 1 1 1 1 1 1 1 1 1 1 1 1 1 1 1 1 0.010785437317707234 1 1 0.010693594630797927 1 1 1 0.0094451069023792772 1 1 1 0.012422107549614043 0.010469745120423925 0.010450263831039752 1 1 0.010000093295460947 1 1 1 1 1 1 1 1 0.0098049621905514812 1 1 1 1 0.010095636400976127 1 1 1 0.0093571905177515617 1 1 1 1 1 1 0.011031069463815373 1 1 1 1 0.0083368327316061946 1 1 0.011479332665061733 1 1 1 1 0.0099938096357569083 1 1 1 1 0.010150579370733159 1 1 1 1 1 1 1 0.0080221520587473415 1 0.016349961166308637 1 1 0.010368781130031144 1 1 1 1 0.017361156332421811 1 1 1 0.01801353488207328 1 1 1 1 1 1 0.010438557863355789 1 1 1 1 1 1 1 1 1 1 1 1 1 1 1 1 0.014493361701712757 1 1 1 1 0.015700545786433567 1 1 0.010524401769397059 1 1 0.010060825306446209 1 1 1 1 0.012011739638022857 1 1 1 1 1 1 1 1 1 1 1 1 0.015741288711829449 1 1 1 1 1 1 0.01100869463459845 1 1 1 1 1 1 1 1 1 1 1 0.016615803741631994 1 1 1 1 1 1 1 1 1 1 1 1 0.010411180735648829 1 1 1 0.010001841332613172 1 1 1 0.014817578061487899 1 1 1 1 0.016714244432630483 0.013748213956397972 1 1 1 1 1 0.017690463914439986 1 1 1 1 1 1 1 0.016250943018326733 1 1 1 1 0.018412026738140776 1 1 1 1 1 1 0.011979186171971877 1 1 1 1 1 1 0.01069143099185816 1 1 1 1 1 0.0096748119280833707 0.010063028790566539 1 1 1 1 0.010027237291478447 1 1 1 1 1 0.010236986533062735 1 1 1 1 1 0.0098053654078201977 0.0096441242594814749 1 1 0.0097322946382258149 0.0098441183760844889 1 1 1 1 0.010203146367173656 0.010045040698481182 1 1 1 1 0.0088497450749067917 0.013250264927633006 1 1 0.018406083536752695 1 1 0.0088193698878008993 1 1 1 1 1 1 1 0.013392281788974052 1 1 0.0094646158486603599 1 1 0.01006960473001374 1 1 1 1 1 1 1 1 1 1 1 1 1 1 1 0.011242121773002696 1 1 1 1 1 1 1 1 1 1 0.015506211891936522 1 1 1 0.0099608873170951937 1 0.017441397294860533 1 1 1 1 1 1 0.010026096584917257 1 1 1 1 1 1 1 1 1 1 1 1 1 1 0.0099616370317390478 1 0.019911403904145072 1 1 1 1 1 1 1 1 0.015033422585397612 1 1 1 1 1 0.016221445355528472 1 1 1 0.010854920690563508 1 1 0.011194616405806025 1 1 1 1 0.0099275302689609043 1 0.014664433625142888 1 1 1 0.0094031778141325673 1 1 1 1 1 1 0.011558678523731644 1 1 1 1 1 1 0.013361624473789557 1 1 0.010673857148049037 0.0094539737725636078 1 1 1 0.01274882945259069 0.01500623326721858 1 0.0099975461384080935 0.013127033863586691 1 1 1 0.0074745265091868129 1 1 1 1 0.013497759002259715 1 0.0074268338872403375 0.010435819606686223 1 0.013886709845188269 0.01015316072766217 1 1 1 1 0.015383647320890247 1 1 0.010003896003680835 0.01263145179403522 1 1 1 1 1 1 1 0.010439139754554395 0.015793942196803024 1 1 1 1 1 1 1 1 1 1 1 1 1 1 1 0.010923614744856014 1 0.010109917021375491 1 1 1 1 1 0.010369956641434327 1 1 0.010644681931311248 1 1 1 1 1 1 1 1 1 1 1 1 1 1 1 1 1 1 1 1 1 1 1 1 1 1 0.011629508493717119 1 0.012242592588847176 1 1 1 1 1 1 1 1 1 0.011703853157242431 0.01521743128485567 1 1 0.019132821650811736 1 0.0099971464252826027 1 1 1 1 1 1 1 1 1 1 1 0.01636057278957059 1 1 1 1 0.016961561738516609 1 1 1 1 1 1 0.010396207578523036 1 0.0099279733799972087 1 1 1 1 1 1 1 1 1 1 1 1 1 1 0.011219400178936152 1 1 1 1 1 1 1 1 1 1 1 1 1 1 1 1 1 1 1 1 1 1 1 0.011377468010117889 0.0096501932092326152 1 1 1 1 1 1 1 1 1 1 1 1 0.0089624985215042662 1 1 1 1 1 1 1 1 1 1 1 1 0.010258427318164164 1 1 1 1 1 0.010608487514949343 1 0.010140772877683044 1 1 1 1 1 1 1 1 1 1 1 1 0.010491065738119016 1 0.010341301236292524 1 1 1 1 1 0.010470026441709822 1 1 1 1 1 1 1 1 0.010547464928394264 1 1 0.010088431999245371 1 1 0.010054135342863684 1 1 1 0.01019077777047122 1 1 1 1 1 1 1 1 1 1 1 1 1 1 1 1 1 0.012824742220218288 1 0.0099900531557332705 0.013073352290616805 1 1 1 1 1 0.0098141197124873326 1 1 1 1 1 1 1 1 1 1 1 0.011168946726218067 1 1 1 1 1 1 0.010060532916687112 1 1 1 1 0.0098625103824395346 1 1 1 1 1 1 0.0096429885629619565 1 1 1 1 0.010197297130182002 1 1 1 1 0.010844998659082146 1 1 1 1 0.011717776768392044 1 0.0099958049994330108 1 1 1 1 0.010459070316598852 1 1 1 1 1 1 1 1 1 1 1 1 1 1 0.010321019034380595 1 1 0.0098364747660143036 1 1 1 1 1 1 1 1 1 1 1 1 1 1 1 1 1 1 1 1 1 1 1 1 1 1 1 1 1 1 1 1 1 1 1 1 1 1 1 1 1 1 1 1 1 1 1 0.010128118709055766 1 1 1 0.010537225270079751 1 1 1 1 1 0.012242043231549801 1 1 1 0.0156953247866281 1 1 1 1 1 1 1 1 1 1 1 1 1 1 1 1 0.012463800339680666 1 0.017982877213245888 1 1 1 1 1 1 1 0.015917081894758954 1 1 1 0.013627820035041746 1 1 1 1 1 1 1 1 1 1 1 1 1 1 1 1 1 1 1 1 1 1 1 0.009679904922738243 1 1 1 1 1 1 1 1 1 1 1 1 1 1 1 0.017354554359758932 1 1 1 1 1 1 1 1 1 1 1 0.015174890091129949 1 1 0.011956658860587997 1 1 1 1 1 1 1 1 1 1 1 1 1 1 1 1 1 1 1 1 1 1 1 1 1 1 1 0.016773556487915502 1 0.012460505054308317 1 1 1 1 1 0.016314666082474998 1 1 1 1 0.01241849930971136 1 1 1 1 1 1 1 1 0.017026191912872825 0.010807927964005513 1 1 1 1 1 1 0.015454215799575913 1 0.010208876993420386 1 0.010003230597598179 1 1 1 0.0093990273734090753 1 1 1 1 1 1 1 1 1 1 1 0.013585333062404552 1 1 0.01055305712571453 1 1 1 1 0.010245568443715412 1 1 1 1 1 1 1 1 1 1 1 1 0.012515816005432844 1 1 1 1 1 0.010390901406363038 1 1 1 0.010637496400159208 1 1 1 1 1 0.0099907872953852866 0.01000036928021843 1 1 0.008259088313351471 1 1 1 1 1 0.010020665306957333 1 1 0.0099086401251597001 1 1 0.010772191947773749 1 1 1 1 1 1 1 1 1 1 0.010131615227249067 1 1 1 1 1 0.010570177598339836 1 1 1 1 1 1 1 0.0093953894683101481 1 1 1 1 0.011046371639233749 1 1 1 1 1 1 1 0.010038496356884639 0.013923290962173563 1 1 0.013840934748667162 0.010012695504501418 1 0.010535476084041614 1 1 0.01388426719105562 1 1 0.010595286760658677 0.00986533580432572 1 0.009766338591305445 0.015790370538118936 1 0.011589035649496499 1 1 0.011667423501997995 1 0.010053112124850952 1 1 0.0096099261413746806 1 1 0.017219963747542463 1 1 1 1 1 1 1 1 1 1 1 1 1 1 1 1 1 1 1 0.010678764618098134 1 1 1 1 1 1 1 1 1 1 1 1 1 0.015797504804060569 1 0.013963113617769711 1 1 1 0.017612821398650291 1 0.011378901350982597 1 1 1 1 1 1 1 1 1 1 1 0.0098432682594524444 1 1 0.018937601301096493 1 1 1 1 1 1 1 1 1 1 1 1 1 1 1 1 1 1 1 1 1 1 1 1 1 1 1 1 1 1 1 0.011933806339801744 1 0.011377118026608188 1 1 1 1 1 0.015672852882411447 1 1 1 0.0099315601635812101 1 1 1 1 1 1 1 1 0.010136896794477121 1 1 0.013197756038648258 1 0.011591288507173241 1 0.012838655630260891 0.012904923130974653 0.0099240744296090668 1 1 1 1 0.0161617964330944 1 1 1 1 1 1 1 1 1 1 0.010590331169735723 1 1 0.011019411521794772 1 1 1 1 1 0.013120980408935161 1 1 1 1 0.01002429611107182 1 1 1 1 1 1 1 1 1 0.013568576380260896 1 1 0.012369669721582889 1 1 1 1 0.011762655723275464 1 1 1 0.012548111076838401 1 0.010456689106503391 1 1 0.013334042311511429 1 0.012213457741709259 1 1 0.010332669411988146 1 1 1 1 1 1 1 1 1 1 1 1 1 1 1 1 0.011388740008855446 1 1 0.013180660341903464 0.012445991627780673 1 1 1 1 1 0.010013186697967233 0.010888158297881664 1 0.010839530385952038 1 1 1 0.012264412145298893 0.011283704491544387 0.012102425366515094 1 1 1 1 0.010422138261174997 0.012285943223585456 1 1 0.013836030244237171 1 0.015411503110643683 1 0.011070663036122986 0.0093667517608361194 1 1 1 1 1 0.010116125776293205 1 1 1 1 1 1 0.013162726605484775 1 1 1 0.01519799074819453 1 1 1 1 0.0060466231305286444 1 1 0.012516988177252733 1 1 1 1 0.015728004569438039 1 1 1 1 1 0.0072160570920244693 1 0.013350477841435664 1 0.0096350090343940292 1 1 1 1 1 1 1 1 1 1 1 1 1 1 1 1 1 0.012517661444230005 1 1 1 0.01007739482341025 1 1 1 1 1 1 1 0.011439987919152256 1 1 1 1 0.012707696468316491 1 1 1 1 0.016939826931652802 1 1 1 0.013157929545543951 1 1 1 1 1 1 1 0.0091075947594940893 1 1 0.015445396192661952 1 1 1 0.015161468136619232 1 0.016666925115276697 1 1 1 1 1 1 1 1 1 1 1 1 1 1 0.011292307355875887 1 1 1 1 1 1 1 1 1 1 1 1 1 0.011583577908238408 1 1 1 1 0.01050590438316067 1 1 1 1 1 1 1 1 1 1 1 1 1 1 1 1 1 1 1 1 1 1 1 1 1 1 1 0.011203363541920069 0.0083396751850465835 1 1 1 1 1 0.0089713515543539922 1 1 0.010400078627573493 1 1 1 1 1 1 1 1 1 1 1 1 1 1 1 1 1 1 1 1 1 1 1 1 1 1 0.010541074082848621 1 1 1 1 1 1 1 1 0.0098725903546913549 0.010059005074446502 1 1 1 1 1 1 1 1 1 1 1 1 1 1 1 0.010191838655938062 1 1 0.014345843861760899 1 0.010289781733978648 1 1 1 1 1 1 1 0.011352962739244776 1 1 1 0.010956837257021117 1 0.01230652222644334 1 1 1 1 1 0.010097943078040588 1 1 1 1 0.014977239492773603 1 1 1 1 1 1 1 0.010614259994902293 1 1 1 1 1 1 0.012270406375433703 1 1 1 1 1 1 1 1 1 1 1 0.018215196874189543 1 1 1 1 1 1 1 0.013012582313098195 1 0.015772034890435407 1 1 1 1 1 1 1 1 1 1 1 1 1 1 1 0.013426656017123211 1 1 1 1 1 1 1 1 1 1 1 1 0.010023326811618936 1 1 1 1 0.011194809134612876 1 1 1 1 1 1 0.0099929574180464796 1 1 1 1 1 0.0088904635325406725 1 1 1 1 0.0088978243307311824 1 1 1 1 1 1 1 1 0.011531172897822385 1 1 1 1 1 1 1 1 1 1 0.010817818062933117 1 1 1 0.0060982421844645827 1 1 0.012406725215218965 0.013333559525001209 1 1 1 1 1 0.0085890817171723494 1 1 1 1 1 1 1 1 1 0.009775227211733413 1 1 1 1 1 1 1 1 1 1 1 1 1 1 1 1 1 1 1 1 1 1 1 1 0.010216316942158229 1 1 1 1 1 1 1 1 1 1 1 1 1 1 0.01406398195451096 1 1 0.015887172629384542 1 1 1 0.016973515635817133 1 1 1 0.010537276823869901 1 1 1 1 1 0.015900772203398153 1 1 1 1 1 1 1 0.013453730146280683 1 1 1 0.01507923742816469 1 0.013855441911417639 1 1 1 1 1 1 1 1 1 1 1 1 0.011258152987798016 1 1 1 1 1 1 1 1 1 0.0097389629884119464 1 1 1 0.009185138676305455 1 1 1 1 1 1 1 1 1 1 1 1 1 1 1 1 1 1 1 1 1 1 1 1 1 1 1 1 1 1 1 1 0.010079343719277932 1 1 1 1 1 1 1 1 1 1 1 1 1 1 1 1 1 1 1 1 1 1 0.0099762996420784972 1 1 1 1 1 0.010141358307588402 1 1 1 1 1 1 1 1 1 1 1 1 1 1 1 1 1 1 1 1 1 0.010140552369589176 1 1 1 1 1 1 1 1 1 1 1 1 1 1 1 1 1 1 1 1 1 1 1 1 0.0094184909902270807 0.010100581223787078 1 1 1 1 0.010618858689909409 0.0096493934180061931 1 1 0.0099949300707006788 1 0.010238613802804471 1 1 1 1 0.0089326423173732156 1 1 1 0.010516639271773218 1 1 1 0.011736015490551198 1 0.011146857391282959 1 0.0098259509915947316 1 1 1 1 1 1 0.0099783548616226413 1 1 1 1 1 1 1 1 1 1 1 1 1 1 1 1 1 1 1 1 1 1 1 0.0097718258023548159 1 1 0.019273378154272471 1 0.016602005914709141 1 1 0.011234046536156544 1 1 1 1 1 1 1 1 0.02064827948724654 1 1 1 1 1 1 1 1 1 1 1 1 1 1 1 1 1 1 1 1 1 1 1 1 1 1 1 1 1 1 1 1 1 1 1 1 1 1 1 1 0.014848748502940705 1 1 1 0.0098519321152829679 1 1 0.0099593008155066873 1 1 1 1 1 1 1 1 1 1 1 1 1 1 1 1 1 1 1 1 1 1 1 1 1 1 1 1 1 1 1 1 1 1 1 1 1 1 1 1 1 1 1 1 1 1 1 1 1 1 1 1 1 1 1 1 1 0.010259230323741101 1 1 1 1 1 0.010745116614291592 1 1 1 1 1 1 0.010410590345586383 1 1 1 1 1 1 0.010964758446317984 1 1 1 1 1 1 1 1 1 1 1 1 1 1 1 1 1 1 1 1 1 1 1 1 1 1 1 1 1 1 0.010755427317066246 1 1 1 1 1 0.011900436598091585 1 1 1 1 1 0.012662846896701864 1 1 1 1 1 0.013411595703276595 1 1 1 1 1 1 1 1 1 0.0097218972832403862 1 1 1 1 1 1 1 0.012083016131290883 1 0.010676326023224278 1 1 1 1 0.012547825839094648 1 0.012848492127452437 1 1 1 1 1 1 1 1 1 0.009105453756910107 1 1 0.01008303914198762 0.010576711470987637 0.014776168595337888 1 1 1 1 1 1 1 1 1 1 1 1 1 1 1 1 1 1 1 1 1 1 1 1 1 0.01281091719626588 1 0.01678364709895263 1 1 0.01677632013019641 1 1 1 1 1 1 1 1 0.014553265970571263 0.017025293980495473 1 0.0099983017858037582 1 1 1 0.010685227720186844 1 1 1 1 1 1 0.016745944667553369 1 0.017156393182116016 0.013693949589243633 1 1 1 0.014190475492476026 1 1 0.013327679698214127 1 1 1 0.010140942251598112 1 1 1 1 1 1 1 0.010406027974315604 1 1 0.01286251163535211 1 1 1 1 0.017408797926230866 1 0.010058436566454814 1 1 1 1 1 0.0097537905738780285 1 1 0.0087214609567026393 1 0.018019257050341353 1 1 1 1 1 1 1 1 0.010343524046134209 1 1 1 1 1 0.015934589790507582 1 0.012676514450946459 1 1 1 1 1 0.011449628837928494 1 1 1 0.016234284875866943 1 1 1 1 1 1 0.018606407879169042 1 1 0.010336301500140827 1 1 1 1 1 0.011003585274963014 1 0.010089672997954977 1 1 1 0.011568847294850543 1 1 0.018394715094722628 1 1 0.017730332435379737 1 1 1 1 1 1 1 1 1 1 0.01658116023837004 1 0.010872796019145339 1 1 0.011824251245753273 1 0.010012627965054107 1 1 0.013173959140197271 1 1 0.009995843003393675 1 1 0.012038001040726637 1 0.010342828335889107 1 1 1 1 1 1 1 0.010736524609910241 1 1 1 1 1 1 0.010685868281666736 1 0.014037403666658682 1 1 1 1 1 1 0.010652990175739127 1 0.014531191721995042 1 1 1 1 0.018435186004752545 0.0081193755935248663 1 1 1 1 1 1 1 1 1 1 1 1 1 1 1 1 1 1 1 1 1 1 1 1 1 1 1 1 1 1 1 1 1 1 1 1 1 1 1 1 1 0.010962962363717754 1 1 0.012556092837208627 1 1 1 1 1 1 1 1 1 1 1 1 1 1 0.0099050046361014946 1 1 1 1 0.011003005319908443 1 1 1 1 0.0093093218285934757 1 1 1 1 0.011099224627855342 1 1 1 1 0.0095831294828359094 1 0.013012608779869176 1 1 1 1 0.014407393884103148 1 0.0088177385320984993 1 1 1 1 1 1 1 1 1 1 1 1 1 1 1 1 1 1 1 1 1 1 1 1 1 1 1 1 1 1 1 1 1 0.01048976263735932 1 1 1 1 0.011088127081131072 1 1 1 0.010077506084405498 1 1 1 1 0.012572339813657171 1 1 1 1 1 1 0.011326233969930804 1 1 1 1 1 1 0.010695819588349292 1 1 1 1 0.0099765114418260675 1 0.011739342529708711 1 1 1 1 1 1 1 1 1 1 1 1 1 1 1 1 1 1 0.0095373644901205461 1 1 1 1 1 1 1 1 1 1 1 1 1 1 1 0.01056228395198928 1 1 1 1 1 1 1 1 1 1 1 1 0.01233304855643178 1 0.011826143890137288 1 1 1 1 1 1 1 1 1 1 1 1 1 1 1 1 1 1 1 1 0.0099406955484417515 1 1 1 1 0.011541835512870902 0.01181394701024395 1 1 1 0.010571794980252193 1 1 0.0117004556386674 1 0.010235726944801222 1 0.010324847174689834 1 1 1 1 1 1 1 1 0.010114363271473182 1 1 1 1 1 1 1 1 1 1 1 1 1 1 1 1 1 1 1 1 1 0.009551028095778626 1 1 1 1 0.0085745957504261439 0.014369522471779144 1 1 1 1 1 1 1 1 1 1 1 0.010061435365941632 1 1 0.0099969103259364908 1 1 1 1 1 1 0.015180790042523904 1 1 1 0.010225881012583078 1 0.010004950021969052 1 1 1 1 1 1 1 1 1 1 1 1 1 0.013458669511828211 1 1 1 1 1 1 1 0.011511997725304139 1 1 0.010307947055420623 0.010788538324757417 1 1 0.010980209324817957 1 1 1 1 1 1 0.010000848073192039 1 1 1 1 1 0.011233996427880736 1 1 1 1 1 0.01275944591342414 1 1 1 0.011132382308593839 1 0.011344060980755886 1 1 1 0.010998436376583447 1 1 1 0.010879504704746721 1 1 1 1 1 1 1 1 1 1 1 1 0.011643145557426205 1 1 1 0.013919844404744053 1 1 1 1 1 1 0.017681146037694499 1 1 0.01363355009392009 0.017425371654823833 1 1 0.010585710719254227 1 1 1 1 0.013004437348578072 1 1 1 1 1 1 1 1 1 1 1 1 1 1 1 1 1 1 1 1 1 1 1 1 1 1 1 0.0098220336400947697 1 1 1 0.010986503775388862 1 1 1 1 1 1 1 1 1 1 1 1 0.0098143753613544986 0.01040673824343037 1 1 1 1 1 1 1 1 1 1 1 1 1 1 1 1 1 1 1 1 0.011328725841920444 1 1 1 0.012318920451023251 1 1 1 1 0.0096984967420619527 1 1 0.011745637963708856 1 1 1 1 1 1 0.011442218235546694 1 1 1 1 1 1 1 1 0.012257951841373889 1 1 1 1 0.011771452620071636 1 0.011828305518773178 1 1 0.010497519169340394 1 1 1 0.011942215492782028 1 1 1 0.0099761367739293252 1 1 1 0.0080724148466793932 1 1 1 1 1 1 0.014496061417429651 1 1 1 1 1 1 1 1 1 1 1 1 1 1 1 1 1 1 1 1 1 1 1 1 1 1 1 1 1 1 1 1 1 1 1 1 1 1 1 1 1 1 1 1 1 1 1 1 1 1 1 1 1 1 1 1 1 1 1 1 1 1 1 1 1 1 1 0.0119403495368233 1 1 0.014134882308753966 1 1 1 1 0.01110303270069571 1 1 1 1 1 1 1 1 1 0.012812878795303522 1 1 0.015104075848304388 1 1 1 1 0.01004393464499213 1 1 1 0.010438713269726944 1 1 1 1 1 0.01052462372459477 1 0.013098890335855474 1 1 1 0.014862007257323506 1 1 1 0.016067623474503856 1 1 1 1 1 0.011598036899914049 1 1 0.015921564330275126 0.016289657726522286 1 1 0.012739863539096775 1 1 1 0.010289294900994745 1 1 1 0.012618993566886744 1 0.016589567816558716 1 0.013820619471566643 1 1 1 0.012295481679972006 0.010637827940165526 1 1 0.016769882841434113 1 1 1 1 0.012215183346433702 1 1 0.0092281294200843265 1 0.010758057773620175 1 0.013412102031416174 1 1 1 1 1 1 1 0.010283288274227467 1 1 1 1 1 1 1 1 1 1 1 1 1 1 1 0.01053020907167798 1 1 1 1 1 1 1 1 1 1 1 1 1 1 1 1 0.010649716574229957 1 1 1 0.010026048799215296 1 1 0.0099316506949323966 1 1 1 1 1 1 1 1 1 1 1 1 1 1 1 1 1 1 1 0.010482363843016705 1 0.0099769649208664123 1 0.0090094742774054597 1 1 0.011269680644988166 1 1 1 1 1 1 1 0.0095691114698981047 1 1 1 1 1 0.010826900349278806 1 1 1 1 0.0099816868447355923 1 1 1 1 1 0.011135874369893677 1 1 1 0.0090457259619755662 1 0.0094981819333802373 1 1 1 1 1 1 1 1 1 1 1 0.010269166445283225 1 1 1 1 1 1 1 1 1 1 1 1 1 1 1 1 1 1 1 1 0.010208831491556991 1 1 1 1 1 1 1 1 1 1 1 1 1 1 1 1 1 1 1 1 1 1 0.011049753959174236 1 1 1 0.010413905354185467 1 1 1 1 1 1 1 1 1 1 1 0.0078673478557439551 1 1 1 1 1 0.0092570447903961121 1 1 1 1 1 1 1 1 1 1 1 1 1 1 1 1 1 1 1 1 1 1 1 1 1 0.0119824795565117 1 1 1 1 1 1 1 1 1 1 1 1 1 1 1 1 1 1 1 1 1 1 1 1 1 1 1 0.010286057244257863 1 1 1 1 1 1 1 1 1 1 1 1 0.010485823007389452 1 0.010655130835967738 1 1 1 0.013552070338129238 1 1 1 1 1 0.010776256817934808 1 1 1 1 1 1 1 1 1 1 1 1 1 1 1 1 1 1 0.010217633109550107 1 1 1 1 1 1 1 1 1 1 1 1 1 1 1 1 1 1 1 1 1 1 1 1 1 1 1 1 1 1 1 1 1 1 1 1 1 1 1 1 1 1 1 1 1 1 1 1 0.011050481237982681 1 1 1 0.010546495662683368 1 1 1 1 1 1 1 1 1 1 1 1 1 1 1 1 1 0.010503985575299314 1 1 1 1 0.010588477900191042 1 1 1 1 1 1 1 1 1 0.011984553548063619 1 1 1 0.011467487138953883 1 1 1 1 0.012392858866163373 1 1 1 1 1 1 1 1 1 1 1 1 1 1 1 1 1 1 0.015899943780093764 1 1 1 1 1 1 1 1 0.0064724467797661334 0.014890070416009061 1 1 1 1 1 1 0.013313292833813361 0.00998789207863446 1 1 1 1 1 1 1 1 1 1 1 1 1 1 1 1 0.011266793625623942 1 1 1 1 1 1 1 1 0.013236842041431683 1 0.01308219940798557 1 1 1 1 0.016630691252037574 1 1 0.010168791887638015 1 1 1 1 1 1 1 1 1 0.0093916268854261891 1 1 1 1 1 1 1 1 1 1 0.017989576489355879 1 1 1 0.014914782932256454 1 1 1 1 1 1 1 1 0.010000735175548003 1 0.010519632519906792 1 0.011775438913356289 1 1 0.015073265087001703 1 1 1 0.010016208486246649 1 1 0.014038961272110056 1 0.0094872348213752115 0.0099800926144103883 1 1 1 1 1 1 1 1 1 0.010862661718876935 1 1 0.013639220495084132 0.013571758852918973 1 1 1 1 1 1 1 1 1 1 1 0.010173770484050743 1 1 1 0.010351988751021918 1 1 1 1 1 1 1 1 1 0.010178218266971175 1 1 1 1 1 1 1 1 1 1 1 0.010166340985788091 1 1 1 1 1 1 1 1 1 1 1 1 1 1 1 1 1 1 1 1 1 1 1 1 1 1 1 1 1 1 1 1 1 1 1 1 1 1 0.010107941945393488 1 1 1 1 1 1 0.010192494196239238 1 1 0.010084552250845751 1 1 1 1 1 1 1 1 1 1 1 0.022558532426058125 1 1 1 1 0.020384069305894981 1 1 0.0092572452917705078 1 1 1 0.011540542372997719 1 1 1 1 1 1 1 1 1 1 1 0.024509414539412466 1 0.026202498849116691 1 1 1 1 1 1 0.0072548000986367486 1 1 1 1 0.008003502114458369 1 0.010914713211923607 0.01935392141003172 1 0.01581343510938811 1 1 0.019698838202650056 1 0.016871410599358143 0.0068500838754712613 1 1 1 1 0.018895171286836262 0.011185128680421222 0.0088661463025766322 1 1 1 0.011234147982820197 1 1 1 0.025464500792541887 1 1 1 1 1 0.017509633606157336 1 0.01171772424308188 0.0059667738492639195 0.009822064732353121 1 1 1.7347234759768071e-17 1 1 1 0.011111637297424055 1 1 1 1 1 1 1 0.01723415503963658 1 1 1 1 1 1 1 1 1 1 1 1 1 1 1 1 1 1 1 1 1 1 0.019649187053805327 1 1 0.013302724422687031 1 1 1 1 1 1 1 1 1 1 1 0.010464319504789155 1 1 1 1 1 1 1 1 1 1 1 1 1 1 1 1 1 1 1 1 1 1 0.012436945544716676 1 0.015169000453020397 0.0096403446704842778 1 1 0.010502425713576208 1 1 1 1 0.011731572133743918 1 1 1 1 1 1 1 1 1 1 1 1 1 1 0.010499912276670055 1 1 0.0087128723269348316 1 1 0.019415134616481096 1 0.0098738882444866279 1 0.02288561445853585 1 1 0.0094671303912673196 1 1 1 0.031040700795703487 1 1 1 1 0.0097121126300205064 1 1 1 1 0.010564600997988151 1 1 1 1 1 1 1 0.030492060820778728 1 1 1 0.028251736396041848 1 1 0.0098657734783312388 1 1 1 1 1 1 1 1 1 1 1 1 1 1 1 1 1 1 1 1 1 0.0098936711289319135 1 1 1 1 1 1 1 1 1 1 1 1 1 1 1 1 1 1 1 1 1 1 1 0.02359925749437377 0.0099662681614904498 1 0.028955545380060219 1 1 1 1 0.01167617426900484 1 1 1 1 1 1 1 1 1 0.016447490754893896 1 1 1 1 1 1 1 1 1 1 1 1 1 1 1 1 1 1 1 1 1 1 1 1 1 1 1 1 1 1 1 1 1 1 1 1 1 1 1 1 1 1 1 1 1 1 1 1 1 1 1 1 1 1 1 1 1 1 1 0.011252095604813307 1 1 0.011008826269180061 1 1 0.013189671100321237 1 1 1 1 1 1 1 1 1 1 1 1 1 0.011405848151670667 1 1 1 0.011937575495507929 1 1 1 1 1 0.012590041927838403 1 1 1 1 1 0.015888795513617233 1 1 1 1 1 1 1 1 1 0.011115246790580732 1 1 1 1 1 1 1 1 1 1 1 1 1 1 1 1 0.01010185267310133 1 0.010453075434789622 1 1 1 1 1 1 1 1 1 1 1 1 1 1 1 1 1 1 1 1 0.012521094942251402 1 1 1 1 1 1 1 1 1 1 1 1 1 1 1 1 1 1 1 1 1 1 1 1 1 0.012493039001706164 1 1 1 1 1 1 1 1 1 1 1 1 1 1 1 0.011119341587712923 1 1 1 1 1 1 0.0083026267562167928 1 1 0.012933200025564355 1 1 1 0.014062334742409761 1 1 1 1 1 1 1 1 1 1 1 1 1 0.011510734296083411 1 1 0.012822389006743762 0.012333880086557159 1 1 1 0.014607275914190448 1 1 1 0.0099961168028459575 1 1 1 1 1 1 1 1 1 1 1 1 1 1 1 0.0090647219184001159 1 0.0096709371904853732 1 1 1 0.010558353967224529 1 1 1 1 1 1 0.010224755488295784 1 1 1 1 1 1 1 1 1 1 1 1 1 1 1 1 1 1 1 1 1 1 1 1 0.018005840392965045 1 1 1 0.015484087256626608 1 1 1 1 1 1 1 1 1 1 1 1 1 1 1 1 1 1 1 0.012094025854271658 1 1 1 1 1 1 1 1 1 1 1 0.010087921413651906 1 1 1 1 1 1 1 1 1 1 1 1 1 1 1 1 1 1 1 1 1 1 1 1 1 1 1 1 1 1 1 1 1 1 1 1 1 1 1 0.010163418253161879 1 1 1 1 1 1 1 1 1 1 1 1 1 1 1 1 1 1 1 1 1 1 1 1 1 1 1 1 1 1 0.024724324110607321 1 1 1 0.021861007590562063 1 0.017767586513764665 1 1 1 1 0.011790852891717909 1 1 1 1 1 1 1 0.012684142698479176 1 1 1 1 1 0.012955374588228579 1 1 1 1 1 1 1 1 0.012614628413136528 1 1 1 1 1 1 1 0.012363909011396609 1 1 0.011080470602561178 1 1 0.01828388579641628 1 1 0.0096826935145786757 1 1 0.015249530213897584 1 1 1 1 1 1 1 1 1 1 1 0.015619797032824581 1 1 1 1 1 0.010243433103844417 1 1 1 0.011804461413396744 0.010522980540162645 1 1 1 0.0097962744635744312 1 1 1 1 1 1 1 1 1 1 1 1 1 1 1 1 1 1 1 1 1 1 1 1 1 1 1 1 1 0.01188636896835106 1 1 1 1 0.010657339546433548 1 1 1 1 1 1 1 1 1 1 1 1 1 1 1 1 1 1 1 0.0096563629031753643 1 1 1 1 1 1 1 1 1 1 1 1 1 1 1 1 1 1 1 1 1 1 1 1 1 1 1 0.011455486668240165 1 1 1 1 1 1 1 1 1 1 1 1 1 1 0.0083856082328090335 1 1 1 1 0.0092653504665159026 1 1 0.02682431556663966 1 1 1 1 1 1 1 1 0.026531364211424574 1 1 1 0.013656892650643307 1 1 0.021323658766542387 1 1 1 1 1 1 1 1 1 1 1 1 1 1 1 1 1 1 1 1 1 1 1 1 1 1 1 1 1 1 1 1 0.013842456627133131 1 0.020229098722842988 1 1 1 1 1 1 1 1 1 1 1 1 1 1 1 1 1 1 1 1 1 1 1 1 1 1 1 0.022620044332655971 1 1 0.021922563146490846 1 1 1 1 1 1 1 1 1 0.013846767017804934 1 1 1 1 1 1 1 1 0.013535794569402067 1 1 1 1 1 1 1 1 1 1 1 1 1 1 1 1 1 1 1 1 1 1 1 1 1 1 1 1 1 1 1 1 1 1 1 1 0.010382228435392986 1 1 1 1 1 1 1 1 0.010916300646005198 1 1 1 1 1 0.011130346568756076 1 1 1 1 0.011927203378666722 1 1 0.0099799569624817175 1 1 1 1 1 1 1 1 1 1 0.01072239978996237 1 1 1 0.011940393709195505 1 1 1 0.012551271902540476 1 1 1 1 1 1 1 1 1 0.011589725640026232 1 1 1 1 1 1 1 1 0.013767600668551285 1 1 1 1 1 1 1 1 1 1 1 1 1 1 1 1 1 1 1 1 1 1 1 1 1 1 1 0.011091682347176508 1 1 0.0099083400067326889 1 0.0099678671598504246 1 1 1 0.010365199185976061 1 1 1 1 1 1 1 1 1 1 1 0.011973033706137951 1 1 1 1 1 0.014150908734663001 1 1 1 1 0.0097850187971941019 1 1 1 1 1 1 1 1 1 1 0.0099824150407968239 1 1 1 1 1 1 1 1 1 1 1 1 1 1 1 1 1 0.010852066563580259 1 0.010571694171948625 1 1 1 1 0.014532250717784452 1 1 1 1 0.0093721677201300396 1 1 0.0099508499520029187 1 1 1 1 1 1 0.016903632861223917 1 1 1 1 1 1 0.018327639040274991 1 1 1 1 1 1 1 1 1 1 1 1 1 1 1 0.0097958846737144813 1 1 1 1 1 1 1 1 1 1 1 1 0.011003905188433288 1 1 1 1 1 1 1 1 1 1 1 1 1 1 1 1 0.010573946199404841 1 1 1 0.011462855657156358 0.010912895576249464 1 1 1 1 1 1 1 1 1 1 0.0097246247701724877 1 0.010324762590750399 1 1 0.010847641085063184 1 1 1 1 1 1 1 1 1 1 1 1 1 0.014162073452367908 1 1 1 1 0.012769645652568294 1 1 1 1 1 1 1 1 1 1 1 1 1 1 1 1 1 1 0.010497672774522366 1 1 1 1 1 1 1 1 0.011472633243878408 1 1 1 1 1 1 1 1 1 1 1 1 1 1 1 1 1 1 1 1 0.010328652750621243 1 1 1 1 1 1 1 1 1 1 1 1 1 1 1 1 1 1 1 1 1 0.010440412061988995 1 0.010043220963844439 1 1 1 1 0.010386481840869068 1 1 1 1 1 1 1 1 1 1 1 1 1 1 1 1 1 1 0.017307978683109015 1 1 0.011771634494878972 1 1 1 0.019098165806550153 1 1 0.010899618707384954 1 0.010966673532273947 0.013504123693038338 1 1 0.0095733208640098356 1 1 1 1 1 1 1 1 1 0.010014675952954265 0.01220883753708279 1 0.010036518153654778 1 1 1 1 1 1 1 0.010568300931377598 1 1 1 1 0.021336300258003774 1 1 1 1 1 1 1 1 1 1 1 1 0.011766459116643039 1 1 1 1 1 0.010380714285877571 1 0.0093203965442043533 1 0.022960472476413515 1 1 1 1 1 1 1 1 1 1 1 1 1 1 1 1 1 1 1 1 1 1 1 1 1 1 1 1 1 1 1 1 1 1 1 1 1 1 1 1 1 1 1 1 1 1 1 1 1 1 1 0.010597249957075595 1 1 1 1 1 1 0.01058051795937973 1 1 1 1 0.010209824914938872 1 1 1 0.012559686844412197 1 1 1 1 0.011664398994020771 1 1 1 1 1 1 1 1 1 1 1 1 1 1 1 1 1 1 1 1 1 1 1 1 1 1 1 1 1 1 1 1 1 1 0.013091512866714977 1 1 1 1 1 1 1 1 0.013190415953386679 1 1 1 1 1 1 1 1 0.013116355225904819 1 1 1 1 1 1 1 1 1 1 1 0.011866861765860744 1 0.011147008730431968 1 1 1 1 0.010832100710084155 1 1 1 1 1 0.010334669086424587 1 1 1 1 1 1 1 1 1 1 1 1 1 1 1 1 1 1 1 1 1 1 1 1 1 1 1 1 1 1 1 1 1 1 1 0.010129557757468131 1 0.0099523328812878356 1 1 1 1 1 1 1 1 1 0.0098251327847675672 0.010407417889497396 1 0.0098304372669893343 1 1 1 1 1 1 1 1 0.010179309358369935 1 1 1 1 1 1 1 1 1 1 1 1 1 1 1 1 1 1 1 1 1 1 1 1 1 1 0.0099620672306890978 1 1 1 1 1 1 1 1 1 1 1 1 1 1 1 1 1 1 0.0099862902479276542 1 1 1 1 1 1 1 1 1 1 1 1 1 1 1 1 1 1 1 1 1 1 1 1 1 1 1 0.010141916221940425 1 1 1 1 0.009996882048370917 1 1 1 1 1 1 1 1 1 1 1 1 1 1 1 1 1 1 1 1 1 1 1 0.0098065614840873432 1 1 1 1 1 1 1 1 1 1 1 1 1 1 1 1 1 0.010000201184283663 1 0.0099473357467398851 1 1 1 1 1 1 1 1 1 1 1 1 1 1 1 1 1 1 1 1 1 1 1 1 1 1 1 1 1 1 1 1 1 1 1 1 1 1 1 1 1 1 1 0.010218502945615786 1 0.00993664787051028 1 1 0.01001093508265973 0.010038842478144731 1 1 1 1 1 1 1 1 1 1 0.0099859133185611591 1 1 1 1 1 1 1 1 1 1 1 1 1 1 1 1 1 1 1 1 1 0.010242413417562929 1 1 1 1 1 1 1 1 1 1 1 1 1 1 1 1 1 1 1 1 1 1 1 1 1 1 1 1 1 1 1 1 1 1 1 1 1 1 1 1 1 1 1 1 1 1 1 1 1 1 1 0.0099827438707689453 1 1 1 1 1 1 1 1 1 1 1 1 0.010124037353449411 1 0.010290107927708229 1 1 1 0.010325625179472053 1 1 1 1 1 1 1 0.0099270416372065559 0.010794480153217843 1 1 1 1 1 1 1 1 1 1 1 1 1 1 1 1 0.010498714516924336 1 1 1 1 1 0.010856058277953343 0.010008136320751652 1 1 1 1 1 1 1 0.0099956535063235805 1 1 1 1 1 0.011042361529411626 1 1 1 1 1 0.009830192473514042 1 1 1 1 1 1 1 1 1 1 1 1 1 1 1 1 1 1 1 1 1 1 1 1 1 1 1 1 1 1 1 1 1 0.0096811911595979083 1 1 1 1 1 0.0099205075880477861 1 1 1 1 1 1 1 1 1 1 1 1 1 1 1 1 1 1 1 0.010000965010102524 1 1 1 1 1 1 1 1 1 1 1 1 0.01031544077937796 1 1 1 1 0.010032228605537543 1 1 1 1 1 0.010096208961275055 1 1 0.010272905474708265 1 1 1 1 1 1 1 1 1 1 1 1 1 0.0099900385366043735 0.0098770523108222697 1 1 0.0096959161503372138 1 0.011323214157606289 1 1 1 1 1 1 1 1 0.010018360104381303 1 1 1 1 1 1 1 0.010352142332640729 1 1 1 1 1 1 1 0.010462765670929276 1 1 1 1 1 1 1 1 1 1 1 1 1 1 1 1 1 1 1 1 1 1 0.010245341421643444 1 1 1 1 1 1 1 1 1 1 1 1 1 1 1 1 1 1 1 1 0.01094188623666514 1 1 1 1 1 1 0.0096471625517569621 1 0.010881131220268066 1 0.010829064579892892 1 0.0099344212782489314 1 1 1 1 1 1 1 1 1 0.010319356688985908 1 1 1 1 1 1 1 0.010799433317182954 1 1 1 1 0.0099210344839123915 1 1 1 1 1 1 0.024638184317338569 1 1 1 1 1 0.02584811582594599 1 1 1 1 1 1 1 0.012407788084121567 1 1 1 0.010053107351901756 0.010736050963590347 1 1 1 1 0.014027399756725343 1 1 1 0.0136671405011195 1 1 1 1 0.011526062710483734 1 0.0099577912612006676 1 1 0.018458605972403626 1 1 1 1 1 1 0.014810997678252134 1 1 1 1 0.0097293547048116769 1 1 1 1 1 1 1 1 1 1 1 1 1 1 0.015297553828940616 1 1 1 0.015935326551730907 1 1 1 1 1 1 1 1 1 1 1 1 1 1 1 1 1 1 1 1 1 1 1 1 1 1 0.011685543149818357 1 1 1 1 0.016306718003223968 1 0.012372745671728452 0.010069789862597683 1 1 1 0.014927071484693463 0.021243332837494661 0.018396846898577946 1 1 1 1 1 1 1 0.0090846965760439206 0.010162751244968645 1 1 1 1 1 1 1 1 1 1 1 1 1 1 1 1 1 1 1 1 1 1 1 1 1 1 0.015060936746722802 0.025016510723520742 1 1 1 1 1 1 1 1 1 1 1 1 1 1 1 1 1 1 1 1 1 0.0087574766100728379 1 1 1 0.0091932949407877631 1 1 1 1 1 0.011750828083289306 1 1 1 1 1 1 0.011303574225275559 1 1 0.026724708704196881 1 1 1 1 1 1 1 0.020857294733429212 1 0.019273678333972907 1 1 1 1 0.027201140666826031 1 1 0.0099945761295123069 0.029670716750953494 1 0.010019887171239755 1 1 1 1 1 1 1 1 1 1 1 1 1 1 1 1 1 1 1 1 1 1 1 1 1 1 1 1 1 1 0.010100977434053998 1 0.010141981642288689 0.010177074359665391 1 1 1 1 0.010140365823317142 1 1 0.01016891075419124 1 1 1 0.010056270634808451 1 1 1 1 1 0.010197624301549135 1 1 1 1 1 1 1 1 1 1 1 0.010204908312938087 1 1 1 0.010090551293245202 1 1 1 1 1 1 1 1 1 1 1 0.010572667824197812 1 1 1 1 1 1 1 1 1 1 0.0099165760604607613 1 1 1 1 1 1 1 1 1 1 1 1 1 1 1 1 1 1 1 1 1 1 1 1 1 1 1 1 1 1 1 1 1 1 1 1 1 1 1 1 1 1 1 1 1 1 1 1 1 1 1 0.010153911537747758 1 1 1 1 1 1 1 1 1 1 1 1 1 1 1 1 1 1 1 1 1 1 1 1 1 1 0.010087207871535541 1 1 1 1 1 1 1 1 0.010290454846025046 1 1 1 1 1 1 1 0.01013654330827729 0.010087353019037256 1 1 1 0.0099605568901054656 1 1 1 1 1 1 1 1 1 1 1 1 1 0.0098669462000518411 1 1 1 1 1 1 1 1 1 1 1 1 1 1 1 0.010322514778622817 1 1 1 1 1 0.010174524453023245 1 1 1 1 1 1 1 0.010775935659517811 1 1 1 1 1 1 1 1 0.0094810304469800412 1 1 1 1 1 1 1 1 1 1 0.0076106434216651146 0.012298108115049455 1 1 1 1 1 1 1 1 1 1 0.013106285343574739 1 1 1 1 0.0094203564120754427 1 1 1 1 1 1 1 1 0.010353991610533835 1 1 1 1 0.010125604089693619 1 1 1 1 1 0.0097930699333021697 1 1 1 0.0096595981757233232 1 1 1 0.011280319622765553 1 0.016326588795928548 1 1 1 1 0.0094488525104984393 1 0.011050383442692078 1 1 1 1 1 0.016387596271951656 1 1 1 1 1 1 1 1 1 1 1 1 0.0092231462691951885 1 1 1 1 0.015924559554078791 1 1 1 0.0073094561021229479 1 1 0.010085114500999165 1 1 1 0.015707505770224155 0.008751404881505 0.01492109473395249 1 1 0.017714738523730997 1 1 1 1 0.013026417467809678 1 1 1 1 1 1 1 1 1 1 1 0.013110366829112496 1 1 1 1 1 1 1 1 1 1 0.011336970351714055 1 1 0.011341059451680726 1 1 1 0.010477542491514426 1 1 1 1 1 1 1 1 1 1 1 1 1 1 1 1 1 1 1 1 1 1 1 1 1 1 1 1 1 1 0.010286332654385912 1 1 1 1 1 1 1 1 1 1 1 0.010579297117969053 1 1 1 0.014199691284174431 1 1 1 1 1 1 1 1 1 1 1 1 1 0.0096267427754240208 1 1 1 1 1 1 0.014069389222906611 1 0.0082865161464161074 1 0.0098603957427025393 1 1 1 1 1 1 1 1 1 1 1 1 1 1 1 0.010080673598025924 1 0.011697804331542968 1 1 1 1 1 1 1 1 1 1 1 1 1 1 1 1 1 1 1 1 1 1 1 1 1 1 1 1 0.0098882962417817383 1 1 0.01008232107138282 1 1 1 1 1 0.0084532560158076635 1 1 1 1 1 1 1 1 1 1 1 1 1 1 1 1 1 1 1 1 1 1 1 1 1 1 1 1 1 1 1 1 1 1 1 1 1 1 1 1 1 1 1 1 1 1 1 1 1 0.009212574611366136 1 1 1 1 1 1 0.012626569120880532 1 1 1 1 1 1 0.011336403000470528 1 1 1 1 1 1 1 1 0.0082415960039928272 1 1 1 0.014727417293386119 1 0.0098874340543524553 1 0.013708439483697609 1 1 1 1 1 0.0090251976442586972 1 1 0.016138650306260875 1 0.0074845275100054749 0.0096906898388166296 1 0.010794579408071299 1 0.0098850103484707345 1 1 1 1 1 1 1 1 1 1 1 1 1 1 1 1 1 1 1 0.0096976959149073904 1 1 1 1 1 1 1 0.020703223848306217 1 1 1 1 1 1 0.025721314268561321 1 0.023411333437477574 1 1 1 1 1 1 1 1 0.009725097154638606 1 0.0066369771761926556 1 1 0.029703141721925494 1 1 1 1 1 1 1 1 1 1 1 1 1 1 1 1 1 1 1 0.028260472875566996 1 0.011665100619163198 1 1 1 1 1 1 1 1 1 1 1 1 1 0.010526104127813789 1 1 1 1 1 1 1 0.0099475584875109938 1 1 1 1 1 1 1 1 1 1 1 1 0.010494297699878795 1 1 0.0094524123119724673 1 1 0.011346755696126516 1 1 0.0095982649962229587 1 1 1 1 1 1 1 1 1 1 1 1 1 1 1 1 1 1 1 1 1 1 1 1 0.010097198649869235 1 1 1 1 0.01004181275710727 1 0.013106435674431281 1 1 1 1 1 1 1 1 1 1 1 0.012832099258344352 1 1 1 1 0.011270359269199944 1 1 1 1 1 1 1 1 0.012823557470312039 1 1 1 1 1 1 1 1 0.010337059955169288 1 0.010007492528652661 1 1 1 1 0.0075779876258178303 1 1 1 1 1 1 1 1 0.013378775633206585 1 1 1 1 1 1 1 1 1 1 1 1 1 1 0.014751342361223573 0.0091746139619141333 1 1 0.010027421096646623 1 1 1 1 1 1 1 1 1 1 1 1 1 1 1 1 1 1 1 1 1 1 1 1 1 1 1 1 1 1 1 1 1 1 1 1 1 1 1 1 1 1 1 1 1 1 1 1 1 1 1 1 1 1 1 1 1 1 1 1 1 1 1 1 1 1 1 1 1 1 1 1 1 1 1 1 1 1 1 1 1 1 1 1 1 1 1 1 1 1 1 1 1 1 1 1 0.0095246646549661876 1 1 0.010012850535444673 1 1 1 1 1 1 1 0.0082098151198672 1 0.006272163007410167 1 1 1 1 1 1 0.012284349094873047 1 1 1 1 1 1 1 0.011425723355418256 1 1 1 0.013481135364682461 1 1 0.010968898673661104 1 1 1 0.015337637120288525 0.012359888454702251 1 0.026573585786785758 1 1 1 0.0072503656200670627 1 0.0046095779158299953 1 1 1 1 1 1 0.0092492440973244994 1 1 1 1 0.023743650242253698 1 1 1 1 1 1 1 1 1 1 0.013523701763752536 0.019601063419992903 1 1 1 1 1 1 1 1 1 1 0.010863395599035455 1 0.0096727223063199867 1 1 0.019944908479131617 1 1 1 1 1 1 1 1 1 0.013628373043044598 1 1 1 1 1 1 1 1 1 1 1 0.010055365952564605 1 1 1 1 1 1 1 1 1 1 1 0.01214306114279 1 1 1 0.0083593642980109399 1 0.010001673647727125 1 1 1 1 0.0093275573077735707 1 1 0.0099293322286173116 1 1 1 0.012420889336402218 1 1 1 1 1 1 1 1 0.010095472358456786 1 1 1 1 1 1 1 1 1 1 1 1 1 1 1 1 1 1 1 0.0084629247021885019 1 1 1 1 1 1 0.0079599029049375759 1 1 1 1 0.009822151661177881 1 1 1 1 1 1 0.0094365979153119561 1 1 1 1 1 1 1 1 1 1 1 1 1 0.009038454367698916 1 1 1 1 0.008839665875811132 1 0.012541890420290474 1 1 0.0068140820220021527 1 1 1 1 1 1 1 0.0058564562575913384 0.010007836859747144 1 1 1 0.011064072439638615 0.020296172494352244 1 1 0.010007038600810855 1 1 0.01771810301577929 1 1 1 0.014371789571405898 1 1 1 1 1 1 1 1 1 1 1 1 1 1 1 1 1 1 1 0.010451420104532008 1 1 1 0.0099181772036091367 1 0.014314522883317148 0.010972109688344066 1 1 0.0099443451789069468 1 1 1 1 1 1 1 1 1 0.010021561143605274 1 1 0.012006733373062158 1 1 1 1 0.010593399081651307 1 1 1 1 1 1 1 1 1 0.011316517949446936 1 1 1 0.0098493510674195831 1 1 0.013624181214523017 1 1 1 0.0099532007842662272 1 1 1 1 1 1 0.0088291752815546631 1 1 0.010010991845305555 1 1 1 1 1 1 1 1 1 1 0.011318311901924531 1 1 1 1 0.010827657329868168 1 1 1 1 1 0.010724912820273224 1 1 1 1 1 1 1 1 1 1 1 1 1 1 1 1 1 0.012354883912202731 1 1 1 1 1 0.011714198373098247 1 1 1 1 1 1 1 1 1 0.013935554785287119 1 1 1 1 1 1 1 1 1 1 1 1 1 1 1 1 1 1 1 1 0.015795721898275279 1 0.0096394857960232696 0.011945742815078089 1 1 0.012763009837476375 1 1 1 0.015965414370736251 1 1 1 1 1 0.014242623675977235 1 1 0.0099896545142592937 1 0.010870400357253399 1 1 1 1 1 1 1 1 1 1 1 1 0.012549498671718293 1 1 1 1 1 1 1 1 1 1 1 1 0.014051412496533376 1 1 1 1 1 1 0.01027905635580211 1 1 1 1 0.0096107398721632618 0.011299797008699188 1 0.010860473510241575 1 0.0086545218747576987 1 0.01002184174113609 0.012283666993675859 1 1 1 0.0094723339640722087 1 1 1 1 1 1 0.0098821127186184878 1 1 1 0.01068811268478796 1 1 1 1 1 1 1 1 1 1 1 1 1 0.010820575458241433 1 1 1 1 1 1 1 1 1 1 1 1 1 1 1 1 1 1 1 1 1 1 1 1 1 1 1 1 1 1 1 1 1 1 1 1 1 0.010346730258975327 1 1 1 1 1 1 1 1 1 1 1 1 1 0.0098801082420451932 1 1 1 0.0095981040894384147 1 0.010690325156512694 1 1 1 1 1 1 1 1 1 1 1 1 1 1 1 1 1 1 1 1 1 1 1 1 1 1 1 1 1 1 1 1 1 1 1 1 1 1 1 1 1 1 1 1 1 1 1 1 1 1 1 1 1 1 1 1 1 1 1 1 1 1 1 1 1 1 1 1 1 0.010664541577058161 1 1 1 1 1 1 0.0092273988004179467 1 0.010715682903994481 1 0.010172260837859028 1 0.0091815927853520062 1 1 1 0.01005581834121917 1 1 1 1 0.0094851237866136195 1 1 1 1 1 1 1 1 1 1 1 1 1 0.010890535102364598 1 1 1 1 1 1 1 1 1 0.010329294085394486 1 1 1 0.01550432701940576 1 1 1 1 1 0.012075704146169809 1 1 0.020518657749224935 1 0.020856621331617281 1 1 1 1 1 0.010046765074743721 0.020587475905790957 1 0.021002780405434698 1 1 1 1 1 1 0.01066015312958281 1 1 1 1 1 1 1 1 1 1 1 1 1 1 1 1 1 1 1 1 1 1 1 1 1 0.023924235593690051 1 1 1 1 0.0095747498720270691 1 1 1 0.0099198267446167603 1 1 1 1 1 1 1 1 1 1 1 1 1 1 1 0.016266583674963177 0.023986713418391353 1 1 1 1 0.013233199305738744 1 1 1 1 1 1 0.010897932514619939 1 1 1 1 1 1 1 0.0087578738021197727 1 1 0.012939755355378875 1 1 0.011410648827297785 1 1 1 1 1 1 1 1 1 1 1 1 1 1 1 1 0.015313513893318887 1 1 1 0.011822121523730151 1 1 1 1 1 1 1 1 1 0.012497491125268169 1 1 1 1 1 0.012819821933673075 1 1 1 1 1 1 1 1 1 1 1 1 1 1 0.010530658865090867 1 1 1 1 1 1 0.0098723976215183938 1 1 1 0.01005800069505757 0.010278006988952704 0.010266106702041014 1 1 0.010671759903127475 1 1 1 1 1 1 1 1 1 1 1 1 1 0.0097269999883808911 1 1 1 1 1 1 1 1 1 1 1 1 1 1 1 1 1 1 1 1 1 1 1 1 1 1 1 1 1 1 1 1 0.010914189671090362 1 1 1 1 1 1 1 0.010280656866934957 1 1 0.012433024017666758 1 1 1 1 1 0.010070799872493435 1 1 1 1 0.0098216208686237923 1 1 1 1 1 1 0.01458120367036455 1 1 1 1 1 1 1 1 1 1 1 1 1 1 1 0.01149920708648231 0.012110435721762951 1 1 1 0.011321271385369574 0.011863686256680345 1 1 1 0.01582827238304358 1 1 1 0.015859400698902092 1 1 1 0.0093781403402840215 1 1 1 1 1 1 0.010031355301829557 1 1 1 1 1 0.010197911194574591 1 1 1 1 0.010183604820986023 0.011980503013866863 1 1 1 
</DataArray>
</CellData>
</Piece>
</UnstructuredGrid>
</VTKFile>
