<?xml version="1.0"?>
<VTKFile type="UnstructuredGrid" version="0.1" byte_order="LittleEndian">
<UnstructuredGrid>
<Piece NumberOfPoints="31898" NumberOfCells="11152">
<Points>
<DataArray type="Float64" NumberOfComponents="3" format="ascii">
-0.5 -0.5 0 -0.47620991077874902 -0.44978878706170539 0 -0.49999999999999473 -0.42132396840504388 0 -0.5 -0.5 0 -0.47160970827802529 -0.4793630013852106 0 -0.47620991077874902 -0.44978878706170539 0 -0.5 -0.5 0 -0.47160970827802529 -0.4793630013852106 0 -0.44860394795025399 -0.5 0 -0.47160970827802529 -0.4793630013852106 0 -0.44860394795025399 -0.5 0 -0.4490820238307246 -0.45820516232899983 0 -0.44860394795025399 -0.5 0 -0.4490820238307246 -0.45820516232899983 0 -0.42881687682924802 -0.47781464288736519 0 -0.4490820238307246 -0.45820516232899983 0 -0.45555437223955858 -0.42914059360647611 0 -0.4490820238307246 -0.45820516232899983 0 -0.45555437223955858 -0.42914059360647611 0 -0.43867285131603428 -0.4271457417558665 0 -0.4490820238307246 -0.45820516232899983 0 -0.43867285131603428 -0.4271457417558665 0 -0.4263356171060747 -0.44269880333887462 0 -0.47160970827802529 -0.4793630013852106 0 -0.4490820238307246 -0.45820516232899983 0 -0.47620991077874902 -0.44978878706170539 0 -0.4490820238307246 -0.45820516232899983 0 -0.47620991077874902 -0.44978878706170539 0 -0.45555437223955858 -0.42914059360647611 0 -0.47620991077874902 -0.44978878706170539 0 -0.48101336032419229 -0.41069999664450008 0 -0.45555437223955858 -0.42914059360647611 0 -0.47620991077874902 -0.44978878706170539 0 -0.49999999999999473 -0.42132396840504388 0 -0.48101336032419229 -0.41069999664450008 0 -0.49999999999999473 -0.42132396840504388 0 -0.48101336032419229 -0.41069999664450008 0 -0.5 -0.393886241813306 0 -0.49999999999999473 -0.42132396840504388 0 -0.48101336032419229 -0.41069999664450008 0 -0.5 -0.393886241813306 0 -0.47854472220918332 -0.38978458738689759 0 -0.48422759779560409 -0.37130120630367158 0 -0.5 -0.393886241813306 0 -0.5 -0.36644851522156802 0 -0.48422759779560409 -0.37130120630367158 0 -0.48101336032419229 -0.41069999664450008 0 -0.5 -0.393886241813306 0 -0.47854472220918332 -0.38978458738689759 0 -0.48101336032419229 -0.41069999664450008 0 -0.47854472220918332 -0.38978458738689759 0 -0.46202672064839212 -0.40007602488395211 0 -0.48101336032419229 -0.41069999664450008 0 -0.46202672064839212 -0.40007602488395211 0 -0.47854472220918332 -0.38978458738689759 0 -0.46725442735267431 -0.37660061361585562 0 -0.46202672064839212 -0.40007602488395211 0 -0.47854472220918332 -0.38978458738689759 0 -0.46725442735267431 -0.37660061361585562 0 -0.48422759779560409 -0.37130120630367158 0 -0.46725442735267431 -0.37660061361585562 0 -0.46202672064839212 -0.40007602488395211 0 -0.46725442735267431 -0.37660061361585562 0 -0.45645674801697989 -0.38644133236760531 0 -0.46202672064839212 -0.40007602488395211 0 -0.46725442735267431 -0.37660061361585562 0 -0.45645674801697989 -0.38644133236760531 0 -0.4540003998136638 -0.37455519391687309 0 -0.45645674801697989 -0.38644133236760531 0 -0.46202672064839212 -0.40007602488395211 0 -0.44257020456291563 -0.38918913383950271 0 -0.46202672064839212 -0.40007602488395211 0 -0.44257020456291563 -0.38918913383950271 0 -0.44727608925983742 -0.41095911152778891 0 -0.46202672064839212 -0.40007602488395211 0 -0.44257020456291563 -0.38918913383950271 0 -0.44257020456291563 -0.38918913383950271 0 -0.44727608925983742 -0.41095911152778891 0 -0.43479358559901082 -0.4041454901736512 0 -0.44257020456291563 -0.38918913383950271 0 -0.4540003998136638 -0.37455519391687309 0 -0.44172858264042247 -0.37082207246888088 0 -0.45645674801697989 -0.38644133236760531 0 -0.44257020456291563 -0.38918913383950271 0 -0.4540003998136638 -0.37455519391687309 0 -0.46202672064839212 -0.40007602488395211 0 -0.45555437223955858 -0.42914059360647611 0 -0.44727608925983742 -0.41095911152778891 0 -0.46202672064839212 -0.40007602488395211 0 -0.45555437223955858 -0.42914059360647611 0 -0.48101336032419229 -0.41069999664450008 0 -0.46202672064839212 -0.40007602488395211 0 -0.45555437223955858 -0.42914059360647611 0 -0.44727608925983742 -0.41095911152778891 0 -0.43867285131603428 -0.4271457417558665 0 -0.43676601469929588 -0.41441201227470881 0 -0.44727608925983742 -0.41095911152778891 0 -0.43676601469929588 -0.41441201227470881 0 -0.43479358559901082 -0.4041454901736512 0 -0.45555437223955858 -0.42914059360647611 0 -0.44727608925983742 -0.41095911152778891 0 -0.43867285131603428 -0.4271457417558665 0 -0.43867285131603428 -0.4271457417558665 0 -0.42681803064840879 -0.42717069814352421 0 -0.4263356171060747 -0.44269880333887462 0 -0.42681803064840879 -0.42717069814352421 0 -0.41531815884496182 -0.42985383783075998 0 -0.4263356171060747 -0.44269880333887462 0 -0.42681803064840879 -0.42717069814352421 0 -0.42624289495594048 -0.42089725947505818 0 -0.42083332353326591 -0.42146747131641099 0 -0.42681803064840879 -0.42717069814352421 0 -0.43096994786351572 -0.41951492446283251 0 -0.42624289495594048 -0.42089725947505818 0 -0.43867285131603428 -0.4271457417558665 0 -0.42681803064840879 -0.42717069814352421 0 -0.43096994786351572 -0.41951492446283251 0 -0.43867285131603428 -0.4271457417558665 0 -0.43676601469929588 -0.41441201227470881 0 -0.43096994786351572 -0.41951492446283251 0 -0.43676601469929588 -0.41441201227470881 0 -0.43096994786351572 -0.41951492446283251 0 -0.42907264086257813 -0.41311715872526122 0 -0.43676601469929588 -0.41441201227470881 0 -0.42907264086257813 -0.41311715872526122 0 -0.43479358559901082 -0.4041454901736512 0 -0.42907264086257813 -0.41311715872526122 0 -0.43479358559901082 -0.4041454901736512 0 -0.42460885511582858 -0.40417321677700252 0 -0.42907264086257813 -0.41311715872526122 0 -0.41997834854398469 -0.41180534796019508 0 -0.42907264086257813 -0.41311715872526122 0 -0.42635027777857132 -0.41543594397746519 0 -0.41997834854398469 -0.41180534796019508 0 -0.42907264086257813 -0.41311715872526122 0 -0.41997834854398469 -0.41180534796019508 0 -0.42460885511582858 -0.40417321677700252 0 -0.42635027777857132 -0.41543594397746519 0 -0.41997834854398469 -0.41180534796019508 0 -0.42635027777857132 -0.41543594397746519 0 -0.42083332353326591 -0.42146747131641099 0 -0.41997834854398469 -0.41180534796019508 0 -0.43096994786351572 -0.41951492446283251 0 -0.42624289495594048 -0.42089725947505818 0 -0.42635027777857132 -0.41543594397746519 0 -0.43096994786351572 -0.41951492446283251 0 -0.42907264086257813 -0.41311715872526122 0 -0.42635027777857132 -0.41543594397746519 0 -0.42624289495594048 -0.42089725947505818 0 -0.42635027777857132 -0.41543594397746519 0 -0.42083332353326591 -0.42146747131641099 0 -0.42083332353326591 -0.42146747131641099 0 -0.41997834854398469 -0.41180534796019508 0 -0.40992282953163789 -0.42011435591993562 0 -0.41997834854398469 -0.41180534796019508 0 -0.39756877647335259 -0.40857286797681719 0 -0.41997834854398469 -0.41180534796019508 0 -0.40992282953163789 -0.42011435591993562 0 -0.39756877647335259 -0.40857286797681719 0 -0.40992282953163789 -0.42011435591993562 0 -0.41531815884496182 -0.42985383783075998 0 -0.39591554026262499 -0.42887225451549271 0 -0.41531815884496182 -0.42985383783075998 0 -0.39591554026262499 -0.42887225451549271 0 -0.41160927495564159 -0.44339431233754628 0 -0.42083332353326591 -0.42146747131641099 0 -0.40992282953163789 -0.42011435591993562 0 -0.41531815884496182 -0.42985383783075998 0 -0.42681803064840879 -0.42717069814352421 0 -0.42083332353326591 -0.42146747131641099 0 -0.41531815884496182 -0.42985383783075998 0 -0.44257020456291563 -0.38918913383950271 0 -0.42311368847744002 -0.37830224279505142 0 -0.42594061475171041 -0.39368797999533162 0 -0.44257020456291563 -0.38918913383950271 0 -0.42311368847744002 -0.37830224279505142 0 -0.44172858264042247 -0.37082207246888088 0 -0.44257020456291563 -0.38918913383950271 0 -0.42311368847744002 -0.37830224279505142 0 -0.42311368847744002 -0.37830224279505142 0 -0.42594061475171041 -0.39368797999533162 0 -0.416587075656149 -0.38785930376960043 0 -0.44257020456291563 -0.38918913383950271 0 -0.42594061475171041 -0.39368797999533162 0 -0.43479358559901082 -0.4041454901736512 0 -0.42594061475171041 -0.39368797999533162 0 -0.43479358559901082 -0.4041454901736512 0 -0.42460885511582858 -0.40417321677700252 0 -0.41997834854398469 -0.41180534796019508 0 -0.41325908582185972 -0.39811010703057192 0 -0.39770572831670092 -0.39911486077581648 0 -0.41997834854398469 -0.41180534796019508 0 -0.39770572831670092 -0.39911486077581648 0 -0.42594061475171041 -0.39368797999533162 0 -0.42460885511582858 -0.40417321677700252 0 -0.41325908582185972 -0.39811010703057192 0 -0.41997834854398469 -0.41180534796019508 0 -0.42460885511582858 -0.40417321677700252 0 -0.41325908582185972 -0.39811010703057192 0 -0.42594061475171041 -0.39368797999533162 0 -0.41325908582185972 -0.39811010703057192 0 -0.416587075656149 -0.38785930376960043 0 -0.41325908582185972 -0.39811010703057192 0 -0.416587075656149 -0.38785930376960043 0 -0.40403491357358612 -0.38133688525744702 0 -0.42311368847744002 -0.37830224279505142 0 -0.40403491357358612 -0.38133688525744702 0 -0.40365717239196519 -0.36741535175059892 0 -0.42311368847744002 -0.37830224279505142 0 -0.416587075656149 -0.38785930376960043 0 -0.40403491357358612 -0.38133688525744702 0 -0.40403491357358612 -0.38133688525744702 0 -0.39190790742475001 -0.38540387676521748 0 -0.39770572831670092 -0.39911486077581648 0 -0.40403491357358612 -0.38133688525744702 0 -0.39190790742475001 -0.38540387676521748 0 -0.3904578797192948 -0.37473938743617019 0 -0.41325908582185972 -0.39811010703057192 0 -0.40403491357358612 -0.38133688525744702 0 -0.39770572831670092 -0.39911486077581648 0 -0.39770572831670092 -0.39911486077581648 0 -0.37543310808941849 -0.38642437359143528 0 -0.39770572831670092 -0.39911486077581648 0 -0.37515920440272033 -0.40534038799344108 0 -0.37543310808941849 -0.38642437359143528 0 -0.39770572831670092 -0.39911486077581648 0 -0.37515920440272033 -0.40534038799344108 0 -0.39756877647335259 -0.40857286797681719 0 -0.37515920440272033 -0.40534038799344108 0 -0.37543310808941849 -0.38642437359143528 0 -0.37543310808941849 -0.38642437359143528 0 -0.3904578797192948 -0.37473938743617019 0 -0.37568304780698558 -0.36916333065311507 0 -0.39190790742475001 -0.38540387676521748 0 -0.37543310808941849 -0.38642437359143528 0 -0.3904578797192948 -0.37473938743617019 0 -0.37543310808941849 -0.38642437359143528 0 -0.37568304780698558 -0.36916333065311507 0 -0.39190790742475001 -0.38540387676521748 0 -0.39770572831670092 -0.39911486077581648 0 -0.37543310808941849 -0.38642437359143528 0 -0.41997834854398469 -0.41180534796019508 0 -0.39770572831670092 -0.39911486077581648 0 -0.39756877647335259 -0.40857286797681719 0 -0.40992282953163789 -0.42011435591993562 0 -0.39591554026262499 -0.42887225451549271 0 -0.39756877647335259 -0.40857286797681719 0 -0.37515920440272033 -0.40534038799344108 0 -0.39591554026262499 -0.42887225451549271 0 -0.39756877647335259 -0.40857286797681719 0 -0.37515920440272033 -0.40534038799344108 0 -0.39756877647335259 -0.40857286797681719 0 -0.37515920440272033 -0.40534038799344108 0 -0.39591554026262499 -0.42887225451549271 0 -0.37472313619600889 -0.43545561783144832 0 -0.39591554026262499 -0.42887225451549271 0 -0.39301703415267508 -0.44654444244683272 0 -0.37472313619600889 -0.43545561783144832 0 -0.39301703415267508 -0.44654444244683272 0 -0.37428706798929601 -0.46557084766945539 0 -0.37472313619600889 -0.43545561783144832 0 -0.39591554026262499 -0.42887225451549271 0 -0.39301703415267508 -0.44654444244683272 0 -0.41160927495564159 -0.44339431233754628 0 -0.39301703415267508 -0.44654444244683272 0 -0.40396056051613372 -0.45751466911048011 0 -0.41160927495564159 -0.44339431233754628 0 -0.40396056051613372 -0.45751466911048011 0 -0.39245383412573559 -0.47875733455523922 0 -0.41207507163844148 -0.46917161410542801 0 -0.40396056051613372 -0.45751466911048011 0 -0.38912381425271458 -0.46154275838996711 0 -0.39245383412573559 -0.47875733455523922 0 -0.40396056051613372 -0.45751466911048011 0 -0.39245383412573559 -0.47875733455523922 0 -0.40396056051613372 -0.45751466911048011 0 -0.40649676728151513 -0.45682610390212369 0 -0.40396056051613372 -0.45751466911048011 0 -0.38912381425271458 -0.46154275838996711 0 -0.39301703415267508 -0.44654444244683272 0 -0.40396056051613372 -0.45751466911048011 0 -0.38912381425271458 -0.46154275838996711 0 -0.39301703415267508 -0.44654444244683272 0 -0.38912381425271458 -0.46154275838996711 0 -0.37428706798929601 -0.46557084766945539 0 -0.38912381425271458 -0.46154275838996711 0 -0.37428706798929601 -0.46557084766945539 0 -0.38912381425271458 -0.46154275838996711 0 -0.38378714202547332 -0.47159002408209011 0 -0.37428706798929601 -0.46557084766945539 0 -0.38378714202547332 -0.47159002408209011 0 -0.39245383412573559 -0.47875733455523922 0 -0.37411677223754131 -0.47733161267270968 0 -0.39245383412573559 -0.47875733455523922 0 -0.37240076261097882 -0.48974555046165519 0 -0.37411677223754131 -0.47733161267270968 0 -0.38378714202547332 -0.47159002408209011 0 -0.37411677223754131 -0.47733161267270968 0 -0.37428706798929601 -0.46557084766945539 0 -0.38912381425271458 -0.46154275838996711 0 -0.38378714202547332 -0.47159002408209011 0 -0.39245383412573559 -0.47875733455523922 0 -0.38094710773533791 -0.49999999999999839 0 -0.39245383412573559 -0.47875733455523922 0 -0.38094710773533791 -0.49999999999999839 0 -0.39245383412573559 -0.47875733455523922 0 -0.37240076261097882 -0.48974555046165519 0 -0.38094710773533791 -0.49999999999999839 0 -0.39245383412573559 -0.47875733455523922 0 -0.40997732063196057 -0.5 0 -0.39245383412573559 -0.47875733455523922 0 -0.41207507163844148 -0.46917161410542801 0 -0.40997732063196057 -0.5 0 -0.41207507163844148 -0.46917161410542801 0 -0.40997732063196057 -0.5 0 -0.42881687682924802 -0.47781464288736519 0 -0.44860394795025399 -0.5 0 -0.40997732063196057 -0.5 0 -0.42881687682924802 -0.47781464288736519 0 -0.41207507163844148 -0.46917161410542801 0 -0.42881687682924802 -0.47781464288736519 0 -0.42627766738448791 -0.46032764904509182 0 -0.4490820238307246 -0.45820516232899983 0 -0.42881687682924802 -0.47781464288736519 0 -0.42627766738448791 -0.46032764904509182 0 -0.4490820238307246 -0.45820516232899983 0 -0.42627766738448791 -0.46032764904509182 0 -0.4263356171060747 -0.44269880333887462 0 -0.42627766738448791 -0.46032764904509182 0 -0.4263356171060747 -0.44269880333887462 0 -0.41655419253802572 -0.45404861160063659 0 -0.4263356171060747 -0.44269880333887462 0 -0.41160927495564159 -0.44339431233754628 0 -0.41655419253802572 -0.45404861160063659 0 -0.41531815884496182 -0.42985383783075998 0 -0.4263356171060747 -0.44269880333887462 0 -0.41160927495564159 -0.44339431233754628 0 -0.40396056051613372 -0.45751466911048011 0 -0.41160927495564159 -0.44339431233754628 0 -0.40649676728151513 -0.45682610390212369 0 -0.41160927495564159 -0.44339431233754628 0 -0.40649676728151513 -0.45682610390212369 0 -0.41655419253802572 -0.45404861160063659 0 -0.40396056051613372 -0.45751466911048011 0 -0.41160927495564159 -0.44339431233754628 0 -0.41207507163844148 -0.46917161410542801 0 -0.40649676728151513 -0.45682610390212369 0 -0.41655419253802572 -0.45404861160063659 0 -0.40396056051613372 -0.45751466911048011 0 -0.41207507163844148 -0.46917161410542801 0 -0.40649676728151513 -0.45682610390212369 0 -0.41207507163844148 -0.46917161410542801 0 -0.42627766738448791 -0.46032764904509182 0 -0.41655419253802572 -0.45404861160063659 0 -0.45662330498375908 -0.25656877445722759 0 -0.43445882011373449 -0.25478651907497341 0 -0.45662330498375908 -0.25656877445722759 0 -0.43445882011373449 -0.25478651907497341 0 -0.45034617445999431 -0.24335722649563979 0 -0.44999384684511368 -0.2755750489792308 0 -0.45662330498375908 -0.25656877445722759 0 -0.43445882011373449 -0.25478651907497341 0 -0.44999384684511368 -0.2755750489792308 0 -0.43077531442077321 -0.27459050524281542 0 -0.43445882011373449 -0.25478651907497341 0 -0.44999384684511368 -0.2755750489792308 0 -0.441361257405879 -0.29303276451920029 0 -0.43077531442077321 -0.27459050524281542 0 -0.44999384684511368 -0.2755750489792308 0 -0.4670541169931961 -0.26846056693166809 0 -0.46910519348062618 -0.28320526693770848 0 -0.44999384684511368 -0.2755750489792308 0 -0.4670541169931961 -0.26846056693166809 0 -0.45662330498375908 -0.25656877445722759 0 -0.45662330498375908 -0.25656877445722759 0 -0.47878778985378329 -0.25835102983948688 0 -0.4670541169931961 -0.26846056693166809 0 -0.45662330498375908 -0.25656877445722759 0 -0.47878778985378329 -0.25835102983948688 0 -0.45662330498375908 -0.25656877445722759 0 -0.47878778985378329 -0.25835102983948688 0 -0.47142395938804471 -0.23802335247430181 0 -0.47878778985378329 -0.25835102983948688 0 -0.5 -0.25669760885461612 0 -0.48361763707807442 -0.27426406281091331 0 -0.47878778985378329 -0.25835102983948688 0 -0.5 -0.25669760885461612 0 -0.4875835208682564 -0.24248539692068891 0 -0.5 -0.25669760885461612 0 -0.48361763707807442 -0.27426406281091331 0 -0.5 -0.28413533544635422 0 -0.4670541169931961 -0.26846056693166809 0 -0.47878778985378329 -0.25835102983948688 0 -0.48361763707807442 -0.27426406281091331 0 -0.4670541169931961 -0.26846056693166809 0 -0.48361763707807442 -0.27426406281091331 0 -0.46910519348062618 -0.28320526693770848 0 -0.46910519348062618 -0.28320526693770848 0 -0.48580896399913942 -0.29193665231809679 0 -0.47164434439118558 -0.29859902487093259 0 -0.48361763707807442 -0.27426406281091331 0 -0.46910519348062618 -0.28320526693770848 0 -0.48580896399913942 -0.29193665231809679 0 -0.5 -0.28413533544635422 0 -0.48580896399913942 -0.29193665231809679 0 -0.5 -0.3115730620380921 0 -0.48361763707807442 -0.27426406281091331 0 -0.5 -0.28413533544635422 0 -0.48580896399913942 -0.29193665231809679 0 -0.48580896399913942 -0.29193665231809679 0 -0.5 -0.3115730620380921 0 -0.48293754746551898 -0.30617437981156609 0 -0.48293754746551898 -0.30617437981156609 0 -0.47164434439118558 -0.29859902487093259 0 -0.47203566342767839 -0.31514771464943409 0 -0.48580896399913942 -0.29193665231809679 0 -0.48293754746551898 -0.30617437981156609 0 -0.47164434439118558 -0.29859902487093259 0 -0.47164434439118558 -0.29859902487093259 0 -0.46096111539772322 -0.3069557537098867 0 -0.47203566342767839 -0.31514771464943409 0 -0.46096111539772322 -0.3069557537098867 0 -0.44739706002137658 -0.30395698434733032 0 -0.45229582611609759 -0.31444164243390338 0 -0.46096111539772322 -0.3069557537098867 0 -0.45682111422556548 -0.29317658806621089 0 -0.44739706002137658 -0.30395698434733032 0 -0.47164434439118558 -0.29859902487093259 0 -0.46096111539772322 -0.3069557537098867 0 -0.45682111422556548 -0.29317658806621089 0 -0.44999384684511368 -0.2755750489792308 0 -0.46910519348062618 -0.28320526693770848 0 -0.45682111422556548 -0.29317658806621089 0 -0.46910519348062618 -0.28320526693770848 0 -0.47164434439118558 -0.29859902487093259 0 -0.45682111422556548 -0.29317658806621089 0 -0.44999384684511368 -0.2755750489792308 0 -0.45682111422556548 -0.29317658806621089 0 -0.441361257405879 -0.29303276451920029 0 -0.45682111422556548 -0.29317658806621089 0 -0.441361257405879 -0.29303276451920029 0 -0.44739706002137658 -0.30395698434733032 0 -0.441361257405879 -0.29303276451920029 0 -0.44739706002137658 -0.30395698434733032 0 -0.43527018611072049 -0.30465000121327751 0 -0.44739706002137658 -0.30395698434733032 0 -0.44024276041750632 -0.31887045497680111 0 -0.43527018611072049 -0.30465000121327751 0 -0.44739706002137658 -0.30395698434733032 0 -0.45229582611609759 -0.31444164243390338 0 -0.44024276041750632 -0.31887045497680111 0 -0.44024276041750632 -0.31887045497680111 0 -0.45653421084860168 -0.32646185290925811 0 -0.44024276041750632 -0.31887045497680111 0 -0.43930980958642257 -0.33554338078202212 0 -0.45653421084860168 -0.32646185290925811 0 -0.45229582611609759 -0.31444164243390338 0 -0.44024276041750632 -0.31887045497680111 0 -0.45653421084860168 -0.32646185290925811 0 -0.43930980958642257 -0.33554338078202212 0 -0.44966367396753332 -0.33841986907325933 0 -0.46855294336124231 -0.32873531729210143 0 -0.43930980958642257 -0.33554338078202212 0 -0.4507851133594416 -0.34910720111649318 0 -0.43930980958642257 -0.33554338078202212 0 -0.44966367396753332 -0.33841986907325933 0 -0.4507851133594416 -0.34910720111649318 0 -0.44966367396753332 -0.33841986907325933 0 -0.46855294336124231 -0.32873531729210143 0 -0.46386644800117471 -0.33586508895417932 0 -0.43930980958642257 -0.33554338078202212 0 -0.46855294336124231 -0.32873531729210143 0 -0.43930980958642257 -0.33554338078202212 0 -0.46855294336124231 -0.32873531729210143 0 -0.45653421084860168 -0.32646185290925811 0 -0.44966367396753332 -0.33841986907325933 0 -0.4586808436472537 -0.3401528003513713 0 -0.45711636988675219 -0.34547487934353349 0 -0.44966367396753332 -0.33841986907325933 0 -0.4586808436472537 -0.3401528003513713 0 -0.46386644800117471 -0.33586508895417932 0 -0.4586808436472537 -0.3401528003513713 0 -0.46472493826860672 -0.34236766697450172 0 -0.45711636988675219 -0.34547487934353349 0 -0.4586808436472537 -0.3401528003513713 0 -0.46472493826860672 -0.34236766697450172 0 -0.46386644800117471 -0.33586508895417932 0 -0.46855294336124231 -0.32873531729210143 0 -0.46207595183026873 -0.31834845619891672 0 -0.47203566342767839 -0.31514771464943409 0 -0.46855294336124231 -0.32873531729210143 0 -0.45653421084860168 -0.32646185290925811 0 -0.46207595183026873 -0.31834845619891672 0 -0.46096111539772322 -0.3069557537098867 0 -0.45229582611609759 -0.31444164243390338 0 -0.46207595183026873 -0.31834845619891672 0 -0.45229582611609759 -0.31444164243390338 0 -0.45653421084860168 -0.32646185290925811 0 -0.46207595183026873 -0.31834845619891672 0 -0.46096111539772322 -0.3069557537098867 0 -0.46207595183026873 -0.31834845619891672 0 -0.47203566342767839 -0.31514771464943409 0 -0.48293754746551898 -0.30617437981156609 0 -0.47203566342767839 -0.31514771464943409 0 -0.47770984076123751 -0.32964979107966252 0 -0.48293754746551898 -0.30617437981156609 0 -0.47770984076123751 -0.32964979107966252 0 -0.48293754746551898 -0.30617437981156609 0 -0.48763303240419292 -0.31981883507337211 0 -0.47770984076123751 -0.32964979107966252 0 -0.46855294336124231 -0.32873531729210143 0 -0.47203566342767839 -0.31514771464943409 0 -0.47770984076123751 -0.32964979107966252 0 -0.5 -0.3115730620380921 0 -0.5 -0.33901078862982997 0 -0.49048543526404831 -0.32960291085151988 0 -0.5 -0.3115730620380921 0 -0.48763303240419292 -0.31981883507337211 0 -0.49048543526404831 -0.32960291085151988 0 -0.5 -0.3115730620380921 0 -0.48293754746551898 -0.30617437981156609 0 -0.48763303240419292 -0.31981883507337211 0 -0.48763303240419292 -0.31981883507337211 0 -0.49048543526404831 -0.32960291085151988 0 -0.47770984076123751 -0.32964979107966252 0 -0.49048543526404831 -0.32960291085151988 0 -0.47770984076123751 -0.32964979107966252 0 -0.48708430315481122 -0.3479620774366432 0 -0.5 -0.33901078862982997 0 -0.49048543526404831 -0.32960291085151988 0 -0.48708430315481122 -0.3479620774366432 0 -0.47770984076123751 -0.32964979107966252 0 -0.47248213405695583 -0.35312520234775913 0 -0.47770984076123751 -0.32964979107966252 0 -0.47248213405695583 -0.35312520234775913 0 -0.48708430315481122 -0.3479620774366432 0 -0.46472493826860672 -0.34236766697450172 0 -0.47770984076123751 -0.32964979107966252 0 -0.47248213405695583 -0.35312520234775913 0 -0.46855294336124231 -0.32873531729210143 0 -0.46386644800117471 -0.33586508895417932 0 -0.47770984076123751 -0.32964979107966252 0 -0.46472493826860672 -0.34236766697450172 0 -0.46386644800117471 -0.33586508895417932 0 -0.47770984076123751 -0.32964979107966252 0 -0.47248213405695583 -0.35312520234775913 0 -0.48708430315481122 -0.3479620774366432 0 -0.48422759779560409 -0.37130120630367158 0 -0.5 -0.33901078862982997 0 -0.48708430315481122 -0.3479620774366432 0 -0.5 -0.36644851522156802 0 -0.48708430315481122 -0.3479620774366432 0 -0.5 -0.36644851522156802 0 -0.48422759779560409 -0.37130120630367158 0 -0.46725442735267431 -0.37660061361585562 0 -0.47248213405695583 -0.35312520234775913 0 -0.48422759779560409 -0.37130120630367158 0 -0.46725442735267431 -0.37660061361585562 0 -0.47248213405695583 -0.35312520234775913 0 -0.46725442735267431 -0.37660061361585562 0 -0.4540003998136638 -0.37455519391687309 0 -0.46226041713245919 -0.36267102145096558 0 -0.46725442735267431 -0.37660061361585562 0 -0.47248213405695583 -0.35312520234775913 0 -0.46226041713245919 -0.36267102145096558 0 -0.4540003998136638 -0.37455519391687309 0 -0.46226041713245919 -0.36267102145096558 0 -0.45167034254705118 -0.36337553476545958 0 -0.47248213405695583 -0.35312520234775913 0 -0.46226041713245919 -0.36267102145096558 0 -0.46130034509645268 -0.35111989715704561 0 -0.46472493826860672 -0.34236766697450172 0 -0.47248213405695583 -0.35312520234775913 0 -0.46130034509645268 -0.35111989715704561 0 -0.46472493826860672 -0.34236766697450172 0 -0.46130034509645268 -0.35111989715704561 0 -0.45711636988675219 -0.34547487934353349 0 -0.46130034509645268 -0.35111989715704561 0 -0.45711636988675219 -0.34547487934353349 0 -0.4507851133594416 -0.34910720111649318 0 -0.46226041713245919 -0.36267102145096558 0 -0.4507851133594416 -0.34910720111649318 0 -0.45167034254705118 -0.36337553476545958 0 -0.46226041713245919 -0.36267102145096558 0 -0.46130034509645268 -0.35111989715704561 0 -0.4507851133594416 -0.34910720111649318 0 -0.46226041713245919 -0.36267102145096558 0 -0.4507851133594416 -0.34910720111649318 0 -0.4507851133594416 -0.34910720111649318 0 -0.44504098357239391 -0.35771747353496869 0 -0.45167034254705118 -0.36337553476545958 0 -0.44966367396753332 -0.33841986907325933 0 -0.45711636988675219 -0.34547487934353349 0 -0.4507851133594416 -0.34910720111649318 0 -0.4507851133594416 -0.34910720111649318 0 -0.44408457896710762 -0.34741130507322732 0 -0.44504098357239391 -0.35771747353496869 0 -0.43930980958642257 -0.33554338078202212 0 -0.4507851133594416 -0.34910720111649318 0 -0.44408457896710762 -0.34741130507322732 0 -0.44408457896710762 -0.34741130507322732 0 -0.43834809566141358 -0.35386966642967582 0 -0.4310745521241639 -0.35060051531725012 0 -0.44408457896710762 -0.34741130507322732 0 -0.43834809566141358 -0.35386966642967582 0 -0.44504098357239391 -0.35771747353496869 0 -0.43834809566141358 -0.35386966642967582 0 -0.44504098357239391 -0.35771747353496869 0 -0.43256408976529492 -0.36260533289695268 0 -0.44504098357239391 -0.35771747353496869 0 -0.44172858264042247 -0.37082207246888088 0 -0.43256408976529492 -0.36260533289695268 0 -0.4540003998136638 -0.37455519391687309 0 -0.44172858264042247 -0.37082207246888088 0 -0.45167034254705118 -0.36337553476545958 0 -0.44504098357239391 -0.35771747353496869 0 -0.44172858264042247 -0.37082207246888088 0 -0.45167034254705118 -0.36337553476545958 0 -0.42311368847744002 -0.37830224279505142 0 -0.44172858264042247 -0.37082207246888088 0 -0.43256408976529492 -0.36260533289695268 0 -0.42311368847744002 -0.37830224279505142 0 -0.43256408976529492 -0.36260533289695268 0 -0.41867380740831611 -0.36398836527224071 0 -0.43256408976529492 -0.36260533289695268 0 -0.42210656065146929 -0.35476551363046099 0 -0.41867380740831611 -0.36398836527224071 0 -0.44408457896710762 -0.34741130507322732 0 -0.4310745521241639 -0.35060051531725012 0 -0.42443636388738298 -0.3390060521705498 0 -0.43834809566141358 -0.35386966642967582 0 -0.43256408976529492 -0.36260533289695268 0 -0.4310745521241639 -0.35060051531725012 0 -0.4310745521241639 -0.35060051531725012 0 -0.42266042161335821 -0.34652378860874011 0 -0.42210656065146929 -0.35476551363046099 0 -0.4310745521241639 -0.35060051531725012 0 -0.42266042161335821 -0.34652378860874011 0 -0.42443636388738298 -0.3390060521705498 0 -0.43256408976529492 -0.36260533289695268 0 -0.4310745521241639 -0.35060051531725012 0 -0.42210656065146929 -0.35476551363046099 0 -0.42210656065146929 -0.35476551363046099 0 -0.41243440171204931 -0.35621682403100541 0 -0.41867380740831611 -0.36398836527224071 0 -0.41243440171204931 -0.35621682403100541 0 -0.40365717239196519 -0.36741535175059892 0 -0.40302160193259851 -0.3439916005776541 0 -0.42210656065146929 -0.35476551363046099 0 -0.41714587076776338 -0.34786779488983011 0 -0.41243440171204931 -0.35621682403100541 0 -0.42266042161335821 -0.34652378860874011 0 -0.42210656065146929 -0.35476551363046099 0 -0.41714587076776338 -0.34786779488983011 0 -0.42266042161335821 -0.34652378860874011 0 -0.41714587076776338 -0.34786779488983011 0 -0.41853876063601031 -0.34037906703560689 0 -0.41714587076776338 -0.34786779488983011 0 -0.41853876063601031 -0.34037906703560689 0 -0.41714587076776338 -0.34786779488983011 0 -0.41243440171204931 -0.35621682403100541 0 -0.40302160193259851 -0.3439916005776541 0 -0.41714587076776338 -0.34786779488983011 0 -0.40302160193259851 -0.3439916005776541 0 -0.41853876063601031 -0.34037906703560689 0 -0.42311368847744002 -0.37830224279505142 0 -0.41867380740831611 -0.36398836527224071 0 -0.40365717239196519 -0.36741535175059892 0 -0.42311368847744002 -0.37830224279505142 0 -0.40365717239196519 -0.36741535175059892 0 -0.41243440171204931 -0.35621682403100541 0 -0.41867380740831611 -0.36398836527224071 0 -0.40365717239196519 -0.36741535175059892 0 -0.40403491357358612 -0.38133688525744702 0 -0.40365717239196519 -0.36741535175059892 0 -0.40403491357358612 -0.38133688525744702 0 -0.40365717239196519 -0.36741535175059892 0 -0.3904578797192948 -0.37473938743617019 0 -0.40365717239196519 -0.36741535175059892 0 -0.38979507995825918 -0.35965881973269581 0 -0.40365717239196519 -0.36741535175059892 0 -0.3904578797192948 -0.37473938743617019 0 -0.38979507995825918 -0.35965881973269581 0 -0.3904578797192948 -0.37473938743617019 0 -0.38979507995825918 -0.35965881973269581 0 -0.37568304780698558 -0.36916333065311507 0 -0.37568304780698558 -0.36916333065311507 0 -0.37593298752455201 -0.35190228771479481 0 -0.38979507995825918 -0.35965881973269581 0 -0.37568304780698558 -0.36916333065311507 0 -0.37593298752455201 -0.35190228771479481 0 -0.38979507995825918 -0.35965881973269581 0 -0.37595629511297179 -0.35029264644438168 0 -0.40302160193259851 -0.3439916005776541 0 -0.37595629511297179 -0.35029264644438168 0 -0.40302160193259851 -0.3439916005776541 0 -0.38842354837557669 -0.33756560667471242 0 -0.37595629511297179 -0.35029264644438168 0 -0.40302160193259851 -0.3439916005776541 0 -0.37595629511297179 -0.35029264644438168 0 -0.37607676276689278 -0.3419730509543204 0 -0.37390838074359528 -0.35076941925389299 0 -0.37595629511297179 -0.35029264644438168 0 -0.37607676276689278 -0.3419730509543204 0 -0.37595629511297179 -0.35029264644438168 0 -0.37593298752455201 -0.35190228771479481 0 -0.37390838074359528 -0.35076941925389299 0 -0.37595629511297179 -0.35029264644438168 0 -0.37593298752455201 -0.35190228771479481 0 -0.38979507995825918 -0.35965881973269581 0 -0.37595629511297179 -0.35029264644438168 0 -0.37593298752455201 -0.35190228771479481 0 -0.38979507995825918 -0.35965881973269581 0 -0.37593298752455201 -0.35190228771479481 0 -0.40365717239196519 -0.36741535175059892 0 -0.40302160193259851 -0.3439916005776541 0 -0.40365717239196519 -0.36741535175059892 0 -0.38979507995825918 -0.35965881973269581 0 -0.40302160193259851 -0.3439916005776541 0 -0.40302160193259851 -0.3439916005776541 0 -0.40263324863316441 -0.32967896077653092 0 -0.40263324863316441 -0.32967896077653092 0 -0.38842354837557669 -0.33756560667471242 0 -0.38442983343225828 -0.32189177462067481 0 -0.40302160193259851 -0.3439916005776541 0 -0.40263324863316441 -0.32967896077653092 0 -0.38842354837557669 -0.33756560667471242 0 -0.37607676276689278 -0.3419730509543204 0 -0.37641717267996733 -0.3184640617331177 0 -0.38842354837557669 -0.33756560667471242 0 -0.37607676276689278 -0.3419730509543204 0 -0.38442983343225828 -0.32189177462067481 0 -0.37607676276689278 -0.3419730509543204 0 -0.38442983343225828 -0.32189177462067481 0 -0.37595629511297179 -0.35029264644438168 0 -0.38842354837557669 -0.33756560667471242 0 -0.37607676276689278 -0.3419730509543204 0 -0.37607676276689278 -0.3419730509543204 0 -0.37641717267996733 -0.3184640617331177 0 -0.38442983343225828 -0.32189177462067481 0 -0.37641717267996733 -0.3184640617331177 0 -0.38442983343225828 -0.32189177462067481 0 -0.3841914044669909 -0.30132118344037401 0 -0.37641717267996733 -0.3184640617331177 0 -0.38442983343225828 -0.32189177462067481 0 -0.40263324863316441 -0.32967896077653092 0 -0.38442983343225828 -0.32189177462067481 0 -0.40185461233875269 -0.30098256284660307 0 -0.40263324863316441 -0.32967896077653092 0 -0.38442983343225828 -0.32189177462067481 0 -0.40263324863316441 -0.32967896077653092 0 -0.40185461233875269 -0.30098256284660307 0 -0.40263324863316441 -0.32967896077653092 0 -0.41242695344044827 -0.31820451366256841 0 -0.40185461233875269 -0.30098256284660307 0 -0.41242695344044827 -0.31820451366256841 0 -0.41920998916455232 -0.33677027649670849 0 -0.42301959421646518 -0.31628833020920039 0 -0.41920998916455232 -0.33677027649670849 0 -0.42301959421646518 -0.31628833020920039 0 -0.41242695344044827 -0.31820451366256841 0 -0.42301959421646518 -0.31628833020920039 0 -0.41541732284930832 -0.30730243798379953 0 -0.40302160193259851 -0.3439916005776541 0 -0.41920998916455232 -0.33677027649670849 0 -0.41853876063601031 -0.34037906703560689 0 -0.40302160193259851 -0.3439916005776541 0 -0.40263324863316441 -0.32967896077653092 0 -0.41920998916455232 -0.33677027649670849 0 -0.40263324863316441 -0.32967896077653092 0 -0.41920998916455232 -0.33677027649670849 0 -0.40263324863316441 -0.32967896077653092 0 -0.41242695344044827 -0.31820451366256841 0 -0.41920998916455232 -0.33677027649670849 0 -0.40302160193259851 -0.3439916005776541 0 -0.41853876063601031 -0.34037906703560689 0 -0.41853876063601031 -0.34037906703560689 0 -0.42443636388738298 -0.3390060521705498 0 -0.41920998916455232 -0.33677027649670849 0 -0.42443636388738298 -0.3390060521705498 0 -0.41920998916455232 -0.33677027649670849 0 -0.41853876063601031 -0.34037906703560689 0 -0.42443636388738298 -0.3390060521705498 0 -0.41920998916455232 -0.33677027649670849 0 -0.41853876063601031 -0.34037906703560689 0 -0.43930980958642257 -0.33554338078202212 0 -0.44408457896710762 -0.34741130507322732 0 -0.42443636388738298 -0.3390060521705498 0 -0.43930980958642257 -0.33554338078202212 0 -0.42443636388738298 -0.3390060521705498 0 -0.42301959421646518 -0.31628833020920039 0 -0.41920998916455232 -0.33677027649670849 0 -0.42443636388738298 -0.3390060521705498 0 -0.42301959421646518 -0.31628833020920039 0 -0.44408457896710762 -0.34741130507322732 0 -0.42443636388738298 -0.3390060521705498 0 -0.42266042161335821 -0.34652378860874011 0 -0.41853876063601031 -0.34037906703560689 0 -0.42443636388738298 -0.3390060521705498 0 -0.43930980958642257 -0.33554338078202212 0 -0.42443636388738298 -0.3390060521705498 0 -0.43930980958642257 -0.33554338078202212 0 -0.42301959421646518 -0.31628833020920039 0 -0.44024276041750632 -0.31887045497680111 0 -0.42395130998641067 -0.31127905704434472 0 -0.44024276041750632 -0.31887045497680111 0 -0.43930980958642257 -0.33554338078202212 0 -0.42301959421646518 -0.31628833020920039 0 -0.44024276041750632 -0.31887045497680111 0 -0.42301959421646518 -0.31628833020920039 0 -0.42395130998641067 -0.31127905704434472 0 -0.42301959421646518 -0.31628833020920039 0 -0.42395130998641067 -0.31127905704434472 0 -0.42395130998641067 -0.31127905704434472 0 -0.42709180872781188 -0.29439449141065738 0 -0.44024276041750632 -0.31887045497680111 0 -0.42395130998641067 -0.31127905704434472 0 -0.43527018611072049 -0.30465000121327751 0 -0.42395130998641067 -0.31127905704434472 0 -0.42709180872781188 -0.29439449141065738 0 -0.41541732284930832 -0.30730243798379953 0 -0.42395130998641067 -0.31127905704434472 0 -0.43527018611072049 -0.30465000121327751 0 -0.42709180872781188 -0.29439449141065738 0 -0.441361257405879 -0.29303276451920029 0 -0.43527018611072049 -0.30465000121327751 0 -0.42709180872781188 -0.29439449141065738 0 -0.42709180872781188 -0.29439449141065738 0 -0.43077531442077321 -0.27459050524281542 0 -0.42709180872781188 -0.29439449141065738 0 -0.41684225135067149 -0.28376244362903152 0 -0.43077531442077321 -0.27459050524281542 0 -0.441361257405879 -0.29303276451920029 0 -0.42709180872781188 -0.29439449141065738 0 -0.441361257405879 -0.29303276451920029 0 -0.42709180872781188 -0.29439449141065738 0 -0.43077531442077321 -0.27459050524281542 0 -0.42709180872781188 -0.29439449141065738 0 -0.41684225135067149 -0.28376244362903152 0 -0.40618483967714292 -0.29638963380315841 0 -0.42709180872781188 -0.29439449141065738 0 -0.40618483967714292 -0.29638963380315841 0 -0.41684225135067149 -0.28376244362903152 0 -0.40690107601488551 -0.28490397733270861 0 -0.40618483967714292 -0.29638963380315841 0 -0.41541732284930832 -0.30730243798379953 0 -0.40185461233875269 -0.30098256284660307 0 -0.40618483967714292 -0.29638963380315841 0 -0.42709180872781188 -0.29439449141065738 0 -0.41541732284930832 -0.30730243798379953 0 -0.40618483967714292 -0.29638963380315841 0 -0.41541732284930832 -0.30730243798379953 0 -0.40618483967714292 -0.29638963380315841 0 -0.41242695344044827 -0.31820451366256841 0 -0.41541732284930832 -0.30730243798379953 0 -0.40185461233875269 -0.30098256284660307 0 -0.41541732284930832 -0.30730243798379953 0 -0.40185461233875269 -0.30098256284660307 0 -0.42301959421646518 -0.31628833020920039 0 -0.41541732284930832 -0.30730243798379953 0 -0.42395130998641067 -0.31127905704434472 0 -0.41541732284930832 -0.30730243798379953 0 -0.42301959421646518 -0.31628833020920039 0 -0.42395130998641067 -0.31127905704434472 0 -0.41541732284930832 -0.30730243798379953 0 -0.38442983343225828 -0.32189177462067481 0 -0.40185461233875269 -0.30098256284660307 0 -0.39448508010510541 -0.297525044214214 0 -0.40185461233875269 -0.30098256284660307 0 -0.40174149504185092 -0.29681366012781812 0 -0.40618483967714292 -0.29638963380315841 0 -0.40185461233875269 -0.30098256284660307 0 -0.40174149504185092 -0.29681366012781812 0 -0.40185461233875269 -0.30098256284660307 0 -0.39448508010510541 -0.297525044214214 0 -0.40174149504185092 -0.29681366012781812 0 -0.40185461233875269 -0.30098256284660307 0 -0.39448508010510541 -0.297525044214214 0 -0.39448508010510541 -0.297525044214214 0 -0.40174149504185092 -0.29681366012781812 0 -0.37641717267996733 -0.3184640617331177 0 -0.37669606201677502 -0.29920373422444158 0 -0.38442983343225828 -0.32189177462067481 0 -0.39448508010510541 -0.297525044214214 0 -0.38442983343225828 -0.32189177462067481 0 -0.39448508010510541 -0.297525044214214 0 -0.3841914044669909 -0.30132118344037401 0 -0.37641717267996733 -0.3184640617331177 0 -0.3841914044669909 -0.30132118344037401 0 -0.37669606201677502 -0.29920373422444158 0 -0.39448508010510541 -0.297525044214214 0 -0.3841914044669909 -0.30132118344037401 0 -0.37928718982873688 -0.29895646409505849 0 -0.39448508010510541 -0.297525044214214 0 -0.37928718982873688 -0.29895646409505849 0 -0.3841914044669909 -0.30132118344037401 0 -0.37928718982873688 -0.29895646409505849 0 -0.3841914044669909 -0.30132118344037401 0 -0.37928718982873688 -0.29895646409505849 0 -0.37669606201677502 -0.29920373422444158 0 -0.37928718982873688 -0.29895646409505849 0 -0.37669606201677502 -0.29920373422444158 0 -0.37671758341694961 -0.29771744858697219 0 -0.37928718982873688 -0.29895646409505849 0 -0.37671758341694961 -0.29771744858697219 0 -0.37928718982873688 -0.29895646409505849 0 -0.37669606201677502 -0.29920373422444158 0 -0.37669606201677502 -0.29920373422444158 0 -0.37671758341694961 -0.29771744858697219 0 -0.37671758341694961 -0.29771744858697219 0 -0.38607699004493318 -0.28757386461908069 0 -0.38483052758877101 -0.28123782127595193 0 -0.37671758341694961 -0.29771744858697219 0 -0.3770412393053626 -0.27536550612006683 0 -0.37671758341694961 -0.29771744858697219 0 -0.38483052758877101 -0.28123782127595193 0 -0.3770412393053626 -0.27536550612006683 0 -0.37928718982873688 -0.29895646409505849 0 -0.37671758341694961 -0.29771744858697219 0 -0.38467000758835601 -0.29297497791584359 0 -0.37671758341694961 -0.29771744858697219 0 -0.38467000758835601 -0.29297497791584359 0 -0.38607699004493318 -0.28757386461908069 0 -0.39448508010510541 -0.297525044214214 0 -0.37928718982873688 -0.29895646409505849 0 -0.38467000758835601 -0.29297497791584359 0 -0.39448508010510541 -0.297525044214214 0 -0.38467000758835601 -0.29297497791584359 0 -0.39448508010510541 -0.297525044214214 0 -0.38467000758835601 -0.29297497791584359 0 -0.39217701296355612 -0.28987936211692023 0 -0.38467000758835601 -0.29297497791584359 0 -0.38607699004493318 -0.28757386461908069 0 -0.39217701296355612 -0.28987936211692023 0 -0.38607699004493318 -0.28757386461908069 0 -0.39049541959166939 -0.28414526237041138 0 -0.39217701296355612 -0.28987936211692023 0 -0.39049541959166939 -0.28414526237041138 0 -0.39420405367365152 -0.27853706101481662 0 -0.38483052758877101 -0.28123782127595193 0 -0.38607699004493318 -0.28757386461908069 0 -0.39049541959166939 -0.28414526237041138 0 -0.38483052758877101 -0.28123782127595193 0 -0.39597078832761667 -0.28551153658085893 0 -0.40174149504185092 -0.29681366012781812 0 -0.40123596036735593 -0.27818233727432817 0 -0.39049541959166939 -0.28414526237041138 0 -0.39597078832761667 -0.28551153658085893 0 -0.39420405367365152 -0.27853706101481662 0 -0.40174149504185092 -0.29681366012781812 0 -0.40123596036735593 -0.27818233727432817 0 -0.40174149504185092 -0.29681366012781812 0 -0.40322207619149192 -0.29288764445213411 0 -0.40123596036735593 -0.27818233727432817 0 -0.39049541959166939 -0.28414526237041138 0 -0.39597078832761667 -0.28551153658085893 0 -0.39217701296355612 -0.28987936211692023 0 -0.39597078832761667 -0.28551153658085893 0 -0.39217701296355612 -0.28987936211692023 0 -0.40174149504185092 -0.29681366012781812 0 -0.39448508010510541 -0.297525044214214 0 -0.39217701296355612 -0.28987936211692023 0 -0.40174149504185092 -0.29681366012781812 0 -0.40690107601488551 -0.28490397733270861 0 -0.40322207619149192 -0.29288764445213411 0 -0.40618483967714292 -0.29638963380315841 0 -0.40174149504185092 -0.29681366012781812 0 -0.40322207619149192 -0.29288764445213411 0 -0.40618483967714292 -0.29638963380315841 0 -0.40174149504185092 -0.29681366012781812 0 -0.40618483967714292 -0.29638963380315841 0 -0.40322207619149192 -0.29288764445213411 0 -0.40618483967714292 -0.29638963380315841 0 -0.40690107601488551 -0.28490397733270861 0 -0.40322207619149192 -0.29288764445213411 0 -0.40123596036735593 -0.27818233727432817 0 -0.39420405367365152 -0.27853706101481662 0 -0.37710287173325818 -0.2711091198417086 0 -0.40073042569286338 -0.25955101442083811 0 -0.40123596036735593 -0.27818233727432817 0 -0.39420405367365152 -0.27853706101481662 0 -0.40073042569286338 -0.25955101442083811 0 -0.40123596036735593 -0.27818233727432817 0 -0.40073042569286338 -0.25955101442083811 0 -0.40123596036735593 -0.27818233727432817 0 -0.40073042569286338 -0.25955101442083811 0 -0.41341650638623911 -0.27076301679274262 0 -0.39597078832761667 -0.28551153658085893 0 -0.40123596036735593 -0.27818233727432817 0 -0.39420405367365152 -0.27853706101481662 0 -0.39420405367365152 -0.27853706101481662 0 -0.37710287173325818 -0.2711091198417086 0 -0.3770412393053626 -0.27536550612006683 0 -0.39420405367365152 -0.27853706101481662 0 -0.3770412393053626 -0.27536550612006683 0 -0.39420405367365152 -0.27853706101481662 0 -0.38483052758877101 -0.28123782127595193 0 -0.3770412393053626 -0.27536550612006683 0 -0.37710287173325818 -0.2711091198417086 0 -0.3770412393053626 -0.27536550612006683 0 -0.37710287173325818 -0.2711091198417086 0 -0.38543722149146659 -0.25821727905458303 0 -0.40073042569286338 -0.25955101442083811 0 -0.37710287173325818 -0.2711091198417086 0 -0.37747963509906429 -0.24508953120583671 0 -0.37710287173325818 -0.2711091198417086 0 -0.40073042569286338 -0.25955101442083811 0 -0.37710287173325818 -0.2711091198417086 0 -0.38543722149146659 -0.25821727905458303 0 -0.37747963509906429 -0.24508953120583671 0 -0.38543722149146659 -0.25821727905458303 0 -0.3938256931015453 -0.25037754026629511 0 -0.37747963509906429 -0.24508953120583671 0 -0.38543722149146659 -0.25821727905458303 0 -0.3938256931015453 -0.25037754026629511 0 -0.40073042569286338 -0.25955101442083811 0 -0.40073042569286338 -0.25955101442083811 0 -0.40282532782868952 -0.25224285689579767 0 -0.40022281387448849 -0.24084313907701979 0 -0.40073042569286338 -0.25955101442083811 0 -0.40022281387448849 -0.24084313907701979 0 -0.3938256931015453 -0.25037754026629511 0 -0.40073042569286338 -0.25955101442083811 0 -0.40022281387448849 -0.24084313907701979 0 -0.40073042569286338 -0.25955101442083811 0 -0.40282532782868952 -0.25224285689579767 0 -0.41385673751816382 -0.25312989710486528 0 -0.40073042569286338 -0.25955101442083811 0 -0.41385673751816382 -0.25312989710486528 0 -0.40073042569286338 -0.25955101442083811 0 -0.41385673751816382 -0.25312989710486528 0 -0.41341650638623911 -0.27076301679274262 0 -0.41385673751816382 -0.25312989710486528 0 -0.41341650638623911 -0.27076301679274262 0 -0.42312684460972783 -0.26331748455384929 0 -0.41385673751816382 -0.25312989710486528 0 -0.41679144862722167 -0.25169429778568547 0 -0.43445882011373449 -0.25478651907497341 0 -0.40282532782868952 -0.25224285689579767 0 -0.41385673751816382 -0.25312989710486528 0 -0.4086566941719203 -0.24778871483445111 0 -0.40282532782868952 -0.25224285689579767 0 -0.41385673751816382 -0.25312989710486528 0 -0.41385673751816382 -0.25312989710486528 0 -0.41679144862722167 -0.25169429778568547 0 -0.41627810448972868 -0.24641300060905449 0 -0.41385673751816382 -0.25312989710486528 0 -0.41679144862722167 -0.25169429778568547 0 -0.41684225135067149 -0.28376244362903152 0 -0.41341650638623911 -0.27076301679274262 0 -0.43077531442077321 -0.27459050524281542 0 -0.40690107601488551 -0.28490397733270861 0 -0.40123596036735593 -0.27818233727432817 0 -0.41341650638623911 -0.27076301679274262 0 -0.41684225135067149 -0.28376244362903152 0 -0.40690107601488551 -0.28490397733270861 0 -0.41341650638623911 -0.27076301679274262 0 -0.41341650638623911 -0.27076301679274262 0 -0.43077531442077321 -0.27459050524281542 0 -0.42312684460972783 -0.26331748455384929 0 -0.43077531442077321 -0.27459050524281542 0 -0.42312684460972783 -0.26331748455384929 0 -0.43445882011373449 -0.25478651907497341 0 -0.41385673751816382 -0.25312989710486528 0 -0.43445882011373449 -0.25478651907497341 0 -0.43077531442077321 -0.27459050524281542 0 -0.43445882011373449 -0.25478651907497341 0 -0.41385673751816382 -0.25312989710486528 0 -0.42312684460972783 -0.26331748455384929 0 -0.43445882011373449 -0.25478651907497341 0 -0.41679144862722167 -0.25169429778568547 0 -0.43445882011373449 -0.25478651907497341 0 -0.42335340856967768 -0.24893549408922019 0 -0.32580796388430833 -0.26195871891040218 0 -0.34139866608006603 -0.2687790352098644 0 -0.31202674084989918 -0.26335133138269068 0 -0.32580796388430833 -0.26195871891040218 0 -0.33345250408021371 -0.25331871279766999 0 -0.32023222063025569 -0.2489608815952247 0 -0.32580796388430833 -0.26195871891040218 0 -0.31664960680882542 -0.25714232151458272 0 -0.32023222063025569 -0.2489608815952247 0 -0.31664960680882542 -0.25714232151458272 0 -0.30853150187083839 -0.25429835417001312 0 -0.32023222063025569 -0.2489608815952247 0 -0.32580796388430833 -0.26195871891040218 0 -0.31664960680882542 -0.25714232151458272 0 -0.31202674084989918 -0.26335133138269068 0 -0.33223611708196649 -0.27626932861073827 0 -0.31972670239926188 -0.28454160199560091 0 -0.31187737399160442 -0.27618124236115132 0 -0.34139866608006603 -0.2687790352098644 0 -0.31202674084989918 -0.26335133138269068 0 -0.33223611708196649 -0.27626932861073827 0 -0.31202674084989918 -0.26335133138269068 0 -0.3062135479255173 -0.26372173898871692 0 -0.33223611708196649 -0.27626932861073827 0 -0.31187737399160442 -0.27618124236115132 0 -0.3062135479255173 -0.26372173898871692 0 -0.33260241140844943 -0.2743168067351805 0 -0.33223611708196649 -0.27626932861073827 0 -0.31202674084989918 -0.26335133138269068 0 -0.33223611708196649 -0.27626932861073827 0 -0.3062135479255173 -0.26372173898871692 0 -0.33260241140844943 -0.2743168067351805 0 -0.34139866608006603 -0.2687790352098644 0 -0.31202674084989918 -0.26335133138269068 0 -0.33223611708196649 -0.27626932861073827 0 -0.34139866608006603 -0.2687790352098644 0 -0.34951875912658742 -0.28460269103381453 0 -0.33223611708196649 -0.27626932861073827 0 -0.34951875912658742 -0.28460269103381453 0 -0.33260241140844943 -0.2743168067351805 0 -0.33223611708196649 -0.27626932861073827 0 -0.34139866608006603 -0.2687790352098644 0 -0.33260241140844943 -0.2743168067351805 0 -0.33223611708196649 -0.27626932861073827 0 -0.34139866608006603 -0.2687790352098644 0 -0.3363084638556994 -0.26041051377605268 0 -0.34457472137820933 -0.25758558818627408 0 -0.32580796388430833 -0.26195871891040218 0 -0.34139866608006603 -0.2687790352098644 0 -0.3363084638556994 -0.26041051377605268 0 -0.32580796388430833 -0.26195871891040218 0 -0.3363084638556994 -0.26041051377605268 0 -0.33345250408021371 -0.25331871279766999 0 -0.3363084638556994 -0.26041051377605268 0 -0.33345250408021371 -0.25331871279766999 0 -0.34457472137820933 -0.25758558818627408 0 -0.33345250408021371 -0.25331871279766999 0 -0.34457472137820933 -0.25758558818627408 0 -0.34395992200845399 -0.24382677409400949 0 -0.34139866608006603 -0.2687790352098644 0 -0.34457472137820933 -0.25758558818627408 0 -0.35733732661955131 -0.26288598862094092 0 -0.34457472137820933 -0.25758558818627408 0 -0.35872453044413888 -0.25078889886649508 0 -0.34395992200845399 -0.24382677409400949 0 -0.34457472137820933 -0.25758558818627408 0 -0.35733732661955131 -0.26288598862094092 0 -0.35872453044413888 -0.25078889886649508 0 -0.37710287173325818 -0.2711091198417086 0 -0.36828299104124951 -0.26081605551440462 0 -0.37747963509906429 -0.24508953120583671 0 -0.35872453044413888 -0.25078889886649508 0 -0.36828299104124951 -0.26081605551440462 0 -0.37747963509906429 -0.24508953120583671 0 -0.35733732661955131 -0.26288598862094092 0 -0.35872453044413888 -0.25078889886649508 0 -0.36828299104124951 -0.26081605551440462 0 -0.37077059131023282 -0.27420673903703829 0 -0.34951875912658742 -0.28460269103381453 0 -0.37710287173325818 -0.2711091198417086 0 -0.3770412393053626 -0.27536550612006683 0 -0.37077059131023282 -0.27420673903703829 0 -0.3770412393053626 -0.27536550612006683 0 -0.37077059131023282 -0.27420673903703829 0 -0.37710287173325818 -0.2711091198417086 0 -0.36828299104124951 -0.26081605551440462 0 -0.37077059131023282 -0.27420673903703829 0 -0.37710287173325818 -0.2711091198417086 0 -0.37077059131023282 -0.27420673903703829 0 -0.35733732661955131 -0.26288598862094092 0 -0.36828299104124951 -0.26081605551440462 0 -0.37077059131023282 -0.27420673903703829 0 -0.34139866608006603 -0.2687790352098644 0 -0.35733732661955131 -0.26288598862094092 0 -0.37077059131023282 -0.27420673903703829 0 -0.34139866608006603 -0.2687790352098644 0 -0.37077059131023282 -0.27420673903703829 0 -0.34951875912658742 -0.28460269103381453 0 -0.34139866608006603 -0.2687790352098644 0 -0.37077059131023282 -0.27420673903703829 0 -0.34951875912658742 -0.28460269103381453 0 -0.3581763596052473 -0.30097106086504849 0 -0.34010739644885768 -0.2892065328944351 0 -0.34951875912658742 -0.28460269103381453 0 -0.34010739644885768 -0.2892065328944351 0 -0.37671758341694961 -0.29771744858697219 0 -0.37077059131023282 -0.27420673903703829 0 -0.34951875912658742 -0.28460269103381453 0 -0.37671758341694961 -0.29771744858697219 0 -0.34951875912658742 -0.28460269103381453 0 -0.37671758341694961 -0.29771744858697219 0 -0.3770412393053626 -0.27536550612006683 0 -0.37077059131023282 -0.27420673903703829 0 -0.37671758341694961 -0.29771744858697219 0 -0.34951875912658742 -0.28460269103381453 0 -0.3581763596052473 -0.30097106086504849 0 -0.37669606201677502 -0.29920373422444158 0 -0.37671758341694961 -0.29771744858697219 0 -0.3581763596052473 -0.30097106086504849 0 -0.37641717267996733 -0.3184640617331177 0 -0.37669606201677502 -0.29920373422444158 0 -0.36799370156123501 -0.30592930732763762 0 -0.37641717267996733 -0.3184640617331177 0 -0.36799370156123501 -0.30592930732763762 0 -0.35803691493684492 -0.31060122461938489 0 -0.37669606201677502 -0.29920373422444158 0 -0.36799370156123501 -0.30592930732763762 0 -0.3581763596052473 -0.30097106086504849 0 -0.37669606201677502 -0.29920373422444158 0 -0.3581763596052473 -0.30097106086504849 0 -0.36799370156123501 -0.30592930732763762 0 -0.35803691493684492 -0.31060122461938489 0 -0.3581763596052473 -0.30097106086504849 0 -0.35803691493684492 -0.31060122461938489 0 -0.33965665719371979 -0.30273838750565862 0 -0.35803691493684492 -0.31060122461938489 0 -0.33965665719371979 -0.30273838750565862 0 -0.34514704515453298 -0.31300544250539297 0 -0.3581763596052473 -0.30097106086504849 0 -0.33965665719371979 -0.30273838750565862 0 -0.34010739644885768 -0.2892065328944351 0 -0.35803691493684492 -0.31060122461938489 0 -0.3581763596052473 -0.30097106086504849 0 -0.33965665719371979 -0.30273838750565862 0 -0.3581763596052473 -0.30097106086504849 0 -0.33965665719371979 -0.30273838750565862 0 -0.33676996251121621 -0.31158184422573892 0 -0.33965665719371979 -0.30273838750565862 0 -0.34514704515453298 -0.31300544250539297 0 -0.33676996251121621 -0.31158184422573892 0 -0.33965665719371979 -0.30273838750565862 0 -0.32704471803945162 -0.30394193902942662 0 -0.33676996251121621 -0.31158184422573892 0 -0.32594772137393307 -0.30978944971135602 0 -0.32704471803945162 -0.30394193902942662 0 -0.33965665719371979 -0.30273838750565862 0 -0.32704471803945162 -0.30394193902942662 0 -0.32819068517220462 -0.29783339261299951 0 -0.33965665719371979 -0.30273838750565862 0 -0.32704471803945162 -0.30394193902942662 0 -0.32819068517220462 -0.29783339261299951 0 -0.33965665719371979 -0.30273838750565862 0 -0.33223611708196649 -0.27626932861073827 0 -0.32819068517220462 -0.29783339261299951 0 -0.33223611708196649 -0.27626932861073827 0 -0.32819068517220462 -0.29783339261299951 0 -0.34010739644885768 -0.2892065328944351 0 -0.33223611708196649 -0.27626932861073827 0 -0.34951875912658742 -0.28460269103381453 0 -0.34010739644885768 -0.2892065328944351 0 -0.32819068517220462 -0.29783339261299951 0 -0.33965665719371979 -0.30273838750565862 0 -0.34010739644885768 -0.2892065328944351 0 -0.32819068517220462 -0.29783339261299951 0 -0.31972670239926188 -0.28454160199560091 0 -0.31332574866090718 -0.291474364566292 0 -0.32819068517220462 -0.29783339261299951 0 -0.31332574866090718 -0.291474364566292 0 -0.33223611708196649 -0.27626932861073827 0 -0.32819068517220462 -0.29783339261299951 0 -0.31972670239926188 -0.28454160199560091 0 -0.31972670239926188 -0.28454160199560091 0 -0.31332574866090718 -0.291474364566292 0 -0.30937392239009109 -0.28339120160471948 0 -0.31972670239926188 -0.28454160199560091 0 -0.30937392239009109 -0.28339120160471948 0 -0.31187737399160442 -0.27618124236115132 0 -0.31992409361072222 -0.30462145692723192 0 -0.32594772137393307 -0.30978944971135602 0 -0.31307430431717392 -0.31869978567557272 0 -0.31992409361072222 -0.30462145692723192 0 -0.32594772137393307 -0.30978944971135602 0 -0.32594772137393307 -0.30978944971135602 0 -0.32704471803945162 -0.30394193902942662 0 -0.31992409361072222 -0.30462145692723192 0 -0.32594772137393307 -0.30978944971135602 0 -0.32704471803945162 -0.30394193902942662 0 -0.32819068517220462 -0.29783339261299951 0 -0.31332574866090718 -0.291474364566292 0 -0.31992409361072222 -0.30462145692723192 0 -0.32819068517220462 -0.29783339261299951 0 -0.32704471803945162 -0.30394193902942662 0 -0.32819068517220462 -0.29783339261299951 0 -0.31992409361072222 -0.30462145692723192 0 -0.32704471803945162 -0.30394193902942662 0 -0.31992409361072222 -0.30462145692723192 0 -0.32704471803945162 -0.30394193902942662 0 -0.32594772137393307 -0.30978944971135602 0 -0.31307430431717392 -0.31869978567557272 0 -0.32184288384298337 -0.33167017375041419 0 -0.32594772137393307 -0.30978944971135602 0 -0.32184288384298337 -0.33167017375041419 0 -0.32184288384298337 -0.33167017375041419 0 -0.31773804631203251 -0.35355089778947202 0 -0.32184288384298337 -0.33167017375041419 0 -0.34475024534571441 -0.34586667392980902 0 -0.31773804631203251 -0.35355089778947202 0 -0.32184288384298337 -0.33167017375041419 0 -0.34612464597635118 -0.32710031367078812 0 -0.34475024534571441 -0.34586667392980902 0 -0.33676996251121621 -0.31158184422573892 0 -0.32594772137393307 -0.30978944971135602 0 -0.34612464597635118 -0.32710031367078812 0 -0.32594772137393307 -0.30978944971135602 0 -0.34612464597635118 -0.32710031367078812 0 -0.32594772137393307 -0.30978944971135602 0 -0.32184288384298337 -0.33167017375041419 0 -0.34612464597635118 -0.32710031367078812 0 -0.33676996251121621 -0.31158184422573892 0 -0.34514704515453298 -0.31300544250539297 0 -0.34612464597635118 -0.32710031367078812 0 -0.35803691493684492 -0.31060122461938489 0 -0.34514704515453298 -0.31300544250539297 0 -0.34612464597635118 -0.32710031367078812 0 -0.35803691493684492 -0.31060122461938489 0 -0.34612464597635118 -0.32710031367078812 0 -0.35600230731325749 -0.33324145173106873 0 -0.37641717267996733 -0.3184640617331177 0 -0.35803691493684492 -0.31060122461938489 0 -0.37641717267996733 -0.3184640617331177 0 -0.35803691493684492 -0.31060122461938489 0 -0.36719759625642318 -0.33008752154143739 0 -0.35803691493684492 -0.31060122461938489 0 -0.36719759625642318 -0.33008752154143739 0 -0.35600230731325749 -0.33324145173106873 0 -0.37607676276689278 -0.3419730509543204 0 -0.37641717267996733 -0.3184640617331177 0 -0.36719759625642318 -0.33008752154143739 0 -0.37607676276689278 -0.3419730509543204 0 -0.3688763256213185 -0.34309961767568647 0 -0.36719759625642318 -0.33008752154143739 0 -0.36719759625642318 -0.33008752154143739 0 -0.36118874601324108 -0.3436521492952741 0 -0.35600230731325749 -0.33324145173106873 0 -0.3688763256213185 -0.34309961767568647 0 -0.36719759625642318 -0.33008752154143739 0 -0.36118874601324108 -0.3436521492952741 0 -0.34612464597635118 -0.32710031367078812 0 -0.35600230731325749 -0.33324145173106873 0 -0.34475024534571441 -0.34586667392980902 0 -0.36118874601324108 -0.3436521492952741 0 -0.35600230731325749 -0.33324145173106873 0 -0.34475024534571441 -0.34586667392980902 0 -0.36118874601324108 -0.3436521492952741 0 -0.34475024534571441 -0.34586667392980902 0 -0.35925477447714671 -0.35134479444962452 0 -0.34475024534571441 -0.34586667392980902 0 -0.35480891830463612 -0.3592101017575729 0 -0.33937201587241012 -0.36587749477948078 0 -0.34475024534571441 -0.34586667392980902 0 -0.35480891830463612 -0.3592101017575729 0 -0.35925477447714671 -0.35134479444962452 0 -0.36118874601324108 -0.3436521492952741 0 -0.37225797237559449 -0.35115364910559932 0 -0.36118874601324108 -0.3436521492952741 0 -0.35925477447714671 -0.35134479444962452 0 -0.36985982957495511 -0.35171195823109852 0 -0.37568304780698558 -0.36916333065311507 0 -0.37593298752455201 -0.35190228771479481 0 -0.37225797237559449 -0.35115364910559932 0 -0.35480891830463612 -0.3592101017575729 0 -0.35925477447714671 -0.35134479444962452 0 -0.36985982957495511 -0.35171195823109852 0 -0.37607676276689278 -0.3419730509543204 0 -0.3688763256213185 -0.34309961767568647 0 -0.37225797237559449 -0.35115364910559932 0 -0.37607676276689278 -0.3419730509543204 0 -0.37225797237559449 -0.35115364910559932 0 -0.37607676276689278 -0.3419730509543204 0 -0.37390838074359528 -0.35076941925389299 0 -0.37225797237559449 -0.35115364910559932 0 -0.37593298752455201 -0.35190228771479481 0 -0.37390838074359528 -0.35076941925389299 0 -0.37225797237559449 -0.35115364910559932 0 -0.3688763256213185 -0.34309961767568647 0 -0.36118874601324108 -0.3436521492952741 0 -0.37225797237559449 -0.35115364910559932 0 -0.37593298752455201 -0.35190228771479481 0 -0.37390838074359528 -0.35076941925389299 0 -0.36118874601324108 -0.3436521492952741 0 -0.36985982957495511 -0.35171195823109852 0 -0.37225797237559449 -0.35115364910559932 0 -0.37595629511297179 -0.35029264644438168 0 -0.37390838074359528 -0.35076941925389299 0 -0.37390838074359528 -0.35076941925389299 0 -0.37225797237559449 -0.35115364910559932 0 -0.36985982957495511 -0.35171195823109852 0 -0.37225797237559449 -0.35115364910559932 0 -0.37568304780698558 -0.36916333065311507 0 -0.37225797237559449 -0.35115364910559932 0 -0.36100598543278789 -0.37820409176948921 0 -0.35480891830463612 -0.3592101017575729 0 -0.36985982957495511 -0.35171195823109852 0 -0.36100598543278789 -0.37820409176948921 0 -0.36985982957495511 -0.35171195823109852 0 -0.37225797237559449 -0.35115364910559932 0 -0.36100598543278789 -0.37820409176948921 0 -0.37225797237559449 -0.35115364910559932 0 -0.36100598543278789 -0.37820409176948921 0 -0.33937201587241012 -0.36587749477948078 0 -0.36100598543278789 -0.37820409176948921 0 -0.35480891830463612 -0.3592101017575729 0 -0.33937201587241012 -0.36587749477948078 0 -0.36100598543278789 -0.37820409176948921 0 -0.33937201587241012 -0.36587749477948078 0 -0.31773804631203251 -0.35355089778947202 0 -0.33937201587241012 -0.36587749477948078 0 -0.31773804631203251 -0.35355089778947202 0 -0.32803705280137402 -0.37447550275240871 0 -0.34475024534571441 -0.34586667392980902 0 -0.33937201587241012 -0.36587749477948078 0 -0.31773804631203251 -0.35355089778947202 0 -0.31773804631203251 -0.35355089778947202 0 -0.31381007312398762 -0.37448885129246268 0 -0.31773804631203251 -0.35355089778947202 0 -0.31381007312398762 -0.37448885129246268 0 -0.32803705280137402 -0.37447550275240871 0 -0.31381007312398762 -0.37448885129246268 0 -0.29871455833571747 -0.36148408621311728 0 -0.29196992941862432 -0.3825632544476108 0 -0.31773804631203251 -0.35355089778947202 0 -0.31381007312398762 -0.37448885129246268 0 -0.29871455833571747 -0.36148408621311728 0 -0.31773804631203251 -0.35355089778947202 0 -0.29871455833571747 -0.36148408621311728 0 -0.29282778547957722 -0.33935753649529382 0 -0.31773804631203251 -0.35355089778947202 0 -0.29282778547957722 -0.33935753649529382 0 -0.29871455833571747 -0.36148408621311728 0 -0.27675503022224163 -0.36681377825091099 0 -0.29282778547957722 -0.33935753649529382 0 -0.29871455833571747 -0.36148408621311728 0 -0.27675503022224163 -0.36681377825091099 0 -0.29196992941862432 -0.3825632544476108 0 -0.27675503022224163 -0.36681377825091099 0 -0.25757508569408222 -0.36424633604315798 0 -0.26546808025963542 -0.34847395767735678 0 -0.27675503022224163 -0.36681377825091099 0 -0.25757508569408222 -0.36424633604315798 0 -0.25812358553267323 -0.37605355791306738 0 -0.25757508569408222 -0.36424633604315798 0 -0.24839247009954951 -0.37292447016044328 0 -0.24532753696728959 -0.36501789644951049 0 -0.25757508569408222 -0.36424633604315798 0 -0.25812358553267323 -0.37605355791306738 0 -0.24839247009954951 -0.37292447016044328 0 -0.25757508569408222 -0.36424633604315798 0 -0.26546808025963542 -0.34847395767735678 0 -0.24650166737573331 -0.3569693529562265 0 -0.26546808025963542 -0.34847395767735678 0 -0.24650166737573331 -0.3569693529562265 0 -0.24881121389389799 -0.33838995723746451 0 -0.27675503022224163 -0.36681377825091099 0 -0.26546808025963542 -0.34847395767735678 0 -0.29282778547957722 -0.33935753649529382 0 -0.26791752464712137 -0.32516417520111718 0 -0.27544300416693679 -0.31995488319631832 0 -0.29282778547957722 -0.33935753649529382 0 -0.26546808025963542 -0.34847395767735678 0 -0.26791752464712137 -0.32516417520111718 0 -0.29282778547957722 -0.33935753649529382 0 -0.26791752464712137 -0.32516417520111718 0 -0.29282778547957722 -0.33935753649529382 0 -0.26791752464712137 -0.32516417520111718 0 -0.24881121389389799 -0.33838995723746451 0 -0.26546808025963542 -0.34847395767735678 0 -0.26791752464712137 -0.32516417520111718 0 -0.24881121389389799 -0.33838995723746451 0 -0.26791752464712137 -0.32516417520111718 0 -0.24881121389389799 -0.33838995723746451 0 -0.2441082332202735 -0.32380704628422963 0 -0.26791752464712137 -0.32516417520111718 0 -0.2444966906846206 -0.31181945912301329 0 -0.26791752464712137 -0.32516417520111718 0 -0.26963915832665503 -0.30942012505775762 0 -0.2444966906846206 -0.31181945912301329 0 -0.26791752464712137 -0.32516417520111718 0 -0.2441082332202735 -0.32380704628422963 0 -0.2444966906846206 -0.31181945912301329 0 -0.26791752464712137 -0.32516417520111718 0 -0.27544300416693679 -0.31995488319631832 0 -0.26963915832665503 -0.30942012505775762 0 -0.26791752464712137 -0.32516417520111718 0 -0.27544300416693679 -0.31995488319631832 0 -0.27544300416693679 -0.31995488319631832 0 -0.29403167998309421 -0.32125824908992018 0 -0.29478162596868879 -0.30702079099249591 0 -0.27544300416693679 -0.31995488319631832 0 -0.29403167998309421 -0.32125824908992018 0 -0.29282778547957722 -0.33935753649529382 0 -0.31307430431717392 -0.31869978567557272 0 -0.32184288384298337 -0.33167017375041419 0 -0.29282778547957722 -0.33935753649529382 0 -0.32184288384298337 -0.33167017375041419 0 -0.31773804631203251 -0.35355089778947202 0 -0.29282778547957722 -0.33935753649529382 0 -0.31307430431717392 -0.31869978567557272 0 -0.29403167998309421 -0.32125824908992018 0 -0.29282778547957722 -0.33935753649529382 0 -0.31307430431717392 -0.31869978567557272 0 -0.29403167998309421 -0.32125824908992018 0 -0.29478162596868879 -0.30702079099249591 0 -0.31992409361072222 -0.30462145692723192 0 -0.29478162596868879 -0.30702079099249591 0 -0.31992409361072222 -0.30462145692723192 0 -0.31307430431717392 -0.31869978567557272 0 -0.29478162596868879 -0.30702079099249591 0 -0.31992409361072222 -0.30462145692723192 0 -0.30687808727867438 -0.29770175581860719 0 -0.29478162596868879 -0.30702079099249591 0 -0.30687808727867438 -0.29770175581860719 0 -0.29813438661480679 -0.29530641477552327 0 -0.29478162596868879 -0.30702079099249591 0 -0.31992409361072222 -0.30462145692723192 0 -0.2984608121496099 -0.28511533651958437 0 -0.31992409361072222 -0.30462145692723192 0 -0.30687808727867438 -0.29770175581860719 0 -0.2984608121496099 -0.28511533651958437 0 -0.31332574866090718 -0.291474364566292 0 -0.31992409361072222 -0.30462145692723192 0 -0.2984608121496099 -0.28511533651958437 0 -0.31332574866090718 -0.291474364566292 0 -0.30937392239009109 -0.28339120160471948 0 -0.2984608121496099 -0.28511533651958437 0 -0.31332574866090718 -0.291474364566292 0 -0.2984608121496099 -0.28511533651958437 0 -0.30937392239009109 -0.28339120160471948 0 -0.2984608121496099 -0.28511533651958437 0 -0.30347897474907187 -0.279643462580969 0 -0.30687808727867438 -0.29770175581860719 0 -0.29951482580247829 -0.29240083595456018 0 -0.29813438661480679 -0.29530641477552327 0 -0.30687808727867438 -0.29770175581860719 0 -0.2984608121496099 -0.28511533651958437 0 -0.29951482580247829 -0.29240083595456018 0 -0.29951482580247829 -0.29240083595456018 0 -0.29813438661480679 -0.29530641477552327 0 -0.29499124589990039 -0.29073588210889412 0 -0.2984608121496099 -0.28511533651958437 0 -0.29951482580247829 -0.29240083595456018 0 -0.29499124589990039 -0.29073588210889412 0 -0.29499124589990039 -0.29073588210889412 0 -0.29148170063899659 -0.29460773718781319 0 -0.28586576089235322 -0.28577101837165192 0 -0.29813438661480679 -0.29530641477552327 0 -0.29499124589990039 -0.29073588210889412 0 -0.29148170063899659 -0.29460773718781319 0 -0.2984608121496099 -0.28511533651958437 0 -0.29499124589990039 -0.29073588210889412 0 -0.28586576089235322 -0.28577101837165192 0 -0.29148170063899659 -0.29460773718781319 0 -0.28586576089235322 -0.28577101837165192 0 -0.2798353156189245 -0.29508903771003908 0 -0.29148170063899659 -0.29460773718781319 0 -0.29478162596868879 -0.30702079099249591 0 -0.2798353156189245 -0.29508903771003908 0 -0.29478162596868879 -0.30702079099249591 0 -0.26963915832665503 -0.30942012505775762 0 -0.2798353156189245 -0.29508903771003908 0 -0.29478162596868879 -0.30702079099249591 0 -0.26963915832665503 -0.30942012505775762 0 -0.29813438661480679 -0.29530641477552327 0 -0.29148170063899659 -0.29460773718781319 0 -0.29478162596868879 -0.30702079099249591 0 -0.27544300416693679 -0.31995488319631832 0 -0.29478162596868879 -0.30702079099249591 0 -0.26963915832665503 -0.30942012505775762 0 -0.26963915832665503 -0.30942012505775762 0 -0.26057201890547982 -0.29344093798311832 0 -0.2798353156189245 -0.29508903771003908 0 -0.26963915832665503 -0.30942012505775762 0 -0.2444966906846206 -0.31181945912301329 0 -0.26963915832665503 -0.30942012505775762 0 -0.26057201890547982 -0.29344093798311832 0 -0.2444966906846206 -0.31181945912301329 0 -0.26057201890547982 -0.29344093798311832 0 -0.27108878797196961 -0.28331686931735522 0 -0.25298377122075039 -0.27518622721876451 0 -0.26057201890547982 -0.29344093798311832 0 -0.25298377122075039 -0.27518622721876451 0 -0.2435111179254994 -0.29490773243705071 0 -0.26057201890547982 -0.29344093798311832 0 -0.27108878797196961 -0.28331686931735522 0 -0.2798353156189245 -0.29508903771003908 0 -0.28586576089235322 -0.28577101837165192 0 -0.27108878797196961 -0.28331686931735522 0 -0.2798353156189245 -0.29508903771003908 0 -0.27108878797196961 -0.28331686931735522 0 -0.27618707322233982 -0.26709712530320262 0 -0.25298377122075039 -0.27518622721876451 0 -0.28586576089235322 -0.28577101837165192 0 -0.27108878797196961 -0.28331686931735522 0 -0.27618707322233982 -0.26709712530320262 0 -0.27618707322233982 -0.26709712530320262 0 -0.25431856302814809 -0.24833495949118861 0 -0.27618707322233982 -0.26709712530320262 0 -0.25298377122075039 -0.27518622721876451 0 -0.25431856302814809 -0.24833495949118861 0 -0.27618707322233982 -0.26709712530320262 0 -0.27309361240676189 -0.24179026653703889 0 -0.25431856302814809 -0.24833495949118861 0 -0.27618707322233982 -0.26709712530320262 0 -0.2907170577323625 -0.25177677077710309 0 -0.27309361240676189 -0.24179026653703889 0 -0.27618707322233982 -0.26709712530320262 0 -0.2907170577323625 -0.25177677077710309 0 -0.29477899871119112 -0.26293378760569941 0 -0.2984608121496099 -0.28511533651958437 0 -0.28586576089235322 -0.28577101837165192 0 -0.27618707322233982 -0.26709712530320262 0 -0.2984608121496099 -0.28511533651958437 0 -0.27618707322233982 -0.26709712530320262 0 -0.27618707322233982 -0.26709712530320262 0 -0.29477899871119112 -0.26293378760569941 0 -0.29948479845841441 -0.27338487519771032 0 -0.2984608121496099 -0.28511533651958437 0 -0.27618707322233982 -0.26709712530320262 0 -0.29948479845841441 -0.27338487519771032 0 -0.29477899871119112 -0.26293378760569941 0 -0.29948479845841441 -0.27338487519771032 0 -0.30156079933714469 -0.26765617134954151 0 -0.30156079933714469 -0.26765617134954151 0 -0.30403476516136241 -0.27459464834518948 0 -0.30588444940973558 -0.27063474712059482 0 -0.29948479845841441 -0.27338487519771032 0 -0.30156079933714469 -0.26765617134954151 0 -0.30403476516136241 -0.27459464834518948 0 -0.30156079933714469 -0.26765617134954151 0 -0.30588444940973558 -0.27063474712059482 0 -0.3062135479255173 -0.26372173898871692 0 -0.2984608121496099 -0.28511533651958437 0 -0.29948479845841441 -0.27338487519771032 0 -0.30347897474907187 -0.279643462580969 0 -0.29948479845841441 -0.27338487519771032 0 -0.30403476516136241 -0.27459464834518948 0 -0.30347897474907187 -0.279643462580969 0 -0.30937392239009109 -0.28339120160471948 0 -0.30347897474907187 -0.279643462580969 0 -0.31187737399160442 -0.27618124236115132 0 -0.30403476516136241 -0.27459464834518948 0 -0.30347897474907187 -0.279643462580969 0 -0.31187737399160442 -0.27618124236115132 0 -0.30403476516136241 -0.27459464834518948 0 -0.31187737399160442 -0.27618124236115132 0 -0.30588444940973558 -0.27063474712059482 0 -0.31187737399160442 -0.27618124236115132 0 -0.30588444940973558 -0.27063474712059482 0 -0.3062135479255173 -0.26372173898871692 0 -0.31664960680882542 -0.25714232151458272 0 -0.31202674084989918 -0.26335133138269068 0 -0.30853150187083839 -0.25429835417001312 0 -0.2907170577323625 -0.25177677077710309 0 -0.29477899871119112 -0.26293378760569941 0 -0.30853150187083839 -0.25429835417001312 0 -0.31202674084989918 -0.26335133138269068 0 -0.3062135479255173 -0.26372173898871692 0 -0.30853150187083839 -0.25429835417001312 0 -0.29477899871119112 -0.26293378760569941 0 -0.30156079933714469 -0.26765617134954151 0 -0.3062135479255173 -0.26372173898871692 0 -0.29477899871119112 -0.26293378760569941 0 -0.3062135479255173 -0.26372173898871692 0 -0.30853150187083839 -0.25429835417001312 0 -0.33709504481289931 -0.46474263175187808 0 -0.33075086723682939 -0.45093918684289991 0 -0.35302422329502631 -0.44785824460859458 0 -0.33709504481289931 -0.46474263175187808 0 -0.33075086723682939 -0.45093918684289991 0 -0.32054712240525829 -0.47546959342145068 0 -0.33075086723682939 -0.45093918684289991 0 -0.34095461206840061 -0.42640878026434909 0 -0.33075086723682939 -0.45093918684289991 0 -0.35302422329502631 -0.44785824460859458 0 -0.34095461206840061 -0.42640878026434909 0 -0.33075086723682939 -0.45093918684289991 0 -0.32054706720266329 -0.44859283512714471 0 -0.3206124180200437 -0.43193612962395289 0 -0.33075086723682939 -0.45093918684289991 0 -0.32054706720266329 -0.44859283512714471 0 -0.31571728338184601 -0.45752087103574601 0 -0.32054706720266329 -0.44859283512714471 0 -0.31571728338184601 -0.45752087103574601 0 -0.30706080135445341 -0.45057148265483188 0 -0.33075086723682939 -0.45093918684289991 0 -0.32054712240525829 -0.47546959342145068 0 -0.33075086723682939 -0.45093918684289991 0 -0.31571728338184601 -0.45752087103574601 0 -0.32054712240525829 -0.47546959342145068 0 -0.32054712240525829 -0.47546959342145068 0 -0.32750579650535672 -0.48798687004089669 0 -0.32933965142182292 -0.47777380670114528 0 -0.32054712240525829 -0.47546959342145068 0 -0.31034337757368669 -0.50000000000000133 0 -0.32750579650535672 -0.48798687004089669 0 -0.33387795429423722 -0.5 0 -0.31034337757368669 -0.50000000000000133 0 -0.32054712240525829 -0.47546959342145068 0 -0.32750579650535672 -0.48798687004089669 0 -0.31034337757368669 -0.50000000000000133 0 -0.32750579650535672 -0.48798687004089669 0 -0.34342087683177741 -0.48669095008188618 0 -0.33387795429423722 -0.5 0 -0.33709504481289931 -0.46474263175187808 0 -0.32933965142182292 -0.47777380670114528 0 -0.35181335970555933 -0.47167232718529989 0 -0.34342087683177741 -0.48669095008188618 0 -0.32933965142182292 -0.47777380670114528 0 -0.35181335970555933 -0.47167232718529989 0 -0.32750579650535672 -0.48798687004089669 0 -0.34342087683177741 -0.48669095008188618 0 -0.32933965142182292 -0.47777380670114528 0 -0.33709504481289931 -0.46474263175187808 0 -0.32054712240525829 -0.47546959342145068 0 -0.32933965142182292 -0.47777380670114528 0 -0.32933965142182292 -0.47777380670114528 0 -0.35181335970555933 -0.47167232718529989 0 -0.34342087683177741 -0.48669095008188618 0 -0.35181335970555933 -0.47167232718529989 0 -0.35979455825166368 -0.48519290092039941 0 -0.34342087683177741 -0.48669095008188618 0 -0.35741253101478748 -0.5 0 -0.35979455825166368 -0.48519290092039941 0 -0.34342087683177741 -0.48669095008188618 0 -0.33387795429423722 -0.5 0 -0.35741253101478748 -0.5 0 -0.38094710773533791 -0.49999999999999839 0 -0.35741253101478748 -0.5 0 -0.37240076261097882 -0.48974555046165519 0 -0.35741253101478748 -0.5 0 -0.35979455825166368 -0.48519290092039941 0 -0.37240076261097882 -0.48974555046165519 0 -0.35181335970555933 -0.47167232718529989 0 -0.35979455825166368 -0.48519290092039941 0 -0.37411677223754131 -0.47733161267270968 0 -0.35181335970555933 -0.47167232718529989 0 -0.37411677223754131 -0.47733161267270968 0 -0.37428706798929601 -0.46557084766945539 0 -0.35979455825166368 -0.48519290092039941 0 -0.37240076261097882 -0.48974555046165519 0 -0.37411677223754131 -0.47733161267270968 0 -0.37411677223754131 -0.47733161267270968 0 -0.37428706798929601 -0.46557084766945539 0 -0.35181335970555933 -0.47167232718529989 0 -0.37428706798929601 -0.46557084766945539 0 -0.35302422329502631 -0.44785824460859458 0 -0.35181335970555933 -0.47167232718529989 0 -0.37428706798929601 -0.46557084766945539 0 -0.33709504481289931 -0.46474263175187808 0 -0.35181335970555933 -0.47167232718529989 0 -0.35302422329502631 -0.44785824460859458 0 -0.37428706798929601 -0.46557084766945539 0 -0.35302422329502631 -0.44785824460859458 0 -0.37472313619600889 -0.43545561783144832 0 -0.37428706798929601 -0.46557084766945539 0 -0.37472313619600889 -0.43545561783144832 0 -0.35302422329502631 -0.44785824460859458 0 -0.37472313619600889 -0.43545561783144832 0 -0.36076670325611282 -0.42019275678090617 0 -0.37515920440272033 -0.40534038799344108 0 -0.37472313619600889 -0.43545561783144832 0 -0.36076670325611282 -0.42019275678090617 0 -0.37515920440272033 -0.40534038799344108 0 -0.36076670325611282 -0.42019275678090617 0 -0.35115835689997099 -0.40187837368579798 0 -0.37515920440272033 -0.40534038799344108 0 -0.37472313619600889 -0.43545561783144832 0 -0.36076670325611282 -0.42019275678090617 0 -0.35115835689997099 -0.40187837368579798 0 -0.34095461206840061 -0.42640878026434909 0 -0.34815033243380111 -0.40144447968524521 0 -0.35115835689997099 -0.40187837368579798 0 -0.34095461206840061 -0.42640878026434909 0 -0.35115835689997099 -0.40187837368579798 0 -0.34095461206840061 -0.42640878026434909 0 -0.35302422329502631 -0.44785824460859458 0 -0.36076670325611282 -0.42019275678090617 0 -0.34095461206840061 -0.42640878026434909 0 -0.37543310808941849 -0.38642437359143528 0 -0.36100598543278789 -0.37820409176948921 0 -0.35115835689997099 -0.40187837368579798 0 -0.37543310808941849 -0.38642437359143528 0 -0.37568304780698558 -0.36916333065311507 0 -0.36100598543278789 -0.37820409176948921 0 -0.37543310808941849 -0.38642437359143528 0 -0.36100598543278789 -0.37820409176948921 0 -0.37515920440272033 -0.40534038799344108 0 -0.37543310808941849 -0.38642437359143528 0 -0.35115835689997099 -0.40187837368579798 0 -0.37515920440272033 -0.40534038799344108 0 -0.35115835689997099 -0.40187837368579798 0 -0.35115835689997099 -0.40187837368579798 0 -0.34646966066369161 -0.38533898881774881 0 -0.34316085436749 -0.39382471367395527 0 -0.34815033243380111 -0.40144447968524521 0 -0.35115835689997099 -0.40187837368579798 0 -0.34316085436749 -0.39382471367395527 0 -0.34815033243380111 -0.40144447968524521 0 -0.35115835689997099 -0.40187837368579798 0 -0.33937201587241012 -0.36587749477948078 0 -0.36100598543278789 -0.37820409176948921 0 -0.34646966066369161 -0.38533898881774881 0 -0.36100598543278789 -0.37820409176948921 0 -0.35115835689997099 -0.40187837368579798 0 -0.36100598543278789 -0.37820409176948921 0 -0.35115835689997099 -0.40187837368579798 0 -0.34646966066369161 -0.38533898881774881 0 -0.33937201587241012 -0.36587749477948078 0 -0.32803705280137402 -0.37447550275240871 0 -0.34646966066369161 -0.38533898881774881 0 -0.32803705280137402 -0.37447550275240871 0 -0.34646966066369161 -0.38533898881774881 0 -0.32931529664348408 -0.38869437358142001 0 -0.34646966066369161 -0.38533898881774881 0 -0.32931529664348408 -0.38869437358142001 0 -0.34316085436749 -0.39382471367395527 0 -0.34815033243380111 -0.40144447968524521 0 -0.33486919938690762 -0.39884665705885908 0 -0.32944617452305069 -0.41182817437998842 0 -0.32931529664348408 -0.38869437358142001 0 -0.34316085436749 -0.39382471367395527 0 -0.33486919938690762 -0.39884665705885908 0 -0.32931529664348408 -0.38869437358142001 0 -0.33486919938690762 -0.39884665705885908 0 -0.32365381597648563 -0.39942827076698811 0 -0.34815033243380111 -0.40144447968524521 0 -0.34316085436749 -0.39382471367395527 0 -0.33486919938690762 -0.39884665705885908 0 -0.33486919938690762 -0.39884665705885908 0 -0.32365381597648563 -0.39942827076698811 0 -0.32944617452305069 -0.41182817437998842 0 -0.32931529664348408 -0.38869437358142001 0 -0.32365381597648563 -0.39942827076698811 0 -0.30988209993594379 -0.39542680479545339 0 -0.32365381597648563 -0.39942827076698811 0 -0.30595412674790001 -0.41636475829844438 0 -0.30988209993594379 -0.39542680479545339 0 -0.31381007312398762 -0.37448885129246268 0 -0.32931529664348408 -0.38869437358142001 0 -0.30988209993594379 -0.39542680479545339 0 -0.31381007312398762 -0.37448885129246268 0 -0.32803705280137402 -0.37447550275240871 0 -0.32931529664348408 -0.38869437358142001 0 -0.34095461206840061 -0.42640878026434909 0 -0.32944617452305069 -0.41182817437998842 0 -0.3206124180200437 -0.43193612962395289 0 -0.33075086723682939 -0.45093918684289991 0 -0.34095461206840061 -0.42640878026434909 0 -0.3206124180200437 -0.43193612962395289 0 -0.34815033243380111 -0.40144447968524521 0 -0.34095461206840061 -0.42640878026434909 0 -0.32944617452305069 -0.41182817437998842 0 -0.32944617452305069 -0.41182817437998842 0 -0.3206124180200437 -0.43193612962395289 0 -0.30595412674790001 -0.41636475829844438 0 -0.32365381597648563 -0.39942827076698811 0 -0.32944617452305069 -0.41182817437998842 0 -0.30595412674790001 -0.41636475829844438 0 -0.3206124180200437 -0.43193612962395289 0 -0.30595412674790001 -0.41636475829844438 0 -0.29602166034141808 -0.43748304283089118 0 -0.30595412674790001 -0.41636475829844438 0 -0.28680587137917263 -0.41476105187328532 0 -0.29502227998321778 -0.40112933436643161 0 -0.30595412674790001 -0.41636475829844438 0 -0.28680587137917263 -0.41476105187328532 0 -0.29602166034141808 -0.43748304283089118 0 -0.28680587137917263 -0.41476105187328532 0 -0.29602166034141808 -0.43748304283089118 0 -0.27149625348017281 -0.42637325053463759 0 -0.29602166034141808 -0.43748304283089118 0 -0.27149625348017281 -0.42637325053463759 0 -0.29602166034141808 -0.43748304283089118 0 -0.27149625348017281 -0.42637325053463759 0 -0.27906578537949278 -0.44687665772048962 0 -0.31381007312398762 -0.37448885129246268 0 -0.30988209993594379 -0.39542680479545339 0 -0.31381007312398762 -0.37448885129246268 0 -0.30988209993594379 -0.39542680479545339 0 -0.29196992941862432 -0.3825632544476108 0 -0.30595412674790001 -0.41636475829844438 0 -0.30988209993594379 -0.39542680479545339 0 -0.30595412674790001 -0.41636475829844438 0 -0.30988209993594379 -0.39542680479545339 0 -0.29502227998321778 -0.40112933436643161 0 -0.30988209993594379 -0.39542680479545339 0 -0.29502227998321778 -0.40112933436643161 0 -0.29196992941862432 -0.3825632544476108 0 -0.28680587137917263 -0.41476105187328532 0 -0.29502227998321778 -0.40112933436643161 0 -0.2806661672136338 -0.39648987600255969 0 -0.29502227998321778 -0.40112933436643161 0 -0.29196992941862432 -0.3825632544476108 0 -0.2806661672136338 -0.39648987600255969 0 -0.27675503022224163 -0.36681377825091099 0 -0.29196992941862432 -0.3825632544476108 0 -0.26924588117792803 -0.38334910629271668 0 -0.29196992941862432 -0.3825632544476108 0 -0.26924588117792803 -0.38334910629271668 0 -0.2806661672136338 -0.39648987600255969 0 -0.27675503022224163 -0.36681377825091099 0 -0.26924588117792803 -0.38334910629271668 0 -0.25812358553267323 -0.37605355791306738 0 -0.28680587137917263 -0.41476105187328532 0 -0.2806661672136338 -0.39648987600255969 0 -0.26326431180229581 -0.40282557300305732 0 -0.26924588117792803 -0.38334910629271668 0 -0.2806661672136338 -0.39648987600255969 0 -0.26326431180229581 -0.40282557300305732 0 -0.26326431180229581 -0.40282557300305732 0 -0.2504897110532438 -0.38524934403489181 0 -0.24394706363899241 -0.39877073912243299 0 -0.26326431180229581 -0.40282557300305732 0 -0.24697084661892749 -0.41526345823838401 0 -0.24394706363899241 -0.39877073912243299 0 -0.26924588117792803 -0.38334910629271668 0 -0.26326431180229581 -0.40282557300305732 0 -0.2504897110532438 -0.38524934403489181 0 -0.26924588117792803 -0.38334910629271668 0 -0.2504897110532438 -0.38524934403489181 0 -0.25812358553267323 -0.37605355791306738 0 -0.2504897110532438 -0.38524934403489181 0 -0.25812358553267323 -0.37605355791306738 0 -0.24839247009954951 -0.37292447016044328 0 -0.28680587137917263 -0.41476105187328532 0 -0.26326431180229581 -0.40282557300305732 0 -0.27149625348017281 -0.42637325053463759 0 -0.27149625348017281 -0.42637325053463759 0 -0.24697084661892749 -0.41526345823838401 0 -0.26326431180229581 -0.40282557300305732 0 -0.27149625348017281 -0.42637325053463759 0 -0.24697084661892749 -0.41526345823838401 0 -0.27149625348017281 -0.42637325053463759 0 -0.25687425522332558 -0.44642006451091643 0 -0.24697084661892749 -0.41526345823838401 0 -0.25687425522332558 -0.44642006451091643 0 -0.27607931301277078 -0.46657199895299017 0 -0.25409384940020791 -0.47271975939701871 0 -0.25687425522332558 -0.44642006451091643 0 -0.27607931301277078 -0.46657199895299017 0 -0.27906578537949278 -0.44687665772048962 0 -0.27149625348017281 -0.42637325053463759 0 -0.25687425522332558 -0.44642006451091643 0 -0.27906578537949278 -0.44687665772048962 0 -0.29602166034141808 -0.43748304283089118 0 -0.27906578537949278 -0.44687665772048962 0 -0.29968055871002541 -0.46203125713240301 0 -0.27607931301277078 -0.46657199895299017 0 -0.27906578537949278 -0.44687665772048962 0 -0.29968055871002541 -0.46203125713240301 0 -0.31571728338184601 -0.45752087103574601 0 -0.29968055871002541 -0.46203125713240301 0 -0.30706080135445341 -0.45057148265483188 0 -0.31571728338184601 -0.45752087103574601 0 -0.32054712240525829 -0.47546959342145068 0 -0.29968055871002541 -0.46203125713240301 0 -0.32054706720266329 -0.44859283512714471 0 -0.29602166034141808 -0.43748304283089118 0 -0.32054706720266329 -0.44859283512714471 0 -0.3206124180200437 -0.43193612962395289 0 -0.29602166034141808 -0.43748304283089118 0 -0.32054706720266329 -0.44859283512714471 0 -0.29602166034141808 -0.43748304283089118 0 -0.30706080135445341 -0.45057148265483188 0 -0.29602166034141808 -0.43748304283089118 0 -0.29968055871002541 -0.46203125713240301 0 -0.30706080135445341 -0.45057148265483188 0 -0.32054712240525829 -0.47546959342145068 0 -0.31034337757368669 -0.50000000000000133 0 -0.2941570887960146 -0.48201569375099518 0 -0.32054712240525829 -0.47546959342145068 0 -0.29968055871002541 -0.46203125713240301 0 -0.2941570887960146 -0.48201569375099518 0 -0.27607931301277078 -0.46657199895299017 0 -0.29968055871002541 -0.46203125713240301 0 -0.2941570887960146 -0.48201569375099518 0 -0.2941570887960146 -0.48201569375099518 0 -0.28248249767631262 -0.5 0 -0.27039562620846602 -0.48462576079096858 0 -0.31034337757368669 -0.50000000000000133 0 -0.2941570887960146 -0.48201569375099518 0 -0.28248249767631262 -0.5 0 -0.28248249767631262 -0.5 0 -0.27039562620846602 -0.48462576079096858 0 -0.25462161777893849 -0.5 0 -0.27607931301277078 -0.46657199895299017 0 -0.2941570887960146 -0.48201569375099518 0 -0.27039562620846602 -0.48462576079096858 0 -0.27607931301277078 -0.46657199895299017 0 -0.27039562620846602 -0.48462576079096858 0 -0.25409384940020791 -0.47271975939701871 0 -0.27039562620846602 -0.48462576079096858 0 -0.25409384940020791 -0.47271975939701871 0 -0.25462161777893849 -0.5 0 -0.25462161777893849 -0.5 0 -0.23155232774708009 -0.47932355884050398 0 -0.22676073788156451 -0.5 0 -0.25409384940020791 -0.47271975939701871 0 -0.25462161777893849 -0.5 0 -0.23155232774708009 -0.47932355884050398 0 -0.25409384940020791 -0.47271975939701871 0 -0.23155232774708009 -0.47932355884050398 0 -0.2350399564306665 -0.45937717328673289 0 -0.23155232774708009 -0.47932355884050398 0 -0.2350399564306665 -0.45937717328673289 0 -0.2080224731694312 -0.47403962225972662 0 -0.23155232774708009 -0.47932355884050398 0 -0.22676073788156451 -0.5 0 -0.2080224731694312 -0.47403962225972662 0 -0.25687425522332558 -0.44642006451091643 0 -0.2350399564306665 -0.45937717328673289 0 -0.23180750449586429 -0.4343742486430574 0 -0.25687425522332558 -0.44642006451091643 0 -0.25409384940020791 -0.47271975939701871 0 -0.2350399564306665 -0.45937717328673289 0 -0.2350399564306665 -0.45937717328673289 0 -0.21590660946663959 -0.44883644739355771 0 -0.2080224731694312 -0.47403962225972662 0 -0.2350399564306665 -0.45937717328673289 0 -0.21590660946663959 -0.44883644739355771 0 -0.23180750449586429 -0.4343742486430574 0 -0.21590660946663959 -0.44883644739355771 0 -0.1943898331460783 -0.4473597119794826 0 -0.20910912931781811 -0.42543372189632289 0 -0.21590660946663959 -0.44883644739355771 0 -0.1943898331460783 -0.4473597119794826 0 -0.2080224731694312 -0.47403962225972662 0 -0.1943898331460783 -0.4473597119794826 0 -0.2080224731694312 -0.47403962225972662 0 -0.17967053697433849 -0.46928570206264231 0 -0.22676073788156451 -0.5 0 -0.2080224731694312 -0.47403962225972662 0 -0.19889985798419041 -0.5 0 -0.2080224731694312 -0.47403962225972662 0 -0.1821948971586228 -0.48648437486529872 0 -0.17967053697433849 -0.46928570206264231 0 -0.2080224731694312 -0.47403962225972662 0 -0.19889985798419041 -0.5 0 -0.1821948971586228 -0.48648437486529872 0 -0.19889985798419041 -0.5 0 -0.1821948971586228 -0.48648437486529872 0 -0.17103897808681609 -0.49999999999999778 0 -0.1821948971586228 -0.48648437486529872 0 -0.17103897808681609 -0.49999999999999778 0 -0.16495124080259491 -0.49121169214579941 0 -0.17103897808681609 -0.49999999999999778 0 -0.16495124080259491 -0.49121169214579941 0 -0.17103897808681609 -0.49999999999999778 0 -0.16495124080259491 -0.49121169214579941 0 -0.15905149781887321 -0.49999999999999961 0 -0.16495124080259491 -0.49121169214579941 0 -0.15905149781887321 -0.49999999999999961 0 -0.1545750311736096 -0.49062041690426861 0 -0.16495124080259491 -0.49121169214579941 0 -0.15905149781887321 -0.49999999999999961 0 -0.16495124080259491 -0.49121169214579941 0 -0.16530166315622061 -0.47155300009798301 0 -0.17967053697433849 -0.46928570206264231 0 -0.16495124080259491 -0.49121169214579941 0 -0.16530166315622061 -0.47155300009798301 0 -0.15083103946930049 -0.47082765280793248 0 -0.16495124080259491 -0.49121169214579941 0 -0.1545750311736096 -0.49062041690426861 0 -0.15083103946930049 -0.47082765280793248 0 -0.16495124080259491 -0.49121169214579941 0 -0.15083103946930049 -0.47082765280793248 0 -0.16495124080259491 -0.49121169214579941 0 -0.17967053697433849 -0.46928570206264231 0 -0.1821948971586228 -0.48648437486529872 0 -0.16495124080259491 -0.49121169214579941 0 -0.17967053697433849 -0.46928570206264231 0 -0.1943898331460783 -0.4473597119794826 0 -0.17967053697433849 -0.46928570206264231 0 -0.1943898331460783 -0.4473597119794826 0 -0.17967053697433849 -0.46928570206264231 0 -0.1657538353786501 -0.45488695337555668 0 -0.1943898331460783 -0.4473597119794826 0 -0.1657538353786501 -0.45488695337555668 0 -0.1755027511393909 -0.43471579892562301 0 -0.1657538353786501 -0.45488695337555668 0 -0.15761868306950341 -0.43586407366366631 0 -0.1755027511393909 -0.43471579892562301 0 -0.16530166315622061 -0.47155300009798301 0 -0.1657538353786501 -0.45488695337555668 0 -0.15083103946930049 -0.47082765280793248 0 -0.16530166315622061 -0.47155300009798301 0 -0.17967053697433849 -0.46928570206264231 0 -0.1657538353786501 -0.45488695337555668 0 -0.13671083813600751 -0.45044361347006462 0 -0.15083103946930049 -0.47082765280793248 0 -0.13671083813600751 -0.45044361347006462 0 -0.13441782301728619 -0.47175980973682791 0 -0.15083103946930049 -0.47082765280793248 0 -0.1657538353786501 -0.45488695337555668 0 -0.13671083813600751 -0.45044361347006462 0 -0.15083103946930049 -0.47082765280793248 0 -0.13671083813600751 -0.45044361347006462 0 -0.13816776916695811 -0.432543871779144 0 -0.15761868306950341 -0.43586407366366631 0 -0.1657538353786501 -0.45488695337555668 0 -0.13671083813600751 -0.45044361347006462 0 -0.15761868306950341 -0.43586407366366631 0 -0.13671083813600751 -0.45044361347006462 0 -0.13816776916695811 -0.432543871779144 0 -0.1225906368027144 -0.43005957413219659 0 -0.13671083813600751 -0.45044361347006462 0 -0.1225906368027144 -0.43005957413219659 0 -0.13671083813600751 -0.45044361347006462 0 -0.13441782301728619 -0.47175980973682791 0 -0.1201929706126502 -0.46127799294672761 0 -0.13441782301728619 -0.47175980973682791 0 -0.12605423818426559 -0.48707922202292669 0 -0.14429533434837091 -0.48908967660720287 0 -0.13441782301728619 -0.47175980973682791 0 -0.12605423818426559 -0.48707922202292669 0 -0.1201929706126502 -0.46127799294672761 0 -0.1295391708778694 -0.5 0 -0.12605423818426559 -0.48707922202292669 0 -0.14429533434837091 -0.48908967660720287 0 -0.15905149781887321 -0.49999999999999961 0 -0.1295391708778694 -0.5 0 -0.14429533434837091 -0.48908967660720287 0 -0.15905149781887321 -0.49999999999999961 0 -0.14429533434837091 -0.48908967660720287 0 -0.1545750311736096 -0.49062041690426861 0 -0.14429533434837091 -0.48908967660720287 0 -0.1545750311736096 -0.49062041690426861 0 -0.15083103946930049 -0.47082765280793248 0 -0.13441782301728619 -0.47175980973682791 0 -0.14429533434837091 -0.48908967660720287 0 -0.15083103946930049 -0.47082765280793248 0 -0.15345949684661231 -0.4053237642064671 0 -0.15136585988972451 -0.39002590355483568 0 -0.13982663417143551 -0.39933000433158738 0 -0.15136585988972451 -0.39002590355483568 0 -0.1368738238800834 -0.3880397179408614 0 -0.13982663417143551 -0.39933000433158738 0 -0.15345949684661231 -0.4053237642064671 0 -0.13982663417143551 -0.39933000433158738 0 -0.1398029654186671 -0.41064466143528439 0 -0.15136585988972451 -0.39002590355483568 0 -0.1368738238800834 -0.3880397179408614 0 -0.13959568407155781 -0.37291875636350952 0 -0.15136585988972451 -0.39002590355483568 0 -0.15951650330528561 -0.37856285477961621 0 -0.13959568407155781 -0.37291875636350952 0 -0.1368738238800834 -0.3880397179408614 0 -0.12625141541498519 -0.38197991289387551 0 -0.13959568407155781 -0.37291875636350952 0 -0.1368738238800834 -0.3880397179408614 0 -0.12625141541498519 -0.38197991289387551 0 -0.1273295258527142 -0.39594401256049883 0 -0.1368738238800834 -0.3880397179408614 0 -0.1273295258527142 -0.39594401256049883 0 -0.13982663417143551 -0.39933000433158738 0 -0.13982663417143551 -0.39933000433158738 0 -0.1295768038857959 -0.40463739140698729 0 -0.1398029654186671 -0.41064466143528439 0 -0.1273295258527142 -0.39594401256049883 0 -0.13982663417143551 -0.39933000433158738 0 -0.1295768038857959 -0.40463739140698729 0 -0.1273295258527142 -0.39594401256049883 0 -0.1295768038857959 -0.40463739140698729 0 -0.1219584454402414 -0.40406961642135292 0 -0.1295768038857959 -0.40463739140698729 0 -0.1296119374269841 -0.41417592727859581 0 -0.1225700411049412 -0.40994677461386392 0 -0.1296119374269841 -0.41417592727859581 0 -0.12315425937001 -0.41747458531602638 0 -0.1225700411049412 -0.40994677461386392 0 -0.1296119374269841 -0.41417592727859581 0 -0.13713184062407599 -0.42036644340313623 0 -0.12908399078123631 -0.42243277819987513 0 -0.1296119374269841 -0.41417592727859581 0 -0.12908399078123631 -0.42243277819987513 0 -0.12315425937001 -0.41747458531602638 0 -0.1296119374269841 -0.41417592727859581 0 -0.13713184062407599 -0.42036644340313623 0 -0.1398029654186671 -0.41064466143528439 0 -0.1295768038857959 -0.40463739140698729 0 -0.1296119374269841 -0.41417592727859581 0 -0.1398029654186671 -0.41064466143528439 0 -0.12908399078123631 -0.42243277819987513 0 -0.13816776916695811 -0.432543871779144 0 -0.1225906368027144 -0.43005957413219659 0 -0.13713184062407599 -0.42036644340313623 0 -0.12908399078123631 -0.42243277819987513 0 -0.13816776916695811 -0.432543871779144 0 -0.13816776916695811 -0.432543871779144 0 -0.14921107955709881 -0.42003443798493328 0 -0.15761868306950341 -0.43586407366366631 0 -0.13713184062407599 -0.42036644340313623 0 -0.13816776916695811 -0.432543871779144 0 -0.14921107955709881 -0.42003443798493328 0 -0.15345949684661231 -0.4053237642064671 0 -0.1398029654186671 -0.41064466143528439 0 -0.14921107955709881 -0.42003443798493328 0 -0.13713184062407599 -0.42036644340313623 0 -0.1398029654186671 -0.41064466143528439 0 -0.14921107955709881 -0.42003443798493328 0 -0.15345949684661231 -0.4053237642064671 0 -0.14921107955709881 -0.42003443798493328 0 -0.17009787391258249 -0.41611158199907422 0 -0.14921107955709881 -0.42003443798493328 0 -0.17009787391258249 -0.41611158199907422 0 -0.15761868306950341 -0.43586407366366631 0 -0.17009787391258249 -0.41611158199907422 0 -0.15761868306950341 -0.43586407366366631 0 -0.1755027511393909 -0.43471579892562301 0 -0.1943898331460783 -0.4473597119794826 0 -0.1755027511393909 -0.43471579892562301 0 -0.18951413900105801 -0.42212105940109063 0 -0.17009787391258249 -0.41611158199907422 0 -0.1755027511393909 -0.43471579892562301 0 -0.18951413900105801 -0.42212105940109063 0 -0.17009787391258249 -0.41611158199907422 0 -0.18562609472684241 -0.40161550393767448 0 -0.18951413900105801 -0.42212105940109063 0 -0.18562609472684241 -0.40161550393767448 0 -0.16863204450281991 -0.39380366607865908 0 -0.18254917963999329 -0.38971973427100182 0 -0.17009787391258249 -0.41611158199907422 0 -0.18562609472684241 -0.40161550393767448 0 -0.16863204450281991 -0.39380366607865908 0 -0.18562609472684241 -0.40161550393767448 0 -0.18254917963999329 -0.38971973427100182 0 -0.19364364155811911 -0.391297223908462 0 -0.15345949684661231 -0.4053237642064671 0 -0.17009787391258249 -0.41611158199907422 0 -0.16863204450281991 -0.39380366607865908 0 -0.15345949684661231 -0.4053237642064671 0 -0.15136585988972451 -0.39002590355483568 0 -0.16863204450281991 -0.39380366607865908 0 -0.15951650330528561 -0.37856285477961621 0 -0.17625218554490921 -0.38180729220612769 0 -0.1663610822414904 -0.3702523776444529 0 -0.16863204450281991 -0.39380366607865908 0 -0.15951650330528561 -0.37856285477961621 0 -0.17625218554490921 -0.38180729220612769 0 -0.15136585988972451 -0.39002590355483568 0 -0.16863204450281991 -0.39380366607865908 0 -0.15951650330528561 -0.37856285477961621 0 -0.17625218554490921 -0.38180729220612769 0 -0.1663610822414904 -0.3702523776444529 0 -0.18579747934449059 -0.37379744869579251 0 -0.16863204450281991 -0.39380366607865908 0 -0.17625218554490921 -0.38180729220612769 0 -0.18254917963999329 -0.38971973427100182 0 -0.17625218554490921 -0.38180729220612769 0 -0.18254917963999329 -0.38971973427100182 0 -0.18859193186727599 -0.38007498522408562 0 -0.17625218554490921 -0.38180729220612769 0 -0.18859193186727599 -0.38007498522408562 0 -0.18579747934449059 -0.37379744869579251 0 -0.18859193186727599 -0.38007498522408562 0 -0.2014200033848125 -0.37119512976538899 0 -0.18859193186727599 -0.38007498522408562 0 -0.2014200033848125 -0.37119512976538899 0 -0.18579747934449059 -0.37379744869579251 0 -0.18859193186727599 -0.38007498522408562 0 -0.1989719328316337 -0.38216032023399737 0 -0.2014200033848125 -0.37119512976538899 0 -0.1989719328316337 -0.38216032023399737 0 -0.20694960464083431 -0.38128159833907621 0 -0.2014200033848125 -0.37119512976538899 0 -0.1989719328316337 -0.38216032023399737 0 -0.19364364155811911 -0.391297223908462 0 -0.20620014074293039 -0.39180645285032889 0 -0.18859193186727599 -0.38007498522408562 0 -0.1989719328316337 -0.38216032023399737 0 -0.19364364155811911 -0.391297223908462 0 -0.18254917963999329 -0.38971973427100182 0 -0.18859193186727599 -0.38007498522408562 0 -0.19364364155811911 -0.391297223908462 0 -0.18562609472684241 -0.40161550393767448 0 -0.19364364155811911 -0.391297223908462 0 -0.20208872018367391 -0.4070926974887904 0 -0.19364364155811911 -0.391297223908462 0 -0.20620014074293039 -0.39180645285032889 0 -0.20208872018367391 -0.4070926974887904 0 -0.20620014074293039 -0.39180645285032889 0 -0.21479853281951461 -0.38638530273916921 0 -0.22382842548955789 -0.4035077318131633 0 -0.20620014074293039 -0.39180645285032889 0 -0.20208872018367391 -0.4070926974887904 0 -0.22382842548955789 -0.4035077318131633 0 -0.21479853281951461 -0.38638530273916921 0 -0.20694960464083431 -0.38128159833907621 0 -0.21335741342528061 -0.3748607861064962 0 -0.21479853281951461 -0.38638530273916921 0 -0.22412886374227589 -0.38235217247817599 0 -0.21335741342528061 -0.3748607861064962 0 -0.20694960464083431 -0.38128159833907621 0 -0.2014200033848125 -0.37119512976538899 0 -0.21335741342528061 -0.3748607861064962 0 -0.20620014074293039 -0.39180645285032889 0 -0.21479853281951461 -0.38638530273916921 0 -0.20694960464083431 -0.38128159833907621 0 -0.1989719328316337 -0.38216032023399737 0 -0.20620014074293039 -0.39180645285032889 0 -0.20694960464083431 -0.38128159833907621 0 -0.1943898331460783 -0.4473597119794826 0 -0.20910912931781811 -0.42543372189632289 0 -0.1943898331460783 -0.4473597119794826 0 -0.18951413900105801 -0.42212105940109063 0 -0.20910912931781811 -0.42543372189632289 0 -0.18951413900105801 -0.42212105940109063 0 -0.20208872018367391 -0.4070926974887904 0 -0.20910912931781811 -0.42543372189632289 0 -0.18562609472684241 -0.40161550393767448 0 -0.18951413900105801 -0.42212105940109063 0 -0.20208872018367391 -0.4070926974887904 0 -0.20208872018367391 -0.4070926974887904 0 -0.20910912931781811 -0.42543372189632289 0 -0.22382842548955789 -0.4035077318131633 0 -0.20910912931781811 -0.42543372189632289 0 -0.22382842548955789 -0.4035077318131633 0 -0.21590660946663959 -0.44883644739355771 0 -0.20910912931781811 -0.42543372189632289 0 -0.23180750449586429 -0.4343742486430574 0 -0.20910912931781811 -0.42543372189632289 0 -0.23180750449586429 -0.4343742486430574 0 -0.22382842548955789 -0.4035077318131633 0 -0.23180750449586429 -0.4343742486430574 0 -0.24697084661892749 -0.41526345823838401 0 -0.22382842548955789 -0.4035077318131633 0 -0.25687425522332558 -0.44642006451091643 0 -0.23180750449586429 -0.4343742486430574 0 -0.24697084661892749 -0.41526345823838401 0 -0.22412886374227589 -0.38235217247817599 0 -0.2351820232309369 -0.38700758852266848 0 -0.22952037500089251 -0.37311519752493849 0 -0.22412886374227589 -0.38235217247817599 0 -0.22186900287429051 -0.37074082218821958 0 -0.21335741342528061 -0.3748607861064962 0 -0.22412886374227589 -0.38235217247817599 0 -0.22952037500089251 -0.37311519752493849 0 -0.22186900287429051 -0.37074082218821958 0 -0.22382842548955789 -0.4035077318131633 0 -0.24394706363899241 -0.39877073912243299 0 -0.2351820232309369 -0.38700758852266848 0 -0.21479853281951461 -0.38638530273916921 0 -0.22412886374227589 -0.38235217247817599 0 -0.22382842548955789 -0.4035077318131633 0 -0.22412886374227589 -0.38235217247817599 0 -0.22382842548955789 -0.4035077318131633 0 -0.2351820232309369 -0.38700758852266848 0 -0.24697084661892749 -0.41526345823838401 0 -0.22382842548955789 -0.4035077318131633 0 -0.24394706363899241 -0.39877073912243299 0 -0.2504897110532438 -0.38524934403489181 0 -0.24394706363899241 -0.39877073912243299 0 -0.2351820232309369 -0.38700758852266848 0 -0.2504897110532438 -0.38524934403489181 0 -0.2351820232309369 -0.38700758852266848 0 -0.24036284435674521 -0.37772398595485779 0 -0.2351820232309369 -0.38700758852266848 0 -0.24036284435674521 -0.37772398595485779 0 -0.22952037500089251 -0.37311519752493849 0 -0.2504897110532438 -0.38524934403489181 0 -0.24036284435674521 -0.37772398595485779 0 -0.24839247009954951 -0.37292447016044328 0 -0.24839247009954951 -0.37292447016044328 0 -0.24532753696728959 -0.36501789644951049 0 -0.23861636880082099 -0.36955921174380651 0 -0.24036284435674521 -0.37772398595485779 0 -0.24839247009954951 -0.37292447016044328 0 -0.23861636880082099 -0.36955921174380651 0 -0.25757508569408222 -0.36424633604315798 0 -0.24532753696728959 -0.36501789644951049 0 -0.24650166737573331 -0.3569693529562265 0 -0.24532753696728959 -0.36501789644951049 0 -0.24234943749700691 -0.36154613291017651 0 -0.24650166737573331 -0.3569693529562265 0 -0.24532753696728959 -0.36501789644951049 0 -0.24234943749700691 -0.36154613291017651 0 -0.23928568589256061 -0.36455139619594779 0 -0.24234943749700691 -0.36154613291017651 0 -0.23928568589256061 -0.36455139619594779 0 -0.23696933381926599 -0.3585493042599866 0 -0.24532753696728959 -0.36501789644951049 0 -0.23928568589256061 -0.36455139619594779 0 -0.23861636880082099 -0.36955921174380651 0 -0.23928568589256061 -0.36455139619594779 0 -0.23861636880082099 -0.36955921174380651 0 -0.23345080570298909 -0.36409891217005902 0 -0.23928568589256061 -0.36455139619594779 0 -0.23345080570298909 -0.36409891217005902 0 -0.23696933381926599 -0.3585493042599866 0 -0.24036284435674521 -0.37772398595485779 0 -0.23861636880082099 -0.36955921174380651 0 -0.22952037500089251 -0.37311519752493849 0 -0.23345080570298909 -0.36409891217005902 0 -0.22186900287429051 -0.37074082218821958 0 -0.21424807490234879 -0.36231527430669241 0 -0.22952037500089251 -0.37311519752493849 0 -0.23345080570298909 -0.36409891217005902 0 -0.22186900287429051 -0.37074082218821958 0 -0.23696933381926599 -0.3585493042599866 0 -0.21424807490234879 -0.36231527430669241 0 -0.23861636880082099 -0.36955921174380651 0 -0.22952037500089251 -0.37311519752493849 0 -0.23345080570298909 -0.36409891217005902 0 -0.23345080570298909 -0.36409891217005902 0 -0.23696933381926599 -0.3585493042599866 0 -0.21424807490234879 -0.36231527430669241 0 -0.22913587473404851 -0.35200963246311751 0 -0.2097464541822805 -0.33582260124732738 0 -0.22913587473404851 -0.35200963246311751 0 -0.23696933381926599 -0.3585493042599866 0 -0.21424807490234879 -0.36231527430669241 0 -0.22913587473404851 -0.35200963246311751 0 -0.21998707993494029 -0.33959044394559312 0 -0.22913587473404851 -0.35200963246311751 0 -0.21424807490234879 -0.36231527430669241 0 -0.22913587473404851 -0.35200963246311751 0 -0.23696933381926599 -0.3585493042599866 0 -0.22913587473404851 -0.35200963246311751 0 -0.24881121389389799 -0.33838995723746451 0 -0.22913587473404851 -0.35200963246311751 0 -0.23696933381926599 -0.3585493042599866 0 -0.24650166737573331 -0.3569693529562265 0 -0.22913587473404851 -0.35200963246311751 0 -0.24650166737573331 -0.3569693529562265 0 -0.24881121389389799 -0.33838995723746451 0 -0.23696933381926599 -0.3585493042599866 0 -0.24650166737573331 -0.3569693529562265 0 -0.24234943749700691 -0.36154613291017651 0 -0.23696933381926599 -0.3585493042599866 0 -0.24650166737573331 -0.3569693529562265 0 -0.22913587473404851 -0.35200963246311751 0 -0.24881121389389799 -0.33838995723746451 0 -0.2325545649384867 -0.33453283978227571 0 -0.24881121389389799 -0.33838995723746451 0 -0.2441082332202735 -0.32380704628422963 0 -0.2325545649384867 -0.33453283978227571 0 -0.23613058105125781 -0.31890710479075163 0 -0.2279063026952847 -0.3135077128279592 0 -0.2444966906846206 -0.31181945912301329 0 -0.2441082332202735 -0.32380704628422963 0 -0.23498207165859719 -0.32537142019391418 0 -0.23613058105125781 -0.31890710479075163 0 -0.2441082332202735 -0.32380704628422963 0 -0.23498207165859719 -0.32537142019391418 0 -0.2325545649384867 -0.33453283978227571 0 -0.2441082332202735 -0.32380704628422963 0 -0.23613058105125781 -0.31890710479075163 0 -0.2444966906846206 -0.31181945912301329 0 -0.2279063026952847 -0.3135077128279592 0 -0.2193464910840433 -0.31976030368968739 0 -0.21134622408423179 -0.310554889255794 0 -0.23613058105125781 -0.31890710479075163 0 -0.2279063026952847 -0.3135077128279592 0 -0.22829430606921119 -0.32293804105388452 0 -0.23498207165859719 -0.32537142019391418 0 -0.22829430606921119 -0.32293804105388452 0 -0.2325545649384867 -0.33453283978227571 0 -0.23498207165859719 -0.32537142019391418 0 -0.23613058105125781 -0.31890710479075163 0 -0.22829430606921119 -0.32293804105388452 0 -0.22829430606921119 -0.32293804105388452 0 -0.2193464910840433 -0.31976030368968739 0 -0.22209033975117781 -0.32887735541776358 0 -0.2279063026952847 -0.3135077128279592 0 -0.22829430606921119 -0.32293804105388452 0 -0.2193464910840433 -0.31976030368968739 0 -0.22913587473404851 -0.35200963246311751 0 -0.2325545649384867 -0.33453283978227571 0 -0.21998707993494029 -0.33959044394559312 0 -0.22913587473404851 -0.35200963246311751 0 -0.21998707993494029 -0.33959044394559312 0 -0.2097464541822805 -0.33582260124732738 0 -0.22829430606921119 -0.32293804105388452 0 -0.2325545649384867 -0.33453283978227571 0 -0.22209033975117781 -0.32887735541776358 0 -0.2325545649384867 -0.33453283978227571 0 -0.22209033975117781 -0.32887735541776358 0 -0.21998707993494029 -0.33959044394559312 0 -0.21998707993494029 -0.33959044394559312 0 -0.21026925672920721 -0.32756514861737779 0 -0.22209033975117781 -0.32887735541776358 0 -0.21998707993494029 -0.33959044394559312 0 -0.21026925672920721 -0.32756514861737779 0 -0.21998707993494029 -0.33959044394559312 0 -0.2097464541822805 -0.33582260124732738 0 -0.21026925672920721 -0.32756514861737779 0 -0.2097464541822805 -0.33582260124732738 0 -0.21026925672920721 -0.32756514861737779 0 -0.21026925672920721 -0.32756514861737779 0 -0.21134622408423179 -0.310554889255794 0 -0.19267178705524021 -0.30578920503631912 0 -0.21026925672920721 -0.32756514861737779 0 -0.21134622408423179 -0.310554889255794 0 -0.2097464541822805 -0.33582260124732738 0 -0.21026925672920721 -0.32756514861737779 0 -0.19254159852174429 -0.31996122112867409 0 -0.2193464910840433 -0.31976030368968739 0 -0.21026925672920721 -0.32756514861737779 0 -0.21134622408423179 -0.310554889255794 0 -0.2193464910840433 -0.31976030368968739 0 -0.22209033975117781 -0.32887735541776358 0 -0.21026925672920721 -0.32756514861737779 0 -0.2097464541822805 -0.33582260124732738 0 -0.1943588054861482 -0.32297640251143073 0 -0.19254159852174429 -0.31996122112867409 0 -0.21026925672920721 -0.32756514861737779 0 -0.19267178705524021 -0.30578920503631912 0 -0.21026925672920721 -0.32756514861737779 0 -0.19254159852174429 -0.31996122112867409 0 -0.19267178705524021 -0.30578920503631912 0 -0.2097464541822805 -0.33582260124732738 0 -0.19254159852174429 -0.31996122112867409 0 -0.1943588054861482 -0.32297640251143073 0 -0.18737083868624629 -0.33075534874643497 0 -0.18479650728396149 -0.32227615663527998 0 -0.1943588054861482 -0.32297640251143073 0 -0.19254159852174429 -0.31996122112867409 0 -0.1789711567900161 -0.3101302037755338 0 -0.2097464541822805 -0.33582260124732738 0 -0.19466829689393059 -0.33824472710720138 0 -0.19565175395430129 -0.3512554891803924 0 -0.2097464541822805 -0.33582260124732738 0 -0.1943588054861482 -0.32297640251143073 0 -0.19466829689393059 -0.33824472710720138 0 -0.2097464541822805 -0.33582260124732738 0 -0.1943588054861482 -0.32297640251143073 0 -0.1943588054861482 -0.32297640251143073 0 -0.19466829689393059 -0.33824472710720138 0 -0.18737083868624629 -0.33075534874643497 0 -0.19466829689393059 -0.33824472710720138 0 -0.18164424501215659 -0.34621916084723381 0 -0.18737083868624629 -0.33075534874643497 0 -0.19466829689393059 -0.33824472710720138 0 -0.19565175395430129 -0.3512554891803924 0 -0.18164424501215659 -0.34621916084723381 0 -0.20800359978069241 -0.36335027445133922 0 -0.18480326185087809 -0.36719565018674682 0 -0.19565175395430129 -0.3512554891803924 0 -0.20800359978069241 -0.36335027445133922 0 -0.18480326185087809 -0.36719565018674682 0 -0.2014200033848125 -0.37119512976538899 0 -0.18480326185087809 -0.36719565018674682 0 -0.18579747934449059 -0.37379744869579251 0 -0.2014200033848125 -0.37119512976538899 0 -0.20800359978069241 -0.36335027445133922 0 -0.18480326185087809 -0.36719565018674682 0 -0.2014200033848125 -0.37119512976538899 0 -0.20800359978069241 -0.36335027445133922 0 -0.20803809997708481 -0.36661394692190907 0 -0.20800359978069241 -0.36335027445133922 0 -0.20803809997708481 -0.36661394692190907 0 -0.21424807490234879 -0.36231527430669241 0 -0.20800359978069241 -0.36335027445133922 0 -0.20803809997708481 -0.36661394692190907 0 -0.2014200033848125 -0.37119512976538899 0 -0.20803809997708481 -0.36661394692190907 0 -0.21335741342528061 -0.3748607861064962 0 -0.2014200033848125 -0.37119512976538899 0 -0.20803809997708481 -0.36661394692190907 0 -0.20803809997708481 -0.36661394692190907 0 -0.21335741342528061 -0.3748607861064962 0 -0.21424807490234879 -0.36231527430669241 0 -0.22186900287429051 -0.37074082218821958 0 -0.21335741342528061 -0.3748607861064962 0 -0.21424807490234879 -0.36231527430669241 0 -0.20800359978069241 -0.36335027445133922 0 -0.21424807490234879 -0.36231527430669241 0 -0.20803809997708481 -0.36661394692190907 0 -0.21424807490234879 -0.36231527430669241 0 -0.2097464541822805 -0.33582260124732738 0 -0.19565175395430129 -0.3512554891803924 0 -0.20800359978069241 -0.36335027445133922 0 -0.2097464541822805 -0.33582260124732738 0 -0.20800359978069241 -0.36335027445133922 0 -0.2097464541822805 -0.33582260124732738 0 -0.20800359978069241 -0.36335027445133922 0 -0.21424807490234879 -0.36231527430669241 0 -0.22913587473404851 -0.35200963246311751 0 -0.2097464541822805 -0.33582260124732738 0 -0.21424807490234879 -0.36231527430669241 0 -0.2335542019388327 -0.26090262277066528 0 -0.21472073189145299 -0.25725591714607071 0 -0.22837296648480071 -0.23789375384220129 0 -0.2335542019388327 -0.26090262277066528 0 -0.21357196166535461 -0.27540027352014051 0 -0.21472073189145299 -0.25725591714607071 0 -0.25298377122075039 -0.27518622721876451 0 -0.2335542019388327 -0.26090262277066528 0 -0.25431856302814809 -0.24833495949118861 0 -0.25298377122075039 -0.27518622721876451 0 -0.2335542019388327 -0.26090262277066528 0 -0.23093648268818689 -0.28342115129973 0 -0.2335542019388327 -0.26090262277066528 0 -0.23093648268818689 -0.28342115129973 0 -0.21357196166535461 -0.27540027352014051 0 -0.23093648268818689 -0.28342115129973 0 -0.21242319143925911 -0.29354462989421048 0 -0.21357196166535461 -0.27540027352014051 0 -0.23093648268818689 -0.28342115129973 0 -0.2435111179254994 -0.29490773243705071 0 -0.2284599410619414 -0.30268204450860919 0 -0.23093648268818689 -0.28342115129973 0 -0.2284599410619414 -0.30268204450860919 0 -0.21242319143925911 -0.29354462989421048 0 -0.25298377122075039 -0.27518622721876451 0 -0.23093648268818689 -0.28342115129973 0 -0.2435111179254994 -0.29490773243705071 0 -0.2444966906846206 -0.31181945912301329 0 -0.2284599410619414 -0.30268204450860919 0 -0.2435111179254994 -0.29490773243705071 0 -0.2444966906846206 -0.31181945912301329 0 -0.2284599410619414 -0.30268204450860919 0 -0.26057201890547982 -0.29344093798311832 0 -0.2435111179254994 -0.29490773243705071 0 -0.2444966906846206 -0.31181945912301329 0 -0.2279063026952847 -0.3135077128279592 0 -0.2444966906846206 -0.31181945912301329 0 -0.2284599410619414 -0.30268204450860919 0 -0.2284599410619414 -0.30268204450860919 0 -0.21242319143925911 -0.29354462989421048 0 -0.2279063026952847 -0.3135077128279592 0 -0.2284599410619414 -0.30268204450860919 0 -0.21134622408423179 -0.310554889255794 0 -0.2284599410619414 -0.30268204450860919 0 -0.21134622408423179 -0.310554889255794 0 -0.21242319143925911 -0.29354462989421048 0 -0.21134622408423179 -0.310554889255794 0 -0.19267178705524021 -0.30578920503631912 0 -0.21242319143925911 -0.29354462989421048 0 -0.21134622408423179 -0.310554889255794 0 -0.21242319143925911 -0.29354462989421048 0 -0.19267178705524021 -0.30578920503631912 0 -0.19410774352861071 -0.2831088592208712 0 -0.21242319143925911 -0.29354462989421048 0 -0.19410774352861071 -0.2831088592208712 0 -0.21242319143925911 -0.29354462989421048 0 -0.21357196166535461 -0.27540027352014051 0 -0.19410774352861071 -0.2831088592208712 0 -0.21242319143925911 -0.29354462989421048 0 -0.21242319143925911 -0.29354462989421048 0 -0.21357196166535461 -0.27540027352014051 0 -0.21357196166535461 -0.27540027352014051 0 -0.21472073189145299 -0.25725591714607071 0 -0.19410774352861071 -0.2831088592208712 0 -0.21357196166535461 -0.27540027352014051 0 -0.1965391795889786 -0.26204425282134669 0 -0.19410774352861071 -0.2831088592208712 0 -0.1965391795889786 -0.26204425282134669 0 -0.17579229561796161 -0.27267308854753308 0 -0.1965391795889786 -0.26204425282134669 0 -0.20565562739327201 -0.24334207984173631 0 -0.18863044441395099 -0.24733650333174401 0 -0.1965391795889786 -0.26204425282134669 0 -0.18340152769721799 -0.25642831405215172 0 -0.18863044441395099 -0.24733650333174401 0 -0.1965391795889786 -0.26204425282134669 0 -0.21472073189145299 -0.25725591714607071 0 -0.20565562739327201 -0.24334207984173631 0 -0.21357196166535461 -0.27540027352014051 0 -0.1965391795889786 -0.26204425282134669 0 -0.21472073189145299 -0.25725591714607071 0 -0.15747684770731041 -0.26223731787419863 0 -0.16344648285301799 -0.25937253054906129 0 -0.17579229561796161 -0.27267308854753308 0 -0.1593809120407062 -0.25278805690175971 0 -0.16344648285301799 -0.25937253054906129 0 -0.1534429259631987 -0.25724555178864622 0 -0.1593809120407062 -0.25278805690175971 0 -0.16344648285301799 -0.25937253054906129 0 -0.16709258238786229 -0.25188408856254202 0 -0.1593809120407062 -0.25278805690175971 0 -0.16709258238786229 -0.25188408856254202 0 -0.1601832428566283 -0.24550858739866141 0 -0.15747684770731041 -0.26223731787419863 0 -0.16344648285301799 -0.25937253054906129 0 -0.1534429259631987 -0.25724555178864622 0 -0.16344648285301799 -0.25937253054906129 0 -0.1534429259631987 -0.25724555178864622 0 -0.16344648285301799 -0.25937253054906129 0 -0.17379217291466831 -0.25992581321180469 0 -0.17579229561796161 -0.27267308854753308 0 -0.16344648285301799 -0.25937253054906129 0 -0.16709258238786229 -0.25188408856254202 0 -0.17379217291466831 -0.25992581321180469 0 -0.16709258238786229 -0.25188408856254202 0 -0.17679077873490559 -0.25046109420941731 0 -0.17379217291466831 -0.25992581321180469 0 -0.1965391795889786 -0.26204425282134669 0 -0.18340152769721799 -0.25642831405215172 0 -0.17579229561796161 -0.27267308854753308 0 -0.17679077873490559 -0.25046109420941731 0 -0.18340152769721799 -0.25642831405215172 0 -0.17379217291466831 -0.25992581321180469 0 -0.18340152769721799 -0.25642831405215172 0 -0.17379217291466831 -0.25992581321180469 0 -0.17579229561796161 -0.27267308854753308 0 -0.17679077873490559 -0.25046109420941731 0 -0.18340152769721799 -0.25642831405215172 0 -0.18863044441395099 -0.24733650333174401 0 -0.19410774352861071 -0.2831088592208712 0 -0.17579229561796161 -0.27267308854753308 0 -0.17507431738127369 -0.28401326145526029 0 -0.19410774352861071 -0.2831088592208712 0 -0.17579229561796161 -0.27267308854753308 0 -0.15747684770731041 -0.26223731787419863 0 -0.17507431738127369 -0.28401326145526029 0 -0.15747684770731041 -0.26223731787419863 0 -0.17579229561796161 -0.27267308854753308 0 -0.15747684770731041 -0.26223731787419863 0 -0.17579229561796161 -0.27267308854753308 0 -0.17507431738127369 -0.28401326145526029 0 -0.15747684770731041 -0.26223731787419863 0 -0.1596399504195592 -0.27820623095404468 0 -0.17507431738127369 -0.28401326145526029 0 -0.1596399504195592 -0.27820623095404468 0 -0.1624028041075358 -0.29248408411088062 0 -0.1494793968803598 -0.28070198605355251 0 -0.1624028041075358 -0.29248408411088062 0 -0.15973767967650701 -0.30493196891575292 0 -0.15108397830665751 -0.29236825921418419 0 -0.1624028041075358 -0.29248408411088062 0 -0.17507431738127369 -0.28401326145526029 0 -0.17391538329452061 -0.29489800819007239 0 -0.1596399504195592 -0.27820623095404468 0 -0.1624028041075358 -0.29248408411088062 0 -0.17507431738127369 -0.28401326145526029 0 -0.19267178705524021 -0.30578920503631912 0 -0.19410774352861071 -0.2831088592208712 0 -0.17507431738127369 -0.28401326145526029 0 -0.19267178705524021 -0.30578920503631912 0 -0.17507431738127369 -0.28401326145526029 0 -0.17391538329452061 -0.29489800819007239 0 -0.19267178705524021 -0.30578920503631912 0 -0.17507431738127369 -0.28401326145526029 0 -0.17391538329452061 -0.29489800819007239 0 -0.17532621133471249 -0.30426618216820789 0 -0.19254159852174429 -0.31996122112867409 0 -0.19267178705524021 -0.30578920503631912 0 -0.17532621133471249 -0.30426618216820789 0 -0.19267178705524021 -0.30578920503631912 0 -0.17391538329452061 -0.29489800819007239 0 -0.17532621133471249 -0.30426618216820789 0 -0.19254159852174429 -0.31996122112867409 0 -0.17532621133471249 -0.30426618216820789 0 -0.1789711567900161 -0.3101302037755338 0 -0.19254159852174429 -0.31996122112867409 0 -0.17532621133471249 -0.30426618216820789 0 -0.17532621133471249 -0.30426618216820789 0 -0.15973767967650701 -0.30493196891575292 0 -0.16582550601247259 -0.31644195918285489 0 -0.1624028041075358 -0.29248408411088062 0 -0.17532621133471249 -0.30426618216820789 0 -0.15973767967650701 -0.30493196891575292 0 -0.1624028041075358 -0.29248408411088062 0 -0.17532621133471249 -0.30426618216820789 0 -0.1624028041075358 -0.29248408411088062 0 -0.17391538329452061 -0.29489800819007239 0 -0.17532621133471249 -0.30426618216820789 0 -0.144593184228827 -0.30237793828586917 0 -0.15261731536399281 -0.31699983390472031 0 -0.1327552185807534 -0.31482398186879779 0 -0.15973767967650701 -0.30493196891575292 0 -0.144593184228827 -0.30237793828586917 0 -0.15261731536399281 -0.31699983390472031 0 -0.15973767967650701 -0.30493196891575292 0 -0.144593184228827 -0.30237793828586917 0 -0.15108397830665751 -0.29236825921418419 0 -0.144593184228827 -0.30237793828586917 0 -0.1304175251842298 -0.30012492429455973 0 -0.1327552185807534 -0.31482398186879779 0 -0.1304175251842298 -0.30012492429455973 0 -0.1327552185807534 -0.31482398186879779 0 -0.11567190875339491 -0.3081878681979589 0 -0.1304175251842298 -0.30012492429455973 0 -0.13697378053928061 -0.28594316463020741 0 -0.11725087491461519 -0.29108504565108578 0 -0.144593184228827 -0.30237793828586917 0 -0.1304175251842298 -0.30012492429455973 0 -0.13697378053928061 -0.28594316463020741 0 -0.13697378053928061 -0.28594316463020741 0 -0.15108397830665751 -0.29236825921418419 0 -0.1494793968803598 -0.28070198605355251 0 -0.144593184228827 -0.30237793828586917 0 -0.13697378053928061 -0.28594316463020741 0 -0.15108397830665751 -0.29236825921418419 0 -0.1624028041075358 -0.29248408411088062 0 -0.15108397830665751 -0.29236825921418419 0 -0.1494793968803598 -0.28070198605355251 0 -0.1624028041075358 -0.29248408411088062 0 -0.1494793968803598 -0.28070198605355251 0 -0.15747684770731041 -0.26223731787419863 0 -0.1596399504195592 -0.27820623095404468 0 -0.1503927610565664 -0.27179087804580171 0 -0.1596399504195592 -0.27820623095404468 0 -0.1494793968803598 -0.28070198605355251 0 -0.1503927610565664 -0.27179087804580171 0 -0.15747684770731041 -0.26223731787419863 0 -0.1503927610565664 -0.27179087804580171 0 -0.1469785187108 -0.2635474229235048 0 -0.1503927610565664 -0.27179087804580171 0 -0.13966748117377659 -0.26847157538705668 0 -0.1469785187108 -0.2635474229235048 0 -0.1503927610565664 -0.27179087804580171 0 -0.14153524490660671 -0.2763029116229278 0 -0.13966748117377659 -0.26847157538705668 0 -0.1494793968803598 -0.28070198605355251 0 -0.1503927610565664 -0.27179087804580171 0 -0.14153524490660671 -0.2763029116229278 0 -0.13697378053928061 -0.28594316463020741 0 -0.1494793968803598 -0.28070198605355251 0 -0.14153524490660671 -0.2763029116229278 0 -0.13697378053928061 -0.28594316463020741 0 -0.14153524490660671 -0.2763029116229278 0 -0.13219795163187159 -0.27110871778552531 0 -0.13697378053928061 -0.28594316463020741 0 -0.1173011125765811 -0.2721428964285707 0 -0.13697378053928061 -0.28594316463020741 0 -0.13219795163187159 -0.27110871778552531 0 -0.1173011125765811 -0.2721428964285707 0 -0.13219795163187159 -0.27110871778552531 0 -0.1333337708168415 -0.26377523499205202 0 -0.12600056203783161 -0.26301541000095829 0 -0.13219795163187159 -0.27110871778552531 0 -0.12600056203783161 -0.26301541000095829 0 -0.1173011125765811 -0.2721428964285707 0 -0.13219795163187159 -0.27110871778552531 0 -0.13966748117377659 -0.26847157538705668 0 -0.1333337708168415 -0.26377523499205202 0 -0.14153524490660671 -0.2763029116229278 0 -0.13219795163187159 -0.27110871778552531 0 -0.13966748117377659 -0.26847157538705668 0 -0.13966748117377659 -0.26847157538705668 0 -0.13807993829988649 -0.25979154560904222 0 -0.1333337708168415 -0.26377523499205202 0 -0.13807993829988649 -0.25979154560904222 0 -0.1333337708168415 -0.26377523499205202 0 -0.13072292094084129 -0.25648892617767749 0 -0.12600056203783161 -0.26301541000095829 0 -0.13072292094084129 -0.25648892617767749 0 -0.1187556211832122 -0.25814451816493872 0 -0.1333337708168415 -0.26377523499205202 0 -0.12600056203783161 -0.26301541000095829 0 -0.13072292094084129 -0.25648892617767749 0 -0.13072292094084129 -0.25648892617767749 0 -0.13218950310710981 -0.25272660122947088 0 -0.1187556211832122 -0.25814451816493872 0 -0.13072292094084129 -0.25648892617767749 0 -0.13218950310710981 -0.25272660122947088 0 -0.13218950310710981 -0.25272660122947088 0 -0.1459019403517107 -0.25564217047089421 0 -0.13375162957080131 -0.24871916986845621 0 -0.13218950310710981 -0.25272660122947088 0 -0.1459019403517107 -0.25564217047089421 0 -0.13218950310710981 -0.25272660122947088 0 -0.13375162957080131 -0.24871916986845621 0 -0.1459019403517107 -0.25564217047089421 0 -0.13375162957080131 -0.24871916986845621 0 -0.13807993829988649 -0.25979154560904222 0 -0.13218950310710981 -0.25272660122947088 0 -0.1459019403517107 -0.25564217047089421 0 -0.13807993829988649 -0.25979154560904222 0 -0.13072292094084129 -0.25648892617767749 0 -0.13218950310710981 -0.25272660122947088 0 -0.1459019403517107 -0.25564217047089421 0 -0.1534429259631987 -0.25724555178864622 0 -0.1378886282313006 -0.2381062402767252 0 -0.13966748117377659 -0.26847157538705668 0 -0.13807993829988649 -0.25979154560904222 0 -0.1469785187108 -0.2635474229235048 0 -0.13807993829988649 -0.25979154560904222 0 -0.1459019403517107 -0.25564217047089421 0 -0.1469785187108 -0.2635474229235048 0 -0.15747684770731041 -0.26223731787419863 0 -0.1459019403517107 -0.25564217047089421 0 -0.1534429259631987 -0.25724555178864622 0 -0.15747684770731041 -0.26223731787419863 0 -0.1459019403517107 -0.25564217047089421 0 -0.1469785187108 -0.2635474229235048 0 -0.15747684770731041 -0.26223731787419863 0 -0.1459019403517107 -0.25564217047089421 0 -0.15747684770731041 -0.26223731787419863 0 -0.1534429259631987 -0.25724555178864622 0 -0.1593809120407062 -0.25278805690175971 0 -0.1534429259631987 -0.25724555178864622 0 -0.15289321433053751 -0.246830478479277 0 -0.1459019403517107 -0.25564217047089421 0 -0.1534429259631987 -0.25724555178864622 0 -0.17143624801538501 -0.35840063883308271 0 -0.1580141783998408 -0.34710035810185619 0 -0.15489216358121211 -0.36256913283011211 0 -0.17143624801538501 -0.35840063883308271 0 -0.1580141783998408 -0.34710035810185619 0 -0.18164424501215659 -0.34621916084723381 0 -0.17143624801538501 -0.35840063883308271 0 -0.1663610822414904 -0.3702523776444529 0 -0.15489216358121211 -0.36256913283011211 0 -0.15951650330528561 -0.37856285477961621 0 -0.1663610822414904 -0.3702523776444529 0 -0.15489216358121211 -0.36256913283011211 0 -0.17143624801538501 -0.35840063883308271 0 -0.1663610822414904 -0.3702523776444529 0 -0.18480326185087809 -0.36719565018674682 0 -0.1663610822414904 -0.3702523776444529 0 -0.18480326185087809 -0.36719565018674682 0 -0.1663610822414904 -0.3702523776444529 0 -0.18480326185087809 -0.36719565018674682 0 -0.18579747934449059 -0.37379744869579251 0 -0.18480326185087809 -0.36719565018674682 0 -0.18579747934449059 -0.37379744869579251 0 -0.18480326185087809 -0.36719565018674682 0 -0.18164424501215659 -0.34621916084723381 0 -0.19565175395430129 -0.3512554891803924 0 -0.18480326185087809 -0.36719565018674682 0 -0.18164424501215659 -0.34621916084723381 0 -0.17143624801538501 -0.35840063883308271 0 -0.18480326185087809 -0.36719565018674682 0 -0.18164424501215659 -0.34621916084723381 0 -0.18164424501215659 -0.34621916084723381 0 -0.17848522817343529 -0.32524267150772068 0 -0.1629610955137164 -0.33076913941787212 0 -0.18164424501215659 -0.34621916084723381 0 -0.17848522817343529 -0.32524267150772068 0 -0.18164424501215659 -0.34621916084723381 0 -0.18737083868624629 -0.33075534874643497 0 -0.17848522817343529 -0.32524267150772068 0 -0.17532621133471249 -0.30426618216820789 0 -0.17848522817343529 -0.32524267150772068 0 -0.17532621133471249 -0.30426618216820789 0 -0.1789711567900161 -0.3101302037755338 0 -0.17848522817343529 -0.32524267150772068 0 -0.17532621133471249 -0.30426618216820789 0 -0.17848522817343529 -0.32524267150772068 0 -0.16582550601247259 -0.31644195918285489 0 -0.1943588054861482 -0.32297640251143073 0 -0.1789711567900161 -0.3101302037755338 0 -0.18479650728396149 -0.32227615663527998 0 -0.1789711567900161 -0.3101302037755338 0 -0.18479650728396149 -0.32227615663527998 0 -0.17848522817343529 -0.32524267150772068 0 -0.1943588054861482 -0.32297640251143073 0 -0.1789711567900161 -0.3101302037755338 0 -0.18737083868624629 -0.33075534874643497 0 -0.18479650728396149 -0.32227615663527998 0 -0.17848522817343529 -0.32524267150772068 0 -0.17848522817343529 -0.32524267150772068 0 -0.16582550601247259 -0.31644195918285489 0 -0.1629610955137164 -0.33076913941787212 0 -0.16582550601247259 -0.31644195918285489 0 -0.1629610955137164 -0.33076913941787212 0 -0.15261731536399281 -0.31699983390472031 0 -0.15973767967650701 -0.30493196891575292 0 -0.16582550601247259 -0.31644195918285489 0 -0.15261731536399281 -0.31699983390472031 0 -0.1580141783998408 -0.34710035810185619 0 -0.18164424501215659 -0.34621916084723381 0 -0.1629610955137164 -0.33076913941787212 0 -0.1580141783998408 -0.34710035810185619 0 -0.1629610955137164 -0.33076913941787212 0 -0.14559484309128301 -0.3331209990743299 0 -0.14559484309128301 -0.3331209990743299 0 -0.15261731536399281 -0.31699983390472031 0 -0.1327552185807534 -0.31482398186879779 0 -0.1629610955137164 -0.33076913941787212 0 -0.14559484309128301 -0.3331209990743299 0 -0.15261731536399281 -0.31699983390472031 0 -0.14559484309128301 -0.3331209990743299 0 -0.1327552185807534 -0.31482398186879779 0 -0.12678352480283511 -0.3369129194106073 0 -0.14559484309128301 -0.3331209990743299 0 -0.12678352480283511 -0.3369129194106073 0 -0.14043772588655989 -0.35211976174212622 0 -0.12678352480283511 -0.3369129194106073 0 -0.14043772588655989 -0.35211976174212622 0 -0.1203130985899742 -0.35955571918490481 0 -0.1580141783998408 -0.34710035810185619 0 -0.14043772588655989 -0.35211976174212622 0 -0.15489216358121211 -0.36256913283011211 0 -0.1580141783998408 -0.34710035810185619 0 -0.14559484309128301 -0.3331209990743299 0 -0.14043772588655989 -0.35211976174212622 0 -0.14043772588655989 -0.35211976174212622 0 -0.15489216358121211 -0.36256913283011211 0 -0.13959568407155781 -0.37291875636350952 0 -0.15951650330528561 -0.37856285477961621 0 -0.15489216358121211 -0.36256913283011211 0 -0.13959568407155781 -0.37291875636350952 0 -0.12625141541498519 -0.38197991289387551 0 -0.13959568407155781 -0.37291875636350952 0 -0.1203130985899742 -0.35955571918490481 0 -0.14043772588655989 -0.35211976174212622 0 -0.13959568407155781 -0.37291875636350952 0 -0.1203130985899742 -0.35955571918490481 0 -0.1203130985899742 -0.35955571918490481 0 -0.11384267237711319 -0.38219851895920232 0 -0.1203130985899742 -0.35955571918490481 0 -0.10849363524981311 -0.36442991456039969 0 -0.11384267237711319 -0.38219851895920232 0 -0.12625141541498519 -0.38197991289387551 0 -0.1203130985899742 -0.35955571918490481 0 -0.11384267237711319 -0.38219851895920232 0 -0.10849363524981311 -0.36442991456039969 0 -0.096157591159299352 -0.35547454281719221 0 -0.10176491866177829 -0.38015793077534599 0 -0.096157591159299352 -0.35547454281719221 0 -0.10176491866177829 -0.38015793077534599 0 -0.096157591159299352 -0.35547454281719221 0 -0.10176491866177829 -0.38015793077534599 0 -0.085276019388031976 -0.37619188405436782 0 -0.096157591159299352 -0.35547454281719221 0 -0.10964553082547281 -0.34513317088572909 0 -0.090550263656820479 -0.33079115485903843 0 -0.10849363524981311 -0.36442991456039969 0 -0.096157591159299352 -0.35547454281719221 0 -0.10964553082547281 -0.34513317088572909 0 -0.1203130985899742 -0.35955571918490481 0 -0.10849363524981311 -0.36442991456039969 0 -0.10964553082547281 -0.34513317088572909 0 -0.12678352480283511 -0.3369129194106073 0 -0.1203130985899742 -0.35955571918490481 0 -0.10964553082547281 -0.34513317088572909 0 -0.12678352480283511 -0.3369129194106073 0 -0.1203130985899742 -0.35955571918490481 0 -0.12678352480283511 -0.3369129194106073 0 -0.10964553082547281 -0.34513317088572909 0 -0.1112875311940303 -0.32576775904759792 0 -0.1327552185807534 -0.31482398186879779 0 -0.12678352480283511 -0.3369129194106073 0 -0.1112875311940303 -0.32576775904759792 0 -0.1327552185807534 -0.31482398186879779 0 -0.1112875311940303 -0.32576775904759792 0 -0.11567190875339491 -0.3081878681979589 0 -0.1112875311940303 -0.32576775904759792 0 -0.1011365257202933 -0.31403431577096802 0 -0.11567190875339491 -0.3081878681979589 0 -0.1112875311940303 -0.32576775904759792 0 -0.1011365257202933 -0.31403431577096802 0 -0.090550263656820479 -0.33079115485903843 0 -0.10964553082547281 -0.34513317088572909 0 -0.1112875311940303 -0.32576775904759792 0 -0.090550263656820479 -0.33079115485903843 0 -0.096157591159299352 -0.35547454281719221 0 -0.090550263656820479 -0.33079115485903843 0 -0.096157591159299352 -0.35547454281719221 0 -0.090550263656820479 -0.33079115485903843 0 -0.073144777225565616 -0.33606175945158517 0 -0.090550263656820479 -0.33079115485903843 0 -0.084942936154341619 -0.30610776690088481 0 -0.090550263656820479 -0.33079115485903843 0 -0.073144777225565616 -0.33606175945158517 0 -0.084942936154341619 -0.30610776690088481 0 -0.1011365257202933 -0.31403431577096802 0 -0.090550263656820479 -0.33079115485903843 0 -0.084942936154341619 -0.30610776690088481 0 -0.073144777225565616 -0.33606175945158517 0 -0.084942936154341619 -0.30610776690088481 0 -0.060613113796085999 -0.32288269869712272 0 -0.073144777225565616 -0.33606175945158517 0 -0.076755031766953086 -0.35884624094615858 0 -0.063306301319701316 -0.35299520754669739 0 -0.076755031766953086 -0.35884624094615858 0 -0.063306301319701316 -0.35299520754669739 0 -0.065890469742167113 -0.37350781086095058 0 -0.076755031766953086 -0.35884624094615858 0 -0.065890469742167113 -0.37350781086095058 0 -0.085276019388031976 -0.37619188405436782 0 -0.096157591159299352 -0.35547454281719221 0 -0.076755031766953086 -0.35884624094615858 0 -0.085276019388031976 -0.37619188405436782 0 -0.096157591159299352 -0.35547454281719221 0 -0.073144777225565616 -0.33606175945158517 0 -0.076755031766953086 -0.35884624094615858 0 -0.097628444613881649 -0.25834262822693399 0 -0.1173011125765811 -0.2721428964285707 0 -0.097628444613881649 -0.25834262822693399 0 -0.1187556211832122 -0.25814451816493872 0 -0.1098930818979398 -0.24798588601512411 0 -0.13218950310710981 -0.25272660122947088 0 -0.1187556211832122 -0.25814451816493872 0 -0.1098930818979398 -0.24798588601512411 0 -0.097628444613881649 -0.25834262822693399 0 -0.1187556211832122 -0.25814451816493872 0 -0.1173011125765811 -0.2721428964285707 0 -0.13218950310710981 -0.25272660122947088 0 -0.1098930818979398 -0.24798588601512411 0 -0.12600056203783161 -0.26301541000095829 0 -0.1187556211832122 -0.25814451816493872 0 -0.1173011125765811 -0.2721428964285707 0 -0.097628444613881649 -0.25834262822693399 0 -0.1173011125765811 -0.2721428964285707 0 -0.090762408808148426 -0.27102181932101072 0 -0.1173011125765811 -0.2721428964285707 0 -0.096655829275762523 -0.28444542957314378 0 -0.090762408808148426 -0.27102181932101072 0 -0.096655829275762523 -0.28444542957314378 0 -0.10322998884287909 -0.29931702984935987 0 -0.084942936154341619 -0.30610776690088481 0 -0.096655829275762523 -0.28444542957314378 0 -0.11725087491461519 -0.29108504565108578 0 -0.10322998884287909 -0.29931702984935987 0 -0.13697378053928061 -0.28594316463020741 0 -0.1173011125765811 -0.2721428964285707 0 -0.11725087491461519 -0.29108504565108578 0 -0.1173011125765811 -0.2721428964285707 0 -0.096655829275762523 -0.28444542957314378 0 -0.11725087491461519 -0.29108504565108578 0 -0.11725087491461519 -0.29108504565108578 0 -0.11567190875339491 -0.3081878681979589 0 -0.10322998884287909 -0.29931702984935987 0 -0.1304175251842298 -0.30012492429455973 0 -0.11725087491461519 -0.29108504565108578 0 -0.11567190875339491 -0.3081878681979589 0 -0.1011365257202933 -0.31403431577096802 0 -0.10322998884287909 -0.29931702984935987 0 -0.084942936154341619 -0.30610776690088481 0 -0.1011365257202933 -0.31403431577096802 0 -0.11567190875339491 -0.3081878681979589 0 -0.10322998884287909 -0.29931702984935987 0 -0.084942936154341619 -0.30610776690088481 0 -0.066237696895848033 -0.30175990202967712 0 -0.078368201618682937 -0.28822753231137022 0 -0.084942936154341619 -0.30610776690088481 0 -0.066237696895848033 -0.30175990202967712 0 -0.060613113796085999 -0.32288269869712272 0 -0.066237696895848033 -0.30175990202967712 0 -0.078368201618682937 -0.28822753231137022 0 -0.057136779716869042 -0.28712205926022771 0 -0.078368201618682937 -0.28822753231137022 0 -0.072744725061100565 -0.27289296274949931 0 -0.057136779716869042 -0.28712205926022771 0 -0.096655829275762523 -0.28444542957314378 0 -0.084942936154341619 -0.30610776690088481 0 -0.078368201618682937 -0.28822753231137022 0 -0.096655829275762523 -0.28444542957314378 0 -0.078368201618682937 -0.28822753231137022 0 -0.090762408808148426 -0.27102181932101072 0 -0.078368201618682937 -0.28822753231137022 0 -0.090762408808148426 -0.27102181932101072 0 -0.072744725061100565 -0.27289296274949931 0 -0.090762408808148426 -0.27102181932101072 0 -0.072744725061100565 -0.27289296274949931 0 -0.081281336266817772 -0.26097832242812891 0 -0.072744725061100565 -0.27289296274949931 0 -0.067161912638977472 -0.25903173736147111 0 -0.055745381016590281 -0.2682223094504298 0 -0.072744725061100565 -0.27289296274949931 0 -0.067161912638977472 -0.25903173736147111 0 -0.081281336266817772 -0.26097832242812891 0 -0.067161912638977472 -0.25903173736147111 0 -0.081281336266817772 -0.26097832242812891 0 -0.077955776651182085 -0.24454236002529731 0 -0.067161912638977472 -0.25903173736147111 0 -0.056939497423126581 -0.24878681181634871 0 -0.077955776651182085 -0.24454236002529731 0 -0.097628444613881649 -0.25834262822693399 0 -0.081281336266817772 -0.26097832242812891 0 -0.077955776651182085 -0.24454236002529731 0 -0.097628444613881649 -0.25834262822693399 0 -0.090762408808148426 -0.27102181932101072 0 -0.081281336266817772 -0.26097832242812891 0 -0.097628444613881649 -0.25834262822693399 0 -0.077955776651182085 -0.24454236002529731 0 -0.025857267464119819 -0.25506418495113531 0 -0.050191684441297867 -0.2485850187836515 0 -0.034199021844566052 -0.25740496373097072 0 -0.056939497423126581 -0.24878681181634871 0 -0.034199021844566052 -0.25740496373097072 0 -0.041398382443623198 -0.25192549838374201 0 -0.056939497423126581 -0.24878681181634871 0 -0.041398382443623198 -0.25192549838374201 0 -0.025857267464119819 -0.25506418495113531 0 -0.050191684441297867 -0.2485850187836515 0 -0.034199021844566052 -0.25740496373097072 0 -0.048255079716108998 -0.25800015923011232 0 -0.056939497423126581 -0.24878681181634871 0 -0.034199021844566052 -0.25740496373097072 0 -0.041398382443623198 -0.25192549838374201 0 -0.025857267464119819 -0.25506418495113531 0 -0.041398382443623198 -0.25192549838374201 0 -0.025857267464119819 -0.25506418495113531 0 -0.034199021844566052 -0.25740496373097072 0 -0.037307574571523318 -0.26201401924185519 0 -0.024854767991187229 -0.26705994663832661 0 -0.037307574571523318 -0.26201401924185519 0 -0.048255079716108998 -0.25800015923011232 0 -0.046606779304586107 -0.26584835010199509 0 -0.034199021844566052 -0.25740496373097072 0 -0.037307574571523318 -0.26201401924185519 0 -0.048255079716108998 -0.25800015923011232 0 -0.05702546769870083 -0.25851025446459042 0 -0.048255079716108998 -0.25800015923011232 0 -0.056939497423126581 -0.24878681181634871 0 -0.041398382443623198 -0.25192549838374201 0 -0.056939497423126581 -0.24878681181634871 0 -0.067161912638977472 -0.25903173736147111 0 -0.05702546769870083 -0.25851025446459042 0 -0.056939497423126581 -0.24878681181634871 0 -0.067161912638977472 -0.25903173736147111 0 -0.05702546769870083 -0.25851025446459042 0 -0.055745381016590281 -0.2682223094504298 0 -0.05702546769870083 -0.25851025446459042 0 -0.048255079716108998 -0.25800015923011232 0 -0.055745381016590281 -0.2682223094504298 0 -0.048255079716108998 -0.25800015923011232 0 -0.055745381016590281 -0.2682223094504298 0 -0.046606779304586107 -0.26584835010199509 0 -0.055745381016590281 -0.2682223094504298 0 -0.045119081914121867 -0.27515691248558288 0 -0.046606779304586107 -0.26584835010199509 0 -0.055745381016590281 -0.2682223094504298 0 -0.045119081914121867 -0.27515691248558288 0 -0.057136779716869042 -0.28712205926022771 0 -0.072744725061100565 -0.27289296274949931 0 -0.055745381016590281 -0.2682223094504298 0 -0.057136779716869042 -0.28712205926022771 0 -0.037307574571523318 -0.26201401924185519 0 -0.034478529498429812 -0.28951379058442123 0 -0.037307574571523318 -0.26201401924185519 0 -0.034478529498429812 -0.28951379058442123 0 -0.024854767991187229 -0.26705994663832661 0 -0.037307574571523318 -0.26201401924185519 0 -0.045119081914121867 -0.27515691248558288 0 -0.034478529498429812 -0.28951379058442123 0 -0.037307574571523318 -0.26201401924185519 0 -0.045119081914121867 -0.27515691248558288 0 -0.046606779304586107 -0.26584835010199509 0 -0.045119081914121867 -0.27515691248558288 0 -0.034478529498429812 -0.28951379058442123 0 -0.057136779716869042 -0.28712205926022771 0 -0.034478529498429812 -0.28951379058442123 0 -0.057136779716869042 -0.28712205926022771 0 -0.05012745319326059 -0.30445945297878008 0 -0.066237696895848033 -0.30175990202967712 0 -0.05012745319326059 -0.30445945297878008 0 -0.060613113796085999 -0.32288269869712272 0 -0.066237696895848033 -0.30175990202967712 0 -0.057136779716869042 -0.28712205926022771 0 -0.05012745319326059 -0.30445945297878008 0 -0.034478529498429812 -0.28951379058442123 0 -0.05012745319326059 -0.30445945297878008 0 -0.031649484425336299 -0.31701356192698721 0 -0.034478529498429812 -0.28951379058442123 0 -0.031649484425336299 -0.31701356192698721 0 -0.034478529498429812 -0.28951379058442123 0 -0.020284114256294641 -0.29759304008048471 0 -0.031649484425336299 -0.31701356192698721 0 -0.020284114256294641 -0.29759304008048471 0 -0.01007927323019326 -0.3103345258507364 0 -0.031649484425336299 -0.31701356192698721 0 -0.020284114256294641 -0.29759304008048471 0 -0.01007927323019326 -0.3103345258507364 0 -0.0080748459131490501 -0.2914060437848453 0 -0.01007927323019326 -0.3103345258507364 0 -0.0080748459131490501 -0.2914060437848453 0 0.0017563221397047381 -0.2997067901486577 0 -0.020284114256294641 -0.29759304008048471 0 -0.0080748459131490501 -0.2914060437848453 0 -0.017138438214364771 -0.27969727825543328 0 -0.0080748459131490501 -0.2914060437848453 0 -0.002848760243290064 -0.27761611820401882 0 0.0066437179820165657 -0.2861171845936395 0 -0.0080748459131490501 -0.2914060437848453 0 -0.017138438214364771 -0.27969727825543328 0 -0.002848760243290064 -0.27761611820401882 0 -0.034478529498429812 -0.28951379058442123 0 -0.020284114256294641 -0.29759304008048471 0 -0.017138438214364771 -0.27969727825543328 0 -0.034478529498429812 -0.28951379058442123 0 -0.024854767991187229 -0.26705994663832661 0 -0.017138438214364771 -0.27969727825543328 0 -0.024854767991187229 -0.26705994663832661 0 -0.01588915841142927 -0.27169793716392882 0 -0.01145854626600548 -0.26602311564559261 0 -0.024854767991187229 -0.26705994663832661 0 -0.01588915841142927 -0.27169793716392882 0 -0.017138438214364771 -0.27969727825543328 0 -0.017138438214364771 -0.27969727825543328 0 -0.011833725783772399 -0.27375861231724341 0 -0.002848760243290064 -0.27761611820401882 0 -0.01145854626600548 -0.26602311564559261 0 0.01128192931255503 -0.27464126756021451 0 -0.002848760243290064 -0.27761611820401882 0 -0.01145854626600548 -0.26602311564559261 0 0.01128192931255503 -0.27464126756021451 0 -0.01588915841142927 -0.27169793716392882 0 -0.017138438214364771 -0.27969727825543328 0 -0.011833725783772399 -0.27375861231724341 0 -0.011833725783772399 -0.27375861231724341 0 -0.002848760243290064 -0.27761611820401882 0 -0.01145854626600548 -0.26602311564559261 0 -0.01588915841142927 -0.27169793716392882 0 -0.011833725783772399 -0.27375861231724341 0 -0.01145854626600548 -0.26602311564559261 0 -0.01269776775011346 -0.25850600500130039 0 -0.0051360078472848583 -0.25701396995817721 0 0.0057158633005241696 -0.26337829885565528 0 -0.01145854626600548 -0.26602311564559261 0 -0.01269776775011346 -0.25850600500130039 0 0.0057158633005241696 -0.26337829885565528 0 -0.01269776775011346 -0.25850600500130039 0 0.0057158633005241696 -0.26337829885565528 0 -0.0009620894167222515 -0.25496392916579452 0 -0.0051360078472848583 -0.25701396995817721 0 0.0057158633005241696 -0.26337829885565528 0 -0.0071971320314794382 -0.2528457057960789 0 -0.01082738352359053 -0.24876902592697839 0 -0.0029313858115674811 -0.24854412401401971 0 -0.0009620894167222515 -0.25496392916579452 0 -0.0071971320314794382 -0.2528457057960789 0 -0.0029313858115674811 -0.24854412401401971 0 -0.0009620894167222515 -0.25496392916579452 0 -0.0051360078472848583 -0.25701396995817721 0 -0.0071971320314794382 -0.2528457057960789 0 -0.0051360078472848583 -0.25701396995817721 0 -0.0071971320314794382 -0.2528457057960789 0 -0.0094143843739788544 -0.25459574361389747 0 -0.0071971320314794382 -0.2528457057960789 0 -0.0094143843739788544 -0.25459574361389747 0 -0.01082738352359053 -0.24876902592697839 0 -0.01269776775011346 -0.25850600500130039 0 -0.0094143843739788544 -0.25459574361389747 0 -0.01082738352359053 -0.24876902592697839 0 -0.01269776775011346 -0.25850600500130039 0 -0.0051360078472848583 -0.25701396995817721 0 -0.0094143843739788544 -0.25459574361389747 0 -0.01269776775011346 -0.25850600500130039 0 -0.025857267464119819 -0.25506418495113531 0 -0.034199021844566052 -0.25740496373097072 0 -0.01145854626600548 -0.26602311564559261 0 -0.025857267464119819 -0.25506418495113531 0 -0.01269776775011346 -0.25850600500130039 0 -0.025857267464119819 -0.25506418495113531 0 -0.02368513365757598 -0.23851275990414511 0 -0.034199021844566052 -0.25740496373097072 0 -0.024854767991187229 -0.26705994663832661 0 -0.01145854626600548 -0.26602311564559261 0 -0.034199021844566052 -0.25740496373097072 0 -0.01145854626600548 -0.26602311564559261 0 -0.01145854626600548 -0.26602311564559261 0 -0.01269776775011346 -0.25850600500130039 0 -0.025857267464119819 -0.25506418495113531 0 -0.046940286889098168 -0.35955036210978841 0 -0.050269733973634309 -0.3392354021108881 0 -0.02882043935224279 -0.34451333326955308 0 -0.046940286889098168 -0.35955036210978841 0 -0.02882043935224279 -0.34451333326955308 0 -0.026419717968229769 -0.36867473508972981 0 -0.046940286889098168 -0.35955036210978841 0 -0.026419717968229769 -0.36867473508972981 0 -0.046935058978613817 -0.3783756837809118 0 -0.065890469742167113 -0.37350781086095058 0 -0.046940286889098168 -0.35955036210978841 0 -0.046935058978613817 -0.3783756837809118 0 -0.063306301319701316 -0.35299520754669739 0 -0.065890469742167113 -0.37350781086095058 0 -0.046940286889098168 -0.35955036210978841 0 -0.063306301319701316 -0.35299520754669739 0 -0.046940286889098168 -0.35955036210978841 0 -0.050269733973634309 -0.3392354021108881 0 -0.073144777225565616 -0.33606175945158517 0 -0.063306301319701316 -0.35299520754669739 0 -0.050269733973634309 -0.3392354021108881 0 -0.073144777225565616 -0.33606175945158517 0 -0.050269733973634309 -0.3392354021108881 0 -0.060613113796085999 -0.32288269869712272 0 -0.050269733973634309 -0.3392354021108881 0 -0.060613113796085999 -0.32288269869712272 0 -0.031649484425336299 -0.31701356192698721 0 -0.05012745319326059 -0.30445945297878008 0 -0.060613113796085999 -0.32288269869712272 0 -0.031649484425336299 -0.31701356192698721 0 -0.050269733973634309 -0.3392354021108881 0 -0.031649484425336299 -0.31701356192698721 0 -0.02882043935224279 -0.34451333326955308 0 -0.031649484425336299 -0.31701356192698721 0 -0.02882043935224279 -0.34451333326955308 0 -0.031649484425336299 -0.31701356192698721 0 -0.0038616663111063101 -0.33241552487502413 0 -0.02882043935224279 -0.34451333326955308 0 -0.01007927323019326 -0.3103345258507364 0 -0.031649484425336299 -0.31701356192698721 0 -0.0038616663111063101 -0.33241552487502413 0 -0.01007927323019326 -0.3103345258507364 0 -0.0038616663111063101 -0.33241552487502413 0 0.0094652366165251054 -0.31053241408104548 0 -0.0038616663111063101 -0.33241552487502413 0 -0.0043130761299947744 -0.35643483176966217 0 -0.02882043935224279 -0.34451333326955308 0 -0.0043130761299947744 -0.35643483176966217 0 -0.02882043935224279 -0.34451333326955308 0 -0.026419717968229769 -0.36867473508972981 0 -0.0043130761299947744 -0.35643483176966217 0 -0.026419717968229769 -0.36867473508972981 0 -0.0064694903547723136 -0.38059021958606692 0 -0.0064694903547723136 -0.38059021958606692 0 -0.0080625817845775948 -0.40608726553411861 0 -0.026496984295852101 -0.39226102623928111 0 -0.0064694903547723136 -0.38059021958606692 0 -0.0080625817845775948 -0.40608726553411861 0 0.009690974369139977 -0.39295199195252922 0 -0.0080625817845775948 -0.40608726553411861 0 -0.026496984295852101 -0.39226102623928111 0 -0.029852467816379728 -0.41236872525256307 0 -0.026419717968229769 -0.36867473508972981 0 -0.0064694903547723136 -0.38059021958606692 0 -0.026496984295852101 -0.39226102623928111 0 -0.026496984295852101 -0.39226102623928111 0 -0.048213792324517578 -0.39768762776665978 0 -0.046935058978613817 -0.3783756837809118 0 -0.026419717968229769 -0.36867473508972981 0 -0.026496984295852101 -0.39226102623928111 0 -0.046935058978613817 -0.3783756837809118 0 -0.026496984295852101 -0.39226102623928111 0 -0.048213792324517578 -0.39768762776665978 0 -0.029852467816379728 -0.41236872525256307 0 -0.048213792324517578 -0.39768762776665978 0 -0.065379196062645584 -0.39052657147488062 0 -0.06528413140028641 -0.40548789039177052 0 -0.048213792324517578 -0.39768762776665978 0 -0.046935058978613817 -0.3783756837809118 0 -0.065379196062645584 -0.39052657147488062 0 -0.065890469742167113 -0.37350781086095058 0 -0.046935058978613817 -0.3783756837809118 0 -0.065379196062645584 -0.39052657147488062 0 -0.052630130657334448 -0.42871109396582502 0 -0.036803499053157718 -0.43392585985635063 0 -0.055908543568221357 -0.44353945242809251 0 -0.052630130657334448 -0.42871109396582502 0 -0.048282499091199083 -0.41684649723306111 0 -0.065713266975248902 -0.42040157794015642 0 -0.052630130657334448 -0.42871109396582502 0 -0.055908543568221357 -0.44353945242809251 0 -0.077753046024815156 -0.43509142098737241 0 -0.048282499091199083 -0.41684649723306111 0 -0.06528413140028641 -0.40548789039177052 0 -0.065713266975248902 -0.42040157794015642 0 -0.048213792324517578 -0.39768762776665978 0 -0.048282499091199083 -0.41684649723306111 0 -0.06528413140028641 -0.40548789039177052 0 -0.048213792324517578 -0.39768762776665978 0 -0.048282499091199083 -0.41684649723306111 0 -0.029852467816379728 -0.41236872525256307 0 -0.048282499091199083 -0.41684649723306111 0 -0.036803499053157718 -0.43392585985635063 0 -0.029852467816379728 -0.41236872525256307 0 -0.052630130657334448 -0.42871109396582502 0 -0.048282499091199083 -0.41684649723306111 0 -0.036803499053157718 -0.43392585985635063 0 -0.036803499053157718 -0.43392585985635063 0 -0.01686747062211669 -0.42668809062348251 0 -0.022482277956740859 -0.44034230556013138 0 -0.036803499053157718 -0.43392585985635063 0 -0.01686747062211669 -0.42668809062348251 0 -0.029852467816379728 -0.41236872525256307 0 -0.0080625817845775948 -0.40608726553411861 0 -0.01686747062211669 -0.42668809062348251 0 -0.029852467816379728 -0.41236872525256307 0 -0.0080625817845775948 -0.40608726553411861 0 -0.01686747062211669 -0.42668809062348251 0 0.01224976062295041 -0.42183763890738629 0 -0.01686747062211669 -0.42668809062348251 0 -0.008216644178786571 -0.4466179140804285 0 0.01224976062295041 -0.42183763890738629 0 -0.008216644178786571 -0.4466179140804285 0 -0.0021957942935651631 -0.46571035637089769 0 -0.016151777162071251 -0.46269316979172348 0 -0.0021957942935651631 -0.46571035637089769 0 -0.016151777162071251 -0.46269316979172348 0 -0.01292321871024151 -0.47600360382280887 0 -0.008216644178786571 -0.4466179140804285 0 -0.016151777162071251 -0.46269316979172348 0 -0.028753682251359231 -0.45370767630375852 0 -0.016151777162071251 -0.46269316979172348 0 -0.030722049445265721 -0.46513815794063051 0 -0.025757536927686689 -0.47561542944709773 0 -0.016151777162071251 -0.46269316979172348 0 -0.030722049445265721 -0.46513815794063051 0 -0.028753682251359231 -0.45370767630375852 0 -0.036803499053157718 -0.43392585985635063 0 -0.028753682251359231 -0.45370767630375852 0 -0.022482277956740859 -0.44034230556013138 0 -0.01686747062211669 -0.42668809062348251 0 -0.008216644178786571 -0.4466179140804285 0 -0.022482277956740859 -0.44034230556013138 0 -0.008216644178786571 -0.4466179140804285 0 -0.028753682251359231 -0.45370767630375852 0 -0.022482277956740859 -0.44034230556013138 0 -0.011489863113854141 -0.5 0 -0.010144146689038991 -0.48941639725935437 0 0.012735562036971701 -0.48508522326900949 0 -0.010144146689038991 -0.48941639725935437 0 -0.00065605929082254884 -0.47874224407546379 0 -0.01292321871024151 -0.47600360382280887 0 -0.010144146689038991 -0.48941639725935437 0 -0.01292321871024151 -0.47600360382280887 0 -0.022633997898264431 -0.48384402599231691 0 -0.0021957942935651631 -0.46571035637089769 0 -0.00065605929082254884 -0.47874224407546379 0 -0.01292321871024151 -0.47600360382280887 0 -0.016151777162071251 -0.46269316979172348 0 -0.01292321871024151 -0.47600360382280887 0 -0.025757536927686689 -0.47561542944709773 0 -0.025757536927686689 -0.47561542944709773 0 -0.022633997898264431 -0.48384402599231691 0 -0.032724513000240443 -0.48384135401243772 0 -0.01292321871024151 -0.47600360382280887 0 -0.025757536927686689 -0.47561542944709773 0 -0.022633997898264431 -0.48384402599231691 0 -0.011489863113854141 -0.5 0 -0.010144146689038991 -0.48941639725935437 0 -0.033023855415049652 -0.49374757124969931 0 -0.010144146689038991 -0.48941639725935437 0 -0.022633997898264431 -0.48384402599231691 0 -0.033023855415049652 -0.49374757124969931 0 -0.011489863113854141 -0.5 0 -0.041002190054857779 -0.5 0 -0.033023855415049652 -0.49374757124969931 0 -0.010144146689038991 -0.48941639725935437 0 -0.033023855415049652 -0.49374757124969931 0 -0.022633997898264431 -0.48384402599231691 0 -0.033023855415049652 -0.49374757124969931 0 -0.032724513000240443 -0.48384135401243772 0 -0.041002190054857779 -0.5 0 -0.040644419244316249 -0.48874723383863622 0 -0.055758353525359711 -0.48944453406372251 0 -0.041002190054857779 -0.5 0 -0.033023855415049652 -0.49374757124969931 0 -0.040644419244316249 -0.48874723383863622 0 -0.033023855415049652 -0.49374757124969931 0 -0.040644419244316249 -0.48874723383863622 0 -0.032724513000240443 -0.48384135401243772 0 -0.040644419244316249 -0.48874723383863622 0 -0.040713184226073652 -0.47670270986732172 0 -0.055758353525359711 -0.48944453406372251 0 -0.040644419244316249 -0.48874723383863622 0 -0.040713184226073652 -0.47670270986732172 0 -0.032724513000240443 -0.48384135401243772 0 -0.025757536927686689 -0.47561542944709773 0 -0.040713184226073652 -0.47670270986732172 0 -0.032724513000240443 -0.48384135401243772 0 -0.030722049445265721 -0.46513815794063051 0 -0.025757536927686689 -0.47561542944709773 0 -0.040713184226073652 -0.47670270986732172 0 -0.040713184226073652 -0.47670270986732172 0 -0.05604151524233808 -0.47085547185542692 0 -0.042137987481662489 -0.46199998676314519 0 -0.040713184226073652 -0.47670270986732172 0 -0.05604151524233808 -0.47085547185542692 0 -0.055758353525359711 -0.48944453406372251 0 -0.05604151524233808 -0.47085547185542692 0 -0.055758353525359711 -0.48944453406372251 0 -0.068357021366280857 -0.47830767763467641 0 -0.041002190054857779 -0.5 0 -0.055758353525359711 -0.48944453406372251 0 -0.070514516995861642 -0.5 0 -0.036803499053157718 -0.43392585985635063 0 -0.028753682251359231 -0.45370767630375852 0 -0.042591220718736618 -0.44931976272637059 0 -0.036803499053157718 -0.43392585985635063 0 -0.042591220718736618 -0.44931976272637059 0 -0.055908543568221357 -0.44353945242809251 0 -0.028753682251359231 -0.45370767630375852 0 -0.042591220718736618 -0.44931976272637059 0 -0.042137987481662489 -0.46199998676314519 0 -0.030722049445265721 -0.46513815794063051 0 -0.028753682251359231 -0.45370767630375852 0 -0.042137987481662489 -0.46199998676314519 0 -0.030722049445265721 -0.46513815794063051 0 -0.040713184226073652 -0.47670270986732172 0 -0.042137987481662489 -0.46199998676314519 0 -0.042591220718736618 -0.44931976272637059 0 -0.042137987481662489 -0.46199998676314519 0 -0.054601469153056192 -0.45704509188174619 0 -0.05604151524233808 -0.47085547185542692 0 -0.054601469153056192 -0.45704509188174619 0 -0.071896784036839162 -0.45711427830285839 0 -0.05604151524233808 -0.47085547185542692 0 -0.042137987481662489 -0.46199998676314519 0 -0.054601469153056192 -0.45704509188174619 0 -0.054601469153056192 -0.45704509188174619 0 -0.055908543568221357 -0.44353945242809251 0 -0.071896784036839162 -0.45711427830285839 0 -0.042591220718736618 -0.44931976272637059 0 -0.054601469153056192 -0.45704509188174619 0 -0.055908543568221357 -0.44353945242809251 0 -0.055908543568221357 -0.44353945242809251 0 -0.071896784036839162 -0.45711427830285839 0 -0.077753046024815156 -0.43509142098737241 0 -0.071896784036839162 -0.45711427830285839 0 -0.087573937031005744 -0.47412410395137422 0 -0.093954286744555499 -0.45179652052777369 0 -0.087573937031005744 -0.47412410395137422 0 -0.093954286744555499 -0.45179652052777369 0 -0.071896784036839162 -0.45711427830285839 0 -0.093954286744555499 -0.45179652052777369 0 -0.077753046024815156 -0.43509142098737241 0 -0.093954286744555499 -0.45179652052777369 0 -0.10033463645810529 -0.42946893710417328 0 -0.077753046024815156 -0.43509142098737241 0 -0.055758353525359711 -0.48944453406372251 0 -0.070514516995861642 -0.5 0 -0.068357021366280857 -0.47830767763467641 0 -0.05604151524233808 -0.47085547185542692 0 -0.071896784036839162 -0.45711427830285839 0 -0.068357021366280857 -0.47830767763467641 0 -0.071896784036839162 -0.45711427830285839 0 -0.068357021366280857 -0.47830767763467641 0 -0.087573937031005744 -0.47412410395137422 0 -0.070514516995861642 -0.5 0 -0.068357021366280857 -0.47830767763467641 0 -0.087573937031005744 -0.47412410395137422 0 -0.070514516995861642 -0.5 0 -0.087573937031005744 -0.47412410395137422 0 -0.10002684393686551 -0.5 0 -0.087573937031005744 -0.47412410395137422 0 -0.10002684393686551 -0.5 0 -0.10780494223314389 -0.47765854937150709 0 -0.087573937031005744 -0.47412410395137422 0 -0.10780494223314389 -0.47765854937150709 0 -0.1029954147344513 -0.46359439800738522 0 -0.12605423818426559 -0.48707922202292669 0 -0.10780494223314389 -0.47765854937150709 0 -0.1201929706126502 -0.46127799294672761 0 -0.12605423818426559 -0.48707922202292669 0 -0.1201929706126502 -0.46127799294672761 0 -0.12605423818426559 -0.48707922202292669 0 -0.10002684393686551 -0.5 0 -0.10780494223314389 -0.47765854937150709 0 -0.1295391708778694 -0.5 0 -0.12605423818426559 -0.48707922202292669 0 -0.10002684393686551 -0.5 0 -0.093954286744555499 -0.45179652052777369 0 -0.10033463645810529 -0.42946893710417328 0 -0.10636180231815941 -0.44832292249131772 0 -0.11433170304103479 -0.43547676387052858 0 -0.10033463645810529 -0.42946893710417328 0 -0.10636180231815941 -0.44832292249131772 0 -0.093954286744555499 -0.45179652052777369 0 -0.10033463645810529 -0.42946893710417328 0 -0.087573937031005744 -0.47412410395137422 0 -0.093954286744555499 -0.45179652052777369 0 -0.1029954147344513 -0.46359439800738522 0 -0.10636180231815941 -0.44832292249131772 0 -0.093954286744555499 -0.45179652052777369 0 -0.1029954147344513 -0.46359439800738522 0 -0.10780494223314389 -0.47765854937150709 0 -0.1029954147344513 -0.46359439800738522 0 -0.1201929706126502 -0.46127799294672761 0 -0.10636180231815941 -0.44832292249131772 0 -0.1029954147344513 -0.46359439800738522 0 -0.1201929706126502 -0.46127799294672761 0 -0.13671083813600751 -0.45044361347006462 0 -0.1201929706126502 -0.46127799294672761 0 -0.11433170304103479 -0.43547676387052858 0 -0.10636180231815941 -0.44832292249131772 0 -0.1201929706126502 -0.46127799294672761 0 -0.11433170304103479 -0.43547676387052858 0 -0.13671083813600751 -0.45044361347006462 0 -0.1225906368027144 -0.43005957413219659 0 -0.11433170304103479 -0.43547676387052858 0 -0.1201929706126502 -0.46127799294672761 0 -0.11433170304103479 -0.43547676387052858 0 -0.1225906368027144 -0.43005957413219659 0 -0.11433170304103479 -0.43547676387052858 0 -0.10847043546942051 -0.40967553479432928 0 -0.11433170304103479 -0.43547676387052858 0 -0.10847043546942051 -0.40967553479432928 0 -0.12908399078123631 -0.42243277819987513 0 -0.1225906368027144 -0.43005957413219659 0 -0.12315425937001 -0.41747458531602638 0 -0.11433170304103479 -0.43547676387052858 0 -0.10033463645810529 -0.42946893710417328 0 -0.10847043546942051 -0.40967553479432928 0 -0.10033463645810529 -0.42946893710417328 0 -0.094107383989168333 -0.41562629379671062 0 -0.1067149861716557 -0.40714135368057303 0 -0.10033463645810529 -0.42946893710417328 0 -0.1067149861716557 -0.40714135368057303 0 -0.10847043546942051 -0.40967553479432928 0 -0.10033463645810529 -0.42946893710417328 0 -0.1067149861716557 -0.40714135368057303 0 -0.094107383989168333 -0.41562629379671062 0 -0.1067149861716557 -0.40714135368057303 0 -0.093615658715422545 -0.40476526464288082 0 -0.10847043546942051 -0.40967553479432928 0 -0.1105756132387118 -0.40676785322215941 0 -0.1073722461642546 -0.40484131873350049 0 -0.10847043546942051 -0.40967553479432928 0 -0.1073722461642546 -0.40484131873350049 0 -0.1067149861716557 -0.40714135368057303 0 -0.10847043546942051 -0.40967553479432928 0 -0.1073722461642546 -0.40484131873350049 0 -0.1067149861716557 -0.40714135368057303 0 -0.10847043546942051 -0.40967553479432928 0 -0.1225906368027144 -0.43005957413219659 0 -0.1163272184937543 -0.41351727508190028 0 -0.12315425937001 -0.41747458531602638 0 -0.10847043546942051 -0.40967553479432928 0 -0.1125412123036873 -0.40894162881917728 0 -0.1163272184937543 -0.41351727508190028 0 -0.1125412123036873 -0.40894162881917728 0 -0.1105756132387118 -0.40676785322215941 0 -0.1147915820128618 -0.40580585217832088 0 -0.1225906368027144 -0.43005957413219659 0 -0.10847043546942051 -0.40967553479432928 0 -0.1163272184937543 -0.41351727508190028 0 -0.10847043546942051 -0.40967553479432928 0 -0.1125412123036873 -0.40894162881917728 0 -0.1105756132387118 -0.40676785322215941 0 -0.1225906368027144 -0.43005957413219659 0 -0.10847043546942051 -0.40967553479432928 0 -0.1125412123036873 -0.40894162881917728 0 -0.1163272184937543 -0.41351727508190028 0 -0.1147915820128618 -0.40580585217832088 0 -0.1225700411049412 -0.40994677461386392 0 -0.1219584454402414 -0.40406961642135292 0 -0.1147915820128618 -0.40580585217832088 0 -0.1163272184937543 -0.41351727508190028 0 -0.1225700411049412 -0.40994677461386392 0 -0.1147915820128618 -0.40580585217832088 0 -0.1163272184937543 -0.41351727508190028 0 -0.12315425937001 -0.41747458531602638 0 -0.1225700411049412 -0.40994677461386392 0 -0.1273295258527142 -0.39594401256049883 0 -0.1219584454402414 -0.40406961642135292 0 -0.1190781430676657 -0.39944145851713192 0 -0.11305295545189779 -0.39895005080087959 0 -0.11384267237711319 -0.38219851895920232 0 -0.1073722461642546 -0.40484131873350049 0 -0.1295768038857959 -0.40463739140698729 0 -0.1225700411049412 -0.40994677461386392 0 -0.1219584454402414 -0.40406961642135292 0 -0.1182582065806136 -0.392437760624607 0 -0.11305295545189779 -0.39895005080087959 0 -0.11384267237711319 -0.38219851895920232 0 -0.11384267237711319 -0.38219851895920232 0 -0.1073722461642546 -0.40484131873350049 0 -0.1219584454402414 -0.40406961642135292 0 -0.1190781430676657 -0.39944145851713192 0 -0.1147915820128618 -0.40580585217832088 0 -0.1273295258527142 -0.39594401256049883 0 -0.1190781430676657 -0.39944145851713192 0 -0.1182582065806136 -0.392437760624607 0 -0.1190781430676657 -0.39944145851713192 0 -0.1182582065806136 -0.392437760624607 0 -0.11305295545189779 -0.39895005080087959 0 -0.1105756132387118 -0.40676785322215941 0 -0.1114480992169309 -0.40409126873371493 0 -0.1073722461642546 -0.40484131873350049 0 -0.1105756132387118 -0.40676785322215941 0 -0.1114480992169309 -0.40409126873371493 0 -0.1147915820128618 -0.40580585217832088 0 -0.11305295545189779 -0.39895005080087959 0 -0.1114480992169309 -0.40409126873371493 0 -0.1147915820128618 -0.40580585217832088 0 -0.11305295545189779 -0.39895005080087959 0 -0.1114480992169309 -0.40409126873371493 0 -0.1073722461642546 -0.40484131873350049 0 -0.1190781430676657 -0.39944145851713192 0 -0.11305295545189779 -0.39895005080087959 0 -0.1147915820128618 -0.40580585217832088 0 -0.12625141541498519 -0.38197991289387551 0 -0.1182582065806136 -0.392437760624607 0 -0.11384267237711319 -0.38219851895920232 0 -0.12625141541498519 -0.38197991289387551 0 -0.1273295258527142 -0.39594401256049883 0 -0.1182582065806136 -0.392437760624607 0 -0.11384267237711319 -0.38219851895920232 0 -0.10176491866177829 -0.38015793077534599 0 -0.1073722461642546 -0.40484131873350049 0 -0.10176491866177829 -0.38015793077534599 0 -0.095995502779844255 -0.39166661886747001 0 -0.085276019388031976 -0.37619188405436782 0 -0.10849363524981311 -0.36442991456039969 0 -0.11384267237711319 -0.38219851895920232 0 -0.10176491866177829 -0.38015793077534599 0 -0.10176491866177829 -0.38015793077534599 0 -0.1073722461642546 -0.40484131873350049 0 -0.095995502779844255 -0.39166661886747001 0 -0.10176491866177829 -0.38015793077534599 0 -0.1073722461642546 -0.40484131873350049 0 -0.1067149861716557 -0.40714135368057303 0 -0.1073722461642546 -0.40484131873350049 0 -0.095995502779844255 -0.39166661886747001 0 -0.1067149861716557 -0.40714135368057303 0 -0.1073722461642546 -0.40484131873350049 0 -0.1067149861716557 -0.40714135368057303 0 -0.095995502779844255 -0.39166661886747001 0 -0.1067149861716557 -0.40714135368057303 0 -0.095995502779844255 -0.39166661886747001 0 -0.093615658715422545 -0.40476526464288082 0 -0.093615658715422545 -0.40476526464288082 0 -0.081664681120336771 -0.39582842074610342 0 -0.082451352827770552 -0.41163664718976212 0 -0.095995502779844255 -0.39166661886747001 0 -0.093615658715422545 -0.40476526464288082 0 -0.081664681120336771 -0.39582842074610342 0 -0.095995502779844255 -0.39166661886747001 0 -0.081664681120336771 -0.39582842074610342 0 -0.085276019388031976 -0.37619188405436782 0 -0.081664681120336771 -0.39582842074610342 0 -0.085276019388031976 -0.37619188405436782 0 -0.074552591578295357 -0.38401367178407558 0 -0.095995502779844255 -0.39166661886747001 0 -0.085276019388031976 -0.37619188405436782 0 -0.081664681120336771 -0.39582842074610342 0 -0.065379196062645584 -0.39052657147488062 0 -0.074552591578295357 -0.38401367178407558 0 -0.065890469742167113 -0.37350781086095058 0 -0.085276019388031976 -0.37619188405436782 0 -0.074552591578295357 -0.38401367178407558 0 -0.065890469742167113 -0.37350781086095058 0 -0.065379196062645584 -0.39052657147488062 0 -0.074552591578295357 -0.38401367178407558 0 -0.081664681120336771 -0.39582842074610342 0 -0.06528413140028641 -0.40548789039177052 0 -0.082451352827770552 -0.41163664718976212 0 -0.081664681120336771 -0.39582842074610342 0 -0.065379196062645584 -0.39052657147488062 0 -0.06528413140028641 -0.40548789039177052 0 -0.065713266975248902 -0.42040157794015642 0 -0.085028608260126398 -0.42320905853578622 0 -0.082451352827770552 -0.41163664718976212 0 -0.06528413140028641 -0.40548789039177052 0 -0.065713266975248902 -0.42040157794015642 0 -0.082451352827770552 -0.41163664718976212 0 -0.065713266975248902 -0.42040157794015642 0 -0.077753046024815156 -0.43509142098737241 0 -0.085028608260126398 -0.42320905853578622 0 -0.052630130657334448 -0.42871109396582502 0 -0.065713266975248902 -0.42040157794015642 0 -0.077753046024815156 -0.43509142098737241 0 -0.10033463645810529 -0.42946893710417328 0 -0.077753046024815156 -0.43509142098737241 0 -0.085028608260126398 -0.42320905853578622 0 -0.10033463645810529 -0.42946893710417328 0 -0.094107383989168333 -0.41562629379671062 0 -0.085028608260126398 -0.42320905853578622 0 -0.094107383989168333 -0.41562629379671062 0 -0.085028608260126398 -0.42320905853578622 0 -0.082451352827770552 -0.41163664718976212 0 -0.094107383989168333 -0.41562629379671062 0 -0.093615658715422545 -0.40476526464288082 0 -0.082451352827770552 -0.41163664718976212 0 -0.080832567710134945 -0.085265223789800185 0 -0.09573268077664969 -0.090624673380050064 0 -0.094924188455715333 -0.074372309221374736 0 -0.080832567710134945 -0.085265223789800185 0 -0.0944050220014645 -0.1050702242089397 0 -0.09573268077664969 -0.090624673380050064 0 -0.094924188455715333 -0.074372309221374736 0 -0.077079431972146645 -0.050953682142663811 0 -0.080832567710134945 -0.085265223789800185 0 -0.077460787511610923 -0.070469280456870842 0 -0.094924188455715333 -0.074372309221374736 0 -0.077460787511610923 -0.070469280456870842 0 -0.094924188455715333 -0.074372309221374736 0 -0.078535685693175539 -0.061573663464548622 0 -0.080832567710134945 -0.085265223789800185 0 -0.072736864716213656 -0.076885636419884412 0 -0.077460787511610923 -0.070469280456870842 0 -0.072736864716213656 -0.076885636419884412 0 -0.077460787511610923 -0.070469280456870842 0 -0.067174029152377468 -0.071022972744677337 0 -0.077460787511610923 -0.070469280456870842 0 -0.067174029152377468 -0.071022972744677337 0 -0.070308423821052124 -0.061023041189074957 0 -0.077460787511610923 -0.070469280456870842 0 -0.078535685693175539 -0.061573663464548622 0 -0.070308423821052124 -0.061023041189074957 0 -0.067174029152377468 -0.071022972744677337 0 -0.070308423821052124 -0.061023041189074957 0 -0.060830035872249492 -0.064558057335980773 0 -0.072736864716213656 -0.076885636419884412 0 -0.067174029152377468 -0.071022972744677337 0 -0.063732237529271596 -0.080733089011810297 0 -0.067174029152377468 -0.071022972744677337 0 -0.063732237529271596 -0.080733089011810297 0 -0.058000192015007383 -0.073011667883306972 0 -0.080832567710134945 -0.085265223789800185 0 -0.063732237529271596 -0.080733089011810297 0 -0.066023591375222151 -0.09957098179305135 0 -0.080832567710134945 -0.085265223789800185 0 -0.072736864716213656 -0.076885636419884412 0 -0.063732237529271596 -0.080733089011810297 0 -0.066023591375222151 -0.09957098179305135 0 -0.069466171350113709 -0.1135628440840601 0 -0.0944050220014645 -0.1050702242089397 0 -0.066023591375222151 -0.09957098179305135 0 -0.069466171350113709 -0.1135628440840601 0 -0.054384952187449757 -0.110609208962567 0 -0.077516787342341589 -0.1242022911324857 0 -0.069466171350113709 -0.1135628440840601 0 -0.059238207921678762 -0.13024384051707169 0 -0.077516787342341589 -0.1242022911324857 0 -0.093262550211769629 -0.1231040070079162 0 -0.0944050220014645 -0.1050702242089397 0 -0.077516787342341589 -0.1242022911324857 0 -0.069466171350113709 -0.1135628440840601 0 -0.0944050220014645 -0.1050702242089397 0 -0.066023591375222151 -0.09957098179305135 0 -0.0944050220014645 -0.1050702242089397 0 -0.080832567710134945 -0.085265223789800185 0 -0.066023591375222151 -0.09957098179305135 0 -0.0944050220014645 -0.1050702242089397 0 -0.0944050220014645 -0.1050702242089397 0 -0.1071147179002416 -0.1244919901550422 0 -0.11276894493928399 -0.097790936300085646 0 -0.0944050220014645 -0.1050702242089397 0 -0.11276894493928399 -0.097790936300085646 0 -0.09573268077664969 -0.090624673380050064 0 -0.093262550211769629 -0.1231040070079162 0 -0.0944050220014645 -0.1050702242089397 0 -0.1071147179002416 -0.1244919901550422 0 -0.1071147179002416 -0.1244919901550422 0 -0.11276894493928399 -0.097790936300085646 0 -0.1306137014228527 -0.1212095633787966 0 -0.11276894493928399 -0.097790936300085646 0 -0.1306137014228527 -0.1212095633787966 0 -0.112702195828283 -0.076339248342475546 0 -0.13438499311011279 -0.096174695905308166 0 -0.11276894493928399 -0.097790936300085646 0 -0.112702195828283 -0.076339248342475546 0 -0.13438499311011279 -0.096174695905308166 0 -0.11276894493928399 -0.097790936300085646 0 -0.094924188455715333 -0.074372309221374736 0 -0.112702195828283 -0.076339248342475546 0 -0.11276894493928399 -0.097790936300085646 0 -0.094924188455715333 -0.074372309221374736 0 -0.11276894493928399 -0.097790936300085646 0 -0.09573268077664969 -0.090624673380050064 0 -0.094924188455715333 -0.074372309221374736 0 -0.094924188455715333 -0.074372309221374736 0 -0.1026030192468113 -0.064894788769428779 0 -0.112702195828283 -0.076339248342475546 0 -0.094924188455715333 -0.074372309221374736 0 -0.1026030192468113 -0.064894788769428779 0 -0.090333769324138391 -0.059362086744932152 0 -0.1026030192468113 -0.064894788769428779 0 -0.112702195828283 -0.076339248342475546 0 -0.1158705629695205 -0.060236298698018297 0 -0.112702195828283 -0.076339248342475546 0 -0.1158705629695205 -0.060236298698018297 0 -0.13497135686491851 -0.078315161523928284 0 -0.1158705629695205 -0.060236298698018297 0 -0.1150956899200111 -0.045830426672337207 0 -0.1070798181065768 -0.041876824406217303 0 -0.1158705629695205 -0.060236298698018297 0 -0.1150956899200111 -0.045830426672337207 0 -0.12809376798702951 -0.047905065599393698 0 -0.1163329610324388 -0.034474533447810513 0 -0.12530131535501859 -0.034952786400489197 0 -0.12809376798702951 -0.047905065599393698 0 -0.11023593420079281 -0.033339602888773932 0 -0.1150956899200111 -0.045830426672337207 0 -0.12809376798702951 -0.047905065599393698 0 -0.11023593420079281 -0.033339602888773932 0 -0.1163329610324388 -0.034474533447810513 0 -0.12809376798702951 -0.047905065599393698 0 -0.11023593420079281 -0.033339602888773932 0 -0.12809376798702951 -0.047905065599393698 0 -0.1163329610324388 -0.034474533447810513 0 -0.1221370268088495 -0.025998648103035 0 -0.12530131535501859 -0.034952786400489197 0 -0.11023593420079281 -0.033339602888773932 0 -0.1150956899200111 -0.045830426672337207 0 -0.1070798181065768 -0.041876824406217303 0 -0.11023593420079281 -0.033339602888773932 0 -0.1163329610324388 -0.034474533447810513 0 -0.097427134368436918 -0.027820357899848831 0 -0.11023593420079281 -0.033339602888773932 0 -0.1070798181065768 -0.041876824406217303 0 -0.097427134368436918 -0.027820357899848831 0 -0.1070798181065768 -0.041876824406217303 0 -0.096769769074122519 -0.04215743587210824 0 -0.097427134368436918 -0.027820357899848831 0 -0.1158705629695205 -0.060236298698018297 0 -0.1070798181065768 -0.041876824406217303 0 -0.096769769074122519 -0.04215743587210824 0 -0.1026030192468113 -0.064894788769428779 0 -0.1158705629695205 -0.060236298698018297 0 -0.099264754381345577 -0.055060356505970513 0 -0.1158705629695205 -0.060236298698018297 0 -0.096769769074122519 -0.04215743587210824 0 -0.099264754381345577 -0.055060356505970513 0 -0.096769769074122519 -0.04215743587210824 0 -0.099264754381345577 -0.055060356505970513 0 -0.090746651292135133 -0.048651172445365112 0 -0.1158705629695205 -0.060236298698018297 0 -0.096769769074122519 -0.04215743587210824 0 -0.1026030192468113 -0.064894788769428779 0 -0.099264754381345577 -0.055060356505970513 0 -0.090333769324138391 -0.059362086744932152 0 -0.1029392013539359 -0.0085751277431150782 0 -0.12735709500343681 0.004015926865657337 0 -0.1236693299605585 -0.0137973575501921 0 -0.1110604598185659 -0.0207882196779367 0 -0.1029392013539359 -0.0085751277431150782 0 -0.1236693299605585 -0.0137973575501921 0 -0.1029392013539359 -0.0085751277431150782 0 -0.12735709500343681 0.004015926865657337 0 -0.1236693299605585 -0.0137973575501921 0 -0.1110604598185659 -0.0207882196779367 0 -0.1221370268088495 -0.025998648103035 0 -0.1163329610324388 -0.034474533447810513 0 -0.1221370268088495 -0.025998648103035 0 -0.11173939550707281 -0.027270439782157759 0 -0.1110604598185659 -0.0207882196779367 0 -0.1221370268088495 -0.025998648103035 0 -0.11173939550707281 -0.027270439782157759 0 -0.1163329610324388 -0.034474533447810513 0 -0.097427134368436918 -0.027820357899848831 0 -0.1110604598185659 -0.0207882196779367 0 -0.097427134368436918 -0.027820357899848831 0 -0.1029392013539359 -0.0085751277431150782 0 -0.1163329610324388 -0.034474533447810513 0 -0.11173939550707281 -0.027270439782157759 0 -0.097427134368436918 -0.027820357899848831 0 -0.1110604598185659 -0.0207882196779367 0 -0.11173939550707281 -0.027270439782157759 0 -0.097427134368436918 -0.027820357899848831 0 -0.1029392013539359 -0.0085751277431150782 0 -0.086097875964997059 -0.0058870606910941042 0 -0.078521307704434995 -0.021166182351887271 0 -0.1029392013539359 -0.0085751277431150782 0 -0.078521307704434995 -0.021166182351887271 0 -0.1029392013539359 -0.0085751277431150782 0 -0.086097875964997059 -0.0058870606910941042 0 -0.091682611010439896 0.0063963380850077774 0 -0.086097875964997059 -0.0058870606910941042 0 -0.073830544796709738 -0.0078542708917730738 0 -0.078933949510919491 0.00072378658541613432 0 -0.086097875964997059 -0.0058870606910941042 0 -0.078521307704434995 -0.021166182351887271 0 -0.073830544796709738 -0.0078542708917730738 0 -0.097427134368436918 -0.027820357899848831 0 -0.078521307704434995 -0.021166182351887271 0 -0.097427134368436918 -0.027820357899848831 0 -0.078521307704434995 -0.021166182351887271 0 -0.077668975178724509 -0.024078573046198169 0 -0.097427134368436918 -0.027820357899848831 0 -0.1029392013539359 -0.0085751277431150782 0 -0.078521307704434995 -0.021166182351887271 0 -0.078521307704434995 -0.021166182351887271 0 -0.055132092173872667 -0.033226800447327051 0 -0.05822397002114936 -0.01402224463886402 0 -0.078521307704434995 -0.021166182351887271 0 -0.055132092173872667 -0.033226800447327051 0 -0.077668975178724509 -0.024078573046198169 0 -0.075465350998538308 -0.032772608828030472 0 -0.055132092173872667 -0.033226800447327051 0 -0.078521307704434995 -0.021166182351887271 0 -0.077668975178724509 -0.024078573046198169 0 -0.055132092173872667 -0.033226800447327051 0 -0.078521307704434995 -0.021166182351887271 0 -0.05822397002114936 -0.01402224463886402 0 -0.078521307704434995 -0.021166182351887271 0 -0.073830544796709738 -0.0078542708917730738 0 -0.05822397002114936 -0.01402224463886402 0 -0.073830544796709738 -0.0078542708917730738 0 -0.05822397002114936 -0.01402224463886402 0 -0.068462160169621672 0.0025537029525893409 0 -0.073830544796709738 -0.0078542708917730738 0 -0.078933949510919491 0.00072378658541613432 0 -0.068462160169621672 0.0025537029525893409 0 -0.094924188455715333 -0.074372309221374736 0 -0.090333769324138391 -0.059362086744932152 0 -0.077079431972146645 -0.050953682142663811 0 -0.094924188455715333 -0.074372309221374736 0 -0.078535685693175539 -0.061573663464548622 0 -0.077079431972146645 -0.050953682142663811 0 -0.084868245962835154 -0.053326759561897898 0 -0.090333769324138391 -0.059362086744932152 0 -0.077079431972146645 -0.050953682142663811 0 -0.084868245962835154 -0.053326759561897898 0 -0.080876314157704687 -0.04955372347343575 0 -0.082849096915408454 -0.045583035938281863 0 -0.080876314157704687 -0.04955372347343575 0 -0.078708481780428496 -0.048351416250899462 0 -0.082849096915408454 -0.045583035938281863 0 -0.080876314157704687 -0.04955372347343575 0 -0.078708481780428496 -0.048351416250899462 0 -0.077079431972146645 -0.050953682142663811 0 -0.084868245962835154 -0.053326759561897898 0 -0.080876314157704687 -0.04955372347343575 0 -0.077079431972146645 -0.050953682142663811 0 -0.084868245962835154 -0.053326759561897898 0 -0.090746651292135133 -0.048651172445365112 0 -0.082849096915408454 -0.045583035938281863 0 -0.084868245962835154 -0.053326759561897898 0 -0.090333769324138391 -0.059362086744932152 0 -0.090746651292135133 -0.048651172445365112 0 -0.099264754381345577 -0.055060356505970513 0 -0.090333769324138391 -0.059362086744932152 0 -0.090746651292135133 -0.048651172445365112 0 -0.096769769074122519 -0.04215743587210824 0 -0.088481073739883592 -0.043344290748051233 0 -0.083558777677868248 -0.036985518736449702 0 -0.096769769074122519 -0.04215743587210824 0 -0.097427134368436918 -0.027820357899848831 0 -0.077668975178724509 -0.024078573046198169 0 -0.096769769074122519 -0.04215743587210824 0 -0.077668975178724509 -0.024078573046198169 0 -0.083558777677868248 -0.036985518736449702 0 -0.096769769074122519 -0.04215743587210824 0 -0.077668975178724509 -0.024078573046198169 0 -0.090746651292135133 -0.048651172445365112 0 -0.088481073739883592 -0.043344290748051233 0 -0.082849096915408454 -0.045583035938281863 0 -0.096769769074122519 -0.04215743587210824 0 -0.090746651292135133 -0.048651172445365112 0 -0.088481073739883592 -0.043344290748051233 0 -0.077668975178724509 -0.024078573046198169 0 -0.083558777677868248 -0.036985518736449702 0 -0.075465350998538308 -0.032772608828030472 0 -0.083558777677868248 -0.036985518736449702 0 -0.082849096915408454 -0.045583035938281863 0 -0.075062618692292638 -0.040325846155841297 0 -0.088481073739883592 -0.043344290748051233 0 -0.083558777677868248 -0.036985518736449702 0 -0.082849096915408454 -0.045583035938281863 0 -0.082849096915408454 -0.045583035938281863 0 -0.078067002861142085 -0.04575568247049161 0 -0.075062618692292638 -0.040325846155841297 0 -0.078708481780428496 -0.048351416250899462 0 -0.082849096915408454 -0.045583035938281863 0 -0.078067002861142085 -0.04575568247049161 0 -0.075647814056438792 -0.048762431536943832 0 -0.055132092173872667 -0.033226800447327051 0 -0.078067002861142085 -0.04575568247049161 0 -0.075062618692292638 -0.040325846155841297 0 -0.075647814056438792 -0.048762431536943832 0 -0.075062618692292638 -0.040325846155841297 0 -0.075465350998538308 -0.032772608828030472 0 -0.055132092173872667 -0.033226800447327051 0 -0.075647814056438792 -0.048762431536943832 0 -0.061428605263776047 -0.046553119166432878 0 -0.055132092173872667 -0.033226800447327051 0 -0.075062618692292638 -0.040325846155841297 0 -0.075647814056438792 -0.048762431536943832 0 -0.055132092173872667 -0.033226800447327051 0 -0.083558777677868248 -0.036985518736449702 0 -0.075062618692292638 -0.040325846155841297 0 -0.075465350998538308 -0.032772608828030472 0 -0.065722760200719738 -0.052253177456942877 0 -0.075647814056438792 -0.048762431536943832 0 -0.061428605263776047 -0.046553119166432878 0 -0.065722760200719738 -0.052253177456942877 0 -0.07269306068786438 -0.052406879740114577 0 -0.069833853901725543 -0.055329661047837618 0 -0.065722760200719738 -0.052253177456942877 0 -0.07269306068786438 -0.052406879740114577 0 -0.075647814056438792 -0.048762431536943832 0 -0.07269306068786438 -0.052406879740114577 0 -0.073703714626092445 -0.056102563442451223 0 -0.069833853901725543 -0.055329661047837618 0 -0.07269306068786438 -0.052406879740114577 0 -0.077079431972146645 -0.050953682142663811 0 -0.073703714626092445 -0.056102563442451223 0 -0.078708481780428496 -0.048351416250899462 0 -0.077079431972146645 -0.050953682142663811 0 -0.075647814056438792 -0.048762431536943832 0 -0.07269306068786438 -0.052406879740114577 0 -0.077079431972146645 -0.050953682142663811 0 -0.075647814056438792 -0.048762431536943832 0 -0.078708481780428496 -0.048351416250899462 0 -0.078067002861142085 -0.04575568247049161 0 -0.075647814056438792 -0.048762431536943832 0 -0.078535685693175539 -0.061573663464548622 0 -0.073703714626092445 -0.056102563442451223 0 -0.070308423821052124 -0.061023041189074957 0 -0.078535685693175539 -0.061573663464548622 0 -0.077079431972146645 -0.050953682142663811 0 -0.073703714626092445 -0.056102563442451223 0 -0.073703714626092445 -0.056102563442451223 0 -0.070308423821052124 -0.061023041189074957 0 -0.069833853901725543 -0.055329661047837618 0 -0.070308423821052124 -0.061023041189074957 0 -0.064391701294429504 -0.057679717025484439 0 -0.060830035872249492 -0.064558057335980773 0 -0.070308423821052124 -0.061023041189074957 0 -0.069833853901725543 -0.055329661047837618 0 -0.064391701294429504 -0.057679717025484439 0 -0.065722760200719738 -0.052253177456942877 0 -0.069833853901725543 -0.055329661047837618 0 -0.064391701294429504 -0.057679717025484439 0 -0.064391701294429504 -0.057679717025484439 0 -0.055978059279945473 -0.056388284161067823 0 -0.060830035872249492 -0.064558057335980773 0 -0.065722760200719738 -0.052253177456942877 0 -0.064391701294429504 -0.057679717025484439 0 -0.055978059279945473 -0.056388284161067823 0 -0.055978059279945473 -0.056388284161067823 0 -0.041230103293456458 -0.058058117591144771 0 -0.049479852383656611 -0.067543566470139038 0 -0.055978059279945473 -0.056388284161067823 0 -0.049741921456861897 -0.048697412542500033 0 -0.041230103293456458 -0.058058117591144771 0 -0.055978059279945473 -0.056388284161067823 0 -0.049741921456861897 -0.048697412542500033 0 -0.061428605263776047 -0.046553119166432878 0 -0.065722760200719738 -0.052253177456942877 0 -0.055978059279945473 -0.056388284161067823 0 -0.061428605263776047 -0.046553119166432878 0 -0.049741921456861897 -0.048697412542500033 0 -0.061428605263776047 -0.046553119166432878 0 -0.055132092173872667 -0.033226800447327051 0 -0.049741921456861897 -0.048697412542500033 0 -0.055132092173872667 -0.033226800447327051 0 -0.032367863380537598 -0.044965144957206583 0 -0.055132092173872667 -0.033226800447327051 0 -0.032367863380537598 -0.044965144957206583 0 -0.055132092173872667 -0.033226800447327051 0 -0.032367863380537598 -0.044965144957206583 0 -0.031233838643279398 -0.031193199633022049 0 -0.049741921456861897 -0.048697412542500033 0 -0.032367863380537598 -0.044965144957206583 0 -0.041230103293456458 -0.058058117591144771 0 -0.032367863380537598 -0.044965144957206583 0 -0.041230103293456458 -0.058058117591144771 0 -0.026902341230915561 -0.060374551747501753 0 -0.05822397002114936 -0.01402224463886402 0 -0.057836245250817257 0.0062936453779614283 0 -0.044352522143416888 0.0050416822031405977 0 -0.05822397002114936 -0.01402224463886402 0 -0.037926632337863607 -0.0068783069258408786 0 -0.05822397002114936 -0.01402224463886402 0 -0.068462160169621672 0.0025537029525893409 0 -0.057836245250817257 0.0062936453779614283 0 -0.055132092173872667 -0.033226800447327051 0 -0.05822397002114936 -0.01402224463886402 0 -0.036243114184870161 -0.018923029155399909 0 -0.055132092173872667 -0.033226800447327051 0 -0.036243114184870161 -0.018923029155399909 0 -0.031233838643279398 -0.031193199633022049 0 -0.055132092173872667 -0.033226800447327051 0 -0.036243114184870161 -0.018923029155399909 0 -0.05822397002114936 -0.01402224463886402 0 -0.036243114184870161 -0.018923029155399909 0 -0.037926632337863607 -0.0068783069258408786 0 -0.05822397002114936 -0.01402224463886402 0 -0.037926632337863607 -0.0068783069258408786 0 -0.044352522143416888 0.0050416822031405977 0 -0.036243114184870161 -0.018923029155399909 0 -0.037926632337863607 -0.0068783069258408786 0 -0.029121832422534862 -0.0067169982391169078 0 -0.037926632337863607 -0.0068783069258408786 0 -0.029539197120254941 -0.00051038393964639519 0 -0.029121832422534862 -0.0067169982391169078 0 -0.037926632337863607 -0.0068783069258408786 0 -0.029539197120254941 -0.00051038393964639519 0 -0.03614709390981162 0.0015378833132510439 0 -0.037926632337863607 -0.0068783069258408786 0 -0.03614709390981162 0.0015378833132510439 0 -0.044352522143416888 0.0050416822031405977 0 -0.036243114184870161 -0.018923029155399909 0 -0.017354136195868258 -0.0046192578634720229 0 -0.01819617019275287 -0.0061732580868559192 0 -0.036243114184870161 -0.018923029155399909 0 -0.017354136195868258 -0.0046192578634720229 0 -0.029121832422534862 -0.0067169982391169078 0 -0.036243114184870161 -0.018923029155399909 0 -0.01819617019275287 -0.0061732580868559192 0 -0.019637671972121611 -0.02148729346067638 0 -0.036243114184870161 -0.018923029155399909 0 -0.017354136195868258 -0.0046192578634720229 0 -0.017354136195868258 -0.0046192578634720229 0 -0.01819617019275287 -0.0061732580868559192 0 -0.013500839782477779 -0.0058155532537883976 0 -0.017354136195868258 -0.0046192578634720229 0 -0.01819617019275287 -0.0061732580868559192 0 -0.017354136195868258 -0.0046192578634720229 0 -0.024546082273817361 -0.00265401331122534 0 -0.02112675760807068 0.0030512678310729521 0 -0.024546082273817361 -0.00265401331122534 0 -0.029539197120254941 -0.00051038393964639519 0 -0.02112675760807068 0.0030512678310729521 0 -0.017354136195868258 -0.0046192578634720229 0 -0.024546082273817361 -0.00265401331122534 0 -0.029121832422534862 -0.0067169982391169078 0 -0.024546082273817361 -0.00265401331122534 0 -0.029539197120254941 -0.00051038393964639519 0 -0.029121832422534862 -0.0067169982391169078 0 -0.01819617019275287 -0.0061732580868559192 0 -0.019637671972121611 -0.02148729346067638 0 -0.011008321991883009 -0.01057962122923565 0 -0.036243114184870161 -0.018923029155399909 0 -0.019637671972121611 -0.02148729346067638 0 -0.031233838643279398 -0.031193199633022049 0 -0.019637671972121611 -0.02148729346067638 0 -0.031233838643279398 -0.031193199633022049 0 -0.016064986363794779 -0.036441041599790329 0 -0.0077215053668332834 -0.022860670268973711 0 -0.00118246574067416 -0.01324232368796026 0 0.0015263381015913891 -0.033415212413580753 0 -0.0077215053668332834 -0.022860670268973711 0 -0.016064986363794779 -0.036441041599790329 0 0.0015263381015913891 -0.033415212413580753 0 -0.019637671972121611 -0.02148729346067638 0 -0.0077215053668332834 -0.022860670268973711 0 -0.016064986363794779 -0.036441041599790329 0 -0.019637671972121611 -0.02148729346067638 0 -0.0077215053668332834 -0.022860670268973711 0 -0.011008321991883009 -0.01057962122923565 0 -0.011008321991883009 -0.01057962122923565 0 -0.00118246574067416 -0.01324232368796026 0 -0.0072764121498596901 -0.0036325873431357339 0 -0.0077215053668332834 -0.022860670268973711 0 -0.011008321991883009 -0.01057962122923565 0 -0.00118246574067416 -0.01324232368796026 0 -0.00118246574067416 -0.01324232368796026 0 -0.0072764121498596901 -0.0036325873431357339 0 0.0012074066645448821 -0.00065723147797176382 0 -0.0072764121498596901 -0.0036325873431357339 0 -0.013500839782477779 -0.0058155532537883976 0 -0.013607688627124061 -0.00178224205395049 0 -0.011008321991883009 -0.01057962122923565 0 -0.0072764121498596901 -0.0036325873431357339 0 -0.013500839782477779 -0.0058155532537883976 0 -0.01819617019275287 -0.0061732580868559192 0 -0.011008321991883009 -0.01057962122923565 0 -0.013500839782477779 -0.0058155532537883976 0 -0.017354136195868258 -0.0046192578634720229 0 -0.013500839782477779 -0.0058155532537883976 0 -0.013607688627124061 -0.00178224205395049 0 -0.017354136195868258 -0.0046192578634720229 0 -0.013607688627124061 -0.00178224205395049 0 -0.032367863380537598 -0.044965144957206583 0 -0.0096036345872028556 -0.056703489467087059 0 -0.032367863380537598 -0.044965144957206583 0 -0.026902341230915561 -0.060374551747501753 0 -0.0096036345872028556 -0.056703489467087059 0 -0.032367863380537598 -0.044965144957206583 0 -0.031233838643279398 -0.031193199633022049 0 -0.016064986363794779 -0.036441041599790329 0 -0.032367863380537598 -0.044965144957206583 0 -0.016064986363794779 -0.036441041599790329 0 -0.0096036345872028556 -0.056703489467087059 0 -0.0096036345872028556 -0.056703489467087059 0 0.0015263381015913891 -0.033415212413580753 0 -0.016064986363794779 -0.036441041599790329 0 -0.0096036345872028556 -0.056703489467087059 0 0.0015263381015913891 -0.033415212413580753 0 -0.0096036345872028556 -0.056703489467087059 0 0.0015263381015913891 -0.033415212413580753 0 0.007298405735321048 -0.051477207310420908 0 -0.0096036345872028556 -0.056703489467087059 0 0.0052181775422467033 -0.064346337314722044 0 -0.0096036345872028556 -0.056703489467087059 0 -0.0043762627118289626 -0.071729097412358583 0 0.0052181775422467033 -0.064346337314722044 0 -0.0043762627118289626 -0.071729097412358583 0 -0.0092607301227374331 -0.088572496961274561 0 -0.01646375475339092 -0.071057556949349329 0 -0.0096036345872028556 -0.056703489467087059 0 -0.01646375475339092 -0.071057556949349329 0 -0.0096036345872028556 -0.056703489467087059 0 -0.0043762627118289626 -0.071729097412358583 0 -0.01646375475339092 -0.071057556949349329 0 -0.0092607301227374331 -0.088572496961274561 0 -0.00044729776891663488 -0.1011528385718463 0 0.0042106568376920582 -0.081118225430045127 0 -0.0043762627118289626 -0.071729097412358583 0 -0.0092607301227374331 -0.088572496961274561 0 0.0042106568376920582 -0.081118225430045127 0 -0.0092607301227374331 -0.088572496961274561 0 -0.037642160748979789 -0.094071739377162955 0 -0.0092607301227374331 -0.088572496961274561 0 -0.023323874919582349 -0.085411624431610003 0 -0.01646375475339092 -0.071057556949349329 0 -0.0092607301227374331 -0.088572496961274561 0 -0.023323874919582349 -0.085411624431610003 0 -0.037642160748979789 -0.094071739377162955 0 -0.023323874919582349 -0.085411624431610003 0 -0.01646375475339092 -0.071057556949349329 0 -0.023323874919582349 -0.085411624431610003 0 -0.01646375475339092 -0.071057556949349329 0 -0.034846350139989962 -0.07108844977272101 0 -0.026902341230915561 -0.060374551747501753 0 -0.01646375475339092 -0.071057556949349329 0 -0.034846350139989962 -0.07108844977272101 0 -0.026902341230915561 -0.060374551747501753 0 -0.0096036345872028556 -0.056703489467087059 0 -0.01646375475339092 -0.071057556949349329 0 -0.041230103293456458 -0.058058117591144771 0 -0.026902341230915561 -0.060374551747501753 0 -0.034846350139989962 -0.07108844977272101 0 -0.041230103293456458 -0.058058117591144771 0 -0.034846350139989962 -0.07108844977272101 0 -0.049479852383656611 -0.067543566470139038 0 -0.034846350139989962 -0.07108844977272101 0 -0.048784805137481749 -0.081200653853927454 0 -0.049479852383656611 -0.067543566470139038 0 -0.023323874919582349 -0.085411624431610003 0 -0.034846350139989962 -0.07108844977272101 0 -0.036149297736508462 -0.082943116858855345 0 -0.023323874919582349 -0.085411624431610003 0 -0.036149297736508462 -0.082943116858855345 0 -0.037642160748979789 -0.094071739377162955 0 -0.036149297736508462 -0.082943116858855345 0 -0.048784805137481749 -0.081200653853927454 0 -0.037642160748979789 -0.094071739377162955 0 -0.034846350139989962 -0.07108844977272101 0 -0.036149297736508462 -0.082943116858855345 0 -0.048784805137481749 -0.081200653853927454 0 -0.063732237529271596 -0.080733089011810297 0 -0.066023591375222151 -0.09957098179305135 0 -0.048784805137481749 -0.081200653853927454 0 -0.066023591375222151 -0.09957098179305135 0 -0.048784805137481749 -0.081200653853927454 0 -0.037642160748979789 -0.094071739377162955 0 -0.063732237529271596 -0.080733089011810297 0 -0.048784805137481749 -0.081200653853927454 0 -0.058000192015007383 -0.073011667883306972 0 -0.055978059279945473 -0.056388284161067823 0 -0.060830035872249492 -0.064558057335980773 0 -0.049479852383656611 -0.067543566470139038 0 -0.058000192015007383 -0.073011667883306972 0 -0.060830035872249492 -0.064558057335980773 0 -0.049479852383656611 -0.067543566470139038 0 -0.067174029152377468 -0.071022972744677337 0 -0.058000192015007383 -0.073011667883306972 0 -0.060830035872249492 -0.064558057335980773 0 -0.048784805137481749 -0.081200653853927454 0 -0.058000192015007383 -0.073011667883306972 0 -0.049479852383656611 -0.067543566470139038 0 -0.069466171350113709 -0.1135628440840601 0 -0.054384952187449757 -0.110609208962567 0 -0.059238207921678762 -0.13024384051707169 0 -0.054384952187449757 -0.110609208962567 0 -0.059238207921678762 -0.13024384051707169 0 -0.032945469352336033 -0.1293562392835419 0 -0.066023591375222151 -0.09957098179305135 0 -0.054384952187449757 -0.110609208962567 0 -0.037642160748979789 -0.094071739377162955 0 -0.066023591375222151 -0.09957098179305135 0 -0.037642160748979789 -0.094071739377162955 0 -0.054384952187449757 -0.110609208962567 0 -0.037642160748979789 -0.094071739377162955 0 -0.035661083064217503 -0.11124856921529409 0 -0.054384952187449757 -0.110609208962567 0 -0.032945469352336033 -0.1293562392835419 0 -0.054384952187449757 -0.110609208962567 0 -0.035661083064217503 -0.11124856921529409 0 -0.032945469352336033 -0.1293562392835419 0 -0.01767174996810443 -0.1109570892379047 0 -0.012892303975098539 -0.12786221844410239 0 -0.032945469352336033 -0.1293562392835419 0 -0.035661083064217503 -0.11124856921529409 0 -0.01767174996810443 -0.1109570892379047 0 -0.032945469352336033 -0.1293562392835419 0 -0.0092607301227374331 -0.088572496961274561 0 -0.037642160748979789 -0.094071739377162955 0 -0.01767174996810443 -0.1109570892379047 0 -0.037642160748979789 -0.094071739377162955 0 -0.035661083064217503 -0.11124856921529409 0 -0.01767174996810443 -0.1109570892379047 0 -0.01767174996810443 -0.1109570892379047 0 -0.00044729776891663488 -0.1011528385718463 0 0.005085065621477718 -0.1151057880332567 0 -0.0092607301227374331 -0.088572496961274561 0 -0.01767174996810443 -0.1109570892379047 0 -0.00044729776891663488 -0.1011528385718463 0 -0.01767174996810443 -0.1109570892379047 0 -0.012892303975098539 -0.12786221844410239 0 0.005085065621477718 -0.1151057880332567 0 -0.012892303975098539 -0.12786221844410239 0 0.0027021066240326768 -0.1317064378292063 0 0.005085065621477718 -0.1151057880332567 0 -0.011505986517222349 -0.14810326960451681 0 -0.033736789854580403 -0.16402697950055581 0 -0.032945469352336033 -0.1293562392835419 0 -0.012892303975098539 -0.12786221844410239 0 -0.011505986517222349 -0.14810326960451681 0 0.0027021066240326768 -0.1317064378292063 0 -0.011505986517222349 -0.14810326960451681 0 -0.032945469352336033 -0.1293562392835419 0 -0.012892303975098539 -0.12786221844410239 0 -0.011505986517222349 -0.14810326960451681 0 -0.032945469352336033 -0.1293562392835419 0 -0.011505986517222349 -0.14810326960451681 0 0.009933496317892726 -0.16685029992549011 0 -0.011505986517222349 -0.14810326960451681 0 -0.0085976242789068957 -0.177408956520272 0 0.009933496317892726 -0.16685029992549011 0 -0.0085976242789068957 -0.177408956520272 0 -0.003739977245034012 -0.19168309442994089 0 -0.02712874487570623 -0.18796761311505439 0 -0.0085976242789068957 -0.177408956520272 0 -0.003739977245034012 -0.19168309442994089 0 0.0034571977838801569 -0.17702496179755631 0 -0.0085976242789068957 -0.177408956520272 0 -0.02712874487570623 -0.18796761311505439 0 -0.0085976242789068957 -0.177408956520272 0 -0.033736789854580403 -0.16402697950055581 0 -0.02712874487570623 -0.18796761311505439 0 -0.011505986517222349 -0.14810326960451681 0 -0.0085976242789068957 -0.177408956520272 0 -0.033736789854580403 -0.16402697950055581 0 -0.033736789854580403 -0.16402697950055581 0 -0.041678182321736049 -0.18065303021324261 0 -0.02712874487570623 -0.18796761311505439 0 -0.033736789854580403 -0.16402697950055581 0 -0.041678182321736049 -0.18065303021324261 0 -0.060187329084152079 -0.17209125852752319 0 -0.041678182321736049 -0.18065303021324261 0 -0.060187329084152079 -0.17209125852752319 0 -0.045659865472505487 -0.198526269709837 0 -0.060187329084152079 -0.17209125852752319 0 -0.045659865472505487 -0.198526269709837 0 -0.033736789854580403 -0.16402697950055581 0 -0.060187329084152079 -0.17209125852752319 0 -0.051699405537506939 -0.14899167338562519 0 -0.060187329084152079 -0.17209125852752319 0 -0.051699405537506939 -0.14899167338562519 0 -0.072389231474787458 -0.1492400490994332 0 -0.051699405537506939 -0.14899167338562519 0 -0.059238207921678762 -0.13024384051707169 0 -0.072389231474787458 -0.1492400490994332 0 -0.033736789854580403 -0.16402697950055581 0 -0.051699405537506939 -0.14899167338562519 0 -0.032945469352336033 -0.1293562392835419 0 -0.051699405537506939 -0.14899167338562519 0 -0.059238207921678762 -0.13024384051707169 0 -0.032945469352336033 -0.1293562392835419 0 -0.025857267464119819 -0.25506418495113531 0 -0.02368513365757598 -0.23851275990414511 0 -0.036167443228362108 -0.24337299090061551 0 -0.01269776775011346 -0.25850600500130039 0 -0.02368513365757598 -0.23851275990414511 0 -0.01269776775011346 -0.25850600500130039 0 -0.02368513365757598 -0.23851275990414511 0 -0.01082738352359053 -0.24876902592697839 0 -0.02368513365757598 -0.23851275990414511 0 -0.0067432183097289999 -0.239968376336817 0 -0.0090267388034834407 -0.23007068799598671 0 -0.02368513365757598 -0.23851275990414511 0 -0.01082738352359053 -0.24876902592697839 0 -0.0067432183097289999 -0.239968376336817 0 -0.01082738352359053 -0.24876902592697839 0 -0.0029313858115674811 -0.24854412401401971 0 -0.0067432183097289999 -0.239968376336817 0 -0.0029313858115674811 -0.24854412401401971 0 -0.0067432183097289999 -0.239968376336817 0 0.0026199421412959989 -0.2430643023623929 0 -0.0067432183097289999 -0.239968376336817 0 0.0026199421412959989 -0.2430643023623929 0 0.0017465435191736189 -0.23378549097037141 0 -0.0067432183097289999 -0.239968376336817 0 -0.0090267388034834407 -0.23007068799598671 0 0.0017465435191736189 -0.23378549097037141 0 -0.0090267388034834407 -0.23007068799598671 0 -0.00080535468136348092 -0.21995366459000901 0 -0.01839049427805331 -0.2195873775130934 0 -0.0090267388034834407 -0.23007068799598671 0 -0.00080535468136348092 -0.21995366459000901 0 0.0017465435191736189 -0.23378549097037141 0 -0.02368513365757598 -0.23851275990414511 0 -0.0090267388034834407 -0.23007068799598671 0 -0.01839049427805331 -0.2195873775130934 0 -0.02368513365757598 -0.23851275990414511 0 -0.01839049427805331 -0.2195873775130934 0 -0.034672499565036527 -0.2185195148069887 0 -0.02368513365757598 -0.23851275990414511 0 -0.034672499565036527 -0.2185195148069887 0 -0.01839049427805331 -0.2195873775130934 0 -0.027127261386640289 -0.20489204062456881 0 -0.034672499565036527 -0.2185195148069887 0 -0.01839049427805331 -0.2195873775130934 0 -0.027127261386640289 -0.20489204062456881 0 -0.01084996336714465 -0.20584666152463099 0 -0.00080535468136348092 -0.21995366459000901 0 -0.01839049427805331 -0.2195873775130934 0 -0.01084996336714465 -0.20584666152463099 0 -0.00080535468136348092 -0.21995366459000901 0 -0.01084996336714465 -0.20584666152463099 0 0.01016515501406726 -0.20926501301563591 0 -0.01084996336714465 -0.20584666152463099 0 -0.003739977245034012 -0.19168309442994089 0 0.01016515501406726 -0.20926501301563591 0 -0.01084996336714465 -0.20584666152463099 0 -0.003739977245034012 -0.19168309442994089 0 -0.02712874487570623 -0.18796761311505439 0 -0.027127261386640289 -0.20489204062456881 0 -0.01084996336714465 -0.20584666152463099 0 -0.02712874487570623 -0.18796761311505439 0 -0.041678182321736049 -0.18065303021324261 0 -0.02712874487570623 -0.18796761311505439 0 -0.045659865472505487 -0.198526269709837 0 -0.02712874487570623 -0.18796761311505439 0 -0.045659865472505487 -0.198526269709837 0 -0.027127261386640289 -0.20489204062456881 0 -0.02712874487570623 -0.18796761311505439 0 -0.045659865472505487 -0.198526269709837 0 -0.045659865472505487 -0.198526269709837 0 -0.067682806497079445 -0.21107449474949169 0 -0.062708331551170268 -0.19442045911658551 0 -0.060187329084152079 -0.17209125852752319 0 -0.045659865472505487 -0.198526269709837 0 -0.062708331551170268 -0.19442045911658551 0 -0.045659865472505487 -0.198526269709837 0 -0.067682806497079445 -0.21107449474949169 0 -0.045659865472505487 -0.198526269709837 0 -0.054546183461555722 -0.22015285450131489 0 -0.067682806497079445 -0.21107449474949169 0 -0.045659865472505487 -0.198526269709837 0 -0.034672499565036527 -0.2185195148069887 0 -0.054546183461555722 -0.22015285450131489 0 -0.045659865472505487 -0.198526269709837 0 -0.034672499565036527 -0.2185195148069887 0 -0.027127261386640289 -0.20489204062456881 0 -0.045659865472505487 -0.198526269709837 0 -0.034672499565036527 -0.2185195148069887 0 -0.034672499565036527 -0.2185195148069887 0 -0.044145410485190079 -0.23242073182379891 0 -0.054546183461555722 -0.22015285450131489 0 -0.02368513365757598 -0.23851275990414511 0 -0.034672499565036527 -0.2185195148069887 0 -0.044145410485190079 -0.23242073182379891 0 -0.044145410485190079 -0.23242073182379891 0 -0.054546183461555722 -0.22015285450131489 0 -0.061280333386656921 -0.23284462843810469 0 -0.061280333386656921 -0.23284462843810469 0 -0.050191684441297867 -0.2485850187836515 0 -0.071591358857016049 -0.2429226102204386 0 -0.050191684441297867 -0.2485850187836515 0 -0.071591358857016049 -0.2429226102204386 0 -0.056939497423126581 -0.24878681181634871 0 -0.050191684441297867 -0.2485850187836515 0 -0.071591358857016049 -0.2429226102204386 0 -0.044145410485190079 -0.23242073182379891 0 -0.061280333386656921 -0.23284462843810469 0 -0.050191684441297867 -0.2485850187836515 0 -0.041398382443623198 -0.25192549838374201 0 -0.056939497423126581 -0.24878681181634871 0 -0.050191684441297867 -0.2485850187836515 0 -0.044145410485190079 -0.23242073182379891 0 -0.050191684441297867 -0.2485850187836515 0 -0.036167443228362108 -0.24337299090061551 0 -0.02368513365757598 -0.23851275990414511 0 -0.044145410485190079 -0.23242073182379891 0 -0.036167443228362108 -0.24337299090061551 0 -0.025857267464119819 -0.25506418495113531 0 -0.050191684441297867 -0.2485850187836515 0 -0.036167443228362108 -0.24337299090061551 0 -0.097628444613881649 -0.25834262822693399 0 -0.087470553331264578 -0.24262075389877999 0 -0.077955776651182085 -0.24454236002529731 0 -0.087470553331264578 -0.24262075389877999 0 -0.087928467376508473 -0.23859976953689591 0 -0.1005617376665941 -0.23997685579502359 0 -0.087928467376508473 -0.23859976953689591 0 -0.07453604668454375 -0.2421434382925548 0 -0.07383618536286593 -0.22753148747966839 0 -0.087928467376508473 -0.23859976953689591 0 -0.07453604668454375 -0.2421434382925548 0 -0.087928467376508473 -0.23859976953689591 0 -0.077955776651182085 -0.24454236002529731 0 -0.07453604668454375 -0.2421434382925548 0 -0.087470553331264578 -0.24262075389877999 0 -0.087928467376508473 -0.23859976953689591 0 -0.077955776651182085 -0.24454236002529731 0 -0.087470553331264578 -0.24262075389877999 0 -0.077955776651182085 -0.24454236002529731 0 -0.056939497423126581 -0.24878681181634871 0 -0.077955776651182085 -0.24454236002529731 0 -0.071591358857016049 -0.2429226102204386 0 -0.056939497423126581 -0.24878681181634871 0 -0.077955776651182085 -0.24454236002529731 0 -0.077955776651182085 -0.24454236002529731 0 -0.071591358857016049 -0.2429226102204386 0 -0.07453604668454375 -0.2421434382925548 0 -0.077955776651182085 -0.24454236002529731 0 -0.07453604668454375 -0.2421434382925548 0 -0.071591358857016049 -0.2429226102204386 0 -0.07453604668454375 -0.2421434382925548 0 -0.056939497423126581 -0.24878681181634871 0 -0.071591358857016049 -0.2429226102204386 0 -0.061280333386656921 -0.23284462843810469 0 -0.071591358857016049 -0.2429226102204386 0 -0.07453604668454375 -0.2421434382925548 0 -0.061280333386656921 -0.23284462843810469 0 -0.07453604668454375 -0.2421434382925548 0 -0.07383618536286593 -0.22753148747966839 0 -0.089705747521653334 -0.22362271978914661 0 -0.067682806497079445 -0.21107449474949169 0 -0.054546183461555722 -0.22015285450131489 0 -0.061280333386656921 -0.23284462843810469 0 -0.07383618536286593 -0.22753148747966839 0 -0.054546183461555722 -0.22015285450131489 0 -0.07383618536286593 -0.22753148747966839 0 -0.067682806497079445 -0.21107449474949169 0 -0.061280333386656921 -0.23284462843810469 0 -0.07453604668454375 -0.2421434382925548 0 -0.07383618536286593 -0.22753148747966839 0 -0.087928467376508473 -0.23859976953689591 0 -0.07383618536286593 -0.22753148747966839 0 -0.089705747521653334 -0.22362271978914661 0 -0.087928467376508473 -0.23859976953689591 0 -0.089705747521653334 -0.22362271978914661 0 -0.1005617376665941 -0.23997685579502359 0 -0.089705747521653334 -0.22362271978914661 0 -0.067682806497079445 -0.21107449474949169 0 -0.089705747521653334 -0.22362271978914661 0 -0.084027466008495671 -0.20735524824550181 0 -0.09921486728828334 -0.20109800384388701 0 -0.089705747521653334 -0.22362271978914661 0 -0.084027466008495671 -0.20735524824550181 0 -0.067682806497079445 -0.21107449474949169 0 -0.084027466008495671 -0.20735524824550181 0 -0.067682806497079445 -0.21107449474949169 0 -0.079506442726966622 -0.19362577459948219 0 -0.067682806497079445 -0.21107449474949169 0 -0.062708331551170268 -0.19442045911658551 0 -0.079506442726966622 -0.19362577459948219 0 -0.079506442726966622 -0.19362577459948219 0 -0.09921486728828334 -0.20109800384388701 0 -0.089369030920126963 -0.1732707743578942 0 -0.084027466008495671 -0.20735524824550181 0 -0.079506442726966622 -0.19362577459948219 0 -0.09921486728828334 -0.20109800384388701 0 -0.09921486728828334 -0.20109800384388701 0 -0.1156293974943295 -0.1822747327150937 0 -0.1210853022939376 -0.205467400633562 0 -0.1156293974943295 -0.1822747327150937 0 -0.13505851963374399 -0.18906788910329131 0 -0.09921486728828334 -0.20109800384388701 0 -0.1210853022939376 -0.205467400633562 0 -0.1156293974943295 -0.1822747327150937 0 -0.1210853022939376 -0.205467400633562 0 -0.10755849924533691 -0.2178899443088799 0 -0.11989889803527461 -0.22145143588075511 0 -0.1210853022939376 -0.205467400633562 0 -0.11989889803527461 -0.22145143588075511 0 -0.13086176299679239 -0.21746526838305219 0 -0.089705747521653334 -0.22362271978914661 0 -0.09921486728828334 -0.20109800384388701 0 -0.10755849924533691 -0.2178899443088799 0 -0.09921486728828334 -0.20109800384388701 0 -0.1210853022939376 -0.205467400633562 0 -0.10755849924533691 -0.2178899443088799 0 -0.089705747521653334 -0.22362271978914661 0 -0.11172868854622731 -0.23617094482880149 0 -0.1005617376665941 -0.23997685579502359 0 -0.089705747521653334 -0.22362271978914661 0 -0.11172868854622731 -0.23617094482880149 0 -0.089705747521653334 -0.22362271978914661 0 -0.10755849924533691 -0.2178899443088799 0 -0.11172868854622731 -0.23617094482880149 0 -0.11989889803527461 -0.22145143588075511 0 -0.11172868854622731 -0.23617094482880149 0 -0.127825895831608 -0.22987551408160201 0 -0.10755849924533691 -0.2178899443088799 0 -0.11989889803527461 -0.22145143588075511 0 -0.11172868854622731 -0.23617094482880149 0 -0.13218950310710981 -0.25272660122947088 0 -0.1218823470606431 -0.24640061544388489 0 -0.1098930818979398 -0.24798588601512411 0 -0.11172868854622731 -0.23617094482880149 0 -0.13375162957080131 -0.24871916986845621 0 -0.11172868854622731 -0.23617094482880149 0 -0.1218823470606431 -0.24640061544388489 0 -0.13375162957080131 -0.24871916986845621 0 -0.11172868854622731 -0.23617094482880149 0 -0.13375162957080131 -0.24871916986845621 0 -0.127825895831608 -0.22987551408160201 0 -0.11172868854622731 -0.23617094482880149 0 -0.1218823470606431 -0.24640061544388489 0 -0.1098930818979398 -0.24798588601512411 0 -0.097628444613881649 -0.25834262822693399 0 -0.087470553331264578 -0.24262075389877999 0 -0.1098930818979398 -0.24798588601512411 0 -0.087470553331264578 -0.24262075389877999 0 -0.1098930818979398 -0.24798588601512411 0 -0.1005617376665941 -0.23997685579502359 0 -0.087470553331264578 -0.24262075389877999 0 -0.1098930818979398 -0.24798588601512411 0 -0.11172868854622731 -0.23617094482880149 0 -0.1098930818979398 -0.24798588601512411 0 -0.1005617376665941 -0.23997685579502359 0 -0.087470553331264578 -0.24262075389877999 0 -0.1005617376665941 -0.23997685579502359 0 -0.072389231474787458 -0.1492400490994332 0 -0.089369030920126963 -0.1732707743578942 0 -0.096011965921864201 -0.14265464397282879 0 -0.077516787342341589 -0.1242022911324857 0 -0.093262550211769629 -0.1231040070079162 0 -0.096011965921864201 -0.14265464397282879 0 -0.077516787342341589 -0.1242022911324857 0 -0.072389231474787458 -0.1492400490994332 0 -0.096011965921864201 -0.14265464397282879 0 -0.077516787342341589 -0.1242022911324857 0 -0.059238207921678762 -0.13024384051707169 0 -0.072389231474787458 -0.1492400490994332 0 -0.060187329084152079 -0.17209125852752319 0 -0.072389231474787458 -0.1492400490994332 0 -0.089369030920126963 -0.1732707743578942 0 -0.060187329084152079 -0.17209125852752319 0 -0.079506442726966622 -0.19362577459948219 0 -0.089369030920126963 -0.1732707743578942 0 -0.060187329084152079 -0.17209125852752319 0 -0.062708331551170268 -0.19442045911658551 0 -0.079506442726966622 -0.19362577459948219 0 -0.089369030920126963 -0.1732707743578942 0 -0.1107512355661594 -0.16096683979900789 0 -0.096011965921864201 -0.14265464397282879 0 -0.09921486728828334 -0.20109800384388701 0 -0.089369030920126963 -0.1732707743578942 0 -0.1156293974943295 -0.1822747327150937 0 -0.089369030920126963 -0.1732707743578942 0 -0.1156293974943295 -0.1822747327150937 0 -0.1107512355661594 -0.16096683979900789 0 -0.1156293974943295 -0.1822747327150937 0 -0.13204392770037571 -0.1634514615863005 0 -0.1156293974943295 -0.1822747327150937 0 -0.1107512355661594 -0.16096683979900789 0 -0.13204392770037571 -0.1634514615863005 0 -0.1107512355661594 -0.16096683979900789 0 -0.12070185579410091 -0.1431825863629223 0 -0.13204392770037571 -0.1634514615863005 0 -0.1107512355661594 -0.16096683979900789 0 -0.12070185579410091 -0.1431825863629223 0 -0.096011965921864201 -0.14265464397282879 0 -0.1071147179002416 -0.1244919901550422 0 -0.12070185579410091 -0.1431825863629223 0 -0.096011965921864201 -0.14265464397282879 0 -0.093262550211769629 -0.1231040070079162 0 -0.1071147179002416 -0.1244919901550422 0 -0.096011965921864201 -0.14265464397282879 0 -0.1071147179002416 -0.1244919901550422 0 -0.12070185579410091 -0.1431825863629223 0 -0.1306137014228527 -0.1212095633787966 0 -0.12070185579410091 -0.1431825863629223 0 -0.14845845790642179 -0.14462819045750719 0 -0.1306137014228527 -0.1212095633787966 0 -0.14845845790642179 -0.14462819045750719 0 -0.1306137014228527 -0.1212095633787966 0 -0.15036797716661271 -0.14243845987679379 0 -0.14845845790642179 -0.14462819045750719 0 -0.1306137014228527 -0.1212095633787966 0 -0.15406265534163929 -0.1294064941378926 0 -0.15036797716661271 -0.14243845987679379 0 -0.1306137014228527 -0.1212095633787966 0 -0.15406265534163929 -0.1294064941378926 0 -0.15036797716661271 -0.14243845987679379 0 -0.1564494690737798 -0.13971242061594299 0 -0.1543278084257422 -0.1453912472931165 0 -0.14845845790642179 -0.14462819045750719 0 -0.15894149653025619 -0.15184230729274609 0 -0.15519343748037609 -0.14309809199123349 0 -0.15036797716661271 -0.14243845987679379 0 -0.1564494690737798 -0.13971242061594299 0 -0.1543278084257422 -0.1453912472931165 0 -0.15519343748037609 -0.14309809199123349 0 -0.15036797716661271 -0.14243845987679379 0 -0.1543278084257422 -0.1453912472931165 0 -0.15036797716661271 -0.14243845987679379 0 -0.14845845790642179 -0.14462819045750719 0 -0.15036797716661271 -0.14243845987679379 0 -0.14845845790642179 -0.14462819045750719 0 -0.12070185579410091 -0.1431825863629223 0 -0.14845845790642179 -0.14462819045750719 0 -0.13204392770037571 -0.1634514615863005 0 -0.14845845790642179 -0.14462819045750719 0 -0.13204392770037571 -0.1634514615863005 0 -0.13204392770037571 -0.1634514615863005 0 -0.1475860696211248 -0.17640031700015249 0 -0.13505851963374399 -0.18906788910329131 0 -0.1156293974943295 -0.1822747327150937 0 -0.13204392770037571 -0.1634514615863005 0 -0.13505851963374399 -0.18906788910329131 0 -0.1475860696211248 -0.17640031700015249 0 -0.1655722477793394 -0.1670875310098065 0 -0.15496537504316019 -0.19429807729602311 0 -0.1475860696211248 -0.17640031700015249 0 -0.13505851963374399 -0.18906788910329131 0 -0.15496537504316019 -0.19429807729602311 0 -0.1475860696211248 -0.17640031700015249 0 -0.14862352044039201 -0.16347018067920821 0 -0.1655722477793394 -0.1670875310098065 0 -0.14845845790642179 -0.14462819045750719 0 -0.13204392770037571 -0.1634514615863005 0 -0.14862352044039201 -0.16347018067920821 0 -0.14845845790642179 -0.14462819045750719 0 -0.14862352044039201 -0.16347018067920821 0 -0.1655722477793394 -0.1670875310098065 0 -0.13204392770037571 -0.1634514615863005 0 -0.1475860696211248 -0.17640031700015249 0 -0.14862352044039201 -0.16347018067920821 0 -0.1655722477793394 -0.1670875310098065 0 -0.1716614177265566 -0.15146656102038991 0 -0.1655722477793394 -0.1670875310098065 0 -0.15894149653025619 -0.15184230729274609 0 -0.1716614177265566 -0.15146656102038991 0 -0.1655722477793394 -0.1670875310098065 0 -0.17557921295501691 -0.18022020591375351 0 -0.1689483943248192 -0.19264195369377959 0 -0.1655722477793394 -0.1670875310098065 0 -0.15496537504316019 -0.19429807729602311 0 -0.1689483943248192 -0.19264195369377959 0 -0.1655722477793394 -0.1670875310098065 0 -0.15496537504316019 -0.19429807729602311 0 -0.1655722477793394 -0.1670875310098065 0 -0.17557921295501691 -0.18022020591375351 0 -0.17557921295501691 -0.18022020591375351 0 -0.18239484980351819 -0.16464781923938721 0 -0.1907059301477185 -0.18468107337543721 0 -0.1655722477793394 -0.1670875310098065 0 -0.17557921295501691 -0.18022020591375351 0 -0.18239484980351819 -0.16464781923938721 0 -0.1655722477793394 -0.1670875310098065 0 -0.18239484980351819 -0.16464781923938721 0 -0.1716614177265566 -0.15146656102038991 0 -0.18239484980351819 -0.16464781923938721 0 -0.1716614177265566 -0.15146656102038991 0 -0.1894311146879058 -0.1465309504005988 0 -0.17775058767377289 -0.13584559103097291 0 -0.1716614177265566 -0.15146656102038991 0 -0.1894311146879058 -0.1465309504005988 0 -0.17775058767377289 -0.13584559103097291 0 -0.1716614177265566 -0.15146656102038991 0 -0.17775058767377289 -0.13584559103097291 0 -0.1894311146879058 -0.1465309504005988 0 -0.17775058767377289 -0.13584559103097291 0 -0.19823449762692411 -0.13229999761030051 0 -0.18534812722118199 -0.1163550958908785 0 -0.17775058767377289 -0.13584559103097291 0 -0.18534812722118199 -0.1163550958908785 0 -0.15406265534163929 -0.1294064941378926 0 -0.16394560233522651 -0.1386698702264933 0 -0.15606779039194271 -0.1160101434681408 0 -0.17775058767377289 -0.13584559103097291 0 -0.16394560233522651 -0.1386698702264933 0 -0.15606779039194271 -0.1160101434681408 0 -0.17775058767377289 -0.13584559103097291 0 -0.15606779039194271 -0.1160101434681408 0 -0.15406265534163929 -0.1294064941378926 0 -0.16394560233522651 -0.1386698702264933 0 -0.1564494690737798 -0.13971242061594299 0 -0.16394560233522651 -0.1386698702264933 0 -0.1564494690737798 -0.13971242061594299 0 -0.15962849525536979 -0.1448502401790808 0 -0.14845845790642179 -0.14462819045750719 0 -0.1655722477793394 -0.1670875310098065 0 -0.14845845790642179 -0.14462819045750719 0 -0.1655722477793394 -0.1670875310098065 0 -0.15894149653025619 -0.15184230729274609 0 -0.15519343748037609 -0.14309809199123349 0 -0.1564494690737798 -0.13971242061594299 0 -0.15962849525536979 -0.1448502401790808 0 -0.1543278084257422 -0.1453912472931165 0 -0.15519343748037609 -0.14309809199123349 0 -0.15962849525536979 -0.1448502401790808 0 -0.1543278084257422 -0.1453912472931165 0 -0.15962849525536979 -0.1448502401790808 0 -0.15894149653025619 -0.15184230729274609 0 -0.15962849525536979 -0.1448502401790808 0 -0.15894149653025619 -0.15184230729274609 0 -0.1716614177265566 -0.15146656102038991 0 -0.17775058767377289 -0.13584559103097291 0 -0.16394560233522651 -0.1386698702264933 0 -0.1716614177265566 -0.15146656102038991 0 -0.16394560233522651 -0.1386698702264933 0 -0.15962849525536979 -0.1448502401790808 0 -0.1716614177265566 -0.15146656102038991 0 -0.1534429259631987 -0.25724555178864622 0 -0.15289321433053751 -0.246830478479277 0 -0.1378886282313006 -0.2381062402767252 0 -0.1534429259631987 -0.25724555178864622 0 -0.1378886282313006 -0.2381062402767252 0 -0.15348527020851541 -0.23913552791147211 0 -0.1378886282313006 -0.2381062402767252 0 -0.15430752157141919 -0.22794821467022949 0 -0.15289321433053751 -0.246830478479277 0 -0.15348527020851541 -0.23913552791147211 0 -0.1601832428566283 -0.24550858739866141 0 -0.15289321433053751 -0.246830478479277 0 -0.15348527020851541 -0.23913552791147211 0 -0.1378886282313006 -0.2381062402767252 0 -0.1459019403517107 -0.25564217047089421 0 -0.13375162957080131 -0.24871916986845621 0 -0.1378886282313006 -0.2381062402767252 0 -0.13375162957080131 -0.24871916986845621 0 -0.1378886282313006 -0.2381062402767252 0 -0.127825895831608 -0.22987551408160201 0 -0.13375162957080131 -0.24871916986845621 0 -0.1378886282313006 -0.2381062402767252 0 -0.13218950310710981 -0.25272660122947088 0 -0.1218823470606431 -0.24640061544388489 0 -0.13375162957080131 -0.24871916986845621 0 -0.127825895831608 -0.22987551408160201 0 -0.14435850230698141 -0.22150862358223991 0 -0.13086176299679239 -0.21746526838305219 0 -0.1378886282313006 -0.2381062402767252 0 -0.127825895831608 -0.22987551408160201 0 -0.14435850230698141 -0.22150862358223991 0 -0.11989889803527461 -0.22145143588075511 0 -0.127825895831608 -0.22987551408160201 0 -0.13086176299679239 -0.21746526838305219 0 -0.1378886282313006 -0.2381062402767252 0 -0.14435850230698141 -0.22150862358223991 0 -0.14435850230698141 -0.22150862358223991 0 -0.15430752157141919 -0.22794821467022949 0 -0.16410544360365359 -0.21493654602220469 0 -0.1378886282313006 -0.2381062402767252 0 -0.14435850230698141 -0.22150862358223991 0 -0.15430752157141919 -0.22794821467022949 0 -0.14435850230698141 -0.22150862358223991 0 -0.15496537504316019 -0.19429807729602311 0 -0.14435850230698141 -0.22150862358223991 0 -0.1373527607074172 -0.20563907323320921 0 -0.15496537504316019 -0.19429807729602311 0 -0.14435850230698141 -0.22150862358223991 0 -0.15496537504316019 -0.19429807729602311 0 -0.16410544360365359 -0.21493654602220469 0 -0.14435850230698141 -0.22150862358223991 0 -0.1373527607074172 -0.20563907323320921 0 -0.13086176299679239 -0.21746526838305219 0 -0.1210853022939376 -0.205467400633562 0 -0.1373527607074172 -0.20563907323320921 0 -0.13086176299679239 -0.21746526838305219 0 -0.1210853022939376 -0.205467400633562 0 -0.1373527607074172 -0.20563907323320921 0 -0.13505851963374399 -0.18906788910329131 0 -0.1373527607074172 -0.20563907323320921 0 -0.13505851963374399 -0.18906788910329131 0 -0.15496537504316019 -0.19429807729602311 0 -0.1689483943248192 -0.19264195369377959 0 -0.17994482166635981 -0.2014366202218163 0 -0.16410544360365359 -0.21493654602220469 0 -0.15496537504316019 -0.19429807729602311 0 -0.1689483943248192 -0.19264195369377959 0 -0.16410544360365359 -0.21493654602220469 0 -0.17557921295501691 -0.18022020591375351 0 -0.1689483943248192 -0.19264195369377959 0 -0.17994482166635981 -0.2014366202218163 0 -0.17557921295501691 -0.18022020591375351 0 -0.17994482166635981 -0.2014366202218163 0 -0.1907059301477185 -0.18468107337543721 0 -0.17994482166635981 -0.2014366202218163 0 -0.1784102433228649 -0.21681777692650089 0 -0.16410544360365359 -0.21493654602220469 0 -0.17994482166635981 -0.2014366202218163 0 -0.18904495760185211 -0.20873870471059999 0 -0.19252771524915421 -0.19930647688205899 0 -0.17994482166635981 -0.2014366202218163 0 -0.1784102433228649 -0.21681777692650089 0 -0.18904495760185211 -0.20873870471059999 0 -0.1784102433228649 -0.21681777692650089 0 -0.19175951728552271 -0.21959172261586679 0 -0.18904495760185211 -0.20873870471059999 0 -0.15430752157141919 -0.22794821467022949 0 -0.16410544360365359 -0.21493654602220469 0 -0.16877954452522659 -0.2255120540677526 0 -0.15430752157141919 -0.22794821467022949 0 -0.16877954452522659 -0.2255120540677526 0 -0.16324537569009509 -0.2357306359809743 0 -0.15348527020851541 -0.23913552791147211 0 -0.15430752157141919 -0.22794821467022949 0 -0.16324537569009509 -0.2357306359809743 0 -0.16877954452522659 -0.2255120540677526 0 -0.17781387366555559 -0.23090770197000129 0 -0.16324537569009509 -0.2357306359809743 0 -0.1784102433228649 -0.21681777692650089 0 -0.16410544360365359 -0.21493654602220469 0 -0.16877954452522659 -0.2255120540677526 0 -0.1784102433228649 -0.21681777692650089 0 -0.16877954452522659 -0.2255120540677526 0 -0.17781387366555559 -0.23090770197000129 0 -0.1784102433228649 -0.21681777692650089 0 -0.17781387366555559 -0.23090770197000129 0 -0.19175951728552271 -0.21959172261586679 0 -0.17781387366555559 -0.23090770197000129 0 -0.1805311654956796 -0.2411950136452527 0 -0.19410287643929239 -0.23312434657521411 0 -0.17781387366555559 -0.23090770197000129 0 -0.1805311654956796 -0.2411950136452527 0 -0.16955513552828311 -0.24305067226283769 0 -0.17679077873490559 -0.25046109420941731 0 -0.1805311654956796 -0.2411950136452527 0 -0.18863044441395099 -0.24733650333174401 0 -0.17679077873490559 -0.25046109420941731 0 -0.1805311654956796 -0.2411950136452527 0 -0.16955513552828311 -0.24305067226283769 0 -0.16709258238786229 -0.25188408856254202 0 -0.17679077873490559 -0.25046109420941731 0 -0.16955513552828311 -0.24305067226283769 0 -0.16709258238786229 -0.25188408856254202 0 -0.16955513552828311 -0.24305067226283769 0 -0.1601832428566283 -0.24550858739866141 0 -0.17781387366555559 -0.23090770197000129 0 -0.16955513552828311 -0.24305067226283769 0 -0.16324537569009509 -0.2357306359809743 0 -0.16955513552828311 -0.24305067226283769 0 -0.16324537569009509 -0.2357306359809743 0 -0.1601832428566283 -0.24550858739866141 0 -0.15348527020851541 -0.23913552791147211 0 -0.16324537569009509 -0.2357306359809743 0 -0.1601832428566283 -0.24550858739866141 0 -0.1593809120407062 -0.25278805690175971 0 -0.15289321433053751 -0.246830478479277 0 -0.1601832428566283 -0.24550858739866141 0 -0.20565562739327201 -0.24334207984173631 0 -0.19410287643929239 -0.23312434657521411 0 -0.21201774175915139 -0.2290986139018284 0 -0.21472073189145299 -0.25725591714607071 0 -0.20565562739327201 -0.24334207984173631 0 -0.22837296648480071 -0.23789375384220129 0 -0.20565562739327201 -0.24334207984173631 0 -0.21201774175915139 -0.2290986139018284 0 -0.22837296648480071 -0.23789375384220129 0 -0.20565562739327201 -0.24334207984173631 0 -0.18863044441395099 -0.24733650333174401 0 -0.19410287643929239 -0.23312434657521411 0 -0.1805311654956796 -0.2411950136452527 0 -0.18863044441395099 -0.24733650333174401 0 -0.19410287643929239 -0.23312434657521411 0 -0.17781387366555559 -0.23090770197000129 0 -0.19410287643929239 -0.23312434657521411 0 -0.19175951728552271 -0.21959172261586679 0 -0.19410287643929239 -0.23312434657521411 0 -0.19175951728552271 -0.21959172261586679 0 -0.20443040571370949 -0.21985141578154491 0 -0.21201774175915139 -0.2290986139018284 0 -0.20443040571370949 -0.21985141578154491 0 -0.22630383013383959 -0.21240708539258099 0 -0.19410287643929239 -0.23312434657521411 0 -0.21201774175915139 -0.2290986139018284 0 -0.20443040571370949 -0.21985141578154491 0 -0.20157622681128409 -0.2075672839719423 0 -0.21557055542943429 -0.1904257004922347 0 -0.22630383013383959 -0.21240708539258099 0 -0.20157622681128409 -0.2075672839719423 0 -0.22630383013383959 -0.21240708539258099 0 -0.20443040571370949 -0.21985141578154491 0 -0.20157622681128409 -0.2075672839719423 0 -0.22630383013383959 -0.21240708539258099 0 -0.19175951728552271 -0.21959172261586679 0 -0.20443040571370949 -0.21985141578154491 0 -0.20157622681128409 -0.2075672839719423 0 -0.19175951728552271 -0.21959172261586679 0 -0.20157622681128409 -0.2075672839719423 0 -0.19175951728552271 -0.21959172261586679 0 -0.18904495760185211 -0.20873870471059999 0 -0.20157622681128409 -0.2075672839719423 0 -0.18904495760185211 -0.20873870471059999 0 -0.20157622681128409 -0.2075672839719423 0 -0.19252771524915421 -0.19930647688205899 0 -0.17994482166635981 -0.2014366202218163 0 -0.19252771524915421 -0.19930647688205899 0 -0.1907059301477185 -0.18468107337543721 0 -0.20157622681128409 -0.2075672839719423 0 -0.19252771524915421 -0.19930647688205899 0 -0.20187756758401409 -0.19506767240709361 0 -0.19252771524915421 -0.19930647688205899 0 -0.20187756758401409 -0.19506767240709361 0 -0.1907059301477185 -0.18468107337543721 0 -0.20157622681128409 -0.2075672839719423 0 -0.21557055542943429 -0.1904257004922347 0 -0.20187756758401409 -0.19506767240709361 0 -0.21557055542943429 -0.1904257004922347 0 -0.2038146335316797 -0.1820121315948606 0 -0.20157622681128409 -0.2075672839719423 0 -0.20187756758401409 -0.19506767240709361 0 -0.21557055542943429 -0.1904257004922347 0 -0.21557055542943429 -0.1904257004922347 0 -0.23533053747689989 -0.1962925907305976 0 -0.22630383013383959 -0.21240708539258099 0 -0.23533053747689989 -0.1962925907305976 0 -0.25103143345639523 -0.21724688681321891 0 -0.25418198431724581 -0.18809916394242601 0 -0.22630383013383959 -0.21240708539258099 0 -0.25103143345639523 -0.21724688681321891 0 -0.23533053747689989 -0.1962925907305976 0 -0.22630383013383959 -0.21240708539258099 0 -0.25103143345639523 -0.21724688681321891 0 -0.21201774175915139 -0.2290986139018284 0 -0.22630383013383959 -0.21240708539258099 0 -0.22837296648480071 -0.23789375384220129 0 -0.22630383013383959 -0.21240708539258099 0 -0.22837296648480071 -0.23789375384220129 0 -0.25103143345639523 -0.21724688681321891 0 -0.22837296648480071 -0.23789375384220129 0 -0.25431856302814809 -0.24833495949118861 0 -0.25103143345639523 -0.21724688681321891 0 -0.2335542019388327 -0.26090262277066528 0 -0.22837296648480071 -0.23789375384220129 0 -0.25431856302814809 -0.24833495949118861 0 -0.20708483324238849 -0.15128624944667929 0 -0.22647357207813959 -0.15205360930679629 0 -0.2195633859389316 -0.1340578990397249 0 -0.20708483324238849 -0.15128624944667929 0 -0.19823449762692411 -0.13229999761030051 0 -0.2195633859389316 -0.1340578990397249 0 -0.19823449762692411 -0.13229999761030051 0 -0.2195633859389316 -0.1340578990397249 0 -0.21022893699736381 -0.1097241998529486 0 -0.17775058767377289 -0.13584559103097291 0 -0.19823449762692411 -0.13229999761030051 0 -0.1894311146879058 -0.1465309504005988 0 -0.20708483324238849 -0.15128624944667929 0 -0.1894311146879058 -0.1465309504005988 0 -0.19351686899232889 -0.15854259719770419 0 -0.20708483324238849 -0.15128624944667929 0 -0.19823449762692411 -0.13229999761030051 0 -0.1894311146879058 -0.1465309504005988 0 -0.20708483324238849 -0.15128624944667929 0 -0.19351686899232889 -0.15854259719770419 0 -0.19880271024428661 -0.17007658736909009 0 -0.18239484980351819 -0.16464781923938721 0 -0.1894311146879058 -0.1465309504005988 0 -0.19351686899232889 -0.15854259719770419 0 -0.18239484980351819 -0.16464781923938721 0 -0.19351686899232889 -0.15854259719770419 0 -0.19880271024428661 -0.17007658736909009 0 -0.18239484980351819 -0.16464781923938721 0 -0.19880271024428661 -0.17007658736909009 0 -0.1907059301477185 -0.18468107337543721 0 -0.19880271024428661 -0.17007658736909009 0 -0.1907059301477185 -0.18468107337543721 0 -0.2038146335316797 -0.1820121315948606 0 -0.20187756758401409 -0.19506767240709361 0 -0.1907059301477185 -0.18468107337543721 0 -0.2038146335316797 -0.1820121315948606 0 -0.21557055542943429 -0.1904257004922347 0 -0.2038146335316797 -0.1820121315948606 0 -0.21355186476225221 -0.16985639920369799 0 -0.19880271024428661 -0.17007658736909009 0 -0.2038146335316797 -0.1820121315948606 0 -0.21355186476225221 -0.16985639920369799 0 -0.20708483324238849 -0.15128624944667929 0 -0.21355186476225221 -0.16985639920369799 0 -0.22647357207813959 -0.15205360930679629 0 -0.20708483324238849 -0.15128624944667929 0 -0.19880271024428661 -0.17007658736909009 0 -0.21355186476225221 -0.16985639920369799 0 -0.22956488404758479 -0.1732841170125273 0 -0.2435592126657353 -0.1561425335328199 0 -0.22647357207813959 -0.15205360930679629 0 -0.21355186476225221 -0.16985639920369799 0 -0.22956488404758479 -0.1732841170125273 0 -0.22647357207813959 -0.15205360930679629 0 -0.21557055542943429 -0.1904257004922347 0 -0.21355186476225221 -0.16985639920369799 0 -0.22956488404758479 -0.1732841170125273 0 -0.21557055542943429 -0.1904257004922347 0 -0.22956488404758479 -0.1732841170125273 0 -0.21557055542943429 -0.1904257004922347 0 -0.23533053747689989 -0.1962925907305976 0 -0.22956488404758479 -0.1732841170125273 0 -0.23533053747689989 -0.1962925907305976 0 -0.22956488404758479 -0.1732841170125273 0 -0.25418198431724581 -0.18809916394242601 0 -0.22956488404758479 -0.1732841170125273 0 -0.25418198431724581 -0.18809916394242601 0 -0.2565438833259911 -0.1687602707777138 0 -0.22956488404758479 -0.1732841170125273 0 -0.2435592126657353 -0.1561425335328199 0 -0.22956488404758479 -0.1732841170125273 0 -0.2435592126657353 -0.1561425335328199 0 -0.2565438833259911 -0.1687602707777138 0 -0.2435592126657353 -0.1561425335328199 0 -0.22647357207813959 -0.15205360930679629 0 -0.2432602079730701 -0.13485583854350039 0 -0.22647357207813959 -0.15205360930679629 0 -0.2195633859389316 -0.1340578990397249 0 -0.2432602079730701 -0.13485583854350039 0 -0.2195633859389316 -0.1340578990397249 0 -0.2432602079730701 -0.13485583854350039 0 -0.23065476516460279 -0.11957242830579699 0 -0.2432602079730701 -0.13485583854350039 0 -0.2499653418643101 -0.1102460646797562 0 -0.23065476516460279 -0.11957242830579699 0 -0.2499653418643101 -0.1102460646797562 0 -0.2308399038819596 -0.1034577205422559 0 -0.23065476516460279 -0.11957242830579699 0 -0.2308399038819596 -0.1034577205422559 0 -0.25308440776240432 -0.086371671251396109 0 -0.2499653418643101 -0.1102460646797562 0 -0.2308399038819596 -0.1034577205422559 0 -0.25308440776240432 -0.086371671251396109 0 -0.2308399038819596 -0.1034577205422559 0 -0.21022893699736381 -0.1097241998529486 0 -0.21520721362926831 -0.098298511723915558 0 -0.2308399038819596 -0.1034577205422559 0 -0.22013457808717909 -0.089221868029860679 0 -0.21520721362926831 -0.098298511723915558 0 -0.2308399038819596 -0.1034577205422559 0 -0.23065476516460279 -0.11957242830579699 0 -0.21022893699736381 -0.1097241998529486 0 -0.2195633859389316 -0.1340578990397249 0 -0.23065476516460279 -0.11957242830579699 0 -0.21022893699736381 -0.1097241998529486 0 -0.2335598957907816 -0.079883889973887123 0 -0.24475965461883589 -0.059498385283178377 0 -0.2582325144520296 -0.070050845257802419 0 -0.2335598957907816 -0.079883889973887123 0 -0.2582325144520296 -0.070050845257802419 0 -0.25308440776240432 -0.086371671251396109 0 -0.2308399038819596 -0.1034577205422559 0 -0.2335598957907816 -0.079883889973887123 0 -0.25308440776240432 -0.086371671251396109 0 -0.2308399038819596 -0.1034577205422559 0 -0.22013457808717909 -0.089221868029860679 0 -0.2335598957907816 -0.079883889973887123 0 -0.22013457808717909 -0.089221868029860679 0 -0.2335598957907816 -0.079883889973887123 0 -0.21963876375789801 -0.077814354495200549 0 -0.2335598957907816 -0.079883889973887123 0 -0.21595644614104051 -0.065738508165203102 0 -0.24475965461883589 -0.059498385283178377 0 -0.21595644614104051 -0.065738508165203102 0 -0.24475965461883589 -0.059498385283178377 0 -0.2335598957907816 -0.079883889973887123 0 -0.21963876375789801 -0.077814354495200549 0 -0.21595644614104051 -0.065738508165203102 0 -0.20438945881064449 -0.068244458930106389 0 -0.21100771399754009 -0.086966924160961745 0 -0.21595644614104051 -0.065738508165203102 0 -0.21100771399754009 -0.086966924160961745 0 -0.20438945881064449 -0.068244458930106389 0 -0.21595644614104051 -0.065738508165203102 0 -0.21100771399754009 -0.086966924160961745 0 -0.21963876375789801 -0.077814354495200549 0 -0.21595644614104051 -0.065738508165203102 0 -0.21100771399754009 -0.086966924160961745 0 -0.20438945881064449 -0.068244458930106389 0 -0.21595644614104051 -0.065738508165203102 0 -0.20438945881064449 -0.068244458930106389 0 -0.21595644614104051 -0.065738508165203102 0 -0.20711132549122371 -0.057203435059411119 0 -0.20438945881064449 -0.068244458930106389 0 -0.21100771399754009 -0.086966924160961745 0 -0.19851231957361129 -0.085310821531315487 0 -0.22013457808717909 -0.089221868029860679 0 -0.21963876375789801 -0.077814354495200549 0 -0.21100771399754009 -0.086966924160961745 0 -0.22013457808717909 -0.089221868029860679 0 -0.21100771399754009 -0.086966924160961745 0 -0.21520721362926831 -0.098298511723915558 0 -0.21100771399754009 -0.086966924160961745 0 -0.19851231957361129 -0.085310821531315487 0 -0.20550431009004061 -0.095676697317907802 0 -0.21100771399754009 -0.086966924160961745 0 -0.21520721362926831 -0.098298511723915558 0 -0.20550431009004061 -0.095676697317907802 0 -0.19851231957361129 -0.085310821531315487 0 -0.18118326058104209 -0.08825419183970401 0 -0.18409944718507371 -0.07264022497537044 0 -0.19851231957361129 -0.085310821531315487 0 -0.19294566676858971 -0.096864600750783431 0 -0.18118326058104209 -0.08825419183970401 0 -0.19851231957361129 -0.085310821531315487 0 -0.20550431009004061 -0.095676697317907802 0 -0.19294566676858971 -0.096864600750783431 0 -0.20438945881064449 -0.068244458930106389 0 -0.19851231957361129 -0.085310821531315487 0 -0.18409944718507371 -0.07264022497537044 0 -0.20438945881064449 -0.068244458930106389 0 -0.18409944718507371 -0.07264022497537044 0 -0.18769526278089041 -0.057829612445021099 0 -0.20438945881064449 -0.068244458930106389 0 -0.18409944718507371 -0.07264022497537044 0 -0.21022893699736381 -0.1097241998529486 0 -0.21520721362926831 -0.098298511723915558 0 -0.20550431009004061 -0.095676697317907802 0 -0.21022893699736381 -0.1097241998529486 0 -0.20550431009004061 -0.095676697317907802 0 -0.19294566676858971 -0.096864600750783431 0 -0.19294566676858971 -0.096864600750783431 0 -0.18534812722118199 -0.1163550958908785 0 -0.21022893699736381 -0.1097241998529486 0 -0.19294566676858971 -0.096864600750783431 0 -0.18534812722118199 -0.1163550958908785 0 -0.19823449762692411 -0.13229999761030051 0 -0.21022893699736381 -0.1097241998529486 0 -0.18534812722118199 -0.1163550958908785 0 -0.18534812722118199 -0.1163550958908785 0 -0.17423934197139679 -0.1017815859784342 0 -0.15606779039194271 -0.1160101434681408 0 -0.17775058767377289 -0.13584559103097291 0 -0.18534812722118199 -0.1163550958908785 0 -0.15606779039194271 -0.1160101434681408 0 -0.16057304666404501 -0.10079887419961479 0 -0.17423934197139679 -0.1017815859784342 0 -0.15606779039194271 -0.1160101434681408 0 -0.16057304666404501 -0.10079887419961479 0 -0.16746185343044401 -0.091445336260546128 0 -0.1570966781871318 -0.090327755750333361 0 -0.16057304666404501 -0.10079887419961479 0 -0.17423934197139679 -0.1017815859784342 0 -0.16746185343044401 -0.091445336260546128 0 -0.17423934197139679 -0.1017815859784342 0 -0.18118326058104209 -0.08825419183970401 0 -0.16746185343044401 -0.091445336260546128 0 -0.19294566676858971 -0.096864600750783431 0 -0.18534812722118199 -0.1163550958908785 0 -0.17423934197139679 -0.1017815859784342 0 -0.19294566676858971 -0.096864600750783431 0 -0.17423934197139679 -0.1017815859784342 0 -0.18118326058104209 -0.08825419183970401 0 -0.18118326058104209 -0.08825419183970401 0 -0.18409944718507371 -0.07264022497537044 0 -0.16915717098214109 -0.081397787743409861 0 -0.18118326058104209 -0.08825419183970401 0 -0.16746185343044401 -0.091445336260546128 0 -0.16915717098214109 -0.081397787743409861 0 -0.18409944718507371 -0.07264022497537044 0 -0.1702117591297739 -0.06777753321031553 0 -0.16380943555950259 -0.077035991020633382 0 -0.18409944718507371 -0.07264022497537044 0 -0.16380943555950259 -0.077035991020633382 0 -0.16915717098214109 -0.081397787743409861 0 -0.18409944718507371 -0.07264022497537044 0 -0.17187825396406881 -0.057945450019426657 0 -0.18769526278089041 -0.057829612445021099 0 -0.18409944718507371 -0.07264022497537044 0 -0.16380943555950259 -0.077035991020633382 0 -0.18409944718507371 -0.07264022497537044 0 -0.1702117591297739 -0.06777753321031553 0 -0.17187825396406881 -0.057945450019426657 0 -0.16380943555950259 -0.077035991020633382 0 -0.16105989981045041 -0.063488466825831633 0 -0.14595160177326619 -0.062470528310013429 0 -0.1702117591297739 -0.06777753321031553 0 -0.16105989981045041 -0.063488466825831633 0 -0.17187825396406881 -0.057945450019426657 0 -0.1702117591297739 -0.06777753321031553 0 -0.16380943555950259 -0.077035991020633382 0 -0.16105989981045041 -0.063488466825831633 0 -0.16380943555950259 -0.077035991020633382 0 -0.16109871639751261 -0.084134952385501949 0 -0.14796844382834351 -0.080467891152587012 0 -0.16746185343044401 -0.091445336260546128 0 -0.16915717098214109 -0.081397787743409861 0 -0.16109871639751261 -0.084134952385501949 0 -0.16380943555950259 -0.077035991020633382 0 -0.16915717098214109 -0.081397787743409861 0 -0.16109871639751261 -0.084134952385501949 0 -0.16380943555950259 -0.077035991020633382 0 -0.16915717098214109 -0.081397787743409861 0 -0.16746185343044401 -0.091445336260546128 0 -0.16109871639751261 -0.084134952385501949 0 -0.1570966781871318 -0.090327755750333361 0 -0.16380943555950259 -0.077035991020633382 0 -0.14796844382834351 -0.080467891152587012 0 -0.14796844382834351 -0.080467891152587012 0 -0.13497135686491851 -0.078315161523928284 0 -0.1484932433812913 -0.094043062253026791 0 -0.1570966781871318 -0.090327755750333361 0 -0.14796844382834351 -0.080467891152587012 0 -0.1484932433812913 -0.094043062253026791 0 -0.16109871639751261 -0.084134952385501949 0 -0.1570966781871318 -0.090327755750333361 0 -0.14796844382834351 -0.080467891152587012 0 -0.16380943555950259 -0.077035991020633382 0 -0.14796844382834351 -0.080467891152587012 0 -0.14595160177326619 -0.062470528310013429 0 -0.16380943555950259 -0.077035991020633382 0 -0.14595160177326619 -0.062470528310013429 0 -0.14796844382834351 -0.080467891152587012 0 -0.13497135686491851 -0.078315161523928284 0 -0.14595160177326619 -0.062470528310013429 0 -0.1158705629695205 -0.060236298698018297 0 -0.13497135686491851 -0.078315161523928284 0 -0.1158705629695205 -0.060236298698018297 0 -0.13497135686491851 -0.078315161523928284 0 -0.13122182239868371 -0.062231763532838429 0 -0.13497135686491851 -0.078315161523928284 0 -0.13122182239868371 -0.062231763532838429 0 -0.14595160177326619 -0.062470528310013429 0 -0.112702195828283 -0.076339248342475546 0 -0.13497135686491851 -0.078315161523928284 0 -0.13438499311011279 -0.096174695905308166 0 -0.13497135686491851 -0.078315161523928284 0 -0.13438499311011279 -0.096174695905308166 0 -0.1484932433812913 -0.094043062253026791 0 -0.11276894493928399 -0.097790936300085646 0 -0.13438499311011279 -0.096174695905308166 0 -0.1306137014228527 -0.1212095633787966 0 -0.13438499311011279 -0.096174695905308166 0 -0.1306137014228527 -0.1212095633787966 0 -0.15606779039194271 -0.1160101434681408 0 -0.15406265534163929 -0.1294064941378926 0 -0.1306137014228527 -0.1212095633787966 0 -0.15606779039194271 -0.1160101434681408 0 -0.13438499311011279 -0.096174695905308166 0 -0.15606779039194271 -0.1160101434681408 0 -0.1484932433812913 -0.094043062253026791 0 -0.16057304666404501 -0.10079887419961479 0 -0.15606779039194271 -0.1160101434681408 0 -0.1484932433812913 -0.094043062253026791 0 -0.13438499311011279 -0.096174695905308166 0 -0.15606779039194271 -0.1160101434681408 0 -0.16057304666404501 -0.10079887419961479 0 -0.1570966781871318 -0.090327755750333361 0 -0.1484932433812913 -0.094043062253026791 0 -0.14513665439653431 -0.02122229521611602 0 -0.15148395360685291 -0.031475856168514699 0 -0.16129500549156001 -0.024264335985147129 0 -0.14513665439653431 -0.02122229521611602 0 -0.1346415055917565 -0.031432898451717602 0 -0.15148395360685291 -0.031475856168514699 0 -0.14513665439653431 -0.02122229521611602 0 -0.15327979458335059 -0.01391829646419882 0 -0.16129500549156001 -0.024264335985147129 0 -0.1412848112475209 -0.008091449167619497 0 -0.15773416148281841 -0.0035868741371463562 0 -0.14801408494475049 0.0031182785745780331 0 -0.15327979458335059 -0.01391829646419882 0 -0.1412848112475209 -0.008091449167619497 0 -0.15773416148281841 -0.0035868741371463562 0 -0.14513665439653431 -0.02122229521611602 0 -0.15327979458335059 -0.01391829646419882 0 -0.1412848112475209 -0.008091449167619497 0 -0.1236693299605585 -0.0137973575501921 0 -0.1412848112475209 -0.008091449167619497 0 -0.12735709500343681 0.004015926865657337 0 -0.1412848112475209 -0.008091449167619497 0 -0.12735709500343681 0.004015926865657337 0 -0.14801408494475049 0.0031182785745780331 0 -0.1236693299605585 -0.0137973575501921 0 -0.1412848112475209 -0.008091449167619497 0 -0.13426109495296229 -0.02049569832685658 0 -0.1236693299605585 -0.0137973575501921 0 -0.1221370268088495 -0.025998648103035 0 -0.13426109495296229 -0.02049569832685658 0 -0.14513665439653431 -0.02122229521611602 0 -0.1412848112475209 -0.008091449167619497 0 -0.13426109495296229 -0.02049569832685658 0 -0.14513665439653431 -0.02122229521611602 0 -0.13426109495296229 -0.02049569832685658 0 -0.1346415055917565 -0.031432898451717602 0 -0.1221370268088495 -0.025998648103035 0 -0.12530131535501859 -0.034952786400489197 0 -0.1346415055917565 -0.031432898451717602 0 -0.1221370268088495 -0.025998648103035 0 -0.13426109495296229 -0.02049569832685658 0 -0.1346415055917565 -0.031432898451717602 0 -0.12530131535501859 -0.034952786400489197 0 -0.1346415055917565 -0.031432898451717602 0 -0.12809376798702951 -0.047905065599393698 0 -0.1346415055917565 -0.031432898451717602 0 -0.12809376798702951 -0.047905065599393698 0 -0.14629371500633531 -0.042796653234188263 0 -0.12809376798702951 -0.047905065599393698 0 -0.14595160177326619 -0.062470528310013429 0 -0.12809376798702951 -0.047905065599393698 0 -0.14595160177326619 -0.062470528310013429 0 -0.14629371500633531 -0.042796653234188263 0 -0.13122182239868371 -0.062231763532838429 0 -0.12809376798702951 -0.047905065599393698 0 -0.14595160177326619 -0.062470528310013429 0 -0.1158705629695205 -0.060236298698018297 0 -0.13122182239868371 -0.062231763532838429 0 -0.12809376798702951 -0.047905065599393698 0 -0.14595160177326619 -0.062470528310013429 0 -0.14629371500633531 -0.042796653234188263 0 -0.15696853651444401 -0.052603520026387289 0 -0.16105989981045041 -0.063488466825831633 0 -0.14595160177326619 -0.062470528310013429 0 -0.15696853651444401 -0.052603520026387289 0 -0.15148395360685291 -0.031475856168514699 0 -0.14629371500633531 -0.042796653234188263 0 -0.16402488563849801 -0.041062174760887443 0 -0.1346415055917565 -0.031432898451717602 0 -0.15148395360685291 -0.031475856168514699 0 -0.14629371500633531 -0.042796653234188263 0 -0.14629371500633531 -0.042796653234188263 0 -0.16402488563849801 -0.041062174760887443 0 -0.15696853651444401 -0.052603520026387289 0 -0.15148395360685291 -0.031475856168514699 0 -0.16402488563849801 -0.041062174760887443 0 -0.16129500549156001 -0.024264335985147129 0 -0.16402488563849801 -0.041062174760887443 0 -0.17409393016306191 -0.030370879776367592 0 -0.16129500549156001 -0.024264335985147129 0 -0.16402488563849801 -0.041062174760887443 0 -0.15696853651444401 -0.052603520026387289 0 -0.17187825396406881 -0.057945450019426657 0 -0.16105989981045041 -0.063488466825831633 0 -0.15696853651444401 -0.052603520026387289 0 -0.17187825396406881 -0.057945450019426657 0 -0.16402488563849801 -0.041062174760887443 0 -0.17187825396406881 -0.057945450019426657 0 -0.18133558272394029 -0.043618149437272283 0 -0.17187825396406881 -0.057945450019426657 0 -0.18133558272394029 -0.043618149437272283 0 -0.18769526278089041 -0.057829612445021099 0 -0.18133558272394029 -0.043618149437272283 0 -0.17409393016306191 -0.030370879776367592 0 -0.18915768363079971 -0.025155098795753519 0 -0.16402488563849801 -0.041062174760887443 0 -0.18133558272394029 -0.043618149437272283 0 -0.17409393016306191 -0.030370879776367592 0 -0.17409393016306191 -0.030370879776367592 0 -0.17549551533112251 -0.014893414490097231 0 -0.18915768363079971 -0.025155098795753519 0 -0.16129500549156001 -0.024264335985147129 0 -0.16350931143073591 -0.01273440345064396 0 -0.17549551533112251 -0.014893414490097231 0 -0.17409393016306191 -0.030370879776367592 0 -0.16129500549156001 -0.024264335985147129 0 -0.17549551533112251 -0.014893414490097231 0 -0.15327979458335059 -0.01391829646419882 0 -0.16129500549156001 -0.024264335985147129 0 -0.16350931143073591 -0.01273440345064396 0 -0.15773416148281841 -0.0035868741371463562 0 -0.16716832075785379 -0.0032078365625175 0 -0.1619193683370386 0.0066468078375689294 0 -0.15773416148281841 -0.0035868741371463562 0 -0.16350931143073591 -0.01273440345064396 0 -0.16716832075785379 -0.0032078365625175 0 -0.15327979458335059 -0.01391829646419882 0 -0.15773416148281841 -0.0035868741371463562 0 -0.16350931143073591 -0.01273440345064396 0 -0.16350931143073591 -0.01273440345064396 0 -0.16716832075785379 -0.0032078365625175 0 -0.17549551533112251 -0.014893414490097231 0 -0.17549551533112251 -0.014893414490097231 0 -0.18154179604087481 -0.0036104187285780349 0 -0.18915768363079971 -0.025155098795753519 0 -0.18154179604087481 -0.0036104187285780349 0 -0.18915768363079971 -0.025155098795753519 0 -0.17549551533112251 -0.014893414490097231 0 -0.17584419881677341 0.0071523107965592754 0 -0.17549551533112251 -0.014893414490097231 0 -0.18154179604087481 -0.0036104187285780349 0 -0.17584419881677341 0.0071523107965592754 0 -0.16716832075785379 -0.0032078365625175 0 -0.17549551533112251 -0.014893414490097231 0 -0.17584419881677341 0.0071523107965592754 0 -0.18154179604087481 -0.0036104187285780349 0 -0.19066530249761049 -0.0041303576494283751 0 -0.18915768363079971 -0.025155098795753519 0 -0.18154179604087481 -0.0036104187285780349 0 -0.19066530249761049 -0.0041303576494283751 0 -0.18717715497560061 0.0062623078557712403 0 -0.19066530249761049 -0.0041303576494283751 0 -0.1989264366345522 -0.0080023544535597537 0 -0.18915768363079971 -0.025155098795753519 0 -0.19066530249761049 -0.0041303576494283751 0 -0.1989264366345522 -0.0080023544535597537 0 -0.1965234412062255 0.0098537758749781944 0 -0.1989264366345522 -0.0080023544535597537 0 -0.2007918169376324 -0.0191738513677071 0 -0.20680177871376751 -0.0119671669755851 0 -0.18915768363079971 -0.025155098795753519 0 -0.2007918169376324 -0.0191738513677071 0 -0.21013076049929519 -0.028334228638799381 0 -0.1989264366345522 -0.0080023544535597537 0 -0.18915768363079971 -0.025155098795753519 0 -0.2007918169376324 -0.0191738513677071 0 -0.2007918169376324 -0.0191738513677071 0 -0.21013076049929519 -0.028334228638799381 0 -0.20680177871376751 -0.0119671669755851 0 -0.21013076049929519 -0.028334228638799381 0 -0.21702438745170211 -0.0043907958627755336 0 -0.21921501925093501 -0.017985606360015789 0 -0.21013076049929519 -0.028334228638799381 0 -0.21702438745170211 -0.0043907958627755336 0 -0.21013076049929519 -0.028334228638799381 0 -0.22271521407306469 -0.037269361340154371 0 -0.21921501925093501 -0.017985606360015789 0 -0.21013076049929519 -0.028334228638799381 0 -0.21702438745170211 -0.0043907958627755336 0 -0.20680177871376751 -0.0119671669755851 0 -0.1989264366345522 -0.0080023544535597537 0 -0.20680177871376751 -0.0119671669755851 0 -0.20713549204565579 6.5395444916274768e-05 0 -0.21702438745170211 -0.0043907958627755336 0 -0.20680177871376751 -0.0119671669755851 0 -0.20713549204565579 6.5395444916274768e-05 0 -0.20438945881064449 -0.068244458930106389 0 -0.1967735712207245 -0.046699778862929052 0 -0.20438945881064449 -0.068244458930106389 0 -0.18769526278089041 -0.057829612445021099 0 -0.1967735712207245 -0.046699778862929052 0 -0.20438945881064449 -0.068244458930106389 0 -0.1967735712207245 -0.046699778862929052 0 -0.20711132549122371 -0.057203435059411119 0 -0.18133558272394029 -0.043618149437272283 0 -0.18769526278089041 -0.057829612445021099 0 -0.1967735712207245 -0.046699778862929052 0 -0.18133558272394029 -0.043618149437272283 0 -0.18915768363079971 -0.025155098795753519 0 -0.1967735712207245 -0.046699778862929052 0 -0.18915768363079971 -0.025155098795753519 0 -0.1967735712207245 -0.046699778862929052 0 -0.18915768363079971 -0.025155098795753519 0 -0.21013076049929519 -0.028334228638799381 0 -0.1967735712207245 -0.046699778862929052 0 -0.21013076049929519 -0.028334228638799381 0 -0.21132582579248671 -0.048130994279405613 0 -0.22271521407306469 -0.037269361340154371 0 -0.21013076049929519 -0.028334228638799381 0 -0.1967735712207245 -0.046699778862929052 0 -0.21132582579248671 -0.048130994279405613 0 -0.21595644614104051 -0.065738508165203102 0 -0.21132582579248671 -0.048130994279405613 0 -0.22271521407306469 -0.037269361340154371 0 -0.21595644614104051 -0.065738508165203102 0 -0.21132582579248671 -0.048130994279405613 0 -0.20711132549122371 -0.057203435059411119 0 -0.1967735712207245 -0.046699778862929052 0 -0.21132582579248671 -0.048130994279405613 0 -0.20711132549122371 -0.057203435059411119 0 -0.21595644614104051 -0.065738508165203102 0 -0.2284172135094342 -0.053659916570315727 0 -0.24475965461883589 -0.059498385283178377 0 -0.21595644614104051 -0.065738508165203102 0 -0.2284172135094342 -0.053659916570315727 0 -0.22271521407306469 -0.037269361340154371 0 -0.21595644614104051 -0.065738508165203102 0 -0.22271521407306469 -0.037269361340154371 0 -0.2284172135094342 -0.053659916570315727 0 -0.22271521407306469 -0.037269361340154371 0 -0.23903543051913109 -0.043198085603962481 0 -0.22271521407306469 -0.037269361340154371 0 -0.23903543051913109 -0.043198085603962481 0 -0.24161885061771041 -0.026720350447010301 0 -0.23903543051913109 -0.043198085603962481 0 -0.24161885061771041 -0.026720350447010301 0 -0.25766621977661042 -0.038842414379153638 0 -0.23903543051913109 -0.043198085603962481 0 -0.24475965461883589 -0.059498385283178377 0 -0.25766621977661042 -0.038842414379153638 0 -0.2284172135094342 -0.053659916570315727 0 -0.23903543051913109 -0.043198085603962481 0 -0.24475965461883589 -0.059498385283178377 0 -0.22947398200509031 -0.0088002145151058891 0 -0.22867745033346079 0.0038692188645070222 0 -0.2401015516947359 0.00075261550232862703 0 -0.21702438745170211 -0.0043907958627755336 0 -0.22947398200509031 -0.0088002145151058891 0 -0.22867745033346079 0.0038692188645070222 0 -0.21702438745170211 -0.0043907958627755336 0 -0.22947398200509031 -0.0088002145151058891 0 -0.21921501925093501 -0.017985606360015789 0 -0.22271521407306469 -0.037269361340154371 0 -0.22947398200509031 -0.0088002145151058891 0 -0.21921501925093501 -0.017985606360015789 0 -0.22271521407306469 -0.037269361340154371 0 -0.22947398200509031 -0.0088002145151058891 0 -0.22271521407306469 -0.037269361340154371 0 -0.22947398200509031 -0.0088002145151058891 0 -0.24161885061771041 -0.026720350447010301 0 -0.22947398200509031 -0.0088002145151058891 0 -0.24161885061771041 -0.026720350447010301 0 -0.2437457614006571 -0.011962382738850049 0 -0.24161885061771041 -0.026720350447010301 0 -0.2437457614006571 -0.011962382738850049 0 -0.2598032925822476 -0.0188915667982569 0 -0.22947398200509031 -0.0088002145151058891 0 -0.2437457614006571 -0.011962382738850049 0 -0.2401015516947359 0.00075261550232862703 0 -0.2437457614006571 -0.011962382738850049 0 -0.25267499080189931 -0.0034516002120552492 0 -0.2401015516947359 0.00075261550232862703 0 -0.25267499080189931 -0.0034516002120552492 0 -0.2598032925822476 -0.0188915667982569 0 -0.26909988492935111 -0.0018655285383734981 0 -0.2437457614006571 -0.011962382738850049 0 -0.25267499080189931 -0.0034516002120552492 0 -0.2598032925822476 -0.0188915667982569 0 -0.2598032925822476 -0.0188915667982569 0 -0.27267419604841259 -0.026924212746328481 0 -0.25766621977661042 -0.038842414379153638 0 -0.24161885061771041 -0.026720350447010301 0 -0.2598032925822476 -0.0188915667982569 0 -0.25766621977661042 -0.038842414379153638 0 -0.2598032925822476 -0.0188915667982569 0 -0.27267419604841259 -0.026924212746328481 0 -0.27804425228895369 -0.016131696666228459 0 -0.27267419604841259 -0.026924212746328481 0 -0.27804425228895369 -0.016131696666228459 0 -0.28378415359151371 -0.031280105512012511 0 -0.27804425228895369 -0.016131696666228459 0 -0.26909988492935111 -0.0018655285383734981 0 -0.2917254884257266 -0.0017566381736345419 0 -0.2598032925822476 -0.0188915667982569 0 -0.27804425228895369 -0.016131696666228459 0 -0.26909988492935111 -0.0018655285383734981 0 -0.27804425228895369 -0.016131696666228459 0 -0.2917254884257266 -0.0017566381736345419 0 -0.2928870998243559 -0.020527937726781 0 -0.27804425228895369 -0.016131696666228459 0 -0.2928870998243559 -0.020527937726781 0 -0.28378415359151371 -0.031280105512012511 0 -0.2928870998243559 -0.020527937726781 0 -0.29943422057661201 -0.032203920876667472 0 -0.28378415359151371 -0.031280105512012511 0 -0.2928870998243559 -0.020527937726781 0 -0.31144738423897378 -0.02126732740536201 0 -0.29943422057661201 -0.032203920876667472 0 -0.31144738423897378 -0.02126732740536201 0 -0.31110423911055801 -0.035316851109560482 0 -0.29943422057661201 -0.032203920876667472 0 -0.2917254884257266 -0.0017566381736345419 0 -0.31144738423897378 -0.02126732740536201 0 -0.31177688145040278 0.0050359958776742568 0 -0.2917254884257266 -0.0017566381736345419 0 -0.2928870998243559 -0.020527937726781 0 -0.31144738423897378 -0.02126732740536201 0 -0.2917254884257266 -0.0017566381736345419 0 -0.31144738423897378 -0.02126732740536201 0 -0.30323190850646392 -0.052883144282766713 0 -0.3023660715744253 -0.047018139519123002 0 -0.29757341552329353 -0.05219957266967655 0 -0.29931176789370939 -0.061629941742321552 0 -0.30659897303184058 -0.057135789817405573 0 -0.30728911182784302 -0.064893595009923935 0 -0.30323190850646392 -0.052883144282766713 0 -0.29931176789370939 -0.061629941742321552 0 -0.30659897303184058 -0.057135789817405573 0 -0.30323190850646392 -0.052883144282766713 0 -0.29757341552329353 -0.05219957266967655 0 -0.29931176789370939 -0.061629941742321552 0 -0.30659897303184058 -0.057135789817405573 0 -0.30728911182784302 -0.064893595009923935 0 -0.31405483352543062 -0.056831087900065053 0 -0.30323190850646392 -0.052883144282766713 0 -0.3023660715744253 -0.047018139519123002 0 -0.31025625293594222 -0.050033124508212908 0 -0.30659897303184058 -0.057135789817405573 0 -0.31025625293594222 -0.050033124508212908 0 -0.31405483352543062 -0.056831087900065053 0 -0.30323190850646392 -0.052883144282766713 0 -0.30659897303184058 -0.057135789817405573 0 -0.31025625293594222 -0.050033124508212908 0 -0.3023660715744253 -0.047018139519123002 0 -0.31110423911055801 -0.035316851109560482 0 -0.29943422057661201 -0.032203920876667472 0 -0.3023660715744253 -0.047018139519123002 0 -0.29943422057661201 -0.032203920876667472 0 -0.29166722635019171 -0.038853801873014321 0 -0.29943422057661201 -0.032203920876667472 0 -0.29166722635019171 -0.038853801873014321 0 -0.28378415359151371 -0.031280105512012511 0 -0.3023660715744253 -0.047018139519123002 0 -0.29166722635019171 -0.038853801873014321 0 -0.28390051605192418 -0.042754285685484159 0 -0.29166722635019171 -0.038853801873014321 0 -0.28378415359151371 -0.031280105512012511 0 -0.28390051605192418 -0.042754285685484159 0 -0.3023660715744253 -0.047018139519123002 0 -0.28390051605192418 -0.042754285685484159 0 -0.27356286309663053 -0.053258262401150697 0 -0.3023660715744253 -0.047018139519123002 0 -0.27356286309663053 -0.053258262401150697 0 -0.29757341552329353 -0.05219957266967655 0 -0.27356286309663053 -0.053258262401150697 0 -0.27532891164284878 -0.069285621960536392 0 -0.29757341552329353 -0.05219957266967655 0 -0.27532891164284878 -0.069285621960536392 0 -0.3023660715744253 -0.047018139519123002 0 -0.29757341552329353 -0.05219957266967655 0 -0.27356286309663053 -0.053258262401150697 0 -0.29757341552329353 -0.05219957266967655 0 -0.29931176789370939 -0.061629941742321552 0 -0.27532891164284878 -0.069285621960536392 0 -0.27267419604841259 -0.026924212746328481 0 -0.27375437843427658 -0.039043607324579933 0 -0.25766621977661042 -0.038842414379153638 0 -0.27356286309663053 -0.053258262401150697 0 -0.27375437843427658 -0.039043607324579933 0 -0.25766621977661042 -0.038842414379153638 0 -0.28378415359151371 -0.031280105512012511 0 -0.28390051605192418 -0.042754285685484159 0 -0.27375437843427658 -0.039043607324579933 0 -0.27267419604841259 -0.026924212746328481 0 -0.28378415359151371 -0.031280105512012511 0 -0.27375437843427658 -0.039043607324579933 0 -0.28390051605192418 -0.042754285685484159 0 -0.27356286309663053 -0.053258262401150697 0 -0.27375437843427658 -0.039043607324579933 0 -0.24475965461883589 -0.059498385283178377 0 -0.27356286309663053 -0.053258262401150697 0 -0.2582325144520296 -0.070050845257802419 0 -0.24475965461883589 -0.059498385283178377 0 -0.27356286309663053 -0.053258262401150697 0 -0.24475965461883589 -0.059498385283178377 0 -0.27356286309663053 -0.053258262401150697 0 -0.25766621977661042 -0.038842414379153638 0 -0.2582325144520296 -0.070050845257802419 0 -0.25308440776240432 -0.086371671251396109 0 -0.27532891164284878 -0.069285621960536392 0 -0.25308440776240432 -0.086371671251396109 0 -0.27532891164284878 -0.069285621960536392 0 -0.25308440776240432 -0.086371671251396109 0 -0.27361062541114611 -0.085405998149086934 0 -0.26907394573302829 -0.10103393024372311 0 -0.27361062541114611 -0.085405998149086934 0 -0.26907394573302829 -0.10103393024372311 0 -0.28494676303449051 -0.09097811142482605 0 -0.25308440776240432 -0.086371671251396109 0 -0.27361062541114611 -0.085405998149086934 0 -0.27532891164284878 -0.069285621960536392 0 -0.27356286309663053 -0.053258262401150697 0 -0.2582325144520296 -0.070050845257802419 0 -0.27532891164284878 -0.069285621960536392 0 -0.27361062541114611 -0.085405998149086934 0 -0.27532891164284878 -0.069285621960536392 0 -0.28561909888295839 -0.079360655864953042 0 -0.2432602079730701 -0.13485583854350039 0 -0.2499653418643101 -0.1102460646797562 0 -0.26490928006600228 -0.12397715003998409 0 -0.2499653418643101 -0.1102460646797562 0 -0.26490928006600228 -0.12397715003998409 0 -0.26907394573302829 -0.10103393024372311 0 -0.2499653418643101 -0.1102460646797562 0 -0.25308440776240432 -0.086371671251396109 0 -0.26907394573302829 -0.10103393024372311 0 -0.26907394573302829 -0.10103393024372311 0 -0.28789548083438649 -0.11161882002010511 0 -0.28494676303449051 -0.09097811142482605 0 -0.26490928006600228 -0.12397715003998409 0 -0.28789548083438649 -0.11161882002010511 0 -0.28428672055728371 -0.13281235115180859 0 -0.26490928006600228 -0.12397715003998409 0 -0.26907394573302829 -0.10103393024372311 0 -0.28789548083438649 -0.11161882002010511 0 -0.28789548083438649 -0.11161882002010511 0 -0.28428672055728371 -0.13281235115180859 0 -0.30877835781368662 -0.12931532841693749 0 -0.28789548083438649 -0.11161882002010511 0 -0.29765529442092259 -0.094840601490837839 0 -0.28494676303449051 -0.09097811142482605 0 -0.30761934067920371 -0.1042503242997595 0 -0.29765529442092259 -0.094840601490837839 0 -0.30832877355579341 -0.086934752854072747 0 -0.30761934067920371 -0.1042503242997595 0 -0.30832877355579341 -0.086934752854072747 0 -0.31968159473222052 -0.091584555267719248 0 -0.28789548083438649 -0.11161882002010511 0 -0.30761934067920371 -0.1042503242997595 0 -0.29765529442092259 -0.094840601490837839 0 -0.28789548083438649 -0.11161882002010511 0 -0.30761934067920371 -0.1042503242997595 0 -0.30877835781368662 -0.12931532841693749 0 -0.29931176789370939 -0.061629941742321552 0 -0.27532891164284878 -0.069285621960536392 0 -0.29568251685582603 -0.071589435967753134 0 -0.27532891164284878 -0.069285621960536392 0 -0.29568251685582603 -0.071589435967753134 0 -0.28561909888295839 -0.079360655864953042 0 -0.29568251685582603 -0.071589435967753134 0 -0.28561909888295839 -0.079360655864953042 0 -0.29849490204505058 -0.081938345925378783 0 -0.27361062541114611 -0.085405998149086934 0 -0.28561909888295839 -0.079360655864953042 0 -0.28494676303449051 -0.09097811142482605 0 -0.29765529442092259 -0.094840601490837839 0 -0.28494676303449051 -0.09097811142482605 0 -0.29849490204505058 -0.081938345925378783 0 -0.28561909888295839 -0.079360655864953042 0 -0.28494676303449051 -0.09097811142482605 0 -0.29849490204505058 -0.081938345925378783 0 -0.29849490204505058 -0.081938345925378783 0 -0.30832877355579341 -0.086934752854072747 0 -0.3066986514807607 -0.074546990101646726 0 -0.29765529442092259 -0.094840601490837839 0 -0.29849490204505058 -0.081938345925378783 0 -0.30832877355579341 -0.086934752854072747 0 -0.30832877355579341 -0.086934752854072747 0 -0.3066986514807607 -0.074546990101646726 0 -0.31636087034116728 -0.076704125898778439 0 -0.3066986514807607 -0.074546990101646726 0 -0.31411021802290889 -0.069356746280106005 0 -0.31636087034116728 -0.076704125898778439 0 -0.29568251685582603 -0.071589435967753134 0 -0.29849490204505058 -0.081938345925378783 0 -0.3066986514807607 -0.074546990101646726 0 -0.29568251685582603 -0.071589435967753134 0 -0.3066986514807607 -0.074546990101646726 0 -0.30728911182784302 -0.064893595009923935 0 -0.29931176789370939 -0.061629941742321552 0 -0.29568251685582603 -0.071589435967753134 0 -0.30728911182784302 -0.064893595009923935 0 -0.3066986514807607 -0.074546990101646726 0 -0.30728911182784302 -0.064893595009923935 0 -0.31411021802290889 -0.069356746280106005 0 -0.30728911182784302 -0.064893595009923935 0 -0.31630436981946819 -0.062936971351065629 0 -0.31411021802290889 -0.069356746280106005 0 -0.31630436981946819 -0.062936971351065629 0 -0.31411021802290889 -0.069356746280106005 0 -0.32389808664530562 -0.067702049039115322 0 -0.31630436981946819 -0.062936971351065629 0 -0.32389808664530562 -0.067702049039115322 0 -0.32481687078849097 -0.058022226865728103 0 -0.32389808664530562 -0.067702049039115322 0 -0.3259684841043719 -0.075020057435826168 0 -0.31636087034116728 -0.076704125898778439 0 -0.31411021802290889 -0.069356746280106005 0 -0.32389808664530562 -0.067702049039115322 0 -0.31636087034116728 -0.076704125898778439 0 -0.30832877355579341 -0.086934752854072747 0 -0.32608803180755441 -0.084321365842938284 0 -0.30832877355579341 -0.086934752854072747 0 -0.31968159473222052 -0.091584555267719248 0 -0.32608803180755441 -0.084321365842938284 0 -0.30832877355579341 -0.086934752854072747 0 -0.31636087034116728 -0.076704125898778439 0 -0.32608803180755441 -0.084321365842938284 0 -0.31968159473222052 -0.091584555267719248 0 -0.32608803180755441 -0.084321365842938284 0 -0.3259684841043719 -0.075020057435826168 0 -0.31636087034116728 -0.076704125898778439 0 -0.32608803180755441 -0.084321365842938284 0 -0.31968159473222052 -0.091584555267719248 0 -0.32608803180755441 -0.084321365842938284 0 -0.34030971713070318 -0.087052614945596102 0 -0.32608803180755441 -0.084321365842938284 0 -0.34030971713070318 -0.087052614945596102 0 -0.34745734249292459 -0.081176736816750444 0 -0.32608803180755441 -0.084321365842938284 0 -0.33752694762346008 -0.07135268896247253 0 -0.34745734249292459 -0.081176736816750444 0 -0.32608803180755441 -0.084321365842938284 0 -0.34745734249292459 -0.081176736816750444 0 -0.33752694762346008 -0.07135268896247253 0 -0.3489658634393657 -0.058384012082006782 0 -0.33645864726091979 -0.05858208772264157 0 -0.33752694762346008 -0.07135268896247253 0 -0.3489658634393657 -0.058384012082006782 0 -0.32389808664530562 -0.067702049039115322 0 -0.33752694762346008 -0.07135268896247253 0 -0.33645864726091979 -0.05858208772264157 0 -0.3259684841043719 -0.075020057435826168 0 -0.32608803180755441 -0.084321365842938284 0 -0.33752694762346008 -0.07135268896247253 0 -0.32608803180755441 -0.084321365842938284 0 -0.33752694762346008 -0.07135268896247253 0 -0.32389808664530562 -0.067702049039115322 0 -0.3259684841043719 -0.075020057435826168 0 -0.33752694762346008 -0.07135268896247253 0 -0.32454403747219479 -0.1081839716812668 0 -0.30877835781368662 -0.12931532841693749 0 -0.30761934067920371 -0.1042503242997595 0 -0.32454403747219479 -0.1081839716812668 0 -0.30877835781368662 -0.12931532841693749 0 -0.32454403747219479 -0.1081839716812668 0 -0.33570809008837621 -0.11845594114356341 0 -0.30877835781368662 -0.12931532841693749 0 -0.30761934067920371 -0.1042503242997595 0 -0.31968159473222052 -0.091584555267719248 0 -0.32454403747219479 -0.1081839716812668 0 -0.34030971713070318 -0.087052614945596102 0 -0.32454403747219479 -0.1081839716812668 0 -0.34278855512837281 -0.1049294584887832 0 -0.31968159473222052 -0.091584555267719248 0 -0.34030971713070318 -0.087052614945596102 0 -0.32454403747219479 -0.1081839716812668 0 -0.34030971713070318 -0.087052614945596102 0 -0.32454403747219479 -0.1081839716812668 0 -0.32454403747219479 -0.1081839716812668 0 -0.34278855512837281 -0.1049294584887832 0 -0.33570809008837621 -0.11845594114356341 0 -0.33570809008837621 -0.11845594114356341 0 -0.35404294059136687 -0.1217835462641018 0 -0.33688620478323589 -0.13358080389391511 0 -0.34278855512837281 -0.1049294584887832 0 -0.35404294059136687 -0.1217835462641018 0 -0.35932798989652742 -0.1047455147758234 0 -0.34278855512837281 -0.1049294584887832 0 -0.33570809008837621 -0.11845594114356341 0 -0.35404294059136687 -0.1217835462641018 0 -0.34278855512837281 -0.1049294584887832 0 -0.35932798989652742 -0.1047455147758234 0 -0.35079718399447979 -0.093651592615473511 0 -0.34030971713070318 -0.087052614945596102 0 -0.34278855512837281 -0.1049294584887832 0 -0.35079718399447979 -0.093651592615473511 0 -0.35932798989652742 -0.1047455147758234 0 -0.35079718399447979 -0.093651592615473511 0 -0.36132419909701757 -0.091459041133748031 0 -0.35932798989652742 -0.1047455147758234 0 -0.37367929427193591 -0.1014825750548952 0 -0.37212838853434238 -0.11808059788504249 0 -0.35932798989652742 -0.1047455147758234 0 -0.37367929427193591 -0.1014825750548952 0 -0.36132419909701757 -0.091459041133748031 0 -0.35404294059136687 -0.1217835462641018 0 -0.37212838853434238 -0.11808059788504249 0 -0.37028068739271691 -0.13083580994494901 0 -0.35404294059136687 -0.1217835462641018 0 -0.35932798989652742 -0.1047455147758234 0 -0.37212838853434238 -0.11808059788504249 0 -0.35069420168351129 -0.07223638641294812 0 -0.34745734249292459 -0.081176736816750444 0 -0.36882665317829499 -0.078032107790563188 0 -0.36882665317829499 -0.078032107790563188 0 -0.3489658634393657 -0.058384012082006782 0 -0.35069420168351129 -0.07223638641294812 0 -0.36882665317829499 -0.078032107790563188 0 -0.3489658634393657 -0.058384012082006782 0 -0.33752694762346008 -0.07135268896247253 0 -0.35069420168351129 -0.07223638641294812 0 -0.3489658634393657 -0.058384012082006782 0 -0.33752694762346008 -0.07135268896247253 0 -0.35069420168351129 -0.07223638641294812 0 -0.34745734249292459 -0.081176736816750444 0 -0.34745734249292459 -0.081176736816750444 0 -0.36882665317829499 -0.078032107790563188 0 -0.34745734249292459 -0.081176736816750444 0 -0.36132419909701757 -0.091459041133748031 0 -0.36882665317829499 -0.078032107790563188 0 -0.34030971713070318 -0.087052614945596102 0 -0.34745734249292459 -0.081176736816750444 0 -0.35079718399447979 -0.093651592615473511 0 -0.34745734249292459 -0.081176736816750444 0 -0.35079718399447979 -0.093651592615473511 0 -0.36132419909701757 -0.091459041133748031 0 -0.37367929427193591 -0.1014825750548952 0 -0.36132419909701757 -0.091459041133748031 0 -0.36882665317829499 -0.078032107790563188 0 -0.36882665317829499 -0.078032107790563188 0 -0.36862349457690058 -0.057461967220355487 0 -0.3489658634393657 -0.058384012082006782 0 -0.36882665317829499 -0.078032107790563188 0 -0.36862349457690058 -0.057461967220355487 0 -0.37947166312044489 -0.067272628224985004 0 -0.36862349457690058 -0.057461967220355487 0 -0.3489658634393657 -0.058384012082006782 0 -0.36066681755822472 -0.045118253717945672 0 -0.36862349457690058 -0.057461967220355487 0 -0.37355784227175309 -0.045246792894939887 0 -0.3815482533063424 -0.052412606119804542 0 -0.36862349457690058 -0.057461967220355487 0 -0.36066681755822472 -0.045118253717945672 0 -0.37355784227175309 -0.045246792894939887 0 -0.3489658634393657 -0.058384012082006782 0 -0.36066681755822472 -0.045118253717945672 0 -0.3489658634393657 -0.058384012082006782 0 -0.34511111307690212 -0.046137334811030092 0 -0.36066681755822472 -0.045118253717945672 0 -0.35304062521722218 -0.036039659744318157 0 -0.3553139768507978 -0.023567241021099371 0 -0.33371347875736079 -0.040226824134751989 0 -0.34511111307690212 -0.046137334811030092 0 -0.35304062521722218 -0.036039659744318157 0 -0.33371347875736079 -0.040226824134751989 0 -0.34511111307690212 -0.046137334811030092 0 -0.35304062521722218 -0.036039659744318157 0 -0.36066681755822472 -0.045118253717945672 0 -0.36066681755822472 -0.045118253717945672 0 -0.37236777167708351 -0.031852495353884333 0 -0.35304062521722218 -0.036039659744318157 0 -0.37236777167708351 -0.031852495353884333 0 -0.35304062521722218 -0.036039659744318157 0 -0.36066681755822472 -0.045118253717945672 0 -0.37236777167708351 -0.031852495353884333 0 -0.36066681755822472 -0.045118253717945672 0 -0.37355784227175309 -0.045246792894939887 0 -0.37236777167708351 -0.031852495353884333 0 -0.37236777167708351 -0.031852495353884333 0 -0.3739022591900184 -0.02415390189740213 0 -0.36770044175442279 -0.02036669541201027 0 -0.37236777167708351 -0.031852495353884333 0 -0.36770044175442279 -0.02036669541201027 0 -0.3553139768507978 -0.023567241021099371 0 -0.36770044175442279 -0.02036669541201027 0 -0.35847393927256738 -0.010652033510738681 0 -0.38297625517291389 -0.017448943304264108 0 -0.35304062521722218 -0.036039659744318157 0 -0.37236777167708351 -0.031852495353884333 0 -0.3553139768507978 -0.023567241021099371 0 -0.3739022591900184 -0.02415390189740213 0 -0.36770044175442279 -0.02036669541201027 0 -0.38297625517291389 -0.017448943304264108 0 -0.36770044175442279 -0.02036669541201027 0 -0.35847393927256738 -0.010652033510738681 0 -0.3553139768507978 -0.023567241021099371 0 -0.35847393927256738 -0.010652033510738681 0 -0.38297625517291389 -0.017448943304264108 0 -0.37278444596104371 -0.0079457960458173115 0 -0.35847393927256738 -0.010652033510738681 0 -0.38297625517291389 -0.017448943304264108 0 -0.37474494217865062 -0.0022388935110706832 0 -0.37278444596104371 -0.0079457960458173115 0 -0.36307869926690151 -0.00068504054922277494 0 -0.37278444596104371 -0.0079457960458173115 0 -0.36307869926690151 -0.00068504054922277494 0 -0.35847393927256738 -0.010652033510738681 0 -0.36307869926690151 -0.00068504054922277494 0 -0.34718119132474479 -0.01384164818341615 0 -0.36064890389212972 0.0125435277679194 0 -0.36307869926690151 -0.00068504054922277494 0 -0.35847393927256738 -0.010652033510738681 0 -0.34718119132474479 -0.01384164818341615 0 -0.34718119132474479 -0.01384164818341615 0 -0.36064890389212972 0.0125435277679194 0 -0.34718119132474479 -0.01384164818341615 0 -0.3553139768507978 -0.023567241021099371 0 -0.33371347875736079 -0.040226824134751989 0 -0.35847393927256738 -0.010652033510738681 0 -0.34718119132474479 -0.01384164818341615 0 -0.3553139768507978 -0.023567241021099371 0 -0.34718119132474479 -0.01384164818341615 0 -0.33035884889608558 -0.02420969997450095 0 -0.33371347875736079 -0.040226824134751989 0 -0.34718119132474479 -0.01384164818341615 0 -0.33371347875736079 -0.040226824134751989 0 -0.34718119132474479 -0.01384164818341615 0 -0.32828291010712762 -0.0049346835118845543 0 -0.34055428987364128 0.0059527955302196532 0 -0.34718119132474479 -0.01384164818341615 0 -0.33035884889608558 -0.02420969997450095 0 -0.32828291010712762 -0.0049346835118845543 0 -0.31144738423897378 -0.02126732740536201 0 -0.32828291010712762 -0.0049346835118845543 0 -0.31177688145040278 0.0050359958776742568 0 -0.31144738423897378 -0.02126732740536201 0 -0.33116928005221918 -0.040778016637091109 0 -0.31144738423897378 -0.02126732740536201 0 -0.33035884889608558 -0.02420969997450095 0 -0.32828291010712762 -0.0049346835118845543 0 -0.31144738423897378 -0.02126732740536201 0 -0.33035884889608558 -0.02420969997450095 0 -0.33116928005221918 -0.040778016637091109 0 -0.3023660715744253 -0.047018139519123002 0 -0.31110423911055801 -0.035316851109560482 0 -0.33116928005221918 -0.040778016637091109 0 -0.3023660715744253 -0.047018139519123002 0 -0.31025625293594222 -0.050033124508212908 0 -0.33116928005221918 -0.040778016637091109 0 -0.3023660715744253 -0.047018139519123002 0 -0.33116928005221918 -0.040778016637091109 0 -0.31144738423897378 -0.02126732740536201 0 -0.31110423911055801 -0.035316851109560482 0 -0.33116928005221918 -0.040778016637091109 0 -0.31025625293594222 -0.050033124508212908 0 -0.31770057673851387 -0.05020147555903863 0 -0.33116928005221918 -0.040778016637091109 0 -0.31025625293594222 -0.050033124508212908 0 -0.31770057673851387 -0.05020147555903863 0 -0.31405483352543062 -0.056831087900065053 0 -0.31770057673851387 -0.05020147555903863 0 -0.31405483352543062 -0.056831087900065053 0 -0.31936567051967829 -0.054711673150449433 0 -0.31630436981946819 -0.062936971351065629 0 -0.31936567051967829 -0.054711673150449433 0 -0.32481687078849097 -0.058022226865728103 0 -0.30728911182784302 -0.064893595009923935 0 -0.31630436981946819 -0.062936971351065629 0 -0.31405483352543062 -0.056831087900065053 0 -0.31630436981946819 -0.062936971351065629 0 -0.31405483352543062 -0.056831087900065053 0 -0.31936567051967829 -0.054711673150449433 0 -0.31770057673851387 -0.05020147555903863 0 -0.32448711316898249 -0.050622394842538963 0 -0.33116928005221918 -0.040778016637091109 0 -0.31936567051967829 -0.054711673150449433 0 -0.32481687078849097 -0.058022226865728103 0 -0.32448711316898249 -0.050622394842538963 0 -0.31770057673851387 -0.05020147555903863 0 -0.31936567051967829 -0.054711673150449433 0 -0.32448711316898249 -0.050622394842538963 0 -0.32481687078849097 -0.058022226865728103 0 -0.32770904195502032 -0.053173566283506987 0 -0.32448711316898249 -0.050622394842538963 0 -0.32770904195502032 -0.053173566283506987 0 -0.32448711316898249 -0.050622394842538963 0 -0.32972533979495861 -0.048040159006195682 0 -0.3489658634393657 -0.058384012082006782 0 -0.34511111307690212 -0.046137334811030092 0 -0.3326728772282519 -0.042265511425067279 0 -0.32972533979495861 -0.048040159006195682 0 -0.33645864726091979 -0.05858208772264157 0 -0.3326728772282519 -0.042265511425067279 0 -0.3489658634393657 -0.058384012082006782 0 -0.3326728772282519 -0.042265511425067279 0 -0.32770904195502032 -0.053173566283506987 0 -0.32972533979495861 -0.048040159006195682 0 -0.33645864726091979 -0.05858208772264157 0 -0.3489658634393657 -0.058384012082006782 0 -0.33645864726091979 -0.05858208772264157 0 -0.3326728772282519 -0.042265511425067279 0 -0.32389808664530562 -0.067702049039115322 0 -0.32481687078849097 -0.058022226865728103 0 -0.33645864726091979 -0.05858208772264157 0 -0.32481687078849097 -0.058022226865728103 0 -0.32770904195502032 -0.053173566283506987 0 -0.33645864726091979 -0.05858208772264157 0 -0.34511111307690212 -0.046137334811030092 0 -0.33371347875736079 -0.040226824134751989 0 -0.3326728772282519 -0.042265511425067279 0 -0.33035884889608558 -0.02420969997450095 0 -0.33116928005221918 -0.040778016637091109 0 -0.33371347875736079 -0.040226824134751989 0 -0.35304062521722218 -0.036039659744318157 0 -0.33371347875736079 -0.040226824134751989 0 -0.32448711316898249 -0.050622394842538963 0 -0.32972533979495861 -0.048040159006195682 0 -0.33116928005221918 -0.040778016637091109 0 -0.33116928005221918 -0.040778016637091109 0 -0.3326728772282519 -0.042265511425067279 0 -0.32972533979495861 -0.048040159006195682 0 -0.3326728772282519 -0.042265511425067279 0 -0.32972533979495861 -0.048040159006195682 0 -0.33116928005221918 -0.040778016637091109 0 -0.3326728772282519 -0.042265511425067279 0 -0.33116928005221918 -0.040778016637091109 0 -0.33371347875736079 -0.040226824134751989 0 -0.33116928005221918 -0.040778016637091109 0 -0.33371347875736079 -0.040226824134751989 0 -0.3326728772282519 -0.042265511425067279 0 -0.33371347875736079 -0.040226824134751989 0 -0.3326728772282519 -0.042265511425067279 0 -0.2907170577323625 -0.25177677077710309 0 -0.30853150187083839 -0.25429835417001312 0 -0.30748271917561598 -0.2431056607245809 0 -0.30748271917561598 -0.2431056607245809 0 -0.3004866401015065 -0.2269264896544945 0 -0.32066485276457768 -0.2334308190911655 0 -0.2907170577323625 -0.25177677077710309 0 -0.30748271917561598 -0.2431056607245809 0 -0.3004866401015065 -0.2269264896544945 0 -0.30853150187083839 -0.25429835417001312 0 -0.30748271917561598 -0.2431056607245809 0 -0.32023222063025569 -0.2489608815952247 0 -0.3004866401015065 -0.2269264896544945 0 -0.27575903677895092 -0.22208668823385669 0 -0.3004866401015065 -0.2269264896544945 0 -0.27309361240676189 -0.24179026653703889 0 -0.27575903677895092 -0.22208668823385669 0 -0.3004866401015065 -0.2269264896544945 0 -0.27575903677895092 -0.22208668823385669 0 -0.29482007196541532 -0.2089319155152673 0 -0.2907170577323625 -0.25177677077710309 0 -0.3004866401015065 -0.2269264896544945 0 -0.27309361240676189 -0.24179026653703889 0 -0.27309361240676189 -0.24179026653703889 0 -0.25431856302814809 -0.24833495949118861 0 -0.25103143345639523 -0.21724688681321891 0 -0.27575903677895092 -0.22208668823385669 0 -0.25103143345639523 -0.21724688681321891 0 -0.27309361240676189 -0.24179026653703889 0 -0.27575903677895092 -0.22208668823385669 0 -0.25103143345639523 -0.21724688681321891 0 -0.27575903677895092 -0.22208668823385669 0 -0.25103143345639523 -0.21724688681321891 0 -0.27708552823660842 -0.19790031786117671 0 -0.25103143345639523 -0.21724688681321891 0 -0.25418198431724581 -0.18809916394242601 0 -0.27708552823660842 -0.19790031786117671 0 -0.27708552823660842 -0.19790031786117671 0 -0.29482007196541532 -0.2089319155152673 0 -0.30195969341908391 -0.19078830755985379 0 -0.29482007196541532 -0.2089319155152673 0 -0.30195969341908391 -0.19078830755985379 0 -0.32674672588845421 -0.2120308859258328 0 -0.3004866401015065 -0.2269264896544945 0 -0.29482007196541532 -0.2089319155152673 0 -0.32674672588845421 -0.2120308859258328 0 -0.27575903677895092 -0.22208668823385669 0 -0.27708552823660842 -0.19790031786117671 0 -0.29482007196541532 -0.2089319155152673 0 -0.30195969341908391 -0.19078830755985379 0 -0.30674796742087651 -0.1684647150882764 0 -0.32123008678095788 -0.18729232698745699 0 -0.30674796742087651 -0.1684647150882764 0 -0.2930126781551784 -0.15044668515260809 0 -0.3206808779707625 -0.15110047818677941 0 -0.27724699849667023 -0.17157804188827869 0 -0.2930126781551784 -0.15044668515260809 0 -0.30674796742087651 -0.1684647150882764 0 -0.27724699849667023 -0.17157804188827869 0 -0.2930126781551784 -0.15044668515260809 0 -0.27708552823660842 -0.19790031786117671 0 -0.30195969341908391 -0.19078830755985379 0 -0.27724699849667023 -0.17157804188827869 0 -0.30195969341908391 -0.19078830755985379 0 -0.30674796742087651 -0.1684647150882764 0 -0.27724699849667023 -0.17157804188827869 0 -0.25418198431724581 -0.18809916394242601 0 -0.27708552823660842 -0.19790031786117671 0 -0.27724699849667023 -0.17157804188827869 0 -0.25418198431724581 -0.18809916394242601 0 -0.2565438833259911 -0.1687602707777138 0 -0.27724699849667023 -0.17157804188827869 0 -0.2435592126657353 -0.1561425335328199 0 -0.2565438833259911 -0.1687602707777138 0 -0.26683780591716472 -0.14870377212940841 0 -0.27724699849667023 -0.17157804188827869 0 -0.26683780591716472 -0.14870377212940841 0 -0.2930126781551784 -0.15044668515260809 0 -0.2565438833259911 -0.1687602707777138 0 -0.27724699849667023 -0.17157804188827869 0 -0.26683780591716472 -0.14870377212940841 0 -0.2435592126657353 -0.1561425335328199 0 -0.2432602079730701 -0.13485583854350039 0 -0.26683780591716472 -0.14870377212940841 0 -0.2432602079730701 -0.13485583854350039 0 -0.26490928006600228 -0.12397715003998409 0 -0.26683780591716472 -0.14870377212940841 0 -0.26490928006600228 -0.12397715003998409 0 -0.26683780591716472 -0.14870377212940841 0 -0.28428672055728371 -0.13281235115180859 0 -0.28428672055728371 -0.13281235115180859 0 -0.2930126781551784 -0.15044668515260809 0 -0.30877835781368662 -0.12931532841693749 0 -0.26683780591716472 -0.14870377212940841 0 -0.28428672055728371 -0.13281235115180859 0 -0.2930126781551784 -0.15044668515260809 0 -0.2930126781551784 -0.15044668515260809 0 -0.30877835781368662 -0.12931532841693749 0 -0.3206808779707625 -0.15110047818677941 0 -0.2930126781551784 -0.15044668515260809 0 -0.30877835781368662 -0.12931532841693749 0 -0.33570809008837621 -0.11845594114356341 0 -0.30877835781368662 -0.12931532841693749 0 -0.33688620478323589 -0.13358080389391511 0 -0.30877835781368662 -0.12931532841693749 0 -0.3206808779707625 -0.15110047818677941 0 -0.33688620478323589 -0.13358080389391511 0 -0.3206808779707625 -0.15110047818677941 0 -0.33688620478323589 -0.13358080389391511 0 -0.34399943231138669 -0.15408109000358611 0 -0.33688620478323589 -0.13358080389391511 0 -0.35929992868189681 -0.1386942596847188 0 -0.35404294059136687 -0.1217835462641018 0 -0.33688620478323589 -0.13358080389391511 0 -0.35929992868189681 -0.1386942596847188 0 -0.35404294059136687 -0.1217835462641018 0 -0.35929992868189681 -0.1386942596847188 0 -0.37028068739271691 -0.13083580994494901 0 -0.35929992868189681 -0.1386942596847188 0 -0.37028068739271691 -0.13083580994494901 0 -0.3804539816512269 -0.14482329966991631 0 -0.35929992868189681 -0.1386942596847188 0 -0.3804539816512269 -0.14482329966991631 0 -0.35929992868189681 -0.1386942596847188 0 -0.3655172116091886 -0.15688196674787641 0 -0.3804539816512269 -0.14482329966991631 0 -0.3655172116091886 -0.15688196674787641 0 -0.3804539816512269 -0.14482329966991631 0 -0.3655172116091886 -0.15688196674787641 0 -0.37839901512320262 -0.15996290040625341 0 -0.3804539816512269 -0.14482329966991631 0 -0.33688620478323589 -0.13358080389391511 0 -0.35929992868189681 -0.1386942596847188 0 -0.34399943231138669 -0.15408109000358611 0 -0.35929992868189681 -0.1386942596847188 0 -0.34399943231138669 -0.15408109000358611 0 -0.3655172116091886 -0.15688196674787641 0 -0.34399943231138669 -0.15408109000358611 0 -0.35323542112630057 -0.1671812377988513 0 -0.3655172116091886 -0.15688196674787641 0 -0.3655172116091886 -0.15688196674787641 0 -0.37378547386561772 -0.17392500984250869 0 -0.37839901512320262 -0.15996290040625341 0 -0.35323542112630057 -0.1671812377988513 0 -0.3655172116091886 -0.15688196674787641 0 -0.37378547386561772 -0.17392500984250869 0 -0.37378547386561772 -0.17392500984250869 0 -0.35240556330307887 -0.18479875362473361 0 -0.36895563931783232 -0.19259611207654981 0 -0.35323542112630057 -0.1671812377988513 0 -0.37378547386561772 -0.17392500984250869 0 -0.35240556330307887 -0.18479875362473361 0 -0.35323542112630057 -0.1671812377988513 0 -0.35240556330307887 -0.18479875362473361 0 -0.33400288196205857 -0.17193246321376471 0 -0.35240556330307887 -0.18479875362473361 0 -0.33400288196205857 -0.17193246321376471 0 -0.33669316521431608 -0.19324526314955739 0 -0.33400288196205857 -0.17193246321376471 0 -0.32123008678095788 -0.18729232698745699 0 -0.33669316521431608 -0.19324526314955739 0 -0.3206808779707625 -0.15110047818677941 0 -0.34399943231138669 -0.15408109000358611 0 -0.33400288196205857 -0.17193246321376471 0 -0.34399943231138669 -0.15408109000358611 0 -0.35323542112630057 -0.1671812377988513 0 -0.33400288196205857 -0.17193246321376471 0 -0.30674796742087651 -0.1684647150882764 0 -0.3206808779707625 -0.15110047818677941 0 -0.33400288196205857 -0.17193246321376471 0 -0.30674796742087651 -0.1684647150882764 0 -0.33400288196205857 -0.17193246321376471 0 -0.32123008678095788 -0.18729232698745699 0 -0.30195969341908391 -0.19078830755985379 0 -0.32123008678095788 -0.18729232698745699 0 -0.32674672588845421 -0.2120308859258328 0 -0.32674672588845421 -0.2120308859258328 0 -0.35024140450074381 -0.20994798342056251 0 -0.32674672588845421 -0.2120308859258328 0 -0.33669316521431608 -0.19324526314955739 0 -0.35024140450074381 -0.20994798342056251 0 -0.32674672588845421 -0.2120308859258328 0 -0.35024140450074381 -0.20994798342056251 0 -0.3377174746324717 -0.2284461722996495 0 -0.32123008678095788 -0.18729232698745699 0 -0.32674672588845421 -0.2120308859258328 0 -0.33669316521431608 -0.19324526314955739 0 -0.35240556330307887 -0.18479875362473361 0 -0.36895563931783232 -0.19259611207654981 0 -0.35024140450074381 -0.20994798342056251 0 -0.35240556330307887 -0.18479875362473361 0 -0.33669316521431608 -0.19324526314955739 0 -0.35024140450074381 -0.20994798342056251 0 -0.36895563931783232 -0.19259611207654981 0 -0.37373608311303341 -0.20786508091529229 0 -0.35024140450074381 -0.20994798342056251 0 -0.37373608311303341 -0.20786508091529229 0 -0.35024140450074381 -0.20994798342056251 0 -0.37373608311303341 -0.20786508091529229 0 -0.35024140450074381 -0.20994798342056251 0 -0.36602803805366552 -0.21914337572849349 0 -0.37373608311303341 -0.20786508091529229 0 -0.36602803805366552 -0.21914337572849349 0 -0.37785639846487218 -0.21906994256996459 0 -0.35024140450074381 -0.20994798342056251 0 -0.357966965356528 -0.23170644806675769 0 -0.3377174746324717 -0.2284461722996495 0 -0.35024140450074381 -0.20994798342056251 0 -0.357966965356528 -0.23170644806675769 0 -0.36602803805366552 -0.21914337572849349 0 -0.357966965356528 -0.23170644806675769 0 -0.36602803805366552 -0.21914337572849349 0 -0.36983275924353248 -0.22875232439276311 0 -0.36602803805366552 -0.21914337572849349 0 -0.36983275924353248 -0.22875232439276311 0 -0.37785639846487218 -0.21906994256996459 0 -0.357966965356528 -0.23170644806675769 0 -0.36983275924353248 -0.22875232439276311 0 -0.37747963509906429 -0.24508953120583671 0 -0.35872453044413888 -0.25078889886649508 0 -0.357966965356528 -0.23170644806675769 0 -0.37747963509906429 -0.24508953120583671 0 -0.357966965356528 -0.23170644806675769 0 -0.34395992200845399 -0.24382677409400949 0 -0.3377174746324717 -0.2284461722996495 0 -0.35872453044413888 -0.25078889886649508 0 -0.357966965356528 -0.23170644806675769 0 -0.34395992200845399 -0.24382677409400949 0 -0.33345250408021371 -0.25331871279766999 0 -0.34395992200845399 -0.24382677409400949 0 -0.33132333615916232 -0.2411148243472106 0 -0.33345250408021371 -0.25331871279766999 0 -0.33132333615916232 -0.2411148243472106 0 -0.32023222063025569 -0.2489608815952247 0 -0.34395992200845399 -0.24382677409400949 0 -0.33132333615916232 -0.2411148243472106 0 -0.3377174746324717 -0.2284461722996495 0 -0.32674672588845421 -0.2120308859258328 0 -0.3377174746324717 -0.2284461722996495 0 -0.32066485276457768 -0.2334308190911655 0 -0.33132333615916232 -0.2411148243472106 0 -0.3377174746324717 -0.2284461722996495 0 -0.32066485276457768 -0.2334308190911655 0 -0.3004866401015065 -0.2269264896544945 0 -0.32674672588845421 -0.2120308859258328 0 -0.32066485276457768 -0.2334308190911655 0 -0.30748271917561598 -0.2431056607245809 0 -0.32066485276457768 -0.2334308190911655 0 -0.32023222063025569 -0.2489608815952247 0 -0.33132333615916232 -0.2411148243472106 0 -0.32066485276457768 -0.2334308190911655 0 -0.32023222063025569 -0.2489608815952247 0 -0.43445882011373449 -0.25478651907497341 0 -0.43806130733353449 -0.23541812032183559 0 -0.43445882011373449 -0.25478651907497341 0 -0.4258852610480256 -0.24284815888716721 0 -0.43806130733353449 -0.23541812032183559 0 -0.4258852610480256 -0.24284815888716721 0 -0.42538833238501789 -0.2333934851751748 0 -0.41698539980062188 -0.23875950084572559 0 -0.43445882011373449 -0.25478651907497341 0 -0.4258852610480256 -0.24284815888716721 0 -0.42335340856967768 -0.24893549408922019 0 -0.4258852610480256 -0.24284815888716721 0 -0.42538833238501789 -0.2333934851751748 0 -0.43806130733353449 -0.23541812032183559 0 -0.43091611572645672 -0.22699763907763329 0 -0.42538833238501789 -0.2333934851751748 0 -0.43806130733353449 -0.23541812032183559 0 -0.43091611572645672 -0.22699763907763329 0 -0.44166379455333399 -0.21604972156869759 0 -0.43806130733353449 -0.23541812032183559 0 -0.43091611572645672 -0.22699763907763329 0 -0.43133498143110582 -0.21921018883561361 0 -0.44166379455333399 -0.21604972156869759 0 -0.43133498143110582 -0.21921018883561361 0 -0.4232485836513401 -0.22477446532261011 0 -0.4232102070061276 -0.21869015764887889 0 -0.43091611572645672 -0.22699763907763329 0 -0.43133498143110582 -0.21921018883561361 0 -0.4232485836513401 -0.22477446532261011 0 -0.43091611572645672 -0.22699763907763329 0 -0.4232485836513401 -0.22477446532261011 0 -0.42538833238501789 -0.2333934851751748 0 -0.4232485836513401 -0.22477446532261011 0 -0.42538833238501789 -0.2333934851751748 0 -0.41731365953457839 -0.2310953018814938 0 -0.4232485836513401 -0.22477446532261011 0 -0.41731365953457839 -0.2310953018814938 0 -0.4121948509493269 -0.2247325638453028 0 -0.41731365953457839 -0.2310953018814938 0 -0.4080561583250083 -0.23272886934204159 0 -0.41698539980062188 -0.23875950084572559 0 -0.4232485836513401 -0.22477446532261011 0 -0.4121948509493269 -0.2247325638453028 0 -0.41685681033243982 -0.21746512418924929 0 -0.4232485836513401 -0.22477446532261011 0 -0.41685681033243982 -0.21746512418924929 0 -0.4232102070061276 -0.21869015764887889 0 -0.4121948509493269 -0.2247325638453028 0 -0.4080561583250083 -0.23272886934204159 0 -0.39971520205611372 -0.2221352637332015 0 -0.4121948509493269 -0.2247325638453028 0 -0.40807454407470489 -0.21592977391801271 0 -0.41685681033243982 -0.21746512418924929 0 -0.4121948509493269 -0.2247325638453028 0 -0.39971520205611372 -0.2221352637332015 0 -0.40807454407470489 -0.21592977391801271 0 -0.41731365953457839 -0.2310953018814938 0 -0.4121948509493269 -0.2247325638453028 0 -0.4080561583250083 -0.23272886934204159 0 -0.4080561583250083 -0.23272886934204159 0 -0.40983148527785651 -0.24118391776602099 0 -0.41698539980062188 -0.23875950084572559 0 -0.42538833238501789 -0.2333934851751748 0 -0.41731365953457839 -0.2310953018814938 0 -0.41698539980062188 -0.23875950084572559 0 -0.40983148527785651 -0.24118391776602099 0 -0.41698539980062188 -0.23875950084572559 0 -0.41627810448972868 -0.24641300060905449 0 -0.4258852610480256 -0.24284815888716721 0 -0.42335340856967768 -0.24893549408922019 0 -0.41627810448972868 -0.24641300060905449 0 -0.4258852610480256 -0.24284815888716721 0 -0.41698539980062188 -0.23875950084572559 0 -0.41627810448972868 -0.24641300060905449 0 -0.41679144862722167 -0.25169429778568547 0 -0.42335340856967768 -0.24893549408922019 0 -0.41627810448972868 -0.24641300060905449 0 -0.41385673751816382 -0.25312989710486528 0 -0.41627810448972868 -0.24641300060905449 0 -0.4086566941719203 -0.24778871483445111 0 -0.40983148527785651 -0.24118391776602099 0 -0.41627810448972868 -0.24641300060905449 0 -0.4086566941719203 -0.24778871483445111 0 -0.40282532782868952 -0.25224285689579767 0 -0.4086566941719203 -0.24778871483445111 0 -0.40022281387448849 -0.24084313907701979 0 -0.40983148527785651 -0.24118391776602099 0 -0.4086566941719203 -0.24778871483445111 0 -0.40022281387448849 -0.24084313907701979 0 -0.4080561583250083 -0.23272886934204159 0 -0.40983148527785651 -0.24118391776602099 0 -0.40022281387448849 -0.24084313907701979 0 -0.40022281387448849 -0.24084313907701979 0 -0.3903832871219331 -0.2411545733314838 0 -0.38772777019650018 -0.2315142496456449 0 -0.3938256931015453 -0.25037754026629511 0 -0.40022281387448849 -0.24084313907701979 0 -0.3903832871219331 -0.2411545733314838 0 -0.3938256931015453 -0.25037754026629511 0 -0.3903832871219331 -0.2411545733314838 0 -0.37747963509906429 -0.24508953120583671 0 -0.3903832871219331 -0.2411545733314838 0 -0.37747963509906429 -0.24508953120583671 0 -0.38772777019650018 -0.2315142496456449 0 -0.37747963509906429 -0.24508953120583671 0 -0.37785639846487218 -0.21906994256996459 0 -0.37747963509906429 -0.24508953120583671 0 -0.37785639846487218 -0.21906994256996459 0 -0.38772777019650018 -0.2315142496456449 0 -0.36983275924353248 -0.22875232439276311 0 -0.37747963509906429 -0.24508953120583671 0 -0.37785639846487218 -0.21906994256996459 0 -0.37785639846487218 -0.21906994256996459 0 -0.38772777019650018 -0.2315142496456449 0 -0.38790285805175961 -0.2167146319195192 0 -0.4080561583250083 -0.23272886934204159 0 -0.40022281387448849 -0.24084313907701979 0 -0.39971520205611372 -0.2221352637332015 0 -0.40022281387448849 -0.24084313907701979 0 -0.39971520205611372 -0.2221352637332015 0 -0.38772777019650018 -0.2315142496456449 0 -0.39971520205611372 -0.2221352637332015 0 -0.38790285805175961 -0.2167146319195192 0 -0.40022281387448849 -0.24084313907701979 0 -0.38772777019650018 -0.2315142496456449 0 -0.39971520205611372 -0.2221352637332015 0 -0.39971520205611372 -0.2221352637332015 0 -0.39723076172532301 -0.205782178410022 0 -0.40807454407470489 -0.21592977391801271 0 -0.39971520205611372 -0.2221352637332015 0 -0.39723076172532301 -0.205782178410022 0 -0.38790285805175961 -0.2167146319195192 0 -0.39723076172532301 -0.205782178410022 0 -0.41303892827123678 -0.21093405469715851 0 -0.40807454407470489 -0.21592977391801271 0 -0.37373608311303341 -0.20786508091529229 0 -0.39723076172532301 -0.205782178410022 0 -0.38370630256805799 -0.1971119561512929 0 -0.37373608311303341 -0.20786508091529229 0 -0.39723076172532301 -0.205782178410022 0 -0.38790285805175961 -0.2167146319195192 0 -0.37373608311303341 -0.20786508091529229 0 -0.39723076172532301 -0.205782178410022 0 -0.37373608311303341 -0.20786508091529229 0 -0.37785639846487218 -0.21906994256996459 0 -0.38790285805175961 -0.2167146319195192 0 -0.36895563931783232 -0.19259611207654981 0 -0.38370630256805799 -0.1971119561512929 0 -0.3831693110633177 -0.1873742460103984 0 -0.36895563931783232 -0.19259611207654981 0 -0.37373608311303341 -0.20786508091529229 0 -0.38370630256805799 -0.1971119561512929 0 -0.38370630256805799 -0.1971119561512929 0 -0.39543971762078378 -0.19194216334420211 0 -0.3831693110633177 -0.1873742460103984 0 -0.39723076172532301 -0.205782178410022 0 -0.38370630256805799 -0.1971119561512929 0 -0.39543971762078378 -0.19194216334420211 0 -0.39723076172532301 -0.205782178410022 0 -0.39543971762078378 -0.19194216334420211 0 -0.40534117689708921 -0.19634387975323889 0 -0.39543971762078378 -0.19194216334420211 0 -0.40534117689708921 -0.19634387975323889 0 -0.40730162077548249 -0.18407395049314179 0 -0.39723076172532301 -0.205782178410022 0 -0.40534117689708921 -0.19634387975323889 0 -0.42072544033761272 -0.20369927590475301 0 -0.42032122747045741 -0.1927313373696285 0 -0.42072544033761272 -0.20369927590475301 0 -0.40730162077548249 -0.18407395049314179 0 -0.42072544033761272 -0.20369927590475301 0 -0.40730162077548249 -0.18407395049314179 0 -0.40534117689708921 -0.19634387975323889 0 -0.42072544033761272 -0.20369927590475301 0 -0.40730162077548249 -0.18407395049314179 0 -0.39723076172532301 -0.205782178410022 0 -0.41303892827123678 -0.21093405469715851 0 -0.42072544033761272 -0.20369927590475301 0 -0.39723076172532301 -0.205782178410022 0 -0.42072544033761272 -0.20369927590475301 0 -0.41303892827123678 -0.21093405469715851 0 -0.40807454407470489 -0.21592977391801271 0 -0.41685681033243982 -0.21746512418924929 0 -0.41303892827123678 -0.21093405469715851 0 -0.41685681033243982 -0.21746512418924929 0 -0.42140045260962489 -0.21331085224804261 0 -0.41685681033243982 -0.21746512418924929 0 -0.42140045260962489 -0.21331085224804261 0 -0.4232102070061276 -0.21869015764887889 0 -0.41303892827123678 -0.21093405469715851 0 -0.42140045260962489 -0.21331085224804261 0 -0.42072544033761272 -0.20369927590475301 0 -0.42512182626149492 -0.2033095177213731 0 -0.43378961613155448 -0.20908682079381441 0 -0.44184138868315109 -0.20247798044170351 0 -0.42072544033761272 -0.20369927590475301 0 -0.42512182626149492 -0.2033095177213731 0 -0.43133498143110582 -0.21921018883561361 0 -0.42072544033761272 -0.20369927590475301 0 -0.42512182626149492 -0.2033095177213731 0 -0.43133498143110582 -0.21921018883561361 0 -0.42512182626149492 -0.2033095177213731 0 -0.43378961613155448 -0.20908682079381441 0 -0.43133498143110582 -0.21921018883561361 0 -0.42140045260962489 -0.21331085224804261 0 -0.4232102070061276 -0.21869015764887889 0 -0.43133498143110582 -0.21921018883561361 0 -0.42072544033761272 -0.20369927590475301 0 -0.43133498143110582 -0.21921018883561361 0 -0.42140045260962489 -0.21331085224804261 0 -0.42072544033761272 -0.20369927590475301 0 -0.43133498143110582 -0.21921018883561361 0 -0.43378961613155448 -0.20908682079381441 0 -0.44166379455333399 -0.21604972156869759 0 -0.42032122747045741 -0.1927313373696285 0 -0.44184138868315109 -0.20247798044170351 0 -0.42032122747045741 -0.1927313373696285 0 -0.43099962817645188 -0.18319011649723049 0 -0.43833565968517207 -0.19112957676178299 0 -0.42032122747045741 -0.1927313373696285 0 -0.42512182626149492 -0.2033095177213731 0 -0.44184138868315109 -0.20247798044170351 0 -0.42032122747045741 -0.1927313373696285 0 -0.43833565968517207 -0.19112957676178299 0 -0.44184138868315109 -0.20247798044170351 0 -0.42032122747045741 -0.1927313373696285 0 -0.42072544033761272 -0.20369927590475301 0 -0.42512182626149492 -0.2033095177213731 0 -0.42549584187692119 -0.17333418479170171 0 -0.43099962817645188 -0.18319011649723049 0 -0.41834400919125792 -0.18158621355319651 0 -0.42032122747045741 -0.1927313373696285 0 -0.43099962817645188 -0.18319011649723049 0 -0.41834400919125792 -0.18158621355319651 0 -0.43099962817645188 -0.18319011649723049 0 -0.43495901877196291 -0.17485617288990979 0 -0.44455133712372419 -0.18300714728765441 0 -0.42549584187692119 -0.17333418479170171 0 -0.43099962817645188 -0.18319011649723049 0 -0.43495901877196291 -0.17485617288990979 0 -0.42549584187692119 -0.17333418479170171 0 -0.43495901877196291 -0.17485617288990979 0 -0.43155613508544272 -0.1669321437644439 0 -0.43495901877196291 -0.17485617288990979 0 -0.43155613508544272 -0.1669321437644439 0 -0.44219215159727421 -0.16781727210851849 0 -0.43155613508544272 -0.1669321437644439 0 -0.43166640735559808 -0.1552039120346444 0 -0.44219215159727421 -0.16781727210851849 0 -0.43155613508544272 -0.1669321437644439 0 -0.4214232379976206 -0.16216052115063159 0 -0.43166640735559808 -0.1552039120346444 0 -0.42549584187692119 -0.17333418479170171 0 -0.43155613508544272 -0.1669321437644439 0 -0.4214232379976206 -0.16216052115063159 0 -0.42549584187692119 -0.17333418479170171 0 -0.4214232379976206 -0.16216052115063159 0 -0.41110577652129249 -0.1670682470007229 0 -0.4214232379976206 -0.16216052115063159 0 -0.41110577652129249 -0.1670682470007229 0 -0.40669002996807779 -0.1495058137550834 0 -0.41110577652129249 -0.1670682470007229 0 -0.41834400919125792 -0.18158621355319651 0 -0.40730162077548249 -0.18407395049314179 0 -0.42549584187692119 -0.17333418479170171 0 -0.41110577652129249 -0.1670682470007229 0 -0.41834400919125792 -0.18158621355319651 0 -0.42032122747045741 -0.1927313373696285 0 -0.41834400919125792 -0.18158621355319651 0 -0.40730162077548249 -0.18407395049314179 0 -0.39543971762078378 -0.19194216334420211 0 -0.40730162077548249 -0.18407395049314179 0 -0.39267839793348491 -0.17927693187167279 0 -0.40730162077548249 -0.18407395049314179 0 -0.39267839793348491 -0.17927693187167279 0 -0.39387780121335469 -0.16444862508152899 0 -0.40730162077548249 -0.18407395049314179 0 -0.39387780121335469 -0.16444862508152899 0 -0.37378547386561772 -0.17392500984250869 0 -0.36895563931783232 -0.19259611207654981 0 -0.3831693110633177 -0.1873742460103984 0 -0.37378547386561772 -0.17392500984250869 0 -0.39267839793348491 -0.17927693187167279 0 -0.3831693110633177 -0.1873742460103984 0 -0.37378547386561772 -0.17392500984250869 0 -0.39267839793348491 -0.17927693187167279 0 -0.39387780121335469 -0.16444862508152899 0 -0.39543971762078378 -0.19194216334420211 0 -0.39267839793348491 -0.17927693187167279 0 -0.3831693110633177 -0.1873742460103984 0 -0.37378547386561772 -0.17392500984250869 0 -0.37839901512320262 -0.15996290040625341 0 -0.39387780121335469 -0.16444862508152899 0 -0.37839901512320262 -0.15996290040625341 0 -0.39387780121335469 -0.16444862508152899 0 -0.3804539816512269 -0.14482329966991631 0 -0.41110577652129249 -0.1670682470007229 0 -0.39387780121335469 -0.16444862508152899 0 -0.40669002996807779 -0.1495058137550834 0 -0.41110577652129249 -0.1670682470007229 0 -0.40730162077548249 -0.18407395049314179 0 -0.39387780121335469 -0.16444862508152899 0 -0.39387780121335469 -0.16444862508152899 0 -0.3804539816512269 -0.14482329966991631 0 -0.40669002996807779 -0.1495058137550834 0 -0.3804539816512269 -0.14482329966991631 0 -0.39647179587780151 -0.13189450107720049 0 -0.40669002996807779 -0.1495058137550834 0 -0.3804539816512269 -0.14482329966991631 0 -0.40669002996807779 -0.1495058137550834 0 -0.39387780121335469 -0.16444862508152899 0 -0.3804539816512269 -0.14482329966991631 0 -0.3804539816512269 -0.14482329966991631 0 -0.38278168804071749 -0.12940228238898679 0 -0.39647179587780151 -0.13189450107720049 0 -0.3804539816512269 -0.14482329966991631 0 -0.39647179587780151 -0.13189450107720049 0 -0.37212838853434238 -0.11808059788504249 0 -0.37028068739271691 -0.13083580994494901 0 -0.38278168804071749 -0.12940228238898679 0 -0.37028068739271691 -0.13083580994494901 0 -0.3804539816512269 -0.14482329966991631 0 -0.38278168804071749 -0.12940228238898679 0 -0.38278168804071749 -0.12940228238898679 0 -0.39647179587780151 -0.13189450107720049 0 -0.39044023874876249 -0.11757149150947201 0 -0.39647179587780151 -0.13189450107720049 0 -0.40828286160401828 -0.1310364195873514 0 -0.40669002996807779 -0.1495058137550834 0 -0.39647179587780151 -0.13189450107720049 0 -0.40828286160401828 -0.1310364195873514 0 -0.41122993917504558 -0.1199812866788818 0 -0.39647179587780151 -0.13189450107720049 0 -0.41122993917504558 -0.1199812866788818 0 -0.40828286160401828 -0.1310364195873514 0 -0.41930562378398423 -0.12797048681614909 0 -0.41122993917504558 -0.1199812866788818 0 -0.41930562378398423 -0.12797048681614909 0 -0.41533589961201212 -0.13938201891822019 0 -0.4273858072007774 -0.14414008567558009 0 -0.40828286160401828 -0.1310364195873514 0 -0.41533589961201212 -0.13938201891822019 0 -0.40669002996807779 -0.1495058137550834 0 -0.40828286160401828 -0.1310364195873514 0 -0.41930562378398423 -0.12797048681614909 0 -0.41533589961201212 -0.13938201891822019 0 -0.40669002996807779 -0.1495058137550834 0 -0.43166640735559808 -0.1552039120346444 0 -0.4214232379976206 -0.16216052115063159 0 -0.40669002996807779 -0.1495058137550834 0 -0.43166640735559808 -0.1552039120346444 0 -0.41533589961201212 -0.13938201891822019 0 -0.40669002996807779 -0.1495058137550834 0 -0.4273858072007774 -0.14414008567558009 0 -0.40669002996807779 -0.1495058137550834 0 -0.4273858072007774 -0.14414008567558009 0 -0.43166640735559808 -0.1552039120346444 0 -0.43166640735559808 -0.1552039120346444 0 -0.43525592456887258 -0.14374997194848471 0 -0.44410307239699631 -0.15282998285397989 0 -0.4273858072007774 -0.14414008567558009 0 -0.43166640735559808 -0.1552039120346444 0 -0.43525592456887258 -0.14374997194848471 0 -0.41930562378398423 -0.12797048681614909 0 -0.43525592456887258 -0.14374997194848471 0 -0.41930562378398423 -0.12797048681614909 0 -0.4273858072007774 -0.14414008567558009 0 -0.43525592456887258 -0.14374997194848471 0 -0.41930562378398423 -0.12797048681614909 0 -0.4273858072007774 -0.14414008567558009 0 -0.41930562378398423 -0.12797048681614909 0 -0.43525592456887258 -0.14374997194848471 0 -0.43389101300267191 -0.13422730327376839 0 -0.41930562378398423 -0.12797048681614909 0 -0.43389101300267191 -0.13422730327376839 0 -0.4149348530849476 -0.1169905694289516 0 -0.43389101300267191 -0.13422730327376839 0 -0.4149348530849476 -0.1169905694289516 0 -0.43389101300267191 -0.13422730327376839 0 -0.43160182387889101 -0.1187955019330571 0 -0.44085253015216358 -0.1237950587173612 0 -0.43389101300267191 -0.13422730327376839 0 -0.44872577578551592 -0.13320174295465559 0 -0.452847172920396 -0.1514640371185853 0 -0.44872577578551592 -0.13320174295465559 0 -0.45896755277767909 -0.12575633132281341 0 -0.45000974795797011 -0.119430952696417 0 -0.44872577578551592 -0.13320174295465559 0 -0.45000974795797011 -0.119430952696417 0 -0.44085253015216358 -0.1237950587173612 0 -0.43389101300267191 -0.13422730327376839 0 -0.44872577578551592 -0.13320174295465559 0 -0.44085253015216358 -0.1237950587173612 0 -0.43525592456887258 -0.14374997194848471 0 -0.43389101300267191 -0.13422730327376839 0 -0.452847172920396 -0.1514640371185853 0 -0.43525592456887258 -0.14374997194848471 0 -0.44410307239699631 -0.15282998285397989 0 -0.452847172920396 -0.1514640371185853 0 -0.44872577578551592 -0.13320174295465559 0 -0.452847172920396 -0.1514640371185853 0 -0.456386085566235 -0.14096643446963419 0 -0.43389101300267191 -0.13422730327376839 0 -0.452847172920396 -0.1514640371185853 0 -0.44410307239699631 -0.15282998285397989 0 -0.452847172920396 -0.1514640371185853 0 -0.45664278474311831 -0.16090201031420531 0 -0.452847172920396 -0.1514640371185853 0 -0.456386085566235 -0.14096643446963419 0 -0.46738274896045578 -0.15003021006820461 0 -0.452847172920396 -0.1514640371185853 0 -0.46738274896045578 -0.15003021006820461 0 -0.45664278474311831 -0.16090201031420531 0 -0.456386085566235 -0.14096643446963419 0 -0.46738274896045578 -0.15003021006820461 0 -0.47200539146090159 -0.13839174763128981 0 -0.456386085566235 -0.14096643446963419 0 -0.47200539146090159 -0.13839174763128981 0 -0.47750202174635031 -0.1215216316744509 0 -0.456386085566235 -0.14096643446963419 0 -0.45896755277767909 -0.12575633132281341 0 -0.47750202174635031 -0.1215216316744509 0 -0.456386085566235 -0.14096643446963419 0 -0.47750202174635031 -0.1215216316744509 0 -0.44872577578551592 -0.13320174295465559 0 -0.456386085566235 -0.14096643446963419 0 -0.45896755277767909 -0.12575633132281341 0 -0.47200539146090159 -0.13839174763128981 0 -0.48675070957056549 -0.14104871431286931 0 -0.47750202174635031 -0.1215216316744509 0 -0.50000000000000011 -0.12648838757554831 0 -0.48675070957056549 -0.14104871431286931 0 -0.5 -0.15043640832747529 0 -0.50000000000000011 -0.12648838757554831 0 -0.48675070957056549 -0.14104871431286931 0 -0.47750202174635031 -0.1215216316744509 0 -0.48675070957056549 -0.14104871431286931 0 -0.5 -0.15043640832747529 0 -0.48062174440056549 -0.15969986187448909 0 -0.46738274896045578 -0.15003021006820461 0 -0.47200539146090159 -0.13839174763128981 0 -0.48675070957056549 -0.14104871431286931 0 -0.48675070957056549 -0.14104871431286931 0 -0.48062174440056549 -0.15969986187448909 0 -0.46738274896045578 -0.15003021006820461 0 -0.48675070957056549 -0.14104871431286931 0 -0.48062174440056549 -0.15969986187448909 0 -0.48062174440056549 -0.15969986187448909 0 -0.46548313673471758 -0.16971310035941381 0 -0.46753260370971428 -0.1600862956540782 0 -0.46738274896045578 -0.15003021006820461 0 -0.48062174440056549 -0.15969986187448909 0 -0.46753260370971428 -0.1600862956540782 0 -0.48062174440056549 -0.15969986187448909 0 -0.47449277923056221 -0.17835100943610771 0 -0.46548313673471758 -0.16971310035941381 0 -0.48062174440056549 -0.15969986187448909 0 -0.47449277923056221 -0.17835100943610771 0 -0.5 -0.15043640832747529 0 -0.48062174440056549 -0.15969986187448909 0 -0.49999999999999828 -0.17438442907940241 0 -0.48062174440056549 -0.15969986187448909 0 -0.49999999999999828 -0.17438442907940241 0 -0.47449277923056221 -0.17835100943610771 0 -0.49999999999999828 -0.17438442907940241 0 -0.47449277923056221 -0.17835100943610771 0 -0.49999999999999828 -0.17438442907940241 0 -0.47449277923056221 -0.17835100943610771 0 -0.48549376880548989 -0.19132810400505559 0 -0.47449277923056221 -0.17835100943610771 0 -0.46892716456320649 -0.19528781647494389 0 -0.47449277923056221 -0.17835100943610771 0 -0.45952205817714309 -0.18067907836188021 0 -0.46892716456320649 -0.19528781647494389 0 -0.45952205817714309 -0.18067907836188021 0 -0.46548313673471758 -0.16971310035941381 0 -0.45289664290439807 -0.17180374819378549 0 -0.47449277923056221 -0.17835100943610771 0 -0.45952205817714309 -0.18067907836188021 0 -0.47449277923056221 -0.17835100943610771 0 -0.45952205817714309 -0.18067907836188021 0 -0.46548313673471758 -0.16971310035941381 0 -0.46548313673471758 -0.16971310035941381 0 -0.46753260370971428 -0.1600862956540782 0 -0.45664278474311831 -0.16090201031420531 0 -0.46738274896045578 -0.15003021006820461 0 -0.46753260370971428 -0.1600862956540782 0 -0.45664278474311831 -0.16090201031420531 0 -0.46548313673471758 -0.16971310035941381 0 -0.45664278474311831 -0.16090201031420531 0 -0.45289664290439807 -0.17180374819378549 0 -0.45664278474311831 -0.16090201031420531 0 -0.45289664290439807 -0.17180374819378549 0 -0.44219215159727421 -0.16781727210851849 0 -0.43166640735559808 -0.1552039120346444 0 -0.45664278474311831 -0.16090201031420531 0 -0.44219215159727421 -0.16781727210851849 0 -0.43166640735559808 -0.1552039120346444 0 -0.45664278474311831 -0.16090201031420531 0 -0.43166640735559808 -0.1552039120346444 0 -0.44410307239699631 -0.15282998285397989 0 -0.45664278474311831 -0.16090201031420531 0 -0.43495901877196291 -0.17485617288990979 0 -0.44219215159727421 -0.16781727210851849 0 -0.44455133712372419 -0.18300714728765441 0 -0.43099962817645188 -0.18319011649723049 0 -0.44455133712372419 -0.18300714728765441 0 -0.43833565968517207 -0.19112957676178299 0 -0.45952205817714309 -0.18067907836188021 0 -0.44455133712372419 -0.18300714728765441 0 -0.45396471697207569 -0.194241302212698 0 -0.45952205817714309 -0.18067907836188021 0 -0.44455133712372419 -0.18300714728765441 0 -0.45952205817714309 -0.18067907836188021 0 -0.45289664290439807 -0.17180374819378549 0 -0.44455133712372419 -0.18300714728765441 0 -0.45289664290439807 -0.17180374819378549 0 -0.44219215159727421 -0.16781727210851849 0 -0.44455133712372419 -0.18300714728765441 0 -0.44455133712372419 -0.18300714728765441 0 -0.43833565968517207 -0.19112957676178299 0 -0.45396471697207569 -0.194241302212698 0 -0.43833565968517207 -0.19112957676178299 0 -0.44184138868315109 -0.20247798044170351 0 -0.45396471697207569 -0.194241302212698 0 -0.44184138868315109 -0.20247798044170351 0 -0.46336154989584488 -0.2122246235137781 0 -0.45396471697207569 -0.194241302212698 0 -0.44184138868315109 -0.20247798044170351 0 -0.46336154989584488 -0.2122246235137781 0 -0.45338394269579491 -0.2190794284651259 0 -0.43378961613155448 -0.20908682079381441 0 -0.44184138868315109 -0.20247798044170351 0 -0.44166379455333399 -0.21604972156869759 0 -0.44184138868315109 -0.20247798044170351 0 -0.44166379455333399 -0.21604972156869759 0 -0.45338394269579491 -0.2190794284651259 0 -0.44184138868315109 -0.20247798044170351 0 -0.46336154989584488 -0.2122246235137781 0 -0.46336154989584488 -0.2122246235137781 0 -0.46892716456320649 -0.19528781647494389 0 -0.46336154989584488 -0.2122246235137781 0 -0.45396471697207569 -0.194241302212698 0 -0.46892716456320649 -0.19528781647494389 0 -0.45952205817714309 -0.18067907836188021 0 -0.45396471697207569 -0.194241302212698 0 -0.46892716456320649 -0.19528781647494389 0 -0.47449277923056221 -0.17835100943610771 0 -0.46892716456320649 -0.19528781647494389 0 -0.48549376880548989 -0.19132810400505559 0 -0.46892716456320649 -0.19528781647494389 0 -0.48549376880548989 -0.19132810400505559 0 -0.47978640147694102 -0.20418872613165631 0 -0.5 -0.20182215567114031 0 -0.48549376880548989 -0.19132810400505559 0 -0.47978640147694102 -0.20418872613165631 0 -0.49999999999999828 -0.17438442907940241 0 -0.5 -0.20182215567114031 0 -0.48549376880548989 -0.19132810400505559 0 -0.5 -0.20182215567114031 0 -0.48114952412016337 -0.22028093099336349 0 -0.49893749834448198 -0.22833723847294871 0 -0.5 -0.20182215567114031 0 -0.47978640147694102 -0.20418872613165631 0 -0.48114952412016337 -0.22028093099336349 0 -0.46336154989584488 -0.2122246235137781 0 -0.48114952412016337 -0.22028093099336349 0 -0.46336154989584488 -0.2122246235137781 0 -0.47978640147694102 -0.20418872613165631 0 -0.48114952412016337 -0.22028093099336349 0 -0.46336154989584488 -0.2122246235137781 0 -0.46892716456320649 -0.19528781647494389 0 -0.47978640147694102 -0.20418872613165631 0 -0.46336154989584488 -0.2122246235137781 0 -0.48114952412016337 -0.22028093099336349 0 -0.46857810181099829 -0.22486784275082261 0 -0.48114952412016337 -0.22028093099336349 0 -0.48798868478634799 -0.231470988200419 0 -0.47142395938804471 -0.23802335247430181 0 -0.48114952412016337 -0.22028093099336349 0 -0.47142395938804471 -0.23802335247430181 0 -0.46857810181099829 -0.22486784275082261 0 -0.48114952412016337 -0.22028093099336349 0 -0.48798868478634799 -0.231470988200419 0 -0.49893749834448198 -0.22833723847294871 0 -0.48114952412016337 -0.22028093099336349 0 -0.49893749834448198 -0.22833723847294871 0 -0.48798868478634799 -0.231470988200419 0 -0.49893749834448198 -0.22833723847294871 0 -0.4875835208682564 -0.24248539692068891 0 -0.5 -0.25669760885461612 0 -0.49893749834448198 -0.22833723847294871 0 -0.4875835208682564 -0.24248539692068891 0 -0.48798868478634799 -0.231470988200419 0 -0.4875835208682564 -0.24248539692068891 0 -0.47142395938804471 -0.23802335247430181 0 -0.47878778985378329 -0.25835102983948688 0 -0.4875835208682564 -0.24248539692068891 0 -0.47142395938804471 -0.23802335247430181 0 -0.45662330498375908 -0.25656877445722759 0 -0.47142395938804471 -0.23802335247430181 0 -0.45034617445999431 -0.24335722649563979 0 -0.47142395938804471 -0.23802335247430181 0 -0.45735065046854989 -0.23051648340969341 0 -0.45034617445999431 -0.24335722649563979 0 -0.46336154989584488 -0.2122246235137781 0 -0.46857810181099829 -0.22486784275082261 0 -0.45735065046854989 -0.23051648340969341 0 -0.46336154989584488 -0.2122246235137781 0 -0.45735065046854989 -0.23051648340969341 0 -0.47142395938804471 -0.23802335247430181 0 -0.46857810181099829 -0.22486784275082261 0 -0.45735065046854989 -0.23051648340969341 0 -0.46336154989584488 -0.2122246235137781 0 -0.45338394269579491 -0.2190794284651259 0 -0.45735065046854989 -0.23051648340969341 0 -0.45338394269579491 -0.2190794284651259 0 -0.45735065046854989 -0.23051648340969341 0 -0.43806130733353449 -0.23541812032183559 0 -0.44166379455333399 -0.21604972156869759 0 -0.43806130733353449 -0.23541812032183559 0 -0.44166379455333399 -0.21604972156869759 0 -0.45338394269579491 -0.2190794284651259 0 -0.43806130733353449 -0.23541812032183559 0 -0.45735065046854989 -0.23051648340969341 0 -0.45034617445999431 -0.24335722649563979 0 -0.43806130733353449 -0.23541812032183559 0 -0.43445882011373449 -0.25478651907497341 0 -0.45034617445999431 -0.24335722649563979 0 -0.43806130733353449 -0.23541812032183559 0 -0.41324955929443102 -0.038374170610562031 0 -0.41005136228565903 -0.05540387285823338 0 -0.42435348212729052 -0.04457483879584373 0 -0.41324955929443102 -0.038374170610562031 0 -0.41005136228565903 -0.05540387285823338 0 -0.39900851660089293 -0.046429079601448257 0 -0.41324955929443102 -0.038374170610562031 0 -0.40747857107326091 -0.02424585309778798 0 -0.40045416304880688 -0.034240371911693122 0 -0.41005136228565903 -0.05540387285823338 0 -0.4246600563061857 -0.059067830999859447 0 -0.41422906440869389 -0.068128229862373102 0 -0.41005136228565903 -0.05540387285823338 0 -0.4246600563061857 -0.059067830999859447 0 -0.42435348212729052 -0.04457483879584373 0 -0.4246600563061857 -0.059067830999859447 0 -0.42435348212729052 -0.04457483879584373 0 -0.43957367317472601 -0.045089571971719818 0 -0.4246600563061857 -0.059067830999859447 0 -0.43957367317472601 -0.045089571971719818 0 -0.44544580640037118 -0.056213229689383748 0 -0.41324955929443102 -0.038374170610562031 0 -0.42435348212729052 -0.04457483879584373 0 -0.42981912379901888 -0.030443092666165631 0 -0.42435348212729052 -0.04457483879584373 0 -0.42981912379901888 -0.030443092666165631 0 -0.43957367317472601 -0.045089571971719818 0 -0.41302196833726168 -0.01226972299954816 0 -0.4392085005598273 -0.024676348383282701 0 -0.42659341977192161 -0.010103830507352861 0 -0.41302196833726168 -0.01226972299954816 0 -0.4392085005598273 -0.024676348383282701 0 -0.42981912379901888 -0.030443092666165631 0 -0.41673372021425997 -0.022240754673565791 0 -0.4392085005598273 -0.024676348383282701 0 -0.41302196833726168 -0.01226972299954816 0 -0.41673372021425997 -0.022240754673565791 0 -0.4392085005598273 -0.024676348383282701 0 -0.43741768347029059 -0.01288367903972009 0 -0.42659341977192161 -0.010103830507352861 0 -0.4392085005598273 -0.024676348383282701 0 -0.4441818909265971 -0.00998157505946092 0 -0.42578104856505677 0.0031949168855625672 0 -0.43741768347029059 -0.01288367903972009 0 -0.4441818909265971 -0.00998157505946092 0 -0.42578104856505677 0.0031949168855625672 0 -0.43741768347029059 -0.01288367903972009 0 -0.42659341977192161 -0.010103830507352861 0 -0.42578104856505677 0.0031949168855625672 0 -0.43741768347029059 -0.01288367903972009 0 -0.42578104856505677 0.0031949168855625672 0 -0.42659341977192161 -0.010103830507352861 0 -0.41753789792717189 -0.0038843189997757009 0 -0.42578104856505677 0.0031949168855625672 0 -0.42659341977192161 -0.010103830507352861 0 -0.41753789792717189 -0.0038843189997757009 0 -0.41302196833726168 -0.01226972299954816 0 -0.41753789792717189 -0.0038843189997757009 0 -0.41302196833726168 -0.01226972299954816 0 -0.40771050441737638 -0.0035262849216432719 0 -0.41753789792717189 -0.0038843189997757009 0 -0.40771050441737638 -0.0035262849216432719 0 -0.41105156913745711 0.0034129409419674369 0 -0.42981912379901888 -0.030443092666165631 0 -0.40747857107326091 -0.02424585309778798 0 -0.41324955929443102 -0.038374170610562031 0 -0.42981912379901888 -0.030443092666165631 0 -0.40747857107326091 -0.02424585309778798 0 -0.42981912379901888 -0.030443092666165631 0 -0.41673372021425997 -0.022240754673565791 0 -0.40747857107326091 -0.02424585309778798 0 -0.41302196833726168 -0.01226972299954816 0 -0.41673372021425997 -0.022240754673565791 0 -0.40747857107326091 -0.02424585309778798 0 -0.41673372021425997 -0.022240754673565791 0 -0.40747857107326091 -0.02424585309778798 0 -0.40747857107326091 -0.02424585309778798 0 -0.38992317137517202 -0.02804917422583518 0 -0.40747857107326091 -0.02424585309778798 0 -0.38992317137517202 -0.02804917422583518 0 -0.38297625517291389 -0.017448943304264108 0 -0.40747857107326091 -0.02424585309778798 0 -0.38992317137517202 -0.02804917422583518 0 -0.40045416304880688 -0.034240371911693122 0 -0.40747857107326091 -0.02424585309778798 0 -0.39567459441968961 -0.012635194689989219 0 -0.38297625517291389 -0.017448943304264108 0 -0.40747857107326091 -0.02424585309778798 0 -0.38297625517291389 -0.017448943304264108 0 -0.41302196833726168 -0.01226972299954816 0 -0.40747857107326091 -0.02424585309778798 0 -0.39567459441968961 -0.012635194689989219 0 -0.41302196833726168 -0.01226972299954816 0 -0.40771050441737638 -0.0035262849216432719 0 -0.38683543611469601 0.0001369023841863784 0 -0.41302196833726168 -0.01226972299954816 0 -0.39567459441968961 -0.012635194689989219 0 -0.38683543611469601 0.0001369023841863784 0 -0.41302196833726168 -0.01226972299954816 0 -0.38683543611469601 0.0001369023841863784 0 -0.40771050441737638 -0.0035262849216432719 0 -0.38683543611469601 0.0001369023841863784 0 -0.40226596945639398 0.0014711925349297271 0 -0.39567459441968961 -0.012635194689989219 0 -0.38502252263107412 -0.0084426060797158468 0 -0.38683543611469601 0.0001369023841863784 0 -0.39567459441968961 -0.012635194689989219 0 -0.38502252263107412 -0.0084426060797158468 0 -0.38297625517291389 -0.017448943304264108 0 -0.38502252263107412 -0.0084426060797158468 0 -0.38009964520605882 -0.0090403485437739461 0 -0.38297625517291389 -0.017448943304264108 0 -0.37278444596104371 -0.0079457960458173115 0 -0.38009964520605882 -0.0090403485437739461 0 -0.38297625517291389 -0.017448943304264108 0 -0.37474494217865062 -0.0022388935110706832 0 -0.38502252263107412 -0.0084426060797158468 0 -0.38683543611469601 0.0001369023841863784 0 -0.37474494217865062 -0.0022388935110706832 0 -0.38502252263107412 -0.0084426060797158468 0 -0.38009964520605882 -0.0090403485437739461 0 -0.37474494217865062 -0.0022388935110706832 0 -0.37278444596104371 -0.0079457960458173115 0 -0.38009964520605882 -0.0090403485437739461 0 -0.37236777167708351 -0.031852495353884333 0 -0.38992317137517202 -0.02804917422583518 0 -0.37990921189048049 -0.023302515363219579 0 -0.37236777167708351 -0.031852495353884333 0 -0.38992317137517202 -0.02804917422583518 0 -0.38992317137517202 -0.02804917422583518 0 -0.38297625517291389 -0.017448943304264108 0 -0.37990921189048049 -0.023302515363219579 0 -0.3739022591900184 -0.02415390189740213 0 -0.38297625517291389 -0.017448943304264108 0 -0.37990921189048049 -0.023302515363219579 0 -0.37236777167708351 -0.031852495353884333 0 -0.3739022591900184 -0.02415390189740213 0 -0.37990921189048049 -0.023302515363219579 0 -0.37236777167708351 -0.031852495353884333 0 -0.37990921189048049 -0.023302515363219579 0 -0.38458287424021398 -0.039388642062709187 0 -0.39900851660089293 -0.046429079601448257 0 -0.3815482533063424 -0.052412606119804542 0 -0.37355784227175309 -0.045246792894939887 0 -0.37236777167708351 -0.031852495353884333 0 -0.38458287424021398 -0.039388642062709187 0 -0.37236777167708351 -0.031852495353884333 0 -0.38992317137517202 -0.02804917422583518 0 -0.38458287424021398 -0.039388642062709187 0 -0.37355784227175309 -0.045246792894939887 0 -0.38458287424021398 -0.039388642062709187 0 -0.3815482533063424 -0.052412606119804542 0 -0.38458287424021398 -0.039388642062709187 0 -0.39900851660089293 -0.046429079601448257 0 -0.40045416304880688 -0.034240371911693122 0 -0.38992317137517202 -0.02804917422583518 0 -0.38458287424021398 -0.039388642062709187 0 -0.40045416304880688 -0.034240371911693122 0 -0.41324955929443102 -0.038374170610562031 0 -0.39900851660089293 -0.046429079601448257 0 -0.40045416304880688 -0.034240371911693122 0 -0.39900851660089293 -0.046429079601448257 0 -0.39626447370361728 -0.06091275685647668 0 -0.3815482533063424 -0.052412606119804542 0 -0.41005136228565903 -0.05540387285823338 0 -0.39626447370361728 -0.06091275685647668 0 -0.40517181862379281 -0.066558370858305557 0 -0.41005136228565903 -0.05540387285823338 0 -0.39900851660089293 -0.046429079601448257 0 -0.39626447370361728 -0.06091275685647668 0 -0.36862349457690058 -0.057461967220355487 0 -0.3815482533063424 -0.052412606119804542 0 -0.37947166312044489 -0.067272628224985004 0 -0.3815482533063424 -0.052412606119804542 0 -0.37947166312044489 -0.067272628224985004 0 -0.39260231949431601 -0.074533368335879327 0 -0.36882665317829499 -0.078032107790563188 0 -0.39260231949431601 -0.074533368335879327 0 -0.39626447370361728 -0.06091275685647668 0 -0.3815482533063424 -0.052412606119804542 0 -0.39260231949431601 -0.074533368335879327 0 -0.3815482533063424 -0.052412606119804542 0 -0.39260231949431601 -0.074533368335879327 0 -0.36882665317829499 -0.078032107790563188 0 -0.37947166312044489 -0.067272628224985004 0 -0.39260231949431601 -0.074533368335879327 0 -0.36882665317829499 -0.078032107790563188 0 -0.39260231949431601 -0.074533368335879327 0 -0.39002829617667018 -0.099006697234722524 0 -0.36882665317829499 -0.078032107790563188 0 -0.39002829617667018 -0.099006697234722524 0 -0.37367929427193591 -0.1014825750548952 0 -0.36882665317829499 -0.078032107790563188 0 -0.39002829617667018 -0.099006697234722524 0 -0.39260231949431601 -0.074533368335879327 0 -0.39002829617667018 -0.099006697234722524 0 -0.39510370691593599 -0.098958215311000047 0 -0.39260231949431601 -0.074533368335879327 0 -0.40274583300482147 -0.094831984843681591 0 -0.39260231949431601 -0.074533368335879327 0 -0.39510370691593599 -0.098958215311000047 0 -0.40274583300482147 -0.094831984843681591 0 -0.40361170428446441 -0.083317353290434007 0 -0.39260231949431601 -0.074533368335879327 0 -0.40274583300482147 -0.094831984843681591 0 -0.40361170428446441 -0.083317353290434007 0 -0.39867569396630093 -0.073639632925658519 0 -0.40696916935602839 -0.074517235882718885 0 -0.39867569396630093 -0.073639632925658519 0 -0.40517181862379281 -0.066558370858305557 0 -0.40696916935602839 -0.074517235882718885 0 -0.39626447370361728 -0.06091275685647668 0 -0.39867569396630093 -0.073639632925658519 0 -0.40517181862379281 -0.066558370858305557 0 -0.39626447370361728 -0.06091275685647668 0 -0.39867569396630093 -0.073639632925658519 0 -0.39260231949431601 -0.074533368335879327 0 -0.40361170428446441 -0.083317353290434007 0 -0.39867569396630093 -0.073639632925658519 0 -0.39260231949431601 -0.074533368335879327 0 -0.39867569396630093 -0.073639632925658519 0 -0.39260231949431601 -0.074533368335879327 0 -0.37212838853434238 -0.11808059788504249 0 -0.38278168804071749 -0.12940228238898679 0 -0.39044023874876249 -0.11757149150947201 0 -0.37367929427193591 -0.1014825750548952 0 -0.37212838853434238 -0.11808059788504249 0 -0.39044023874876249 -0.11757149150947201 0 -0.37367929427193591 -0.1014825750548952 0 -0.39044023874876249 -0.11757149150947201 0 -0.39002829617667018 -0.099006697234722524 0 -0.39510370691593599 -0.098958215311000047 0 -0.40274583300482147 -0.094831984843681591 0 -0.41288934651532883 -0.11513060135148299 0 -0.39002829617667018 -0.099006697234722524 0 -0.39510370691593599 -0.098958215311000047 0 -0.41122993917504558 -0.1199812866788818 0 -0.39510370691593599 -0.098958215311000047 0 -0.41288934651532883 -0.11513060135148299 0 -0.39647179587780151 -0.13189450107720049 0 -0.39044023874876249 -0.11757149150947201 0 -0.41122993917504558 -0.1199812866788818 0 -0.39002829617667018 -0.099006697234722524 0 -0.41122993917504558 -0.1199812866788818 0 -0.39044023874876249 -0.11757149150947201 0 -0.39002829617667018 -0.099006697234722524 0 -0.41122993917504558 -0.1199812866788818 0 -0.39510370691593599 -0.098958215311000047 0 -0.41122993917504558 -0.1199812866788818 0 -0.41288934651532883 -0.11513060135148299 0 -0.41930562378398423 -0.12797048681614909 0 -0.41122993917504558 -0.1199812866788818 0 -0.4149348530849476 -0.1169905694289516 0 -0.41930562378398423 -0.12797048681614909 0 -0.41122993917504558 -0.1199812866788818 0 -0.41930562378398423 -0.12797048681614909 0 -0.4149348530849476 -0.1169905694289516 0 -0.41122993917504558 -0.1199812866788818 0 -0.41288934651532883 -0.11513060135148299 0 -0.4149348530849476 -0.1169905694289516 0 -0.41122993917504558 -0.1199812866788818 0 -0.4149348530849476 -0.1169905694289516 0 -0.41288934651532883 -0.11513060135148299 0 -0.4149348530849476 -0.1169905694289516 0 -0.41288934651532883 -0.11513060135148299 0 -0.4149348530849476 -0.1169905694289516 0 -0.41458672172207622 -0.10427776634057311 0 -0.40274583300482147 -0.094831984843681591 0 -0.41288934651532883 -0.11513060135148299 0 -0.4149348530849476 -0.1169905694289516 0 -0.41458672172207622 -0.10427776634057311 0 -0.43059848591229039 -0.1043464168163742 0 -0.40274583300482147 -0.094831984843681591 0 -0.41288934651532883 -0.11513060135148299 0 -0.41458672172207622 -0.10427776634057311 0 -0.41458672172207622 -0.10427776634057311 0 -0.41348552386521947 -0.090840815536544176 0 -0.43025813067654672 -0.08737754853092726 0 -0.40274583300482147 -0.094831984843681591 0 -0.41458672172207622 -0.10427776634057311 0 -0.41348552386521947 -0.090840815536544176 0 -0.43059848591229039 -0.1043464168163742 0 -0.43025813067654672 -0.08737754853092726 0 -0.44626211873963212 -0.091702264203795431 0 -0.41458672172207622 -0.10427776634057311 0 -0.43059848591229039 -0.1043464168163742 0 -0.43025813067654672 -0.08737754853092726 0 -0.41458672172207622 -0.10427776634057311 0 -0.43025813067654672 -0.08737754853092726 0 -0.4149348530849476 -0.1169905694289516 0 -0.43059848591229039 -0.1043464168163742 0 -0.43160182387889101 -0.1187955019330571 0 -0.4149348530849476 -0.1169905694289516 0 -0.43059848591229039 -0.1043464168163742 0 -0.43389101300267191 -0.13422730327376839 0 -0.4149348530849476 -0.1169905694289516 0 -0.43160182387889101 -0.1187955019330571 0 -0.43059848591229039 -0.1043464168163742 0 -0.43160182387889101 -0.1187955019330571 0 -0.44003429013576911 -0.11331979272890801 0 -0.43160182387889101 -0.1187955019330571 0 -0.44085253015216358 -0.1237950587173612 0 -0.44003429013576911 -0.11331979272890801 0 -0.41422906440869389 -0.068128229862373102 0 -0.41539885585273961 -0.080089681603359497 0 -0.42594434486026628 -0.073522222089585226 0 -0.4246600563061857 -0.059067830999859447 0 -0.41422906440869389 -0.068128229862373102 0 -0.42594434486026628 -0.073522222089585226 0 -0.41005136228565903 -0.05540387285823338 0 -0.40517181862379281 -0.066558370858305557 0 -0.41422906440869389 -0.068128229862373102 0 -0.40517181862379281 -0.066558370858305557 0 -0.41422906440869389 -0.068128229862373102 0 -0.40696916935602839 -0.074517235882718885 0 -0.41422906440869389 -0.068128229862373102 0 -0.40696916935602839 -0.074517235882718885 0 -0.41539885585273961 -0.080089681603359497 0 -0.41348552386521947 -0.090840815536544176 0 -0.41539885585273961 -0.080089681603359497 0 -0.43025813067654672 -0.08737754853092726 0 -0.40361170428446441 -0.083317353290434007 0 -0.41348552386521947 -0.090840815536544176 0 -0.41539885585273961 -0.080089681603359497 0 -0.40361170428446441 -0.083317353290434007 0 -0.40696916935602839 -0.074517235882718885 0 -0.41539885585273961 -0.080089681603359497 0 -0.40361170428446441 -0.083317353290434007 0 -0.40274583300482147 -0.094831984843681591 0 -0.41348552386521947 -0.090840815536544176 0 -0.41539885585273961 -0.080089681603359497 0 -0.43025813067654672 -0.08737754853092726 0 -0.42594434486026628 -0.073522222089585226 0 -0.4246600563061857 -0.059067830999859447 0 -0.44592953963101739 -0.07047733072128165 0 -0.43025813067654672 -0.08737754853092726 0 -0.42594434486026628 -0.073522222089585226 0 -0.44592953963101739 -0.07047733072128165 0 -0.4246600563061857 -0.059067830999859447 0 -0.42594434486026628 -0.073522222089585226 0 -0.44592953963101739 -0.07047733072128165 0 -0.44592953963101739 -0.07047733072128165 0 -0.45893666683642192 -0.056450303318209168 0 -0.44592953963101739 -0.07047733072128165 0 -0.44626211873963212 -0.091702264203795431 0 -0.46192575156697407 -0.079058111591217034 0 -0.43025813067654672 -0.08737754853092726 0 -0.44592953963101739 -0.07047733072128165 0 -0.43025813067654672 -0.08737754853092726 0 -0.44592953963101739 -0.07047733072128165 0 -0.44626211873963212 -0.091702264203795431 0 -0.44626211873963212 -0.091702264203795431 0 -0.46631049206888459 -0.091444160656324658 0 -0.46192575156697407 -0.079058111591217034 0 -0.44626211873963212 -0.091702264203795431 0 -0.46192575156697407 -0.079058111591217034 0 -0.46631049206888459 -0.091444160656324658 0 -0.46192575156697407 -0.079058111591217034 0 -0.47702460168979111 -0.087157524427869615 0 -0.44592953963101739 -0.07047733072128165 0 -0.46192575156697407 -0.079058111591217034 0 -0.45893666683642192 -0.056450303318209168 0 -0.46192575156697407 -0.079058111591217034 0 -0.47491389520024407 -0.068573693827893439 0 -0.45893666683642192 -0.056450303318209168 0 -0.46192575156697407 -0.079058111591217034 0 -0.47491389520024407 -0.068573693827893439 0 -0.44592953963101739 -0.07047733072128165 0 -0.46192575156697407 -0.079058111591217034 0 -0.45000974795797011 -0.119430952696417 0 -0.44085253015216358 -0.1237950587173612 0 -0.44003429013576911 -0.11331979272890801 0 -0.45000974795797011 -0.119430952696417 0 -0.44003429013576911 -0.11331979272890801 0 -0.44926481423485548 -0.10476542824413421 0 -0.43059848591229039 -0.1043464168163742 0 -0.44626211873963212 -0.091702264203795431 0 -0.43059848591229039 -0.1043464168163742 0 -0.44626211873963212 -0.091702264203795431 0 -0.44926481423485548 -0.10476542824413421 0 -0.43059848591229039 -0.1043464168163742 0 -0.44003429013576911 -0.11331979272890801 0 -0.44926481423485548 -0.10476542824413421 0 -0.44626211873963212 -0.091702264203795431 0 -0.44926481423485548 -0.10476542824413421 0 -0.46153012095291662 -0.1019472767233552 0 -0.44626211873963212 -0.091702264203795431 0 -0.46631049206888459 -0.091444160656324658 0 -0.46153012095291662 -0.1019472767233552 0 -0.46631049206888459 -0.091444160656324658 0 -0.46153012095291662 -0.1019472767233552 0 -0.4710589232177344 -0.098453604121520433 0 -0.46153012095291662 -0.1019472767233552 0 -0.46221413283232399 -0.11366089481890911 0 -0.47430793409480421 -0.10627177682285049 0 -0.44926481423485548 -0.10476542824413421 0 -0.46153012095291662 -0.1019472767233552 0 -0.46221413283232399 -0.11366089481890911 0 -0.45896755277767909 -0.12575633132281341 0 -0.46221413283232399 -0.11366089481890911 0 -0.47750202174635031 -0.1215216316744509 0 -0.45000974795797011 -0.119430952696417 0 -0.44926481423485548 -0.10476542824413421 0 -0.46221413283232399 -0.11366089481890911 0 -0.45896755277767909 -0.12575633132281341 0 -0.45000974795797011 -0.119430952696417 0 -0.46221413283232399 -0.11366089481890911 0 -0.47750202174635031 -0.1215216316744509 0 -0.47430793409480421 -0.10627177682285049 0 -0.48673501487359588 -0.1010237797652184 0 -0.46221413283232399 -0.11366089481890911 0 -0.47750202174635031 -0.1215216316744509 0 -0.47430793409480421 -0.10627177682285049 0 -0.47430793409480421 -0.10627177682285049 0 -0.47745372589702628 -0.099742000537211661 0 -0.48673501487359588 -0.1010237797652184 0 -0.46153012095291662 -0.1019472767233552 0 -0.47430793409480421 -0.10627177682285049 0 -0.4710589232177344 -0.098453604121520433 0 -0.46631049206888459 -0.091444160656324658 0 -0.4710589232177344 -0.098453604121520433 0 -0.47771303140197108 -0.093218841439257433 0 -0.47430793409480421 -0.10627177682285049 0 -0.4710589232177344 -0.098453604121520433 0 -0.47745372589702628 -0.099742000537211661 0 -0.4710589232177344 -0.098453604121520433 0 -0.47745372589702628 -0.099742000537211661 0 -0.47771303140197108 -0.093218841439257433 0 -0.47745372589702628 -0.099742000537211661 0 -0.48673501487359588 -0.1010237797652184 0 -0.47771303140197108 -0.093218841439257433 0 -0.48673501487359588 -0.1010237797652184 0 -0.47771303140197108 -0.093218841439257433 0 -0.47702460168979111 -0.087157524427869615 0 -0.47750202174635031 -0.1215216316744509 0 -0.48673501487359588 -0.1010237797652184 0 -0.4986179579264654 -0.1020768288792674 0 -0.48673501487359588 -0.1010237797652184 0 -0.49842317329231273 -0.098636270432611556 0 -0.47702460168979111 -0.087157524427869615 0 -0.48673501487359588 -0.1010237797652184 0 -0.49842317329231273 -0.098636270432611556 0 -0.4986179579264654 -0.1020768288792674 0 -0.49999999999999939 -0.099482120969144883 0 -0.49842317329231273 -0.098636270432611556 0 -0.4986179579264654 -0.1020768288792674 0 -0.49842317329231273 -0.098636270432611556 0 -0.4986179579264654 -0.1020768288792674 0 -0.49999999999999939 -0.099482120969144883 0 -0.49842317329231273 -0.098636270432611556 0 -0.50000000000000011 -0.12648838757554831 0 -0.47750202174635031 -0.1215216316744509 0 -0.4986179579264654 -0.1020768288792674 0 -0.47750202174635031 -0.1215216316744509 0 -0.4986179579264654 -0.1020768288792674 0 -0.47491389520024407 -0.068573693827893439 0 -0.47702460168979111 -0.087157524427869615 0 -0.4847984782487687 -0.075944598732494498 0 -0.47491389520024407 -0.068573693827893439 0 -0.47702460168979111 -0.087157524427869615 0 -0.47967839073812912 -0.064727650616396362 0 -0.4847984782487687 -0.075944598732494498 0 -0.48794163871831331 -0.064119883023254248 0 -0.47967839073812912 -0.064727650616396362 0 -0.47491389520024407 -0.068573693827893439 0 -0.4847984782487687 -0.075944598732494498 0 -0.47967839073812912 -0.064727650616396362 0 -0.47491389520024407 -0.068573693827893439 0 -0.46192575156697407 -0.079058111591217034 0 -0.47702460168979111 -0.087157524427869615 0 -0.46192575156697407 -0.079058111591217034 0 -0.47491389520024407 -0.068573693827893439 0 -0.47702460168979111 -0.087157524427869615 0 -0.46631049206888459 -0.091444160656324658 0 -0.47771303140197108 -0.093218841439257433 0 -0.47702460168979111 -0.087157524427869615 0 -0.47771303140197108 -0.093218841439257433 0 -0.47702460168979111 -0.087157524427869615 0 -0.49842317329231273 -0.098636270432611556 0 -0.49712708577170861 -0.075742961183477536 0 -0.4847984782487687 -0.075944598732494498 0 -0.49999999999999939 -0.099482120969144883 0 -0.49842317329231273 -0.098636270432611556 0 -0.5 -0.078030389970551228 0 -0.49842317329231273 -0.098636270432611556 0 -0.49712708577170861 -0.075742961183477536 0 -0.49842317329231273 -0.098636270432611556 0 -0.5 -0.078030389970551228 0 -0.49712708577170861 -0.075742961183477536 0 -0.49842317329231273 -0.098636270432611556 0 -0.47702460168979111 -0.087157524427869615 0 -0.4847984782487687 -0.075944598732494498 0 -0.49842317329231273 -0.098636270432611556 0 -0.47702460168979111 -0.087157524427869615 0 -0.5 -0.078030389970551228 0 -0.49712708577170861 -0.075742961183477536 0 -0.49999999999999928 -0.056578658971957581 0 -0.49712708577170861 -0.075742961183477536 0 -0.49583099825110311 -0.052849651934343489 0 -0.49712708577170861 -0.075742961183477536 0 -0.48794163871831331 -0.064119883023254248 0 -0.49583099825110311 -0.052849651934343489 0 -0.49712708577170861 -0.075742961183477536 0 -0.4847984782487687 -0.075944598732494498 0 -0.48794163871831331 -0.064119883023254248 0 -0.49712708577170861 -0.075742961183477536 0 -0.49999999999999928 -0.056578658971957581 0 -0.49583099825110311 -0.052849651934343489 0 -0.49583099825110311 -0.052849651934343489 0 -0.47748890114140963 -0.036443372127734748 0 -0.48227324058185622 -0.051334552649559453 0 -0.49999999999999928 -0.056578658971957581 0 -0.49583099825110311 -0.052849651934343489 0 -0.49999999999999928 -0.056578658971957581 0 -0.50000000000000144 -0.053559852644015388 0 -0.49583099825110311 -0.052849651934343489 0 -0.48794163871831331 -0.064119883023254248 0 -0.49583099825110311 -0.052849651934343489 0 -0.48227324058185622 -0.051334552649559453 0 -0.50000000000000144 -0.053559852644015388 0 -0.49583099825110311 -0.052849651934343489 0 -0.48598145264485831 -0.02728491224803695 0 -0.49583099825110311 -0.052849651934343489 0 -0.47748890114140963 -0.036443372127734748 0 -0.48598145264485831 -0.02728491224803695 0 -0.50000000000000144 -0.053559852644015388 0 -0.48598145264485831 -0.02728491224803695 0 -0.50000000000000144 -0.053559852644015388 0 -0.48598145264485831 -0.02728491224803695 0 -0.5 -0.025161366008633609 0 -0.49583099825110311 -0.052849651934343489 0 -0.47748890114140963 -0.036443372127734748 0 -0.47748890114140963 -0.036443372127734748 0 -0.48598145264485831 -0.02728491224803695 0 -0.47748890114140963 -0.036443372127734748 0 -0.47194379404182718 -0.042423275915137587 0 -0.48227324058185622 -0.051334552649559453 0 -0.47748890114140963 -0.036443372127734748 0 -0.47194379404182718 -0.042423275915137587 0 -0.47748890114140963 -0.036443372127734748 0 -0.47194379404182718 -0.042423275915137587 0 -0.47056077858213702 -0.03024644074295027 0 -0.47194379404182718 -0.042423275915137587 0 -0.46539503278239303 -0.037082973767017267 0 -0.47056077858213702 -0.03024644074295027 0 -0.47194379404182718 -0.042423275915137587 0 -0.47056077858213702 -0.03024644074295027 0 -0.47748890114140963 -0.036443372127734748 0 -0.47056077858213702 -0.03024644074295027 0 -0.47748890114140963 -0.036443372127734748 0 -0.47056077858213702 -0.03024644074295027 0 -0.47745882259212458 -0.028728106929589409 0 -0.47967839073812912 -0.064727650616396362 0 -0.47491389520024407 -0.068573693827893439 0 -0.47194379404182718 -0.042423275915137587 0 -0.47967839073812912 -0.064727650616396362 0 -0.47194379404182718 -0.042423275915137587 0 -0.48227324058185622 -0.051334552649559453 0 -0.47491389520024407 -0.068573693827893439 0 -0.47194379404182718 -0.042423275915137587 0 -0.47967839073812912 -0.064727650616396362 0 -0.48794163871831331 -0.064119883023254248 0 -0.48227324058185622 -0.051334552649559453 0 -0.47491389520024407 -0.068573693827893439 0 -0.47194379404182718 -0.042423275915137587 0 -0.45893666683642192 -0.056450303318209168 0 -0.45893666683642192 -0.056450303318209168 0 -0.45743491846808387 -0.04563500224908737 0 -0.44544580640037118 -0.056213229689383748 0 -0.47194379404182718 -0.042423275915137587 0 -0.45893666683642192 -0.056450303318209168 0 -0.45743491846808387 -0.04563500224908737 0 -0.47194379404182718 -0.042423275915137587 0 -0.45893666683642192 -0.056450303318209168 0 -0.46539503278239303 -0.037082973767017267 0 -0.44890774518284438 -0.02927164544362729 0 -0.46539503278239303 -0.037082973767017267 0 -0.45215967652477718 -0.036640332234541717 0 -0.44890774518284438 -0.02927164544362729 0 -0.46539503278239303 -0.037082973767017267 0 -0.44890774518284438 -0.02927164544362729 0 -0.46189821575704781 -0.02986243911986371 0 -0.47194379404182718 -0.042423275915137587 0 -0.46539503278239303 -0.037082973767017267 0 -0.45743491846808387 -0.04563500224908737 0 -0.46539503278239303 -0.037082973767017267 0 -0.46189821575704781 -0.02986243911986371 0 -0.47056077858213702 -0.03024644074295027 0 -0.46539503278239303 -0.037082973767017267 0 -0.45743491846808387 -0.04563500224908737 0 -0.45215967652477718 -0.036640332234541717 0 -0.42981912379901888 -0.030443092666165631 0 -0.45215967652477718 -0.036640332234541717 0 -0.45743491846808387 -0.04563500224908737 0 -0.45215967652477718 -0.036640332234541717 0 -0.43957367317472601 -0.045089571971719818 0 -0.42981912379901888 -0.030443092666165631 0 -0.45215967652477718 -0.036640332234541717 0 -0.43957367317472601 -0.045089571971719818 0 -0.45743491846808387 -0.04563500224908737 0 -0.43957367317472601 -0.045089571971719818 0 -0.44544580640037118 -0.056213229689383748 0 -0.4246600563061857 -0.059067830999859447 0 -0.44592953963101739 -0.07047733072128165 0 -0.44544580640037118 -0.056213229689383748 0 -0.44592953963101739 -0.07047733072128165 0 -0.45893666683642192 -0.056450303318209168 0 -0.44544580640037118 -0.056213229689383748 0 -0.4441818909265971 -0.00998157505946092 0 -0.45588653083934588 0.00041698580085632909 0 -0.44737850259376799 0.0077656591989471307 0 -0.4441818909265971 -0.00998157505946092 0 -0.4570262928383732 -0.018140378997512391 0 -0.45633913854906122 -0.0094275687658610888 0 -0.4441818909265971 -0.00998157505946092 0 -0.45633913854906122 -0.0094275687658610888 0 -0.45588653083934588 0.00041698580085632909 0 -0.43741768347029059 -0.01288367903972009 0 -0.4441818909265971 -0.00998157505946092 0 -0.44890774518284438 -0.02927164544362729 0 -0.42981912379901888 -0.030443092666165631 0 -0.45215967652477718 -0.036640332234541717 0 -0.4392085005598273 -0.024676348383282701 0 -0.4441818909265971 -0.00998157505946092 0 -0.44890774518284438 -0.02927164544362729 0 -0.46258273328813732 -0.023158067004484729 0 -0.43741768347029059 -0.01288367903972009 0 -0.44890774518284438 -0.02927164544362729 0 -0.43741768347029059 -0.01288367903972009 0 -0.4392085005598273 -0.024676348383282701 0 -0.44890774518284438 -0.02927164544362729 0 -0.4392085005598273 -0.024676348383282701 0 -0.44890774518284438 -0.02927164544362729 0 -0.45215967652477718 -0.036640332234541717 0 -0.4392085005598273 -0.024676348383282701 0 -0.44890774518284438 -0.02927164544362729 0 -0.4441818909265971 -0.00998157505946092 0 -0.46258273328813732 -0.023158067004484729 0 -0.46258273328813732 -0.023158067004484729 0 -0.46826183959192841 -0.01000530680732737 0 -0.47056077858213702 -0.03024644074295027 0 -0.4441818909265971 -0.00998157505946092 0 -0.4570262928383732 -0.018140378997512391 0 -0.46258273328813732 -0.023158067004484729 0 -0.4570262928383732 -0.018140378997512391 0 -0.46258273328813732 -0.023158067004484729 0 -0.44890774518284438 -0.02927164544362729 0 -0.46189821575704781 -0.02986243911986371 0 -0.46258273328813732 -0.023158067004484729 0 -0.46258273328813732 -0.023158067004484729 0 -0.47056077858213702 -0.03024644074295027 0 -0.46189821575704781 -0.02986243911986371 0 -0.46258273328813732 -0.023158067004484729 0 -0.47056077858213702 -0.03024644074295027 0 -0.4570262928383732 -0.018140378997512391 0 -0.46258273328813732 -0.023158067004484729 0 -0.46826183959192841 -0.01000530680732737 0 -0.4570262928383732 -0.018140378997512391 0 -0.46826183959192841 -0.01000530680732737 0 -0.45633913854906122 -0.0094275687658610888 0 -0.46826183959192841 -0.01000530680732737 0 -0.45633913854906122 -0.0094275687658610888 0 -0.45588653083934588 0.00041698580085632909 0 -0.46826183959192841 -0.01000530680732737 0 -0.47597217662329228 -0.0085245425598697612 0 -0.4659629006017233 0.010235827128295859 0 -0.46826183959192841 -0.01000530680732737 0 -0.47597217662329228 -0.0085245425598697612 0 -0.47580415800009379 -0.02093770259963601 0 -0.47597217662329228 -0.0085245425598697612 0 -0.48922725890134677 -0.010453537226696331 0 -0.48082517856277007 0.001845263919603602 0 -0.47597217662329228 -0.0085245425598697612 0 -0.47580415800009379 -0.02093770259963601 0 -0.48598145264485831 -0.02728491224803695 0 -0.47597217662329228 -0.0085245425598697612 0 -0.48598145264485831 -0.02728491224803695 0 -0.46826183959192841 -0.01000530680732737 0 -0.47056077858213702 -0.03024644074295027 0 -0.47580415800009379 -0.02093770259963601 0 -0.47597217662329228 -0.0085245425598697612 0 -0.48598145264485831 -0.02728491224803695 0 -0.4893389393206713 -0.02366416211133009 0 -0.46826183959192841 -0.01000530680732737 0 -0.47056077858213702 -0.03024644074295027 0 -0.47056077858213702 -0.03024644074295027 0 -0.47580415800009379 -0.02093770259963601 0 -0.47745882259212458 -0.028728106929589409 0 -0.47580415800009379 -0.02093770259963601 0 -0.47745882259212458 -0.028728106929589409 0 -0.48598145264485831 -0.02728491224803695 0 -0.47748890114140963 -0.036443372127734748 0 -0.47745882259212458 -0.028728106929589409 0 -0.48598145264485831 -0.02728491224803695 0 -0.48598145264485831 -0.02728491224803695 0 -0.4893389393206713 -0.02366416211133009 0 -0.5 -0.025161366008633609 0 -0.48598145264485831 -0.02728491224803695 0 -0.4893389393206713 -0.02366416211133009 0 -0.4893389393206713 -0.02366416211133009 0 -0.5 -0.025161366008633609 0 -0.48922725890134677 -0.010453537226696331 0 -0.48922725890134677 -0.010453537226696331 0 -0.5 0.0032371206267481911 0 -0.48082517856277007 0.001845263919603602 0 -0.5 -0.025161366008633609 0 -0.48922725890134677 -0.010453537226696331 0 -0.5 0.0032371206267481911 0 -0.47597217662329228 -0.0085245425598697612 0 -0.4893389393206713 -0.02366416211133009 0 -0.48922725890134677 -0.010453537226696331 0 -0.5 0.0032371206267481911 0 -0.48596576445654982 0.01457961489688041 0 -0.48082517856277007 0.001845263919603602 0 -0.48596576445654982 0.01457961489688041 0 -0.47541999506787802 0.025418180444172121 0 -0.5 0.031635607262129987 0 -0.5 0.0032371206267481911 0 -0.48596576445654982 0.01457961489688041 0 -0.5 0.031635607262129987 0 -0.48596576445654982 0.01457961489688041 0 -0.47541999506787802 0.025418180444172121 0 -0.47401658579892991 0.013489912392399149 0 -0.47541999506787802 0.025418180444172121 0 -0.46963945276383978 0.01793989872667965 0 -0.47401658579892991 0.013489912392399149 0 -0.47597217662329228 -0.0085245425598697612 0 -0.48082517856277007 0.001845263919603602 0 -0.4659629006017233 0.010235827128295859 0 -0.47401658579892991 0.013489912392399149 0 -0.48082517856277007 0.001845263919603602 0 -0.4659629006017233 0.010235827128295859 0 -0.46963945276383978 0.01793989872667965 0 -0.47401658579892991 0.013489912392399149 0 -0.4659629006017233 0.010235827128295859 0 -0.47597217662329228 -0.0085245425598697612 0 -0.4659629006017233 0.010235827128295859 0 -0.48596576445654982 0.01457961489688041 0 -0.47401658579892991 0.013489912392399149 0 -0.48082517856277007 0.001845263919603602 0 -0.5 0.060034093897511798 0 -0.47816362815030861 0.043832779932641487 0 -0.48068047186290208 0.063626500276227002 0 -0.47541999506787802 0.025418180444172121 0 -0.5 0.031635607262129987 0 -0.47816362815030861 0.043832779932641487 0 -0.5 0.060034093897511798 0 -0.5 0.031635607262129987 0 -0.47816362815030861 0.043832779932641487 0 -0.47541999506787802 0.025418180444172121 0 -0.47816362815030861 0.043832779932641487 0 -0.46442391639916691 0.036471327701905212 0 -0.47816362815030861 0.043832779932641487 0 -0.46119618507356652 0.049359273152949731 0 -0.48068047186290208 0.063626500276227002 0 -0.46119618507356652 0.049359273152949731 0 -0.46103932749027238 0.064238871702306077 0 -0.48068047186290208 0.063626500276227002 0 -0.46119618507356652 0.049359273152949731 0 -0.44286953411296898 0.045255716157198693 0 -0.46103932749027238 0.064238871702306077 0 -0.47816362815030861 0.043832779932641487 0 -0.46119618507356652 0.049359273152949731 0 -0.46442391639916691 0.036471327701905212 0 -0.46119618507356652 0.049359273152949731 0 -0.46442391639916691 0.036471327701905212 0 -0.45082509298125129 0.038608595210277222 0 -0.46442391639916691 0.036471327701905212 0 -0.45082509298125129 0.038608595210277222 0 -0.4583939967914884 0.024422211169287101 0 -0.45082509298125129 0.038608595210277222 0 -0.4583939967914884 0.024422211169287101 0 -0.46119618507356652 0.049359273152949731 0 -0.45082509298125129 0.038608595210277222 0 -0.44286953411296898 0.045255716157198693 0 -0.45082509298125129 0.038608595210277222 0 -0.4405409619944019 0.035432846457562263 0 -0.4458839614772655 0.023387518650519249 0 -0.45082509298125129 0.038608595210277222 0 -0.4405409619944019 0.035432846457562263 0 -0.44286953411296898 0.045255716157198693 0 -0.4405409619944019 0.035432846457562263 0 -0.44286953411296898 0.045255716157198693 0 -0.43229092530358848 0.04451632412921195 0 -0.44286953411296898 0.045255716157198693 0 -0.44282721760043869 0.062046251170956107 0 -0.46103932749027238 0.064238871702306077 0 -0.44286953411296898 0.045255716157198693 0 -0.44282721760043869 0.062046251170956107 0 -0.43188097302969042 0.056955122555226501 0 -0.44286953411296898 0.045255716157198693 0 -0.46103932749027238 0.064238871702306077 0 -0.46826183959192841 -0.01000530680732737 0 -0.45588653083934588 0.00041698580085632909 0 -0.4659629006017233 0.010235827128295859 0 -0.46826183959192841 -0.01000530680732737 0 -0.4659629006017233 0.010235827128295859 0 -0.45609316173783881 0.014082317838893479 0 -0.45588653083934588 0.00041698580085632909 0 -0.4659629006017233 0.010235827128295859 0 -0.46963945276383978 0.01793989872667965 0 -0.4659629006017233 0.010235827128295859 0 -0.4583939967914884 0.024422211169287101 0 -0.4659629006017233 0.010235827128295859 0 -0.4583939967914884 0.024422211169287101 0 -0.47541999506787802 0.025418180444172121 0 -0.46963945276383978 0.01793989872667965 0 -0.4583939967914884 0.024422211169287101 0 -0.47541999506787802 0.025418180444172121 0 -0.46442391639916691 0.036471327701905212 0 -0.4583939967914884 0.024422211169287101 0 -0.45609316173783881 0.014082317838893479 0 -0.4659629006017233 0.010235827128295859 0 -0.4583939967914884 0.024422211169287101 0 -0.45609316173783881 0.014082317838893479 0 -0.4583939967914884 0.024422211169287101 0 -0.4458839614772655 0.023387518650519249 0 -0.45082509298125129 0.038608595210277222 0 -0.4583939967914884 0.024422211169287101 0 -0.4458839614772655 0.023387518650519249 0 -0.4405409619944019 0.035432846457562263 0 -0.4458839614772655 0.023387518650519249 0 -0.43566193494816191 0.02574822372494872 0 -0.4458839614772655 0.023387518650519249 0 -0.4359559447540089 0.01018896392150693 0 -0.43566193494816191 0.02574822372494872 0 -0.4441818909265971 -0.00998157505946092 0 -0.44737850259376799 0.0077656591989471307 0 -0.4359559447540089 0.01018896392150693 0 -0.4458839614772655 0.023387518650519249 0 -0.44737850259376799 0.0077656591989471307 0 -0.4359559447540089 0.01018896392150693 0 -0.45609316173783881 0.014082317838893479 0 -0.4458839614772655 0.023387518650519249 0 -0.44737850259376799 0.0077656591989471307 0 -0.45609316173783881 0.014082317838893479 0 -0.45588653083934588 0.00041698580085632909 0 -0.44737850259376799 0.0077656591989471307 0 -0.4441818909265971 -0.00998157505946092 0 -0.4359559447540089 0.01018896392150693 0 -0.42578104856505677 0.0031949168855625672 0 -0.42578104856505677 0.0031949168855625672 0 -0.41622595309658328 0.016397403714119251 0 -0.42870406893849561 0.019163111370922251 0 -0.4359559447540089 0.01018896392150693 0 -0.42578104856505677 0.0031949168855625672 0 -0.42870406893849561 0.019163111370922251 0 -0.41753789792717189 -0.0038843189997757009 0 -0.42578104856505677 0.0031949168855625672 0 -0.41105156913745711 0.0034129409419674369 0 -0.42578104856505677 0.0031949168855625672 0 -0.40852807671777941 0.0155494406680463 0 -0.41622595309658328 0.016397403714119251 0 -0.42578104856505677 0.0031949168855625672 0 -0.40852807671777941 0.0155494406680463 0 -0.41105156913745711 0.0034129409419674369 0 -0.42578104856505677 0.0031949168855625672 0 -0.40852807671777941 0.0155494406680463 0 -0.42578104856505677 0.0031949168855625672 0 -0.41622595309658328 0.016397403714119251 0 -0.40852807671777941 0.0155494406680463 0 -0.41105156913745711 0.0034129409419674369 0 -0.40262572535869262 0.0089097845909437267 0 -0.40771050441737638 -0.0035262849216432719 0 -0.41105156913745711 0.0034129409419674369 0 -0.40226596945639398 0.0014711925349297271 0 -0.40667085762811028 0.029599890542676258 0 -0.41622595309658328 0.016397403714119251 0 -0.42870406893849561 0.019163111370922251 0 -0.40667085762811028 0.029599890542676258 0 -0.42870406893849561 0.019163111370922251 0 -0.40667085762811028 0.029599890542676258 0 -0.41990433555607742 0.03061685230769556 0 -0.42870406893849561 0.019163111370922251 0 -0.40852807671777941 0.0155494406680463 0 -0.40667085762811028 0.029599890542676258 0 -0.41622595309658328 0.016397403714119251 0 -0.40667085762811028 0.029599890542676258 0 -0.41622595309658328 0.016397403714119251 0 -0.41990433555607742 0.03061685230769556 0 -0.4284463216954002 0.029357354603554459 0 -0.42870406893849561 0.019163111370922251 0 -0.4359559447540089 0.01018896392150693 0 -0.42870406893849561 0.019163111370922251 0 -0.43566193494816191 0.02574822372494872 0 -0.4284463216954002 0.029357354603554459 0 -0.42870406893849561 0.019163111370922251 0 -0.43566193494816191 0.02574822372494872 0 -0.4284463216954002 0.029357354603554459 0 -0.43566193494816191 0.02574822372494872 0 -0.43264023121812112 0.033917661463996759 0 -0.4405409619944019 0.035432846457562263 0 -0.43264023121812112 0.033917661463996759 0 -0.43229092530358848 0.04451632412921195 0 -0.43264023121812112 0.033917661463996759 0 -0.43229092530358848 0.04451632412921195 0 -0.42532103781614489 0.037340924150209003 0 -0.4405409619944019 0.035432846457562263 0 -0.43566193494816191 0.02574822372494872 0 -0.43264023121812112 0.033917661463996759 0 -0.43229092530358848 0.04451632412921195 0 -0.42532103781614489 0.037340924150209003 0 -0.42042490988599091 0.046091327469671317 0 -0.4284463216954002 0.029357354603554459 0 -0.43264023121812112 0.033917661463996759 0 -0.42532103781614489 0.037340924150209003 0 -0.41990433555607742 0.03061685230769556 0 -0.4284463216954002 0.029357354603554459 0 -0.42532103781614489 0.037340924150209003 0 -0.43229092530358848 0.04451632412921195 0 -0.43188097302969042 0.056955122555226501 0 -0.42585725303016408 0.051510102087770737 0 -0.44286953411296898 0.045255716157198693 0 -0.43229092530358848 0.04451632412921195 0 -0.43188097302969042 0.056955122555226501 0 -0.43229092530358848 0.04451632412921195 0 -0.42585725303016408 0.051510102087770737 0 -0.42042490988599091 0.046091327469671317 0 -0.43188097302969042 0.056955122555226501 0 -0.41883220390138681 0.058477634196973202 0 -0.43131469147834472 0.070632617455275076 0 -0.43188097302969042 0.056955122555226501 0 -0.42585725303016408 0.051510102087770737 0 -0.41883220390138681 0.058477634196973202 0 -0.41883220390138681 0.058477634196973202 0 -0.40840220717331749 0.048304634434869917 0 -0.39985653820026013 0.060860810446949978 0 -0.42585725303016408 0.051510102087770737 0 -0.41883220390138681 0.058477634196973202 0 -0.42042490988599091 0.046091327469671317 0 -0.41883220390138681 0.058477634196973202 0 -0.40840220717331749 0.048304634434869917 0 -0.42042490988599091 0.046091327469671317 0 -0.41990433555607742 0.03061685230769556 0 -0.42532103781614489 0.037340924150209003 0 -0.4122967326089878 0.037821593301397609 0 -0.42532103781614489 0.037340924150209003 0 -0.42042490988599091 0.046091327469671317 0 -0.4122967326089878 0.037821593301397609 0 -0.40840220717331749 0.048304634434869917 0 -0.4122967326089878 0.037821593301397609 0 -0.40579981868685489 0.041495006097714962 0 -0.40840220717331749 0.048304634434869917 0 -0.42042490988599091 0.046091327469671317 0 -0.4122967326089878 0.037821593301397609 0 -0.4122967326089878 0.037821593301397609 0 -0.40278544391907911 0.034968452634622761 0 -0.40579981868685489 0.041495006097714962 0 -0.40667085762811028 0.029599890542676258 0 -0.4122967326089878 0.037821593301397609 0 -0.40278544391907911 0.034968452634622761 0 -0.40667085762811028 0.029599890542676258 0 -0.41990433555607742 0.03061685230769556 0 -0.4122967326089878 0.037821593301397609 0 -0.40667085762811028 0.029599890542676258 0 -0.40278544391907911 0.034968452634622761 0 -0.40667085762811028 0.029599890542676258 0 -0.38856614517843069 0.038175802748282091 0 -0.40667085762811028 0.029599890542676258 0 -0.38856614517843069 0.038175802748282091 0 -0.39127510487050182 0.027903964450529759 0 -0.40667085762811028 0.029599890542676258 0 -0.40278544391907911 0.034968452634622761 0 -0.38856614517843069 0.038175802748282091 0 -0.40278544391907911 0.034968452634622761 0 -0.40579981868685489 0.041495006097714962 0 -0.3977250587697031 0.045015474274426849 0 -0.40840220717331749 0.048304634434869917 0 -0.40579981868685489 0.041495006097714962 0 -0.3977250587697031 0.045015474274426849 0 -0.40278544391907911 0.034968452634622761 0 -0.3977250587697031 0.045015474274426849 0 -0.38856614517843069 0.038175802748282091 0 -0.40840220717331749 0.048304634434869917 0 -0.3977250587697031 0.045015474274426849 0 -0.39985653820026013 0.060860810446949978 0 -0.3977250587697031 0.045015474274426849 0 -0.39985653820026013 0.060860810446949978 0 -0.38472691017257071 0.052921849058569698 0 -0.39985653820026013 0.060860810446949978 0 -0.38472691017257071 0.052921849058569698 0 -0.38510762700538009 0.066428587654483159 0 -0.38472691017257071 0.052921849058569698 0 -0.37046143272875132 0.04675171495388801 0 -0.37000681959492809 0.05831264468359916 0 -0.38472691017257071 0.052921849058569698 0 -0.38510762700538009 0.066428587654483159 0 -0.37000681959492809 0.05831264468359916 0 -0.38856614517843069 0.038175802748282091 0 -0.37871402691879819 0.03757115751491092 0 -0.37046143272875132 0.04675171495388801 0 -0.38856614517843069 0.038175802748282091 0 -0.37046143272875132 0.04675171495388801 0 -0.38472691017257071 0.052921849058569698 0 -0.38856614517843069 0.038175802748282091 0 -0.37046143272875132 0.04675171495388801 0 -0.38856614517843069 0.038175802748282091 0 -0.38315308642314733 0.033917821982192238 0 -0.39127510487050182 0.027903964450529759 0 -0.38856614517843069 0.038175802748282091 0 -0.38315308642314733 0.033917821982192238 0 -0.37871402691879819 0.03757115751491092 0 -0.3977250587697031 0.045015474274426849 0 -0.38472691017257071 0.052921849058569698 0 -0.38856614517843069 0.038175802748282091 0 -0.37871402691879819 0.03757115751491092 0 -0.3764786745208083 0.032098692741998169 0 -0.37046143272875132 0.04675171495388801 0 -0.38315308642314733 0.033917821982192238 0 -0.3764786745208083 0.032098692741998169 0 -0.38155727091044611 0.028316364585127811 0 -0.38315308642314733 0.033917821982192238 0 -0.37871402691879819 0.03757115751491092 0 -0.3764786745208083 0.032098692741998169 0 -0.3764786745208083 0.032098692741998169 0 -0.38155727091044611 0.028316364585127811 0 -0.37960108001976323 0.022263106047543741 0 -0.37960108001976323 0.022263106047543741 0 -0.37998819155715241 0.0057865511937031933 0 -0.37123175334181557 0.027162262264614271 0 -0.3764786745208083 0.032098692741998169 0 -0.37960108001976323 0.022263106047543741 0 -0.37123175334181557 0.027162262264614271 0 -0.38155727091044611 0.028316364585127811 0 -0.38533699425949169 0.022674384769296389 0 -0.37960108001976323 0.022263106047543741 0 -0.38155727091044611 0.028316364585127811 0 -0.38533699425949169 0.022674384769296389 0 -0.39127510487050182 0.027903964450529759 0 -0.38315308642314733 0.033917821982192238 0 -0.38155727091044611 0.028316364585127811 0 -0.39127510487050182 0.027903964450529759 0 -0.39054146691731162 0.018060194648231769 0 -0.38533699425949169 0.022674384769296389 0 -0.39127510487050182 0.027903964450529759 0 -0.38533699425949169 0.022674384769296389 0 -0.3837100485794358 0.01682829411504885 0 -0.37960108001976323 0.022263106047543741 0 -0.39054146691731162 0.018060194648231769 0 -0.38533699425949169 0.022674384769296389 0 -0.3837100485794358 0.01682829411504885 0 -0.3837100485794358 0.01682829411504885 0 -0.37960108001976323 0.022263106047543741 0 -0.37998819155715241 0.0057865511937031933 0 -0.37998819155715241 0.0057865511937031933 0 -0.38683543611469601 0.0001369023841863784 0 -0.36064890389212972 0.0125435277679194 0 -0.37998819155715241 0.0057865511937031933 0 -0.38683543611469601 0.0001369023841863784 0 -0.38901012294298121 0.0062908016400105649 0 -0.38683543611469601 0.0001369023841863784 0 -0.38901012294298121 0.0062908016400105649 0 -0.39501457079486157 0.0055715078560810288 0 -0.37998819155715241 0.0057865511937031933 0 -0.38901012294298121 0.0062908016400105649 0 -0.38744744785130802 0.01185902438546781 0 -0.3837100485794358 0.01682829411504885 0 -0.37998819155715241 0.0057865511937031933 0 -0.38744744785130802 0.01185902438546781 0 -0.38901012294298121 0.0062908016400105649 0 -0.38744744785130802 0.01185902438546781 0 -0.39422738021243581 0.01127211946813913 0 -0.39054146691731162 0.018060194648231769 0 -0.3837100485794358 0.01682829411504885 0 -0.38744744785130802 0.01185902438546781 0 -0.39054146691731162 0.018060194648231769 0 -0.39422738021243581 0.01127211946813913 0 -0.39743955081534421 0.016339100765178138 0 -0.39054146691731162 0.018060194648231769 0 -0.38744744785130802 0.01185902438546781 0 -0.39422738021243581 0.01127211946813913 0 -0.39422738021243581 0.01127211946813913 0 -0.39501457079486157 0.0055715078560810288 0 -0.40262572535869262 0.0089097845909437267 0 -0.39422738021243581 0.01127211946813913 0 -0.40262572535869262 0.0089097845909437267 0 -0.39743955081534421 0.016339100765178138 0 -0.38683543611469601 0.0001369023841863784 0 -0.39501457079486157 0.0055715078560810288 0 -0.40226596945639398 0.0014711925349297271 0 -0.38901012294298121 0.0062908016400105649 0 -0.39422738021243581 0.01127211946813913 0 -0.39501457079486157 0.0055715078560810288 0 -0.41105156913745711 0.0034129409419674369 0 -0.40226596945639398 0.0014711925349297271 0 -0.40262572535869262 0.0089097845909437267 0 -0.39501457079486157 0.0055715078560810288 0 -0.40226596945639398 0.0014711925349297271 0 -0.40262572535869262 0.0089097845909437267 0 -0.40852807671777941 0.0155494406680463 0 -0.40262572535869262 0.0089097845909437267 0 -0.39743955081534421 0.016339100765178138 0 -0.40852807671777941 0.0155494406680463 0 -0.39127510487050182 0.027903964450529759 0 -0.40852807671777941 0.0155494406680463 0 -0.40667085762811028 0.029599890542676258 0 -0.39127510487050182 0.027903964450529759 0 -0.40852807671777941 0.0155494406680463 0 -0.39127510487050182 0.027903964450529759 0 -0.39743955081534421 0.016339100765178138 0 -0.39054146691731162 0.018060194648231769 0 -0.39127510487050182 0.027903964450529759 0 -0.39743955081534421 0.016339100765178138 0 -0.39792088922733271 0.1160922105611595 0 -0.40104213778508202 0.092866093853817611 0 -0.41467909406405851 0.1139188519362445 0 -0.39792088922733271 0.1160922105611595 0 -0.3782625711058698 0.101617738696854 0 -0.40104213778508202 0.092866093853817611 0 -0.3782625711058698 0.101617738696854 0 -0.38372255811484618 0.13025780258704611 0 -0.3782625711058698 0.101617738696854 0 -0.38372255811484618 0.13025780258704611 0 -0.36747352968705388 0.12273486311700831 0 -0.39792088922733271 0.1160922105611595 0 -0.3782625711058698 0.101617738696854 0 -0.38372255811484618 0.13025780258704611 0 -0.39792088922733271 0.1160922105611595 0 -0.3782625711058698 0.101617738696854 0 -0.3782625711058698 0.101617738696854 0 -0.40104213778508202 0.092866093853817611 0 -0.37470600383380392 0.082961959162170973 0 -0.39520328107527708 0.075997639864115257 0 -0.40104213778508202 0.092866093853817611 0 -0.37470600383380392 0.082961959162170973 0 -0.3782625711058698 0.101617738696854 0 -0.37470600383380392 0.082961959162170973 0 -0.40104213778508202 0.092866093853817611 0 -0.37470600383380392 0.082961959162170973 0 -0.38510762700538009 0.066428587654483159 0 -0.37000681959492809 0.05831264468359916 0 -0.37470600383380392 0.082961959162170973 0 -0.38510762700538009 0.066428587654483159 0 -0.39520328107527708 0.075997639864115257 0 -0.37470600383380392 0.082961959162170973 0 -0.39985653820026013 0.060860810446949978 0 -0.39520328107527708 0.075997639864115257 0 -0.41322693425173768 0.074694678089132868 0 -0.39985653820026013 0.060860810446949978 0 -0.38510762700538009 0.066428587654483159 0 -0.39520328107527708 0.075997639864115257 0 -0.39520328107527708 0.075997639864115257 0 -0.40104213778508202 0.092866093853817611 0 -0.41322693425173768 0.074694678089132868 0 -0.40104213778508202 0.092866093853817611 0 -0.41322693425173768 0.074694678089132868 0 -0.42957324029363853 0.085693113452461764 0 -0.41883220390138681 0.058477634196973202 0 -0.41322693425173768 0.074694678089132868 0 -0.43131469147834472 0.070632617455275076 0 -0.41883220390138681 0.058477634196973202 0 -0.39985653820026013 0.060860810446949978 0 -0.41322693425173768 0.074694678089132868 0 -0.43131469147834472 0.070632617455275076 0 -0.42957324029363853 0.085693113452461764 0 -0.4470315618909167 0.073148927984774167 0 -0.41322693425173768 0.074694678089132868 0 -0.43131469147834472 0.070632617455275076 0 -0.42957324029363853 0.085693113452461764 0 -0.44282721760043869 0.062046251170956107 0 -0.43188097302969042 0.056955122555226501 0 -0.43131469147834472 0.070632617455275076 0 -0.42957324029363853 0.085693113452461764 0 -0.42737827173636012 0.1027702285454639 0 -0.44343173260412461 0.097571970950778963 0 -0.40104213778508202 0.092866093853817611 0 -0.42737827173636012 0.1027702285454639 0 -0.41467909406405851 0.1139188519362445 0 -0.40104213778508202 0.092866093853817611 0 -0.42737827173636012 0.1027702285454639 0 -0.40104213778508202 0.092866093853817611 0 -0.42957324029363853 0.085693113452461764 0 -0.42737827173636012 0.1027702285454639 0 -0.39792088922733271 0.1160922105611595 0 -0.41467909406405851 0.1139188519362445 0 -0.417579207348795 0.13056668242546571 0 -0.39792088922733271 0.1160922105611595 0 -0.417579207348795 0.13056668242546571 0 -0.41467909406405851 0.1139188519362445 0 -0.42608096723388439 0.1205091241492761 0 -0.417579207348795 0.13056668242546571 0 -0.42737827173636012 0.1027702285454639 0 -0.41467909406405851 0.1139188519362445 0 -0.42608096723388439 0.1205091241492761 0 -0.42737827173636012 0.1027702285454639 0 -0.42608096723388439 0.1205091241492761 0 -0.43826405507869293 0.1195835460605416 0 -0.42608096723388439 0.1205091241492761 0 -0.43826405507869293 0.1195835460605416 0 -0.43293323699752101 0.1317554923945817 0 -0.43826405507869293 0.1195835460605416 0 -0.45371440568763749 0.1126743632371118 0 -0.44901593584904892 0.12912088192892021 0 -0.42737827173636012 0.1027702285454639 0 -0.43826405507869293 0.1195835460605416 0 -0.45371440568763749 0.1126743632371118 0 -0.4523882543875366 0.10983005993361 0 -0.45371440568763749 0.1126743632371118 0 -0.42737827173636012 0.1027702285454639 0 -0.4523882543875366 0.10983005993361 0 -0.44343173260412461 0.097571970950778963 0 -0.42737827173636012 0.1027702285454639 0 -0.4523882543875366 0.10983005993361 0 -0.45371440568763749 0.1126743632371118 0 -0.42737827173636012 0.1027702285454639 0 -0.45371440568763749 0.1126743632371118 0 -0.44343173260412461 0.097571970950778963 0 -0.45084974973894648 0.096020795281878568 0 -0.45306155814551219 0.1028275296158008 0 -0.44343173260412461 0.097571970950778963 0 -0.45084974973894648 0.096020795281878568 0 -0.44733932132275389 0.088290098875458828 0 -0.4523882543875366 0.10983005993361 0 -0.44343173260412461 0.097571970950778963 0 -0.45306155814551219 0.1028275296158008 0 -0.4523882543875366 0.10983005993361 0 -0.45306155814551219 0.1028275296158008 0 -0.45661100561120399 0.109540819014999 0 -0.45306155814551219 0.1028275296158008 0 -0.46084618436187341 0.10490351706993729 0 -0.45661100561120399 0.109540819014999 0 -0.45306155814551219 0.1028275296158008 0 -0.46084618436187341 0.10490351706993729 0 -0.45799439118323759 0.099220837031069903 0 -0.46084618436187341 0.10490351706993729 0 -0.4635407771028337 0.1124237257980706 0 -0.45661100561120399 0.109540819014999 0 -0.45799439118323759 0.099220837031069903 0 -0.46723244863383712 0.097971273043108306 0 -0.45594156200913483 0.091684632610025046 0 -0.45084974973894648 0.096020795281878568 0 -0.45799439118323759 0.099220837031069903 0 -0.45594156200913483 0.091684632610025046 0 -0.45084974973894648 0.096020795281878568 0 -0.45306155814551219 0.1028275296158008 0 -0.45799439118323759 0.099220837031069903 0 -0.46084618436187341 0.10490351706993729 0 -0.45799439118323759 0.099220837031069903 0 -0.46723244863383712 0.097971273043108306 0 -0.46084618436187341 0.10490351706993729 0 -0.46723244863383712 0.097971273043108306 0 -0.46686982756835349 0.1074114054382402 0 -0.46084618436187341 0.10490351706993729 0 -0.46686982756835349 0.1074114054382402 0 -0.4635407771028337 0.1124237257980706 0 -0.45371440568763749 0.1126743632371118 0 -0.46425598871103851 0.13528374379222011 0 -0.4635407771028337 0.1124237257980706 0 -0.45674497769142258 0.1138140594952527 0 -0.46958882025875243 0.12035793204680111 0 -0.46686982756835349 0.1074114054382402 0 -0.4635407771028337 0.1124237257980706 0 -0.47044075898603932 0.11380610730348489 0 -0.4635407771028337 0.1124237257980706 0 -0.46958882025875243 0.12035793204680111 0 -0.47044075898603932 0.11380610730348489 0 -0.45674497769142258 0.1138140594952527 0 -0.45371440568763749 0.1126743632371118 0 -0.46425598871103851 0.13528374379222011 0 -0.45674497769142258 0.1138140594952527 0 -0.46958882025875243 0.12035793204680111 0 -0.46425598871103851 0.13528374379222011 0 -0.4523882543875366 0.10983005993361 0 -0.45661100561120399 0.109540819014999 0 -0.45371440568763749 0.1126743632371118 0 -0.45674497769142258 0.1138140594952527 0 -0.45661100561120399 0.109540819014999 0 -0.45371440568763749 0.1126743632371118 0 -0.45674497769142258 0.1138140594952527 0 -0.45371440568763749 0.1126743632371118 0 -0.4635407771028337 0.1124237257980706 0 -0.45674497769142258 0.1138140594952527 0 -0.45661100561120399 0.109540819014999 0 -0.44282721760043869 0.062046251170956107 0 -0.4470315618909167 0.073148927984774167 0 -0.46103932749027238 0.064238871702306077 0 -0.44282721760043869 0.062046251170956107 0 -0.43131469147834472 0.070632617455275076 0 -0.4470315618909167 0.073148927984774167 0 -0.42957324029363853 0.085693113452461764 0 -0.44343173260412461 0.097571970950778963 0 -0.44733932132275389 0.088290098875458828 0 -0.42957324029363853 0.085693113452461764 0 -0.4470315618909167 0.073148927984774167 0 -0.44733932132275389 0.088290098875458828 0 -0.4470315618909167 0.073148927984774167 0 -0.44733932132275389 0.088290098875458828 0 -0.46047789149500767 0.082617330138573752 0 -0.45084974973894648 0.096020795281878568 0 -0.44733932132275389 0.088290098875458828 0 -0.45594156200913483 0.091684632610025046 0 -0.44733932132275389 0.088290098875458828 0 -0.45594156200913483 0.091684632610025046 0 -0.46047789149500767 0.082617330138573752 0 -0.46723244863383712 0.097971273043108306 0 -0.45594156200913483 0.091684632610025046 0 -0.46047789149500767 0.082617330138573752 0 -0.46047789149500767 0.082617330138573752 0 -0.46103932749027238 0.064238871702306077 0 -0.47920912086757578 0.083222027247413538 0 -0.4470315618909167 0.073148927984774167 0 -0.46047789149500767 0.082617330138573752 0 -0.46103932749027238 0.064238871702306077 0 -0.46103932749027238 0.064238871702306077 0 -0.48068047186290208 0.063626500276227002 0 -0.47920912086757578 0.083222027247413538 0 -0.46103932749027238 0.064238871702306077 0 -0.47920912086757578 0.083222027247413538 0 -0.46723244863383712 0.097971273043108306 0 -0.46047789149500767 0.082617330138573752 0 -0.47920912086757578 0.083222027247413538 0 -0.48068047186290208 0.063626500276227002 0 -0.47920912086757578 0.083222027247413538 0 -0.5 0.088432580532893601 0 -0.47920912086757578 0.083222027247413538 0 -0.49737891424487929 0.102205182792521 0 -0.47920912086757578 0.083222027247413538 0 -0.5 0.088432580532893601 0 -0.49737891424487929 0.102205182792521 0 -0.5 0.060034093897511798 0 -0.48068047186290208 0.063626500276227002 0 -0.5 0.088432580532893601 0 -0.47827810320487629 0.116675775998883 0 -0.48837893466537508 0.1117690854599766 0 -0.4842723158563047 0.1301441798928954 0 -0.47827810320487629 0.116675775998883 0 -0.47512549980118862 0.10796659812409699 0 -0.48837893466537508 0.1117690854599766 0 -0.47827810320487629 0.116675775998883 0 -0.46958882025875243 0.12035793204680111 0 -0.4842723158563047 0.1301441798928954 0 -0.47827810320487629 0.116675775998883 0 -0.47044075898603932 0.11380610730348489 0 -0.47512549980118862 0.10796659812409699 0 -0.46686982756835349 0.1074114054382402 0 -0.47044075898603932 0.11380610730348489 0 -0.47512549980118862 0.10796659812409699 0 -0.47827810320487629 0.116675775998883 0 -0.46958882025875243 0.12035793204680111 0 -0.47044075898603932 0.11380610730348489 0 -0.46723244863383712 0.097971273043108306 0 -0.47512549980118862 0.10796659812409699 0 -0.48162445158666772 0.1005823670901454 0 -0.46723244863383712 0.097971273043108306 0 -0.47920912086757578 0.083222027247413538 0 -0.48162445158666772 0.1005823670901454 0 -0.46723244863383712 0.097971273043108306 0 -0.46686982756835349 0.1074114054382402 0 -0.47512549980118862 0.10796659812409699 0 -0.47512549980118862 0.10796659812409699 0 -0.48162445158666772 0.1005823670901454 0 -0.48837893466537508 0.1117690854599766 0 -0.48162445158666772 0.1005823670901454 0 -0.49737891424487929 0.102205182792521 0 -0.48837893466537508 0.1117690854599766 0 -0.47920912086757578 0.083222027247413538 0 -0.48162445158666772 0.1005823670901454 0 -0.49737891424487929 0.102205182792521 0 -0.5 0.088432580532893601 0 -0.49737891424487929 0.102205182792521 0 -0.5 0.1168310671682755 0 -0.49737891424487929 0.102205182792521 0 -0.5 0.1168310671682755 0 -0.48837893466537508 0.1117690854599766 0 -0.5 0.1168310671682755 0 -0.48837893466537508 0.1117690854599766 0 -0.4842723158563047 0.1301441798928954 0 -0.5 0.1168310671682755 0 -0.4842723158563047 0.1301441798928954 0 -0.5 0.14522955380365729 0 -0.46958882025875243 0.12035793204680111 0 -0.4842723158563047 0.1301441798928954 0 -0.46425598871103851 0.13528374379222011 0 -0.4842723158563047 0.1301441798928954 0 -0.47479757173443998 0.15789312434732811 0 -0.46425598871103851 0.13528374379222011 0 -0.47479757173443998 0.15789312434732811 0 -0.46425598871103851 0.13528374379222011 0 -0.4842723158563047 0.1301441798928954 0 -0.5 0.14522955380365729 0 -0.47479757173443998 0.15789312434732811 0 -0.5 0.14522955380365729 0 -0.49999999999999972 0.17362804043903909 0 -0.47479757173443998 0.15789312434732811 0 -0.49999999999999972 0.17362804043903909 0 -0.47479757173443998 0.15789312434732811 0 -0.49999999999999972 0.17362804043903909 0 -0.49200992699072321 0.1743962810239672 0 -0.47479757173443998 0.15789312434732811 0 -0.48341269367675271 0.17637066895233999 0 -0.49170634683837577 0.1941587336203292 0 -0.49368671912131301 0.1828531969182482 0 -0.49999999999999972 0.17362804043903909 0 -0.5 0.19278741936367841 0 -0.49368671912131301 0.1828531969182482 0 -0.48341269367675271 0.17637066895233999 0 -0.49170634683837577 0.1941587336203292 0 -0.49368671912131301 0.1828531969182482 0 -0.49999999999999972 0.17362804043903909 0 -0.49200992699072321 0.1743962810239672 0 -0.49200992699072321 0.1743962810239672 0 -0.48341269367675271 0.17637066895233999 0 -0.49368671912131301 0.1828531969182482 0 -0.49200992699072321 0.1743962810239672 0 -0.48341269367675271 0.17637066895233999 0 -0.48341269367675271 0.17637066895233999 0 -0.45591042926964898 0.18268667049205081 0 -0.47274380268756999 0.19288508587190861 0 -0.48341269367675271 0.17637066895233999 0 -0.45591042926964898 0.18268667049205081 0 -0.49200992699072321 0.1743962810239672 0 -0.48341269367675271 0.17637066895233999 0 -0.47479757173443998 0.15789312434732811 0 -0.48341269367675271 0.17637066895233999 0 -0.47479757173443998 0.15789312434732811 0 -0.48341269367675271 0.17637066895233999 0 -0.47479757173443998 0.15789312434732811 0 -0.45723956394668003 0.16387676974864759 0 -0.48341269367675271 0.17637066895233999 0 -0.45723956394668003 0.16387676974864759 0 -0.45591042926964898 0.18268667049205081 0 -0.45591042926964898 0.18268667049205081 0 -0.43992511097516529 0.17411109905454999 0 -0.4284081648625454 0.1890026720317621 0 -0.45591042926964898 0.18268667049205081 0 -0.4284081648625454 0.1890026720317621 0 -0.45723956394668003 0.16387676974864759 0 -0.45591042926964898 0.18268667049205081 0 -0.43992511097516529 0.17411109905454999 0 -0.45723956394668003 0.16387676974864759 0 -0.43992511097516529 0.17411109905454999 0 -0.43892522612619872 0.15930650560997939 0 -0.43892522612619872 0.15930650560997939 0 -0.43796764784210812 0.14528805014891141 0 -0.45386540436598038 0.14482430837095511 0 -0.45723956394668003 0.16387676974864759 0 -0.43892522612619872 0.15930650560997939 0 -0.45386540436598038 0.14482430837095511 0 -0.45386540436598038 0.14482430837095511 0 -0.43293323699752101 0.1317554923945817 0 -0.43826405507869293 0.1195835460605416 0 -0.44901593584904892 0.12912088192892021 0 -0.43293323699752101 0.1317554923945817 0 -0.43796764784210812 0.14528805014891141 0 -0.45386540436598038 0.14482430837095511 0 -0.43293323699752101 0.1317554923945817 0 -0.44901593584904892 0.12912088192892021 0 -0.45386540436598038 0.14482430837095511 0 -0.43293323699752101 0.1317554923945817 0 -0.45371440568763749 0.1126743632371118 0 -0.44901593584904892 0.12912088192892021 0 -0.46425598871103851 0.13528374379222011 0 -0.44901593584904892 0.12912088192892021 0 -0.46425598871103851 0.13528374379222011 0 -0.45386540436598038 0.14482430837095511 0 -0.47479757173443998 0.15789312434732811 0 -0.45723956394668003 0.16387676974864759 0 -0.45386540436598038 0.14482430837095511 0 -0.47479757173443998 0.15789312434732811 0 -0.46425598871103851 0.13528374379222011 0 -0.45386540436598038 0.14482430837095511 0 -0.47479757173443998 0.15789312434732811 0 -0.45386540436598038 0.14482430837095511 0 -0.48226153920099157 0.23766317590200001 0 -0.47864167104372218 0.246590621409366 0 -0.48932095354102823 0.25454658797793611 0 -0.47315400564016008 0.2364435414805684 0 -0.47864167104372218 0.246590621409366 0 -0.46938038244821267 0.25133041049185839 0 -0.47315400564016008 0.2364435414805684 0 -0.48226153920099157 0.23766317590200001 0 -0.47864167104372218 0.246590621409366 0 -0.49106398183666961 0.22759324404760359 0 -0.48932095354102823 0.25454658797793611 0 -0.5 0.23810140997737081 0 -0.49106398183666961 0.22759324404760359 0 -0.48932095354102823 0.25454658797793611 0 -0.48226153920099157 0.23766317590200001 0 -0.49106398183666961 0.22759324404760359 0 -0.48932095354102823 0.25454658797793611 0 -0.5 0.23810140997737081 0 -0.49106398183666961 0.22759324404760359 0 -0.50000000000000022 0.21194679828831781 0 -0.49106398183666961 0.22759324404760359 0 -0.47912708394337772 0.2231418845945258 0 -0.48726644121087642 0.21298690825741631 0 -0.48226153920099157 0.23766317590200001 0 -0.49106398183666961 0.22759324404760359 0 -0.47912708394337772 0.2231418845945258 0 -0.47315400564016008 0.2364435414805684 0 -0.48226153920099157 0.23766317590200001 0 -0.47912708394337772 0.2231418845945258 0 -0.47315400564016008 0.2364435414805684 0 -0.47912708394337772 0.2231418845945258 0 -0.46764368341616458 0.22415830119077751 0 -0.47912708394337772 0.2231418845945258 0 -0.47360767850491831 0.20951316246361981 0 -0.46764368341616458 0.22415830119077751 0 -0.47360767850491831 0.20951316246361981 0 -0.48726644121087642 0.21298690825741631 0 -0.49170634683837577 0.1941587336203292 0 -0.47912708394337772 0.2231418845945258 0 -0.47360767850491831 0.20951316246361981 0 -0.48726644121087642 0.21298690825741631 0 -0.49106398183666961 0.22759324404760359 0 -0.50000000000000022 0.21194679828831781 0 -0.48726644121087642 0.21298690825741631 0 -0.50000000000000022 0.21194679828831781 0 -0.48726644121087642 0.21298690825741631 0 -0.49170634683837577 0.1941587336203292 0 -0.50000000000000022 0.21194679828831781 0 -0.49170634683837577 0.1941587336203292 0 -0.50000000000000022 0.21194679828831781 0 -0.5 0.19278741936367841 0 -0.49170634683837577 0.1941587336203292 0 -0.49368671912131301 0.1828531969182482 0 -0.5 0.19278741936367841 0 -0.49170634683837577 0.1941587336203292 0 -0.48341269367675271 0.17637066895233999 0 -0.49170634683837577 0.1941587336203292 0 -0.47274380268756999 0.19288508587190861 0 -0.47360767850491831 0.20951316246361981 0 -0.49170634683837577 0.1941587336203292 0 -0.47274380268756999 0.19288508587190861 0 -0.47360767850491831 0.20951316246361981 0 -0.47274380268756999 0.19288508587190861 0 -0.45820261548712909 0.20353130823034371 0 -0.45591042926964898 0.18268667049205081 0 -0.47274380268756999 0.19288508587190861 0 -0.45820261548712909 0.20353130823034371 0 -0.45591042926964898 0.18268667049205081 0 -0.43516662619925378 0.20614333559983469 0 -0.4284081648625454 0.1890026720317621 0 -0.45591042926964898 0.18268667049205081 0 -0.45820261548712909 0.20353130823034371 0 -0.43516662619925378 0.20614333559983469 0 -0.44192508753596349 0.22328399916790689 0 -0.43516662619925378 0.20614333559983469 0 -0.45032248765871591 0.2151961798839368 0 -0.44192508753596349 0.22328399916790689 0 -0.43516662619925378 0.20614333559983469 0 -0.45032248765871591 0.2151961798839368 0 -0.45820261548712909 0.20353130823034371 0 -0.43516662619925378 0.20614333559983469 0 -0.45032248765871591 0.2151961798839368 0 -0.46109406183397039 0.21551848415653921 0 -0.45620465585954723 0.2251951411450015 0 -0.45032248765871591 0.2151961798839368 0 -0.45820261548712909 0.20353130823034371 0 -0.46109406183397039 0.21551848415653921 0 -0.47360767850491831 0.20951316246361981 0 -0.45820261548712909 0.20353130823034371 0 -0.46109406183397039 0.21551848415653921 0 -0.47360767850491831 0.20951316246361981 0 -0.46109406183397039 0.21551848415653921 0 -0.46764368341616458 0.22415830119077751 0 -0.47315400564016008 0.2364435414805684 0 -0.46764368341616458 0.22415830119077751 0 -0.45925329591452863 0.2407771106774913 0 -0.46764368341616458 0.22415830119077751 0 -0.45620465585954723 0.2251951411450015 0 -0.45925329591452863 0.2407771106774913 0 -0.46109406183397039 0.21551848415653921 0 -0.46764368341616458 0.22415830119077751 0 -0.45620465585954723 0.2251951411450015 0 -0.45032248765871591 0.2151961798839368 0 -0.45620465585954723 0.2251951411450015 0 -0.44192508753596349 0.22328399916790689 0 -0.44192508753596349 0.22328399916790689 0 -0.44062222049055039 0.24203477259657111 0 -0.43146145522804691 0.2313120115293863 0 -0.45620465585954723 0.2251951411450015 0 -0.44062222049055039 0.24203477259657111 0 -0.45620465585954723 0.2251951411450015 0 -0.44192508753596349 0.22328399916790689 0 -0.44062222049055039 0.24203477259657111 0 -0.44062222049055039 0.24203477259657111 0 -0.45046339488490522 0.249057113070103 0 -0.44442574262614493 0.25832327296872359 0 -0.44062222049055039 0.24203477259657111 0 -0.45046339488490522 0.249057113070103 0 -0.45925329591452863 0.2407771106774913 0 -0.45620465585954723 0.2251951411450015 0 -0.44062222049055039 0.24203477259657111 0 -0.45925329591452863 0.2407771106774913 0 -0.45046339488490522 0.249057113070103 0 -0.45925329591452863 0.2407771106774913 0 -0.45807104112411212 0.25534721177055669 0 -0.45925329591452863 0.2407771106774913 0 -0.46938038244821267 0.25133041049185839 0 -0.45807104112411212 0.25534721177055669 0 -0.47315400564016008 0.2364435414805684 0 -0.45925329591452863 0.2407771106774913 0 -0.46938038244821267 0.25133041049185839 0 -0.4198454647722451 0.23985190764030939 0 -0.40081965837488509 0.24074316727492401 0 -0.40585136056822319 0.25674789398696107 0 -0.4198454647722451 0.23985190764030939 0 -0.405480724964072 0.22581663549259839 0 -0.40081965837488509 0.24074316727492401 0 -0.44062222049055039 0.24203477259657111 0 -0.4198454647722451 0.23985190764030939 0 -0.42503978512155383 0.25887440404814072 0 -0.44062222049055039 0.24203477259657111 0 -0.4198454647722451 0.23985190764030939 0 -0.43146145522804691 0.2313120115293863 0 -0.4198454647722451 0.23985190764030939 0 -0.43146145522804691 0.2313120115293863 0 -0.42370673975344808 0.22056464269113771 0 -0.44192508753596349 0.22328399916790689 0 -0.43146145522804691 0.2313120115293863 0 -0.42370673975344808 0.22056464269113771 0 -0.4198454647722451 0.23985190764030939 0 -0.42370673975344808 0.22056464269113771 0 -0.405480724964072 0.22581663549259839 0 -0.42370673975344808 0.22056464269113771 0 -0.40708390191205951 0.20882890034131879 0 -0.405480724964072 0.22581663549259839 0 -0.42370673975344808 0.22056464269113771 0 -0.40708390191205951 0.20882890034131879 0 -0.42107335870595469 0.2022269477122331 0 -0.44192508753596349 0.22328399916790689 0 -0.42370673975344808 0.22056464269113771 0 -0.43516662619925378 0.20614333559983469 0 -0.42370673975344808 0.22056464269113771 0 -0.43516662619925378 0.20614333559983469 0 -0.42107335870595469 0.2022269477122331 0 -0.43516662619925378 0.20614333559983469 0 -0.4284081648625454 0.1890026720317621 0 -0.42107335870595469 0.2022269477122331 0 -0.43516662619925378 0.20614333559983469 0 -0.4284081648625454 0.1890026720317621 0 -0.4284081648625454 0.1890026720317621 0 -0.40915969581062839 0.19342315750049971 0 -0.4284081648625454 0.1890026720317621 0 -0.42107335870595469 0.2022269477122331 0 -0.40915969581062839 0.19342315750049971 0 -0.40708390191205951 0.20882890034131879 0 -0.42107335870595469 0.2022269477122331 0 -0.40915969581062839 0.19342315750049971 0 -0.40708390191205951 0.20882890034131879 0 -0.40915969581062839 0.19342315750049971 0 -0.38991122675871148 0.19784364296923759 0 -0.40915969581062839 0.19342315750049971 0 -0.38991122675871148 0.19784364296923759 0 -0.40915969581062839 0.19342315750049971 0 -0.38991122675871148 0.19784364296923759 0 -0.39569501158598158 0.17813944679546001 0 -0.39158905321283283 0.2136173787495643 0 -0.38435338999826391 0.22831720607051781 0 -0.36414166766971379 0.2074649771098355 0 -0.38991122675871148 0.19784364296923759 0 -0.39158905321283283 0.2136173787495643 0 -0.36414166766971379 0.2074649771098355 0 -0.40708390191205951 0.20882890034131879 0 -0.39158905321283283 0.2136173787495643 0 -0.405480724964072 0.22581663549259839 0 -0.40708390191205951 0.20882890034131879 0 -0.38991122675871148 0.19784364296923759 0 -0.39158905321283283 0.2136173787495643 0 -0.405480724964072 0.22581663549259839 0 -0.38435338999826391 0.22831720607051781 0 -0.40081965837488509 0.24074316727492401 0 -0.39158905321283283 0.2136173787495643 0 -0.405480724964072 0.22581663549259839 0 -0.38435338999826391 0.22831720607051781 0 -0.37619177155740557 0.24036243622333081 0 -0.38790582398472923 0.24962922847932231 0 -0.36318679658289171 0.25196182354824148 0 -0.38435338999826391 0.22831720607051781 0 -0.37619177155740557 0.24036243622333081 0 -0.38790582398472923 0.24962922847932231 0 -0.38435338999826391 0.22831720607051781 0 -0.38790582398472923 0.24962922847932231 0 -0.40081965837488509 0.24074316727492401 0 -0.38790582398472923 0.24962922847932231 0 -0.40081965837488509 0.24074316727492401 0 -0.40585136056822319 0.25674789398696107 0 -0.40926453963391513 0.14045102348790381 0 -0.42614672387873248 0.14526589422012931 0 -0.41883635224822963 0.16472684775983329 0 -0.40926453963391513 0.14045102348790381 0 -0.41883635224822963 0.16472684775983329 0 -0.40926453963391513 0.14045102348790381 0 -0.41883635224822963 0.16472684775983329 0 -0.40029434983296169 0.15790366282291429 0 -0.40926453963391513 0.14045102348790381 0 -0.417579207348795 0.13056668242546571 0 -0.40026410281127539 0.13237877311027449 0 -0.40926453963391513 0.14045102348790381 0 -0.417579207348795 0.13056668242546571 0 -0.42614672387873248 0.14526589422012931 0 -0.417579207348795 0.13056668242546571 0 -0.43293323699752101 0.1317554923945817 0 -0.42614672387873248 0.14526589422012931 0 -0.42608096723388439 0.1205091241492761 0 -0.417579207348795 0.13056668242546571 0 -0.43293323699752101 0.1317554923945817 0 -0.43796764784210812 0.14528805014891141 0 -0.43293323699752101 0.1317554923945817 0 -0.42614672387873248 0.14526589422012931 0 -0.43892522612619872 0.15930650560997939 0 -0.43796764784210812 0.14528805014891141 0 -0.42614672387873248 0.14526589422012931 0 -0.43892522612619872 0.15930650560997939 0 -0.42614672387873248 0.14526589422012931 0 -0.41883635224822963 0.16472684775983329 0 -0.43992511097516529 0.17411109905454999 0 -0.43892522612619872 0.15930650560997939 0 -0.41883635224822963 0.16472684775983329 0 -0.4284081648625454 0.1890026720317621 0 -0.41883635224822963 0.16472684775983329 0 -0.43992511097516529 0.17411109905454999 0 -0.4284081648625454 0.1890026720317621 0 -0.41883635224822963 0.16472684775983329 0 -0.40915969581062839 0.19342315750049971 0 -0.41883635224822963 0.16472684775983329 0 -0.39569501158598158 0.17813944679546001 0 -0.4284081648625454 0.1890026720317621 0 -0.40915969581062839 0.19342315750049971 0 -0.41883635224822963 0.16472684775983329 0 -0.40029434983296169 0.15790366282291429 0 -0.39569501158598158 0.17813944679546001 0 -0.38484252596519369 0.16167484958157691 0 -0.41883635224822963 0.16472684775983329 0 -0.40029434983296169 0.15790366282291429 0 -0.39569501158598158 0.17813944679546001 0 -0.39569501158598158 0.17813944679546001 0 -0.38484252596519369 0.16167484958157691 0 -0.36525228834216061 0.17922160577889321 0 -0.38991122675871148 0.19784364296923759 0 -0.39569501158598158 0.17813944679546001 0 -0.36525228834216061 0.17922160577889321 0 -0.39283331973148827 0.14452614648979731 0 -0.38372255811484618 0.13025780258704611 0 -0.36636290901460722 0.1509782344479508 0 -0.38484252596519369 0.16167484958157691 0 -0.39283331973148827 0.14452614648979731 0 -0.36636290901460722 0.1509782344479508 0 -0.40029434983296169 0.15790366282291429 0 -0.38484252596519369 0.16167484958157691 0 -0.39283331973148827 0.14452614648979731 0 -0.40926453963391513 0.14045102348790381 0 -0.40029434983296169 0.15790366282291429 0 -0.39283331973148827 0.14452614648979731 0 -0.39283331973148827 0.14452614648979731 0 -0.40026410281127539 0.13237877311027449 0 -0.38372255811484618 0.13025780258704611 0 -0.39792088922733271 0.1160922105611595 0 -0.417579207348795 0.13056668242546571 0 -0.40026410281127539 0.13237877311027449 0 -0.39792088922733271 0.1160922105611595 0 -0.40026410281127539 0.13237877311027449 0 -0.38372255811484618 0.13025780258704611 0 -0.40926453963391513 0.14045102348790381 0 -0.39283331973148827 0.14452614648979731 0 -0.40026410281127539 0.13237877311027449 0 -0.38372255811484618 0.13025780258704611 0 -0.36636290901460722 0.1509782344479508 0 -0.36747352968705388 0.12273486311700831 0 -0.36636290901460722 0.1509782344479508 0 -0.36747352968705388 0.12273486311700831 0 -0.35528769071996391 0.12689780186549679 0 -0.36636290901460722 0.1509782344479508 0 -0.36747352968705388 0.12273486311700831 0 -0.35528769071996391 0.12689780186549679 0 -0.33512599087492562 0.1447950320020088 0 -0.35528769071996391 0.12689780186549679 0 -0.35168351666373848 0.14314256241625531 0 -0.33512599087492562 0.1447950320020088 0 -0.35528769071996391 0.12689780186549679 0 -0.33512599087492562 0.1447950320020088 0 -0.34115039425197219 0.12498493974687711 0 -0.35528769071996391 0.12689780186549679 0 -0.35168351666373848 0.14314256241625531 0 -0.36636290901460722 0.1509782344479508 0 -0.35168351666373848 0.14314256241625531 0 -0.36636290901460722 0.1509782344479508 0 -0.34333519974196419 0.16612441953572921 0 -0.38484252596519369 0.16167484958157691 0 -0.36636290901460722 0.1509782344479508 0 -0.36525228834216061 0.17922160577889321 0 -0.36636290901460722 0.1509782344479508 0 -0.36525228834216061 0.17922160577889321 0 -0.36525228834216061 0.17922160577889321 0 -0.34333519974196419 0.16612441953572921 0 -0.34654591437965571 0.19533490523866279 0 -0.36636290901460722 0.1509782344479508 0 -0.36525228834216061 0.17922160577889321 0 -0.34333519974196419 0.16612441953572921 0 -0.34333519974196419 0.16612441953572921 0 -0.31496429102988749 0.16269226213852109 0 -0.33512599087492562 0.1447950320020088 0 -0.34333519974196419 0.16612441953572921 0 -0.34654591437965571 0.19533490523866279 0 -0.32412519241006588 0.1878495682783011 0 -0.31496429102988749 0.16269226213852109 0 -0.32412519241006588 0.1878495682783011 0 -0.34333519974196419 0.16612441953572921 0 -0.31496429102988749 0.16269226213852109 0 -0.32412519241006588 0.1878495682783011 0 -0.31303823693556859 0.17707572181323081 0 -0.31496429102988749 0.16269226213852109 0 -0.32412519241006588 0.1878495682783011 0 -0.31303823693556859 0.17707572181323081 0 -0.32412519241006588 0.1878495682783011 0 -0.3108046026399135 0.18379038091696129 0 -0.31496429102988749 0.16269226213852109 0 -0.31353256245119709 0.1587605055712967 0 -0.31354631638020197 0.13395604467094269 0 -0.33512599087492562 0.1447950320020088 0 -0.3122891553291075 0.14635758184588041 0 -0.31353256245119709 0.1587605055712967 0 -0.33512599087492562 0.1447950320020088 0 -0.3122891553291075 0.14635758184588041 0 -0.31496429102988749 0.16269226213852109 0 -0.31353256245119709 0.1587605055712967 0 -0.33512599087492562 0.1447950320020088 0 -0.31496429102988749 0.16269226213852109 0 -0.33512599087492562 0.1447950320020088 0 -0.31354631638020197 0.13395604467094269 0 -0.32917568526667751 0.12578156900391591 0 -0.33512599087492562 0.1447950320020088 0 -0.31354631638020197 0.13395604467094269 0 -0.32917568526667751 0.12578156900391591 0 -0.32114709127587232 0.11611322513389059 0 -0.32917568526667751 0.12578156900391591 0 -0.33512599087492562 0.1447950320020088 0 -0.34115039425197219 0.12498493974687711 0 -0.35168351666373848 0.14314256241625531 0 -0.34333519974196419 0.16612441953572921 0 -0.33512599087492562 0.1447950320020088 0 -0.36303104699726713 0.23570834844077809 0 -0.34244699517042121 0.23816418055786151 0 -0.36318679658289171 0.25196182354824148 0 -0.34244699517042121 0.23816418055786151 0 -0.36318679658289171 0.25196182354824148 0 -0.33952374355129727 0.25899057541505788 0 -0.37619177155740557 0.24036243622333081 0 -0.36303104699726713 0.23570834844077809 0 -0.36318679658289171 0.25196182354824148 0 -0.38435338999826391 0.22831720607051781 0 -0.37619177155740557 0.24036243622333081 0 -0.36303104699726713 0.23570834844077809 0 -0.38435338999826391 0.22831720607051781 0 -0.36303104699726713 0.23570834844077809 0 -0.36414166766971379 0.2074649771098355 0 -0.36303104699726713 0.23570834844077809 0 -0.36414166766971379 0.2074649771098355 0 -0.36303104699726713 0.23570834844077809 0 -0.35084793517488477 0.2210857468323085 0 -0.34244699517042121 0.23816418055786151 0 -0.36303104699726713 0.23570834844077809 0 -0.35084793517488477 0.2210857468323085 0 -0.36414166766971379 0.2074649771098355 0 -0.35084793517488477 0.2210857468323085 0 -0.36414166766971379 0.2074649771098355 0 -0.34654591437965571 0.19533490523866279 0 -0.36525228834216061 0.17922160577889321 0 -0.36414166766971379 0.2074649771098355 0 -0.38991122675871148 0.19784364296923759 0 -0.36525228834216061 0.17922160577889321 0 -0.36414166766971379 0.2074649771098355 0 -0.36525228834216061 0.17922160577889321 0 -0.36414166766971379 0.2074649771098355 0 -0.34654591437965571 0.19533490523866279 0 -0.32412519241006588 0.1878495682783011 0 -0.33328609379024349 0.2130068744180813 0 -0.34654591437965571 0.19533490523866279 0 -0.32412519241006588 0.1878495682783011 0 -0.33328609379024349 0.2130068744180813 0 -0.32412519241006588 0.1878495682783011 0 -0.33328609379024349 0.2130068744180813 0 -0.31080006153106382 0.20197173666100501 0 -0.32412519241006588 0.1878495682783011 0 -0.31080006153106382 0.20197173666100501 0 -0.3108046026399135 0.18379038091696129 0 -0.33328609379024349 0.2130068744180813 0 -0.31873218963182409 0.22654972870499029 0 -0.31080006153106382 0.20197173666100501 0 -0.35084793517488477 0.2210857468323085 0 -0.34654591437965571 0.19533490523866279 0 -0.33328609379024349 0.2130068744180813 0 -0.35084793517488477 0.2210857468323085 0 -0.33328609379024349 0.2130068744180813 0 -0.34244699517042121 0.23816418055786151 0 -0.33328609379024349 0.2130068744180813 0 -0.34244699517042121 0.23816418055786151 0 -0.33328609379024349 0.2130068744180813 0 -0.31873218963182409 0.22654972870499029 0 -0.34244699517042121 0.23816418055786151 0 -0.31873218963182409 0.22654972870499029 0 -0.32200613725511351 0.24850726385495631 0 -0.34244699517042121 0.23816418055786151 0 -0.31873218963182409 0.22654972870499029 0 -0.32200613725511351 0.24850726385495631 0 -0.30672251365844311 0.23743048015470111 0 -0.32200613725511351 0.24850726385495631 0 -0.34244699517042121 0.23816418055786151 0 -0.33952374355129727 0.25899057541505788 0 -0.29125564533142001 0.24067530578368901 0 -0.30672251365844311 0.23743048015470111 0 -0.30640548876467488 0.25787073169030861 0 -0.32200613725511351 0.24850726385495631 0 -0.30672251365844311 0.23743048015470111 0 -0.30640548876467488 0.25787073169030861 0 -0.29125564533142001 0.24067530578368901 0 -0.30672251365844311 0.23743048015470111 0 -0.29521310730918271 0.21354937073956171 0 -0.31873218963182409 0.22654972870499029 0 -0.30672251365844311 0.23743048015470111 0 -0.29521310730918271 0.21354937073956171 0 -0.29125564533142001 0.24067530578368901 0 -0.29521310730918271 0.21354937073956171 0 -0.29125564533142001 0.24067530578368901 0 -0.29521310730918271 0.21354937073956171 0 -0.27258595833473342 0.22149207507906341 0 -0.29521310730918271 0.21354937073956171 0 -0.28878760701375322 0.1984352968903606 0 -0.27490594785389072 0.20112241201531189 0 -0.31873218963182409 0.22654972870499029 0 -0.29521310730918271 0.21354937073956171 0 -0.31080006153106382 0.20197173666100501 0 -0.29521310730918271 0.21354937073956171 0 -0.29917056928694541 0.1864234356954344 0 -0.29521310730918271 0.21354937073956171 0 -0.31080006153106382 0.20197173666100501 0 -0.29917056928694541 0.1864234356954344 0 -0.31080006153106382 0.20197173666100501 0 -0.3108046026399135 0.18379038091696129 0 -0.29917056928694541 0.1864234356954344 0 -0.28878760701375322 0.1984352968903606 0 -0.29917056928694541 0.1864234356954344 0 -0.28955343229492791 0.1852490896997587 0 -0.29521310730918271 0.21354937073956171 0 -0.28878760701375322 0.1984352968903606 0 -0.29917056928694541 0.1864234356954344 0 -0.28878760701375322 0.1984352968903606 0 -0.27938784373491388 0.18917199981814359 0 -0.28955343229492791 0.1852490896997587 0 -0.27938784373491388 0.18917199981814359 0 -0.27490594785389072 0.20112241201531189 0 -0.26439180367967152 0.18225540552070321 0 -0.28878760701375322 0.1984352968903606 0 -0.27938784373491388 0.18917199981814359 0 -0.27490594785389072 0.20112241201531189 0 -0.27490594785389072 0.20112241201531189 0 -0.25370102580463139 0.2052288024824625 0 -0.26439180367967152 0.18225540552070321 0 -0.25370102580463139 0.2052288024824625 0 -0.26439180367967152 0.18225540552070321 0 -0.23359887481107691 0.1809086922627815 0 -0.27490594785389072 0.20112241201531189 0 -0.25370102580463139 0.2052288024824625 0 -0.27258595833473342 0.22149207507906341 0 -0.29521310730918271 0.21354937073956171 0 -0.27490594785389072 0.20112241201531189 0 -0.27258595833473342 0.22149207507906341 0 -0.29125564533142001 0.24067530578368901 0 -0.27258595833473342 0.22149207507906341 0 -0.26834113505385238 0.23837358332174549 0 -0.27258595833473342 0.22149207507906341 0 -0.25272375818517617 0.22994970808158929 0 -0.26834113505385238 0.23837358332174549 0 -0.25370102580463139 0.2052288024824625 0 -0.27258595833473342 0.22149207507906341 0 -0.25272375818517617 0.22994970808158929 0 -0.25272375818517617 0.22994970808158929 0 -0.25621817608628389 0.2460965770837312 0 -0.26834113505385238 0.23837358332174549 0 -0.25621817608628389 0.2460965770837312 0 -0.26834113505385238 0.23837358332174549 0 -0.26892213733164849 0.25365425058065472 0 -0.29125564533142001 0.24067530578368901 0 -0.26834113505385238 0.23837358332174549 0 -0.26892213733164849 0.25365425058065472 0 -0.29370567785695612 0.15770531643225719 0 -0.28412418886142132 0.16518528890623771 0 -0.28065913062351988 0.14575155473079041 0 -0.30159211447790629 0.14759241864651959 0 -0.29370567785695612 0.15770531643225719 0 -0.28065913062351988 0.14575155473079041 0 -0.29682817834931757 0.13068013418198679 0 -0.30159211447790629 0.14759241864651959 0 -0.28065913062351988 0.14575155473079041 0 -0.29682817834931757 0.13068013418198679 0 -0.28065913062351988 0.14575155473079041 0 -0.28285123447775751 0.1183560919224374 0 -0.31354631638020197 0.13395604467094269 0 -0.29682817834931757 0.13068013418198679 0 -0.30159211447790629 0.14759241864651959 0 -0.31354631638020197 0.13395604467094269 0 -0.3122891553291075 0.14635758184588041 0 -0.30159211447790629 0.14759241864651959 0 -0.31353256245119709 0.1587605055712967 0 -0.3122891553291075 0.14635758184588041 0 -0.30159211447790629 0.14759241864651959 0 -0.31496429102988749 0.16269226213852109 0 -0.31353256245119709 0.1587605055712967 0 -0.30488677357152572 0.1641353808659653 0 -0.30159211447790629 0.14759241864651959 0 -0.30488677357152572 0.1641353808659653 0 -0.29370567785695612 0.15770531643225719 0 -0.31353256245119709 0.1587605055712967 0 -0.30159211447790629 0.14759241864651959 0 -0.30488677357152572 0.1641353808659653 0 -0.31496429102988749 0.16269226213852109 0 -0.30225886166240762 0.17397067591913981 0 -0.31303823693556859 0.17707572181323081 0 -0.31496429102988749 0.16269226213852109 0 -0.30225886166240762 0.17397067591913981 0 -0.31496429102988749 0.16269226213852109 0 -0.30488677357152572 0.1641353808659653 0 -0.30225886166240762 0.17397067591913981 0 -0.30488677357152572 0.1641353808659653 0 -0.30225886166240762 0.17397067591913981 0 -0.29597535979189887 0.1670989905046398 0 -0.30488677357152572 0.1641353808659653 0 -0.29370567785695612 0.15770531643225719 0 -0.29597535979189887 0.1670989905046398 0 -0.31303823693556859 0.17707572181323081 0 -0.3108046026399135 0.18379038091696129 0 -0.30225886166240762 0.17397067591913981 0 -0.30225886166240762 0.17397067591913981 0 -0.29917056928694541 0.1864234356954344 0 -0.28955343229492791 0.1852490896997587 0 -0.3108046026399135 0.18379038091696129 0 -0.30225886166240762 0.17397067591913981 0 -0.29917056928694541 0.1864234356954344 0 -0.30225886166240762 0.17397067591913981 0 -0.28955343229492791 0.1852490896997587 0 -0.30225886166240762 0.17397067591913981 0 -0.28955343229492791 0.1852490896997587 0 -0.29024545837739651 0.173916500811098 0 -0.28955343229492791 0.1852490896997587 0 -0.29024545837739651 0.173916500811098 0 -0.27889874324695868 0.17762520371433099 0 -0.29024545837739651 0.173916500811098 0 -0.28412418886142132 0.16518528890623771 0 -0.27889874324695868 0.17762520371433099 0 -0.27938784373491388 0.18917199981814359 0 -0.28955343229492791 0.1852490896997587 0 -0.27889874324695868 0.17762520371433099 0 -0.29370567785695612 0.15770531643225719 0 -0.29597535979189887 0.1670989905046398 0 -0.28412418886142132 0.16518528890623771 0 -0.30225886166240762 0.17397067591913981 0 -0.29024545837739651 0.173916500811098 0 -0.29597535979189887 0.1670989905046398 0 -0.29024545837739651 0.173916500811098 0 -0.29597535979189887 0.1670989905046398 0 -0.28412418886142132 0.16518528890623771 0 -0.28412418886142132 0.16518528890623771 0 -0.26844272787379447 0.16268744982768751 0 -0.27889874324695868 0.17762520371433099 0 -0.28412418886142132 0.16518528890623771 0 -0.26844272787379447 0.16268744982768751 0 -0.28065913062351988 0.14575155473079041 0 -0.26844272787379447 0.16268744982768751 0 -0.27889874324695868 0.17762520371433099 0 -0.26439180367967152 0.18225540552070321 0 -0.27938784373491388 0.18917199981814359 0 -0.27889874324695868 0.17762520371433099 0 -0.26439180367967152 0.18225540552070321 0 -0.26844272787379447 0.16268744982768751 0 -0.26439180367967152 0.18225540552070321 0 -0.247018622616726 0.15992587597476091 0 -0.26844272787379447 0.16268744982768751 0 -0.25846103874104392 0.14702121199507179 0 -0.247018622616726 0.15992587597476091 0 -0.26844272787379447 0.16268744982768751 0 -0.25846103874104392 0.14702121199507179 0 -0.28065913062351988 0.14575155473079041 0 -0.25846103874104392 0.14702121199507179 0 -0.28065913062351988 0.14575155473079041 0 -0.25922316449870308 0.12628093809151891 0 -0.28065913062351988 0.14575155473079041 0 -0.25922316449870308 0.12628093809151891 0 -0.28285123447775751 0.1183560919224374 0 -0.25846103874104392 0.14702121199507179 0 -0.25922316449870308 0.12628093809151891 0 -0.2369615480924761 0.1404602413506009 0 -0.25922316449870308 0.12628093809151891 0 -0.25136603029008331 0.1103208693098497 0 -0.26687835675477128 0.1014348965859585 0 -0.25136603029008331 0.1103208693098497 0 -0.26687835675477128 0.1014348965859585 0 -0.24377998071086901 0.096378574065869249 0 -0.26687835675477128 0.1014348965859585 0 -0.28737892951993471 0.098967158637655914 0 -0.27569457229827071 0.081243623470509244 0 -0.26687835675477128 0.1014348965859585 0 -0.28285123447775751 0.1183560919224374 0 -0.28737892951993471 0.098967158637655914 0 -0.25922316449870308 0.12628093809151891 0 -0.26687835675477128 0.1014348965859585 0 -0.28285123447775751 0.1183560919224374 0 -0.29682817834931757 0.13068013418198679 0 -0.28285123447775751 0.1183560919224374 0 -0.30549209578720232 0.10774456093924389 0 -0.28285123447775751 0.1183560919224374 0 -0.28737892951993471 0.098967158637655914 0 -0.30549209578720232 0.10774456093924389 0 -0.28737892951993471 0.098967158637655914 0 -0.30549209578720232 0.10774456093924389 0 -0.29743787519420251 0.08153307720754506 0 -0.30549209578720232 0.10774456093924389 0 -0.29743787519420251 0.08153307720754506 0 -0.31354631638020197 0.13395604467094269 0 -0.29682817834931757 0.13068013418198679 0 -0.30549209578720232 0.10774456093924389 0 -0.31354631638020197 0.13395604467094269 0 -0.30549209578720232 0.10774456093924389 0 -0.29926204670725021 0.066629363318123747 0 -0.30931237829482389 0.073252958087475881 0 -0.31697319293959142 0.061410437985649477 0 -0.29926204670725021 0.066629363318123747 0 -0.30931237829482389 0.073252958087475881 0 -0.29743787519420251 0.08153307720754506 0 -0.30549209578720232 0.10774456093924389 0 -0.29743787519420251 0.08153307720754506 0 -0.31312795334666071 0.083579729522452809 0 -0.30931237829482389 0.073252958087475881 0 -0.29743787519420251 0.08153307720754506 0 -0.31312795334666071 0.083579729522452809 0 -0.28737892951993471 0.098967158637655914 0 -0.29743787519420251 0.08153307720754506 0 -0.27569457229827071 0.081243623470509244 0 -0.29743787519420251 0.08153307720754506 0 -0.28743776060402371 0.060458689408765323 0 -0.28938365460120269 0.05532159347584624 0 -0.29743787519420251 0.08153307720754506 0 -0.28938365460120269 0.05532159347584624 0 -0.29926204670725021 0.066629363318123747 0 -0.29743787519420251 0.08153307720754506 0 -0.28938365460120269 0.05532159347584624 0 -0.29743787519420251 0.08153307720754506 0 -0.27569457229827071 0.081243623470509244 0 -0.28743776060402371 0.060458689408765323 0 -0.27569457229827071 0.081243623470509244 0 -0.26257114212692878 0.06573449919026883 0 -0.28743776060402371 0.060458689408765323 0 -0.26257114212692878 0.06573449919026883 0 -0.28743776060402371 0.060458689408765323 0 -0.26687835675477128 0.1014348965859585 0 -0.25261226255175379 0.080423606239198905 0 -0.24377998071086901 0.096378574065869249 0 -0.26687835675477128 0.1014348965859585 0 -0.27569457229827071 0.081243623470509244 0 -0.25261226255175379 0.080423606239198905 0 -0.26257114212692878 0.06573449919026883 0 -0.23770452364983391 0.071010308971772351 0 -0.25261226255175379 0.080423606239198905 0 -0.26257114212692878 0.06573449919026883 0 -0.23770452364983391 0.071010308971772351 0 -0.27569457229827071 0.081243623470509244 0 -0.25261226255175379 0.080423606239198905 0 -0.26257114212692878 0.06573449919026883 0 -0.2522816967992324 0.037264740289820159 0 -0.27263172987273521 0.051913181220590639 0 -0.24906194248509719 0.058488871325365822 0 -0.26257114212692878 0.06573449919026883 0 -0.27263172987273521 0.051913181220590639 0 -0.24906194248509719 0.058488871325365822 0 -0.2522816967992324 0.037264740289820159 0 -0.2684979789729644 0.03593820420606865 0 -0.27263172987273521 0.051913181220590639 0 -0.2684979789729644 0.03593820420606865 0 -0.27263172987273521 0.051913181220590639 0 -0.28132943400820298 0.02911010974414751 0 -0.27263172987273521 0.051913181220590639 0 -0.28132943400820298 0.02911010974414751 0 -0.28938365460120269 0.05532159347584624 0 -0.26257114212692878 0.06573449919026883 0 -0.27263172987273521 0.051913181220590639 0 -0.28743776060402371 0.060458689408765323 0 -0.25267499080189931 -0.0034516002120552492 0 -0.26909988492935111 -0.0018655285383734981 0 -0.25157722050270093 0.012682655753942951 0 -0.26909988492935111 -0.0018655285383734981 0 -0.25157722050270093 0.012682655753942951 0 -0.27200359261247947 0.017754051058092819 0 -0.2522816967992324 0.037264740289820159 0 -0.25157722050270093 0.012682655753942951 0 -0.27200359261247947 0.017754051058092819 0 -0.2522816967992324 0.037264740289820159 0 -0.2684979789729644 0.03593820420606865 0 -0.27200359261247947 0.017754051058092819 0 -0.2522816967992324 0.037264740289820159 0 -0.27200359261247947 0.017754051058092819 0 -0.27200359261247947 0.017754051058092819 0 -0.28831373269731447 0.017122983851404761 0 -0.28132943400820298 0.02911010974414751 0 -0.2684979789729644 0.03593820420606865 0 -0.27200359261247947 0.017754051058092819 0 -0.28132943400820298 0.02911010974414751 0 -0.26909988492935111 -0.0018655285383734981 0 -0.2917254884257266 -0.0017566381736345419 0 -0.27200359261247947 0.017754051058092819 0 -0.2917254884257266 -0.0017566381736345419 0 -0.27200359261247947 0.017754051058092819 0 -0.28831373269731447 0.017122983851404761 0 -0.2917254884257266 -0.0017566381736345419 0 -0.28831373269731447 0.017122983851404761 0 -0.29997880334656019 0.01439552450637107 0 -0.2917254884257266 -0.0017566381736345419 0 -0.27200359261247947 0.017754051058092819 0 -0.28831373269731447 0.017122983851404761 0 -0.29656482898857922 0.02610767777843559 0 -0.29997880334656019 0.01439552450637107 0 -0.28831373269731447 0.017122983851404761 0 -0.28132943400820298 0.02911010974414751 0 -0.29656482898857922 0.02610767777843559 0 -0.28132943400820298 0.02911010974414751 0 -0.29656482898857922 0.02610767777843559 0 -0.29344050585463782 0.03493273697686209 0 -0.29656482898857922 0.02610767777843559 0 -0.31039051656375261 0.022327184027059441 0 -0.30541723396373921 0.038711125382435783 0 -0.31039051656375261 0.022327184027059441 0 -0.30541723396373921 0.038711125382435783 0 -0.32038394146944787 0.031620215762440292 0 -0.29656482898857922 0.02610767777843559 0 -0.31039051656375261 0.022327184027059441 0 -0.29997880334656019 0.01439552450637107 0 -0.31039051656375261 0.022327184027059441 0 -0.31177688145040278 0.0050359958776742568 0 -0.29997880334656019 0.01439552450637107 0 -0.2917254884257266 -0.0017566381736345419 0 -0.31177688145040278 0.0050359958776742568 0 -0.29997880334656019 0.01439552450637107 0 -0.27263172987273521 0.051913181220590639 0 -0.28743776060402371 0.060458689408765323 0 -0.28938365460120269 0.05532159347584624 0 -0.28938365460120269 0.05532159347584624 0 -0.29045052645802971 0.045802035002429492 0 -0.29738278035354182 0.050541329601553678 0 -0.28938365460120269 0.05532159347584624 0 -0.29738278035354182 0.050541329601553678 0 -0.29780899910201009 0.056562827273038227 0 -0.29926204670725021 0.066629363318123747 0 -0.28938365460120269 0.05532159347584624 0 -0.29780899910201009 0.056562827273038227 0 -0.28132943400820298 0.02911010974414751 0 -0.28938365460120269 0.05532159347584624 0 -0.29045052645802971 0.045802035002429492 0 -0.28132943400820298 0.02911010974414751 0 -0.28938365460120269 0.05532159347584624 0 -0.28132943400820298 0.02911010974414751 0 -0.29344050585463782 0.03493273697686209 0 -0.29045052645802971 0.045802035002429492 0 -0.29344050585463782 0.03493273697686209 0 -0.29045052645802971 0.045802035002429492 0 -0.30541723396373921 0.038711125382435783 0 -0.29045052645802971 0.045802035002429492 0 -0.30541723396373921 0.038711125382435783 0 -0.29738278035354182 0.050541329601553678 0 -0.29045052645802971 0.045802035002429492 0 -0.30541723396373921 0.038711125382435783 0 -0.29656482898857922 0.02610767777843559 0 -0.29344050585463782 0.03493273697686209 0 -0.30541723396373921 0.038711125382435783 0 -0.30541723396373921 0.038711125382435783 0 -0.30520751474604563 0.05375902269662923 0 -0.31780711793698518 0.045521831715634557 0 -0.29926204670725021 0.066629363318123747 0 -0.30520751474604563 0.05375902269662923 0 -0.31697319293959142 0.061410437985649477 0 -0.30541723396373921 0.038711125382435783 0 -0.30520751474604563 0.05375902269662923 0 -0.29738278035354182 0.050541329601553678 0 -0.30520751474604563 0.05375902269662923 0 -0.29738278035354182 0.050541329601553678 0 -0.29780899910201009 0.056562827273038227 0 -0.29926204670725021 0.066629363318123747 0 -0.30520751474604563 0.05375902269662923 0 -0.29780899910201009 0.056562827273038227 0 -0.32553678940662539 0.052415823907368687 0 -0.31780711793698518 0.045521831715634557 0 -0.33422422494732851 0.04449049745268327 0 -0.31697319293959142 0.061410437985649477 0 -0.32553678940662539 0.052415823907368687 0 -0.31780711793698518 0.045521831715634557 0 -0.30520751474604563 0.05375902269662923 0 -0.31697319293959142 0.061410437985649477 0 -0.31780711793698518 0.045521831715634557 0 -0.31697319293959142 0.061410437985649477 0 -0.32808937753058609 0.059947696530402161 0 -0.32553678940662539 0.052415823907368687 0 -0.31780711793698518 0.045521831715634557 0 -0.32038394146944787 0.031620215762440292 0 -0.33422422494732851 0.04449049745268327 0 -0.30541723396373921 0.038711125382435783 0 -0.31780711793698518 0.045521831715634557 0 -0.32038394146944787 0.031620215762440292 0 -0.30541723396373921 0.038711125382435783 0 -0.32038394146944787 0.031620215762440292 0 -0.32038394146944787 0.031620215762440292 0 -0.33422422494732851 0.04449049745268327 0 -0.33422422494732851 0.04449049745268327 0 -0.34051642268078958 0.02208187176518148 0 -0.34924074101412461 0.03711639968071382 0 -0.32038394146944787 0.031620215762440292 0 -0.33422422494732851 0.04449049745268327 0 -0.34051642268078958 0.02208187176518148 0 -0.33422422494732851 0.04449049745268327 0 -0.34715076893326918 0.04673829876922056 0 -0.34924074101412461 0.03711639968071382 0 -0.33422422494732851 0.04449049745268327 0 -0.34806450842520742 0.057360779142928031 0 -0.34715076893326918 0.04673829876922056 0 -0.33422422494732851 0.04449049745268327 0 -0.34806450842520742 0.057360779142928031 0 -0.33422422494732851 0.04449049745268327 0 -0.33482930480244999 0.055095026294593591 0 -0.34806450842520742 0.057360779142928031 0 -0.3407399656121517 0.06083029771636933 0 -0.33482930480244999 0.055095026294593591 0 -0.33440717105718593 0.063083878638897639 0 -0.3407399656121517 0.06083029771636933 0 -0.33482930480244999 0.055095026294593591 0 -0.34806450842520742 0.057360779142928031 0 -0.32808937753058609 0.059947696530402161 0 -0.33482930480244999 0.055095026294593591 0 -0.33440717105718593 0.063083878638897639 0 -0.32808937753058609 0.059947696530402161 0 -0.32553678940662539 0.052415823907368687 0 -0.33482930480244999 0.055095026294593591 0 -0.32553678940662539 0.052415823907368687 0 -0.33422422494732851 0.04449049745268327 0 -0.33482930480244999 0.055095026294593591 0 -0.31039051656375261 0.022327184027059441 0 -0.31177688145040278 0.0050359958776742568 0 -0.3261420213634148 0.01391490981329808 0 -0.32828291010712762 -0.0049346835118845543 0 -0.31177688145040278 0.0050359958776742568 0 -0.3261420213634148 0.01391490981329808 0 -0.31039051656375261 0.022327184027059441 0 -0.32038394146944787 0.031620215762440292 0 -0.3261420213634148 0.01391490981329808 0 -0.31039051656375261 0.022327184027059441 0 -0.32038394146944787 0.031620215762440292 0 -0.32038394146944787 0.031620215762440292 0 -0.34051642268078958 0.02208187176518148 0 -0.32038394146944787 0.031620215762440292 0 -0.3261420213634148 0.01391490981329808 0 -0.34051642268078958 0.02208187176518148 0 -0.3261420213634148 0.01391490981329808 0 -0.34051642268078958 0.02208187176518148 0 -0.34055428987364128 0.0059527955302196532 0 -0.32828291010712762 -0.0049346835118845543 0 -0.3261420213634148 0.01391490981329808 0 -0.34055428987364128 0.0059527955302196532 0 -0.34051642268078958 0.02208187176518148 0 -0.34055428987364128 0.0059527955302196532 0 -0.36064890389212972 0.0125435277679194 0 -0.34718119132474479 -0.01384164818341615 0 -0.34055428987364128 0.0059527955302196532 0 -0.36064890389212972 0.0125435277679194 0 -0.34051642268078958 0.02208187176518148 0 -0.36064890389212972 0.0125435277679194 0 -0.34051642268078958 0.02208187176518148 0 -0.35699945364537122 0.027147445145089769 0 -0.34924074101412461 0.03711639968071382 0 -0.34051642268078958 0.02208187176518148 0 -0.35699945364537122 0.027147445145089769 0 -0.36064890389212972 0.0125435277679194 0 -0.35699945364537122 0.027147445145089769 0 -0.36163302121541668 0.029781402687577421 0 -0.35940737946489582 0.035374977024224222 0 -0.37998819155715241 0.0057865511937031933 0 -0.36738966121720701 0.029980518529024301 0 -0.37123175334181557 0.027162262264614271 0 -0.37998819155715241 0.0057865511937031933 0 -0.36738966121720701 0.029980518529024301 0 -0.3645477689834325 0.020181962352102071 0 -0.37998819155715241 0.0057865511937031933 0 -0.36738966121720701 0.029980518529024301 0 -0.36273559053419291 0.026622670051971411 0 -0.36738966121720701 0.029980518529024301 0 -0.3645477689834325 0.020181962352102071 0 -0.35699945364537122 0.027147445145089769 0 -0.36163302121541668 0.029781402687577421 0 -0.36273559053419291 0.026622670051971411 0 -0.35699945364537122 0.027147445145089769 0 -0.36273559053419291 0.026622670051971411 0 -0.3645477689834325 0.020181962352102071 0 -0.36163302121541668 0.029781402687577421 0 -0.36273559053419291 0.026622670051971411 0 -0.36738966121720701 0.029980518529024301 0 -0.35699945364537122 0.027147445145089769 0 -0.3645477689834325 0.020181962352102071 0 -0.36064890389212972 0.0125435277679194 0 -0.3645477689834325 0.020181962352102071 0 -0.36064890389212972 0.0125435277679194 0 -0.37998819155715241 0.0057865511937031933 0 -0.3645477689834325 0.020181962352102071 0 -0.36064890389212972 0.0125435277679194 0 -0.38683543611469601 0.0001369023841863784 0 -0.36064890389212972 0.0125435277679194 0 -0.37474494217865062 -0.0022388935110706832 0 -0.38683543611469601 0.0001369023841863784 0 -0.36064890389212972 0.0125435277679194 0 -0.37474494217865062 -0.0022388935110706832 0 -0.36307869926690151 -0.00068504054922277494 0 -0.36064890389212972 0.0125435277679194 0 -0.35479113087726238 0.05417448586434577 0 -0.34715076893326918 0.04673829876922056 0 -0.35593663516940488 0.04278932274017315 0 -0.35479113087726238 0.05417448586434577 0 -0.35147867423579721 0.06053566178096708 0 -0.3622197730044176 0.060127746183944272 0 -0.35479113087726238 0.05417448586434577 0 -0.35147867423579721 0.06053566178096708 0 -0.35479113087726238 0.05417448586434577 0 -0.34806450842520742 0.057360779142928031 0 -0.35147867423579721 0.06053566178096708 0 -0.35479113087726238 0.05417448586434577 0 -0.34806450842520742 0.057360779142928031 0 -0.34806450842520742 0.057360779142928031 0 -0.35147867423579721 0.06053566178096708 0 -0.3447014191436914 0.063951910484466787 0 -0.34806450842520742 0.057360779142928031 0 -0.35147867423579721 0.06053566178096708 0 -0.3407399656121517 0.06083029771636933 0 -0.34806450842520742 0.057360779142928031 0 -0.3407399656121517 0.06083029771636933 0 -0.34806450842520742 0.057360779142928031 0 -0.3447014191436914 0.063951910484466787 0 -0.35479113087726238 0.05417448586434577 0 -0.34806450842520742 0.057360779142928031 0 -0.34715076893326918 0.04673829876922056 0 -0.34715076893326918 0.04673829876922056 0 -0.34924074101412461 0.03711639968071382 0 -0.35593663516940488 0.04278932274017315 0 -0.36738966121720701 0.029980518529024301 0 -0.35479113087726238 0.05417448586434577 0 -0.35593663516940488 0.04278932274017315 0 -0.35699945364537122 0.027147445145089769 0 -0.34924074101412461 0.03711639968071382 0 -0.35940737946489582 0.035374977024224222 0 -0.34924074101412461 0.03711639968071382 0 -0.35593663516940488 0.04278932274017315 0 -0.35940737946489582 0.035374977024224222 0 -0.36738966121720701 0.029980518529024301 0 -0.35479113087726238 0.05417448586434577 0 -0.36677646394688163 0.041367990420506082 0 -0.37123175334181557 0.027162262264614271 0 -0.37046143272875132 0.04675171495388801 0 -0.36738966121720701 0.029980518529024301 0 -0.35479113087726238 0.05417448586434577 0 -0.37123175334181557 0.027162262264614271 0 -0.36677646394688163 0.041367990420506082 0 -0.37046143272875132 0.04675171495388801 0 -0.3764786745208083 0.032098692741998169 0 -0.37123175334181557 0.027162262264614271 0 -0.37046143272875132 0.04675171495388801 0 -0.36163302121541668 0.029781402687577421 0 -0.36738966121720701 0.029980518529024301 0 -0.35940737946489582 0.035374977024224222 0 -0.36738966121720701 0.029980518529024301 0 -0.35593663516940488 0.04278932274017315 0 -0.35940737946489582 0.035374977024224222 0 -0.36738966121720701 0.029980518529024301 0 -0.37123175334181557 0.027162262264614271 0 -0.36677646394688163 0.041367990420506082 0 -0.36677646394688163 0.041367990420506082 0 -0.37046143272875132 0.04675171495388801 0 -0.36802302346639398 0.047906750352184523 0 -0.36677646394688163 0.041367990420506082 0 -0.36802302346639398 0.047906750352184523 0 -0.37046143272875132 0.04675171495388801 0 -0.37000681959492809 0.05831264468359916 0 -0.36802302346639398 0.047906750352184523 0 -0.37000681959492809 0.05831264468359916 0 -0.37046143272875132 0.04675171495388801 0 -0.36802302346639398 0.047906750352184523 0 -0.37000681959492809 0.05831264468359916 0 -0.37046143272875132 0.04675171495388801 0 -0.36802302346639398 0.047906750352184523 0 -0.35479113087726238 0.05417448586434577 0 -0.36802302346639398 0.047906750352184523 0 -0.35479113087726238 0.05417448586434577 0 -0.36802302346639398 0.047906750352184523 0 -0.3622197730044176 0.060127746183944272 0 -0.35479113087726238 0.05417448586434577 0 -0.36677646394688163 0.041367990420506082 0 -0.36802302346639398 0.047906750352184523 0 -0.36802302346639398 0.047906750352184523 0 -0.3622197730044176 0.060127746183944272 0 -0.37000681959492809 0.05831264468359916 0 -0.35147867423579721 0.06053566178096708 0 -0.36926886504626422 0.077079019973005369 0 -0.3622197730044176 0.060127746183944272 0 -0.37000681959492809 0.05831264468359916 0 -0.36926886504626422 0.077079019973005369 0 -0.37000681959492809 0.05831264468359916 0 -0.36926886504626422 0.077079019973005369 0 -0.37079498002478778 0.078498176574577722 0 -0.36926886504626422 0.077079019973005369 0 -0.34551673285671652 0.071984855543133663 0 -0.36912013352382872 0.080861301107253064 0 -0.37000681959492809 0.05831264468359916 0 -0.37079498002478778 0.078498176574577722 0 -0.37470600383380392 0.082961959162170973 0 -0.35147867423579721 0.06053566178096708 0 -0.3622197730044176 0.060127746183944272 0 -0.36926886504626422 0.077079019973005369 0 -0.37000681959492809 0.05831264468359916 0 -0.37470600383380392 0.082961959162170973 0 -0.37000681959492809 0.05831264468359916 0 -0.36926886504626422 0.077079019973005369 0 -0.36926886504626422 0.077079019973005369 0 -0.37079498002478778 0.078498176574577722 0 -0.34551673285671652 0.071984855543133663 0 -0.34763839367566191 0.079069075487607554 0 -0.36912013352382872 0.080861301107253064 0 -0.34551673285671652 0.071984855543133663 0 -0.36912013352382872 0.080861301107253064 0 -0.35147867423579721 0.06053566178096708 0 -0.36926886504626422 0.077079019973005369 0 -0.34551673285671652 0.071984855543133663 0 -0.34408269824063842 0.074738747125954852 0 -0.34763839367566191 0.079069075487607554 0 -0.34179116264722731 0.080399472229040897 0 -0.34408269824063842 0.074738747125954852 0 -0.34551673285671652 0.071984855543133663 0 -0.34763839367566191 0.079069075487607554 0 -0.34408269824063842 0.074738747125954852 0 -0.34551673285671652 0.071984855543133663 0 -0.35147867423579721 0.06053566178096708 0 -0.34551673285671652 0.071984855543133663 0 -0.3447014191436914 0.063951910484466787 0 -0.35147867423579721 0.06053566178096708 0 -0.34551673285671652 0.071984855543133663 0 -0.34763839367566191 0.079069075487607554 0 -0.36858415035949882 0.094491491786065696 0 -0.34763839367566191 0.079069075487607554 0 -0.36858415035949882 0.094491491786065696 0 -0.35198293914272999 0.094145145766245733 0 -0.34456144318064219 0.08667329674911145 0 -0.34763839367566191 0.079069075487607554 0 -0.35198293914272999 0.094145145766245733 0 -0.34456144318064219 0.08667329674911145 0 -0.35198293914272999 0.094145145766245733 0 -0.34431035454597703 0.093789606507308373 0 -0.34456144318064219 0.08667329674911145 0 -0.34763839367566191 0.079069075487607554 0 -0.34179116264722731 0.080399472229040897 0 -0.3782625711058698 0.101617738696854 0 -0.37470600383380392 0.082961959162170973 0 -0.36858415035949882 0.094491491786065696 0 -0.34763839367566191 0.079069075487607554 0 -0.36912013352382872 0.080861301107253064 0 -0.36858415035949882 0.094491491786065696 0 -0.36926886504626422 0.077079019973005369 0 -0.37079498002478778 0.078498176574577722 0 -0.36912013352382872 0.080861301107253064 0 -0.36926886504626422 0.077079019973005369 0 -0.36912013352382872 0.080861301107253064 0 -0.36912013352382872 0.080861301107253064 0 -0.37470600383380392 0.082961959162170973 0 -0.37079498002478778 0.078498176574577722 0 -0.36912013352382872 0.080861301107253064 0 -0.37470600383380392 0.082961959162170973 0 -0.36912013352382872 0.080861301107253064 0 -0.37470600383380392 0.082961959162170973 0 -0.36858415035949882 0.094491491786065696 0 -0.36912013352382872 0.080861301107253064 0 -0.36858415035949882 0.094491491786065696 0 -0.36858415035949882 0.094491491786065696 0 -0.36747352968705388 0.12273486311700831 0 -0.3782625711058698 0.101617738696854 0 -0.36858415035949882 0.094491491786065696 0 -0.36858415035949882 0.094491491786065696 0 -0.36006702585218792 0.10838608290929221 0 -0.35198293914272999 0.094145145766245733 0 -0.36858415035949882 0.094491491786065696 0 -0.36006702585218792 0.10838608290929221 0 -0.36747352968705388 0.12273486311700831 0 -0.3782625711058698 0.101617738696854 0 -0.36858415035949882 0.094491491786065696 0 -0.36747352968705388 0.12273486311700831 0 -0.36006702585218792 0.10838608290929221 0 -0.36747352968705388 0.12273486311700831 0 -0.35832203275528268 0.1183511860346923 0 -0.35528769071996391 0.12689780186549679 0 -0.36747352968705388 0.12273486311700831 0 -0.35832203275528268 0.1183511860346923 0 -0.35528769071996391 0.12689780186549679 0 -0.35832203275528268 0.1183511860346923 0 -0.35045988476192508 0.115385996246972 0 -0.36006702585218792 0.10838608290929221 0 -0.35832203275528268 0.1183511860346923 0 -0.35045988476192508 0.115385996246972 0 -0.35045988476192508 0.115385996246972 0 -0.34547580274860562 0.10394098399483009 0 -0.33570271963636877 0.11206429961599181 0 -0.35528769071996391 0.12689780186549679 0 -0.35045988476192508 0.115385996246972 0 -0.34115039425197219 0.12498493974687711 0 -0.36006702585218792 0.10838608290929221 0 -0.35198293914272999 0.094145145766245733 0 -0.34547580274860562 0.10394098399483009 0 -0.36006702585218792 0.10838608290929221 0 -0.35045988476192508 0.115385996246972 0 -0.34547580274860562 0.10394098399483009 0 -0.35198293914272999 0.094145145766245733 0 -0.34547580274860562 0.10394098399483009 0 -0.34431035454597703 0.093789606507308373 0 -0.34547580274860562 0.10394098399483009 0 -0.34431035454597703 0.093789606507308373 0 -0.335413749579693 0.097286071719103154 0 -0.34547580274860562 0.10394098399483009 0 -0.335413749579693 0.097286071719103154 0 -0.33570271963636877 0.11206429961599181 0 -0.335413749579693 0.097286071719103154 0 -0.33570271963636877 0.11206429961599181 0 -0.32444247844199348 0.1047035033472971 0 -0.35045988476192508 0.115385996246972 0 -0.34115039425197219 0.12498493974687711 0 -0.33570271963636877 0.11206429961599181 0 -0.32917568526667751 0.12578156900391591 0 -0.33570271963636877 0.11206429961599181 0 -0.32114709127587232 0.11611322513389059 0 -0.32917568526667751 0.12578156900391591 0 -0.34115039425197219 0.12498493974687711 0 -0.33570271963636877 0.11206429961599181 0 -0.31354631638020197 0.13395604467094269 0 -0.30549209578720232 0.10774456093924389 0 -0.32114709127587232 0.11611322513389059 0 -0.30549209578720232 0.10774456093924389 0 -0.32114709127587232 0.11611322513389059 0 -0.32444247844199348 0.1047035033472971 0 -0.33570271963636877 0.11206429961599181 0 -0.32114709127587232 0.11611322513389059 0 -0.32444247844199348 0.1047035033472971 0 -0.30549209578720232 0.10774456093924389 0 -0.32444247844199348 0.1047035033472971 0 -0.32445673593083119 0.090309359328255762 0 -0.30549209578720232 0.10774456093924389 0 -0.32445673593083119 0.090309359328255762 0 -0.31312795334666071 0.083579729522452809 0 -0.335413749579693 0.097286071719103154 0 -0.32444247844199348 0.1047035033472971 0 -0.32445673593083119 0.090309359328255762 0 -0.32445673593083119 0.090309359328255762 0 -0.3275606083710243 0.080211281293741998 0 -0.31312795334666071 0.083579729522452809 0 -0.3275606083710243 0.080211281293741998 0 -0.31312795334666071 0.083579729522452809 0 -0.31976082328641481 0.073112182403608325 0 -0.30931237829482389 0.073252958087475881 0 -0.31312795334666071 0.083579729522452809 0 -0.31976082328641481 0.073112182403608325 0 -0.30931237829482389 0.073252958087475881 0 -0.31697319293959142 0.061410437985649477 0 -0.31976082328641481 0.073112182403608325 0 -0.31697319293959142 0.061410437985649477 0 -0.31976082328641481 0.073112182403608325 0 -0.32886731949388731 0.069155273298144179 0 -0.31697319293959142 0.061410437985649477 0 -0.32808937753058609 0.059947696530402161 0 -0.32886731949388731 0.069155273298144179 0 -0.3275606083710243 0.080211281293741998 0 -0.31976082328641481 0.073112182403608325 0 -0.32886731949388731 0.069155273298144179 0 -0.32886731949388731 0.069155273298144179 0 -0.33770721458858299 0.069047958238937293 0 -0.336378655355973 0.076693290193422539 0 -0.3275606083710243 0.080211281293741998 0 -0.32886731949388731 0.069155273298144179 0 -0.336378655355973 0.076693290193422539 0 -0.33440717105718593 0.063083878638897639 0 -0.32886731949388731 0.069155273298144179 0 -0.33770721458858299 0.069047958238937293 0 -0.32808937753058609 0.059947696530402161 0 -0.33440717105718593 0.063083878638897639 0 -0.32886731949388731 0.069155273298144179 0 -0.3407399656121517 0.06083029771636933 0 -0.33440717105718593 0.063083878638897639 0 -0.33770721458858299 0.069047958238937293 0 -0.3407399656121517 0.06083029771636933 0 -0.3447014191436914 0.063951910484466787 0 -0.33770721458858299 0.069047958238937293 0 -0.34551673285671652 0.071984855543133663 0 -0.3447014191436914 0.063951910484466787 0 -0.33770721458858299 0.069047958238937293 0 -0.34408269824063842 0.074738747125954852 0 -0.33770721458858299 0.069047958238937293 0 -0.336378655355973 0.076693290193422539 0 -0.34408269824063842 0.074738747125954852 0 -0.34551673285671652 0.071984855543133663 0 -0.33770721458858299 0.069047958238937293 0 -0.34551673285671652 0.071984855543133663 0 -0.33770721458858299 0.069047958238937293 0 -0.34408269824063842 0.074738747125954852 0 -0.336378655355973 0.076693290193422539 0 -0.34179116264722731 0.080399472229040897 0 -0.336378655355973 0.076693290193422539 0 -0.34179116264722731 0.080399472229040897 0 -0.33708436589161489 0.085963183755354639 0 -0.34456144318064219 0.08667329674911145 0 -0.34179116264722731 0.080399472229040897 0 -0.33708436589161489 0.085963183755354639 0 -0.34456144318064219 0.08667329674911145 0 -0.34431035454597703 0.093789606507308373 0 -0.33708436589161489 0.085963183755354639 0 -0.34431035454597703 0.093789606507308373 0 -0.335413749579693 0.097286071719103154 0 -0.33708436589161489 0.085963183755354639 0 -0.335413749579693 0.097286071719103154 0 -0.32445673593083119 0.090309359328255762 0 -0.33708436589161489 0.085963183755354639 0 -0.32445673593083119 0.090309359328255762 0 -0.3275606083710243 0.080211281293741998 0 -0.33708436589161489 0.085963183755354639 0 -0.3275606083710243 0.080211281293741998 0 -0.336378655355973 0.076693290193422539 0 -0.33708436589161489 0.085963183755354639 0 -0.38891458820749281 0.47713565504117422 0 -0.42172655890518862 0.5 0 -0.3640375775585698 0.5 0 -0.38891458820749281 0.47713565504117422 0 -0.37103467036260362 0.45695891695805302 0 -0.36943712044780219 0.47475959506207249 0 -0.39694697642853649 0.45370639251272787 0 -0.37103467036260362 0.45695891695805302 0 -0.38891458820749281 0.47713565504117422 0 -0.39694697642853649 0.45370639251272787 0 -0.37103467036260362 0.45695891695805302 0 -0.38249991962136642 0.44345487931465249 0 -0.39694697642853649 0.45370639251272787 0 -0.37103467036260362 0.45695891695805302 0 -0.38249991962136642 0.44345487931465249 0 -0.39694697642853649 0.45370639251272787 0 -0.40464661760035381 0.43350824459614162 0 -0.38891458820749281 0.47713565504117422 0 -0.39694697642853649 0.45370639251272787 0 -0.41631826774707797 0.4711213942969617 0 -0.39694697642853649 0.45370639251272787 0 -0.42285928249446952 0.45045386806740279 0 -0.41631826774707797 0.4711213942969617 0 -0.42285928249446952 0.45045386806740279 0 -0.42501824733507809 0.43459816807542118 0 -0.40464661760035381 0.43350824459614162 0 -0.39694697642853649 0.45370639251272787 0 -0.42285928249446952 0.45045386806740279 0 -0.39694697642853649 0.45370639251272787 0 -0.42285928249446952 0.45045386806740279 0 -0.40464661760035381 0.43350824459614162 0 -0.42285928249446952 0.45045386806740279 0 -0.43521244088076849 0.46107148678855758 0 -0.44877158856040261 0.44720134362207808 0 -0.42285928249446952 0.45045386806740279 0 -0.44877158856040261 0.44720134362207808 0 -0.42285928249446952 0.45045386806740279 0 -0.43592409671607729 0.44045812782560079 0 -0.44877158856040261 0.44720134362207808 0 -0.42285928249446952 0.45045386806740279 0 -0.43592409671607729 0.44045812782560079 0 -0.42501824733507809 0.43459816807542118 0 -0.42285928249446952 0.45045386806740279 0 -0.43521244088076849 0.46107148678855758 0 -0.41631826774707797 0.4711213942969617 0 -0.41631826774707797 0.4711213942969617 0 -0.42172655890518862 0.5 0 -0.43935827984199688 0.47473889959161758 0 -0.43521244088076849 0.46107148678855758 0 -0.41631826774707797 0.4711213942969617 0 -0.43935827984199688 0.47473889959161758 0 -0.38891458820749281 0.47713565504117422 0 -0.41631826774707797 0.4711213942969617 0 -0.42172655890518862 0.5 0 -0.42172655890518862 0.5 0 -0.43935827984199688 0.47473889959161758 0 -0.47784082473980471 0.47626967285504462 0 -0.42172655890518862 0.5 0 -0.5 0.5 0 -0.47784082473980471 0.47626967285504462 0 -0.43935827984199688 0.47473889959161758 0 -0.47784082473980471 0.47626967285504462 0 -0.4487547857598953 0.46184192836472759 0 -0.5 0.5 0 -0.47784082473980471 0.47626967285504462 0 -0.49999999999999589 0.44077113011354369 0 -0.47784082473980471 0.47626967285504462 0 -0.47438579428019922 0.44398623686781052 0 -0.4627013265822788 0.4545376326069438 0 -0.47784082473980471 0.47626967285504462 0 -0.49999999999999589 0.44077113011354369 0 -0.47438579428019922 0.44398623686781052 0 -0.49999999999999589 0.44077113011354369 0 -0.47438579428019922 0.44398623686781052 0 -0.48180565015534738 0.42787197640755792 0 -0.49999999999999589 0.44077113011354369 0 -0.47438579428019922 0.44398623686781052 0 -0.47438579428019922 0.44398623686781052 0 -0.4627013265822788 0.4545376326069438 0 -0.44877158856040261 0.44720134362207808 0 -0.47438579428019922 0.44398623686781052 0 -0.44877158856040261 0.44720134362207808 0 -0.47438579428019922 0.44398623686781052 0 -0.44877158856040261 0.44720134362207808 0 -0.46289485375526918 0.43579199928955081 0 -0.44877158856040261 0.44720134362207808 0 -0.44878504691792248 0.43547483269414872 0 -0.46289485375526918 0.43579199928955081 0 -0.47784082473980471 0.47626967285504462 0 -0.4627013265822788 0.4545376326069438 0 -0.4487547857598953 0.46184192836472759 0 -0.4627013265822788 0.4545376326069438 0 -0.4487547857598953 0.46184192836472759 0 -0.44877158856040261 0.44720134362207808 0 -0.4487547857598953 0.46184192836472759 0 -0.44877158856040261 0.44720134362207808 0 -0.43521244088076849 0.46107148678855758 0 -0.4487547857598953 0.46184192836472759 0 -0.44877158856040261 0.44720134362207808 0 -0.43521244088076849 0.46107148678855758 0 -0.43935827984199688 0.47473889959161758 0 -0.4487547857598953 0.46184192836472759 0 -0.44877158856040261 0.44720134362207808 0 -0.44508566455651338 0.43839632914573512 0 -0.44878504691792248 0.43547483269414872 0 -0.44877158856040261 0.44720134362207808 0 -0.44878504691792248 0.43547483269414872 0 -0.43592409671607729 0.44045812782560079 0 -0.44877158856040261 0.44720134362207808 0 -0.44508566455651338 0.43839632914573512 0 -0.44531233658805403 0.42513554986162888 0 -0.44878504691792248 0.43547483269414872 0 -0.44880957839306629 0.41410011360809668 0 -0.44878504691792248 0.43547483269414872 0 -0.44880957839306629 0.41410011360809668 0 -0.43788570063392329 0.43164093021736671 0 -0.44531233658805403 0.42513554986162888 0 -0.44878504691792248 0.43547483269414872 0 -0.43592409671607729 0.44045812782560079 0 -0.44508566455651338 0.43839632914573512 0 -0.43788570063392329 0.43164093021736671 0 -0.44508566455651338 0.43839632914573512 0 -0.43788570063392329 0.43164093021736671 0 -0.44878504691792248 0.43547483269414872 0 -0.44508566455651338 0.43839632914573512 0 -0.44878504691792248 0.43547483269414872 0 -0.44531233658805403 0.42513554986162888 0 -0.44880957839306629 0.41410011360809668 0 -0.42391867717568832 0.41711337076656618 0 -0.44880957839306629 0.41410011360809668 0 -0.46585669794528167 0.42199291516666237 0 -0.4641229039382897 0.40091036417177778 0 -0.44878504691792248 0.43547483269414872 0 -0.46585669794528167 0.42199291516666237 0 -0.44878504691792248 0.43547483269414872 0 -0.44880957839306629 0.41410011360809668 0 -0.46585669794528167 0.42199291516666237 0 -0.44878504691792248 0.43547483269414872 0 -0.46585669794528167 0.42199291516666237 0 -0.46289485375526918 0.43579199928955081 0 -0.47438579428019922 0.44398623686781052 0 -0.46289485375526918 0.43579199928955081 0 -0.48180565015534738 0.42787197640755792 0 -0.46585669794528167 0.42199291516666237 0 -0.46289485375526918 0.43579199928955081 0 -0.48180565015534738 0.42787197640755792 0 -0.46585669794528167 0.42199291516666237 0 -0.48292834897264081 0.4085109976391762 0 -0.4641229039382897 0.40091036417177778 0 -0.46585669794528167 0.42199291516666237 0 -0.48292834897264081 0.4085109976391762 0 -0.46585669794528167 0.42199291516666237 0 -0.48180565015534738 0.42787197640755792 0 -0.48292834897264081 0.4085109976391762 0 -0.48292834897264081 0.4085109976391762 0 -0.5 0.41790010511261683 0 -0.5 0.39502908011169002 0 -0.48180565015534738 0.42787197640755792 0 -0.48292834897264081 0.4085109976391762 0 -0.5 0.41790010511261683 0 -0.49999999999999589 0.44077113011354369 0 -0.48180565015534738 0.42787197640755792 0 -0.5 0.41790010511261683 0 -0.48850556386005051 0.3766603246979251 0 -0.5 0.39502908011169002 0 -0.47832653283541199 0.38608194873200979 0 -0.48850556386005051 0.3766603246979251 0 -0.5 0.39502908011169002 0 -0.5 0.36887446842263683 0 -0.48292834897264081 0.4085109976391762 0 -0.5 0.39502908011169002 0 -0.47832653283541199 0.38608194873200979 0 -0.48292834897264081 0.4085109976391762 0 -0.5 0.39502908011169002 0 -0.48292834897264081 0.4085109976391762 0 -0.47832653283541199 0.38608194873200979 0 -0.4641229039382897 0.40091036417177778 0 -0.48850556386005051 0.3766603246979251 0 -0.47832653283541199 0.38608194873200979 0 -0.48259334700195489 0.36409898273387958 0 -0.47832653283541199 0.38608194873200979 0 -0.46059005399087027 0.38292215568240928 0 -0.4641229039382897 0.40091036417177778 0 -0.47832653283541199 0.38608194873200979 0 -0.46059005399087027 0.38292215568240928 0 -0.46572599417265398 0.36772482908493609 0 -0.44880957839306629 0.41410011360809668 0 -0.4641229039382897 0.40091036417177778 0 -0.44883410986820999 0.3927253945220448 0 -0.46059005399087027 0.38292215568240928 0 -0.4641229039382897 0.40091036417177778 0 -0.44883410986820999 0.3927253945220448 0 -0.44880957839306629 0.41410011360809668 0 -0.44883410986820999 0.3927253945220448 0 -0.43699833754743561 0.40294499431243458 0 -0.44880957839306629 0.41410011360809668 0 -0.44883410986820999 0.3927253945220448 0 -0.44883410986820999 0.3927253945220448 0 -0.43978391516082421 0.3912231797547942 0 -0.43699833754743561 0.40294499431243458 0 -0.44883410986820999 0.3927253945220448 0 -0.43978391516082421 0.3912231797547942 0 -0.44802713623065987 0.37645115623263098 0 -0.44883410986820999 0.3927253945220448 0 -0.44885864134335329 0.37135067543599282 0 -0.44883410986820999 0.3927253945220448 0 -0.44802713623065987 0.37645115623263098 0 -0.44885864134335329 0.37135067543599282 0 -0.43978391516082421 0.3912231797547942 0 -0.44802713623065987 0.37645115623263098 0 -0.42527607699699133 0.39277117395206662 0 -0.46059005399087027 0.38292215568240928 0 -0.44883410986820999 0.3927253945220448 0 -0.44885864134335329 0.37135067543599282 0 -0.44802713623065987 0.37645115623263098 0 -0.4250431626101242 0.37647010748543319 0 -0.42527607699699133 0.39277117395206662 0 -0.44802713623065987 0.37645115623263098 0 -0.42527607699699133 0.39277117395206662 0 -0.4250431626101242 0.37647010748543319 0 -0.4134887672477453 0.38574914578498593 0 -0.40122768387689522 0.38158953953487368 0 -0.4250431626101242 0.37647010748543319 0 -0.40122768387689522 0.38158953953487368 0 -0.4250431626101242 0.37647010748543319 0 -0.4134887672477453 0.38574914578498593 0 -0.42527607699699133 0.39277117395206662 0 -0.4250431626101242 0.37647010748543319 0 -0.40122768387689522 0.38158953953487368 0 -0.40086489287733429 0.37467411733839928 0 -0.4134887672477453 0.38574914578498593 0 -0.40798835104355652 0.39359067917546098 0 -0.40557429982823212 0.38794008425198068 0 -0.4134887672477453 0.38574914578498593 0 -0.40122768387689522 0.38158953953487368 0 -0.40557429982823212 0.38794008425198068 0 -0.40798835104355652 0.39359067917546098 0 -0.42527607699699133 0.39277117395206662 0 -0.40252501776332311 0.40909119167150271 0 -0.42527607699699133 0.39277117395206662 0 -0.40252501776332311 0.40909119167150271 0 -0.4134887672477453 0.38574914578498593 0 -0.40798835104355652 0.39359067917546098 0 -0.42527607699699133 0.39277117395206662 0 -0.42527607699699133 0.39277117395206662 0 -0.43699833754743561 0.40294499431243458 0 -0.42391867717568832 0.41711337076656618 0 -0.43978391516082421 0.3912231797547942 0 -0.42527607699699133 0.39277117395206662 0 -0.43699833754743561 0.40294499431243458 0 -0.44880957839306629 0.41410011360809668 0 -0.43699833754743561 0.40294499431243458 0 -0.42391867717568832 0.41711337076656618 0 -0.44531233658805403 0.42513554986162888 0 -0.42391867717568832 0.41711337076656618 0 -0.43788570063392329 0.43164093021736671 0 -0.44531233658805403 0.42513554986162888 0 -0.42391867717568832 0.41711337076656618 0 -0.43788570063392329 0.43164093021736671 0 -0.42391867717568832 0.41711337076656618 0 -0.42501824733507809 0.43459816807542118 0 -0.43592409671607729 0.44045812782560079 0 -0.43788570063392329 0.43164093021736671 0 -0.42501824733507809 0.43459816807542118 0 -0.42391867717568832 0.41711337076656618 0 -0.42501824733507809 0.43459816807542118 0 -0.40464661760035381 0.43350824459614162 0 -0.42527607699699133 0.39277117395206662 0 -0.42391867717568832 0.41711337076656618 0 -0.40252501776332311 0.40909119167150271 0 -0.42391867717568832 0.41711337076656618 0 -0.40252501776332311 0.40909119167150271 0 -0.40464661760035381 0.43350824459614162 0 -0.42391867717568832 0.41711337076656618 0 -0.40252501776332311 0.40909119167150271 0 -0.40252501776332311 0.40909119167150271 0 -0.37875820238401509 0.42613984176471847 0 -0.40252501776332311 0.40909119167150271 0 -0.40464661760035381 0.43350824459614162 0 -0.37875820238401509 0.42613984176471847 0 -0.38249991962136642 0.44345487931465249 0 -0.40464661760035381 0.43350824459614162 0 -0.37875820238401509 0.42613984176471847 0 -0.40252501776332311 0.40909119167150271 0 -0.37875820238401509 0.42613984176471847 0 -0.37769092578324193 0.39977892163450779 0 -0.37769092578324193 0.39977892163450779 0 -0.38963770449155072 0.39285491215608792 0 -0.37686086334024771 0.38257038446795849 0 -0.40252501776332311 0.40909119167150271 0 -0.37769092578324193 0.39977892163450779 0 -0.38963770449155072 0.39285491215608792 0 -0.40252501776332311 0.40909119167150271 0 -0.37769092578324193 0.39977892163450779 0 -0.37686086334024771 0.38257038446795849 0 -0.39363670834615189 0.38450398520198442 0 -0.40086489287733429 0.37467411733839928 0 -0.38963770449155072 0.39285491215608792 0 -0.37686086334024771 0.38257038446795849 0 -0.39363670834615189 0.38450398520198442 0 -0.37686086334024771 0.38257038446795849 0 -0.40086489287733429 0.37467411733839928 0 -0.37686086334024771 0.38257038446795849 0 -0.40086489287733429 0.37467411733839928 0 -0.39033592763893787 0.37070590072739279 0 -0.39363670834615189 0.38450398520198442 0 -0.40122768387689522 0.38158953953487368 0 -0.39959239714473138 0.39083097251260251 0 -0.38963770449155072 0.39285491215608792 0 -0.39363670834615189 0.38450398520198442 0 -0.39959239714473138 0.39083097251260251 0 -0.39363670834615189 0.38450398520198442 0 -0.40122768387689522 0.38158953953487368 0 -0.40086489287733429 0.37467411733839928 0 -0.40122768387689522 0.38158953953487368 0 -0.40557429982823212 0.38794008425198068 0 -0.39959239714473138 0.39083097251260251 0 -0.40798835104355652 0.39359067917546098 0 -0.40557429982823212 0.38794008425198068 0 -0.39959239714473138 0.39083097251260251 0 -0.40252501776332311 0.40909119167150271 0 -0.38963770449155072 0.39285491215608792 0 -0.39959239714473138 0.39083097251260251 0 -0.40798835104355652 0.39359067917546098 0 -0.40252501776332311 0.40909119167150271 0 -0.39959239714473138 0.39083097251260251 0 -0.3926828114571661 0.35541775914535301 0 -0.40105078960399698 0.34662517948293931 0 -0.40586906590548888 0.3393029225754271 0 -0.3926828114571661 0.35541775914535301 0 -0.39400561065841477 0.34382680172727831 0 -0.40586906590548888 0.3393029225754271 0 -0.3926828114571661 0.35541775914535301 0 -0.40586906590548888 0.3393029225754271 0 -0.3926828114571661 0.35541775914535301 0 -0.39969836615416421 0.35756427730283669 0 -0.39341808057325789 0.36431669671432632 0 -0.3926828114571661 0.35541775914535301 0 -0.40105078960399698 0.34662517948293931 0 -0.39969836615416421 0.35756427730283669 0 -0.3926828114571661 0.35541775914535301 0 -0.39400561065841477 0.34382680172727831 0 -0.38539473684528258 0.34837828204789067 0 -0.40105078960399698 0.34662517948293931 0 -0.40525205349158999 0.35429039595711992 0 -0.40888688292129022 0.34941903462410451 0 -0.40105078960399698 0.34662517948293931 0 -0.4080564418273247 0.34368885170405422 0 -0.40888688292129022 0.34941903462410451 0 -0.40105078960399698 0.34662517948293931 0 -0.40525205349158999 0.35429039595711992 0 -0.39969836615416421 0.35756427730283669 0 -0.40525205349158999 0.35429039595711992 0 -0.39969836615416421 0.35756427730283669 0 -0.40553625032349627 0.36037170931698131 0 -0.40553625032349627 0.36037170931698131 0 -0.40544017780568847 0.3661562974108753 0 -0.40025021147547779 0.36436392320030081 0 -0.40544017780568847 0.3661562974108753 0 -0.40025021147547779 0.36436392320030081 0 -0.397742957241214 0.36844985128713797 0 -0.39969836615416421 0.35756427730283669 0 -0.40553625032349627 0.36037170931698131 0 -0.40025021147547779 0.36436392320030081 0 -0.40544017780568847 0.3661562974108753 0 -0.40086489287733429 0.37467411733839928 0 -0.397742957241214 0.36844985128713797 0 -0.40086489287733429 0.37467411733839928 0 -0.397742957241214 0.36844985128713797 0 -0.39033592763893787 0.37070590072739279 0 -0.397742957241214 0.36844985128713797 0 -0.39341808057325789 0.36431669671432632 0 -0.39033592763893787 0.37070590072739279 0 -0.39969836615416421 0.35756427730283669 0 -0.40025021147547779 0.36436392320030081 0 -0.39341808057325789 0.36431669671432632 0 -0.40025021147547779 0.36436392320030081 0 -0.397742957241214 0.36844985128713797 0 -0.39341808057325789 0.36431669671432632 0 -0.3926828114571661 0.35541775914535301 0 -0.39341808057325789 0.36431669671432632 0 -0.37949655700884349 0.37153259571527891 0 -0.37949655700884349 0.37153259571527891 0 -0.37823932191431281 0.35548757599615399 0 -0.37024808467873749 0.36543132639488701 0 -0.3926828114571661 0.35541775914535301 0 -0.37949655700884349 0.37153259571527891 0 -0.37823932191431281 0.35548757599615399 0 -0.3926828114571661 0.35541775914535301 0 -0.37949655700884349 0.37153259571527891 0 -0.39341808057325789 0.36431669671432632 0 -0.39033592763893787 0.37070590072739279 0 -0.37949655700884349 0.37153259571527891 0 -0.37686086334024771 0.38257038446795849 0 -0.39033592763893787 0.37070590072739279 0 -0.37949655700884349 0.37153259571527891 0 -0.37823932191431281 0.35548757599615399 0 -0.38539473684528258 0.34837828204789067 0 -0.3787015959315434 0.33902802614693439 0 -0.3926828114571661 0.35541775914535301 0 -0.37823932191431281 0.35548757599615399 0 -0.38539473684528258 0.34837828204789067 0 -0.3787015959315434 0.33902802614693439 0 -0.37816355277066899 0.32985684687273281 0 -0.39158393304450312 0.32769252248945308 0 -0.39400561065841477 0.34382680172727831 0 -0.38539473684528258 0.34837828204789067 0 -0.3787015959315434 0.33902802614693439 0 -0.39158393304450312 0.32769252248945308 0 -0.37442838800096029 0.32044424157556423 0 -0.37816355277066899 0.32985684687273281 0 -0.39158393304450312 0.32769252248945308 0 -0.37442838800096029 0.32044424157556423 0 -0.38613629988198012 0.31665983269396758 0 -0.39158393304450312 0.32769252248945308 0 -0.37442838800096029 0.32044424157556423 0 -0.38613629988198012 0.31665983269396758 0 -0.37442838800096029 0.32044424157556423 0 -0.37415321332832258 0.31386652142517069 0 -0.39158393304450312 0.32769252248945308 0 -0.4039094095666334 0.320812311378052 0 -0.40925887999808552 0.33516025262174892 0 -0.38613629988198012 0.31665983269396758 0 -0.39830358576524327 0.31266849694114901 0 -0.39158393304450312 0.32769252248945308 0 -0.39830358576524327 0.31266849694114901 0 -0.39158393304450312 0.32769252248945308 0 -0.4039094095666334 0.320812311378052 0 -0.39830358576524327 0.31266849694114901 0 -0.4039094095666334 0.320812311378052 0 -0.40826549608127172 0.31275764886218971 0 -0.3787015959315434 0.33902802614693439 0 -0.40777024278950652 0.33697950655941222 0 -0.39158393304450312 0.32769252248945308 0 -0.40925887999808552 0.33516025262174892 0 -0.39158393304450312 0.32769252248945308 0 -0.40777024278950652 0.33697950655941222 0 -0.40925887999808552 0.33516025262174892 0 -0.3787015959315434 0.33902802614693439 0 -0.39158393304450312 0.32769252248945308 0 -0.40777024278950652 0.33697950655941222 0 -0.39400561065841477 0.34382680172727831 0 -0.3787015959315434 0.33902802614693439 0 -0.40777024278950652 0.33697950655941222 0 -0.39400561065841477 0.34382680172727831 0 -0.40586906590548888 0.3393029225754271 0 -0.40777024278950652 0.33697950655941222 0 -0.40105078960399698 0.34662517948293931 0 -0.40586906590548888 0.3393029225754271 0 -0.40105078960399698 0.34662517948293931 0 -0.40586906590548888 0.3393029225754271 0 -0.4080564418273247 0.34368885170405422 0 -0.4080564418273247 0.34368885170405422 0 -0.41125860555200922 0.34134685969384471 0 -0.40895905381070002 0.33957121871677393 0 -0.40586906590548888 0.3393029225754271 0 -0.4080564418273247 0.34368885170405422 0 -0.40895905381070002 0.33957121871677393 0 -0.4080564418273247 0.34368885170405422 0 -0.41125860555200922 0.34134685969384471 0 -0.41366919887348358 0.34576378073699821 0 -0.41125860555200922 0.34134685969384471 0 -0.41273643032526569 0.33662953043248711 0 -0.41433336845197538 0.3415594658204692 0 -0.41125860555200922 0.34134685969384471 0 -0.41433336845197538 0.3415594658204692 0 -0.41366919887348358 0.34576378073699821 0 -0.41125860555200922 0.34134685969384471 0 -0.41273643032526569 0.33662953043248711 0 -0.40895905381070002 0.33957121871677393 0 -0.41273643032526569 0.33662953043248711 0 -0.40777024278950652 0.33697950655941222 0 -0.41273643032526569 0.33662953043248711 0 -0.40895905381070002 0.33957121871677393 0 -0.40777024278950652 0.33697950655941222 0 -0.41273643032526569 0.33662953043248711 0 -0.40777024278950652 0.33697950655941222 0 -0.40925887999808552 0.33516025262174892 0 -0.40777024278950652 0.33697950655941222 0 -0.40925887999808552 0.33516025262174892 0 -0.40586906590548888 0.3393029225754271 0 -0.40895905381070002 0.33957121871677393 0 -0.40777024278950652 0.33697950655941222 0 -0.40586906590548888 0.3393029225754271 0 -0.40777024278950652 0.33697950655941222 0 -0.41273643032526569 0.33662953043248711 0 -0.40925887999808552 0.33516025262174892 0 -0.40925887999808552 0.33516025262174892 0 -0.42024067891477529 0.32173946694831868 0 -0.40925887999808552 0.33516025262174892 0 -0.42071708592719742 0.33131558094746122 0 -0.42024067891477529 0.32173946694831868 0 -0.41273643032526569 0.33662953043248711 0 -0.40925887999808552 0.33516025262174892 0 -0.42071708592719742 0.33131558094746122 0 -0.41273643032526569 0.33662953043248711 0 -0.4199209072431685 0.34318781838679219 0 -0.41433336845197538 0.3415594658204692 0 -0.4199209072431685 0.34318781838679219 0 -0.41433336845197538 0.3415594658204692 0 -0.41366919887348358 0.34576378073699821 0 -0.40925887999808552 0.33516025262174892 0 -0.41892768793075841 0.31754462100172592 0 -0.42141481873501418 0.31567829233095179 0 -0.40925887999808552 0.33516025262174892 0 -0.411263050936583 0.31954773430139438 0 -0.41892768793075841 0.31754462100172592 0 -0.40925887999808552 0.33516025262174892 0 -0.42141481873501418 0.31567829233095179 0 -0.40925887999808552 0.33516025262174892 0 -0.42024067891477529 0.32173946694831868 0 -0.42141481873501418 0.31567829233095179 0 -0.411263050936583 0.31954773430139438 0 -0.40826549608127172 0.31275764886218971 0 -0.41647318301620623 0.31168328686166002 0 -0.4039094095666334 0.320812311378052 0 -0.411263050936583 0.31954773430139438 0 -0.40826549608127172 0.31275764886218971 0 -0.4039094095666334 0.320812311378052 0 -0.40925887999808552 0.33516025262174892 0 -0.411263050936583 0.31954773430139438 0 -0.411263050936583 0.31954773430139438 0 -0.41892768793075841 0.31754462100172592 0 -0.41647318301620623 0.31168328686166002 0 -0.41892768793075841 0.31754462100172592 0 -0.42141481873501418 0.31567829233095179 0 -0.41892768793075841 0.31754462100172592 0 -0.42141481873501418 0.31567829233095179 0 -0.41647318301620623 0.31168328686166002 0 -0.42024067891477529 0.32173946694831868 0 -0.43790895006943947 0.32081412042189511 0 -0.43122247783146522 0.30831868127488848 0 -0.42024067891477529 0.32173946694831868 0 -0.42938605365092247 0.3272194948190838 0 -0.43790895006943947 0.32081412042189511 0 -0.42024067891477529 0.32173946694831868 0 -0.42141481873501418 0.31567829233095179 0 -0.43122247783146522 0.30831868127488848 0 -0.42024067891477529 0.32173946694831868 0 -0.43122247783146522 0.30831868127488848 0 -0.42071708592719742 0.33131558094746122 0 -0.42024067891477529 0.32173946694831868 0 -0.42938605365092247 0.3272194948190838 0 -0.42938605365092247 0.3272194948190838 0 -0.43674098495811231 0.33493788649063261 0 -0.43790895006943947 0.32081412042189511 0 -0.43790895006943947 0.32081412042189511 0 -0.4401847358662575 0.3127477530096977 0 -0.43122247783146522 0.30831868127488848 0 -0.41273643032526569 0.33662953043248711 0 -0.43674098495811231 0.33493788649063261 0 -0.42071708592719742 0.33131558094746122 0 -0.42938605365092247 0.3272194948190838 0 -0.43674098495811231 0.33493788649063261 0 -0.41273643032526569 0.33662953043248711 0 -0.4199209072431685 0.34318781838679219 0 -0.43385085243219867 0.34555045147446217 0 -0.41273643032526569 0.33662953043248711 0 -0.42071708592719742 0.33131558094746122 0 -0.43674098495811231 0.33493788649063261 0 -0.41273643032526569 0.33662953043248711 0 -0.43385085243219867 0.34555045147446217 0 -0.41273643032526569 0.33662953043248711 0 -0.43674098495811231 0.33493788649063261 0 -0.43385085243219867 0.34555045147446217 0 -0.43385085243219867 0.34555045147446217 0 -0.4302486007270056 0.35272204188882378 0 -0.42573384958437638 0.34916959158482058 0 -0.43385085243219867 0.34555045147446217 0 -0.43539550265875948 0.35741731211322858 0 -0.44110397924445488 0.35756373905142852 0 -0.43539550265875948 0.35741731211322858 0 -0.4302486007270056 0.35272204188882378 0 -0.42757171946388478 0.35850981688022993 0 -0.43385085243219867 0.34555045147446217 0 -0.43539550265875948 0.35741731211322858 0 -0.4302486007270056 0.35272204188882378 0 -0.4302486007270056 0.35272204188882378 0 -0.42480748600639012 0.35482075793933809 0 -0.42573384958437638 0.34916959158482058 0 -0.4302486007270056 0.35272204188882378 0 -0.42757171946388478 0.35850981688022993 0 -0.42480748600639012 0.35482075793933809 0 -0.42757171946388478 0.35850981688022993 0 -0.42480748600639012 0.35482075793933809 0 -0.42195212413097077 0.36043988011418487 0 -0.4199209072431685 0.34318781838679219 0 -0.43385085243219867 0.34555045147446217 0 -0.42573384958437638 0.34916959158482058 0 -0.42480748600639012 0.35482075793933809 0 -0.42573384958437638 0.34916959158482058 0 -0.41984140151311927 0.3495668882346864 0 -0.4199209072431685 0.34318781838679219 0 -0.42573384958437638 0.34916959158482058 0 -0.41984140151311927 0.3495668882346864 0 -0.4199209072431685 0.34318781838679219 0 -0.41984140151311927 0.3495668882346864 0 -0.41366919887348358 0.34576378073699821 0 -0.41984140151311927 0.3495668882346864 0 -0.41366919887348358 0.34576378073699821 0 -0.41404230344944593 0.35073751764187411 0 -0.42480748600639012 0.35482075793933809 0 -0.41984140151311927 0.3495668882346864 0 -0.41755863725870102 0.35684421707679032 0 -0.42480748600639012 0.35482075793933809 0 -0.41755863725870102 0.35684421707679032 0 -0.42195212413097077 0.36043988011418487 0 -0.41984140151311927 0.3495668882346864 0 -0.41755863725870102 0.35684421707679032 0 -0.41404230344944593 0.35073751764187411 0 -0.41755863725870102 0.35684421707679032 0 -0.41125051028190041 0.35540848222164118 0 -0.41404230344944593 0.35073751764187411 0 -0.41125051028190041 0.35540848222164118 0 -0.40888688292129022 0.34941903462410451 0 -0.41404230344944593 0.35073751764187411 0 -0.41755863725870102 0.35684421707679032 0 -0.41125051028190041 0.35540848222164118 0 -0.41142088061722581 0.36176204086772412 0 -0.40553625032349627 0.36037170931698131 0 -0.41125051028190041 0.35540848222164118 0 -0.41142088061722581 0.36176204086772412 0 -0.40525205349158999 0.35429039595711992 0 -0.40553625032349627 0.36037170931698131 0 -0.41125051028190041 0.35540848222164118 0 -0.40525205349158999 0.35429039595711992 0 -0.41125051028190041 0.35540848222164118 0 -0.40888688292129022 0.34941903462410451 0 -0.4080564418273247 0.34368885170405422 0 -0.40888688292129022 0.34941903462410451 0 -0.41366919887348358 0.34576378073699821 0 -0.40888688292129022 0.34941903462410451 0 -0.41366919887348358 0.34576378073699821 0 -0.41404230344944593 0.35073751764187411 0 -0.4250431626101242 0.37647010748543319 0 -0.40086489287733429 0.37467411733839928 0 -0.42486892241442098 0.36677785020884007 0 -0.40086489287733429 0.37467411733839928 0 -0.42486892241442098 0.36677785020884007 0 -0.40086489287733429 0.37467411733839928 0 -0.41378193274770297 0.36450427419225789 0 -0.42486892241442098 0.36677785020884007 0 -0.40544017780568847 0.3661562974108753 0 -0.40086489287733429 0.37467411733839928 0 -0.41378193274770297 0.36450427419225789 0 -0.40544017780568847 0.3661562974108753 0 -0.41142088061722581 0.36176204086772412 0 -0.41378193274770297 0.36450427419225789 0 -0.40553625032349627 0.36037170931698131 0 -0.40544017780568847 0.3661562974108753 0 -0.41142088061722581 0.36176204086772412 0 -0.41755863725870102 0.35684421707679032 0 -0.41378193274770297 0.36450427419225789 0 -0.42195212413097077 0.36043988011418487 0 -0.41378193274770297 0.36450427419225789 0 -0.42486892241442098 0.36677785020884007 0 -0.42195212413097077 0.36043988011418487 0 -0.41755863725870102 0.35684421707679032 0 -0.41142088061722581 0.36176204086772412 0 -0.41378193274770297 0.36450427419225789 0 -0.4250431626101242 0.37647010748543319 0 -0.44885864134335329 0.37135067543599282 0 -0.4250431626101242 0.37647010748543319 0 -0.42486892241442098 0.36677785020884007 0 -0.44885864134335329 0.37135067543599282 0 -0.42486892241442098 0.36677785020884007 0 -0.448872951951507 0.35888158307927881 0 -0.43539550265875948 0.35741731211322858 0 -0.42486892241442098 0.36677785020884007 0 -0.44110397924445488 0.35756373905142852 0 -0.43539550265875948 0.35741731211322858 0 -0.42757171946388478 0.35850981688022993 0 -0.42486892241442098 0.36677785020884007 0 -0.42757171946388478 0.35850981688022993 0 -0.42486892241442098 0.36677785020884007 0 -0.42195212413097077 0.36043988011418487 0 -0.42486892241442098 0.36677785020884007 0 -0.44885864134335329 0.37135067543599282 0 -0.448872951951507 0.35888158307927881 0 -0.44802713623065987 0.37645115623263098 0 -0.4250431626101242 0.37647010748543319 0 -0.44885864134335329 0.37135067543599282 0 -0.42486892241442098 0.36677785020884007 0 -0.44110397924445488 0.35756373905142852 0 -0.448872951951507 0.35888158307927881 0 -0.44885864134335329 0.37135067543599282 0 -0.448872951951507 0.35888158307927881 0 -0.44885864134335329 0.37135067543599282 0 -0.448872951951507 0.35888158307927881 0 -0.45634368000688869 0.36512471152292858 0 -0.43385085243219867 0.34555045147446217 0 -0.45496527453913199 0.35447137251643651 0 -0.44889299330712729 0.34242966823447613 0 -0.43385085243219867 0.34555045147446217 0 -0.45496527453913199 0.35447137251643651 0 -0.43385085243219867 0.34555045147446217 0 -0.44887533288597797 0.35680703170406669 0 -0.45496527453913199 0.35447137251643651 0 -0.43385085243219867 0.34555045147446217 0 -0.44110397924445488 0.35756373905142852 0 -0.44887533288597797 0.35680703170406669 0 -0.44110397924445488 0.35756373905142852 0 -0.44887533288597797 0.35680703170406669 0 -0.448872951951507 0.35888158307927881 0 -0.44887533288597797 0.35680703170406669 0 -0.448872951951507 0.35888158307927881 0 -0.44887533288597797 0.35680703170406669 0 -0.448872951951507 0.35888158307927881 0 -0.45496527453913199 0.35447137251643651 0 -0.448872951951507 0.35888158307927881 0 -0.45496527453913199 0.35447137251643651 0 -0.47186707529616939 0.3513175305497272 0 -0.448872951951507 0.35888158307927881 0 -0.47186707529616939 0.3513175305497272 0 -0.448872951951507 0.35888158307927881 0 -0.45634368000688869 0.36512471152292858 0 -0.47186707529616939 0.3513175305497272 0 -0.45911772068334677 0.34536620346235469 0 -0.45496527453913199 0.35447137251643651 0 -0.47186707529616939 0.3513175305497272 0 -0.45911772068334677 0.34536620346235469 0 -0.45496527453913199 0.35447137251643651 0 -0.44889299330712729 0.34242966823447613 0 -0.46572599417265398 0.36772482908493609 0 -0.45634368000688869 0.36512471152292858 0 -0.47186707529616939 0.3513175305497272 0 -0.46059005399087027 0.38292215568240928 0 -0.44885864134335329 0.37135067543599282 0 -0.46572599417265398 0.36772482908493609 0 -0.44885864134335329 0.37135067543599282 0 -0.46572599417265398 0.36772482908493609 0 -0.44885864134335329 0.37135067543599282 0 -0.46572599417265398 0.36772482908493609 0 -0.45634368000688869 0.36512471152292858 0 -0.47832653283541199 0.38608194873200979 0 -0.46572599417265398 0.36772482908493609 0 -0.48259334700195489 0.36409898273387958 0 -0.46572599417265398 0.36772482908493609 0 -0.48259334700195489 0.36409898273387958 0 -0.47186707529616939 0.3513175305497272 0 -0.46572599417265398 0.36772482908493609 0 -0.48259334700195489 0.36409898273387958 0 -0.47186707529616939 0.3513175305497272 0 -0.494861198640831 0.34375347802017348 0 -0.47186707529616939 0.3513175305497272 0 -0.48536711719674469 0.35339641184703091 0 -0.494861198640831 0.34375347802017348 0 -0.48259334700195489 0.36409898273387958 0 -0.47186707529616939 0.3513175305497272 0 -0.48536711719674469 0.35339641184703091 0 -0.48259334700195489 0.36409898273387958 0 -0.49214684784802371 0.35441565608434311 0 -0.48536711719674469 0.35339641184703091 0 -0.49214684784802371 0.35441565608434311 0 -0.5 0.36887446842263683 0 -0.5 0.34271985673358363 0 -0.49214684784802371 0.35441565608434311 0 -0.48536711719674469 0.35339641184703091 0 -0.494861198640831 0.34375347802017348 0 -0.49214684784802371 0.35441565608434311 0 -0.494861198640831 0.34375347802017348 0 -0.5 0.34271985673358363 0 -0.48850556386005051 0.3766603246979251 0 -0.48259334700195489 0.36409898273387958 0 -0.5 0.36887446842263683 0 -0.48259334700195489 0.36409898273387958 0 -0.49214684784802371 0.35441565608434311 0 -0.5 0.36887446842263683 0 -0.485708092488497 0.3189911195031831 0 -0.5 0.31656524504453032 0 -0.48475009422380527 0.3315545986069256 0 -0.485708092488497 0.3189911195031831 0 -0.5 0.31656524504453032 0 -0.48583489694974541 0.30845327583860088 0 -0.5 0.31656524504453032 0 -0.5 0.34271985673358363 0 -0.48475009422380527 0.3315545986069256 0 -0.494861198640831 0.34375347802017348 0 -0.5 0.34271985673358363 0 -0.48475009422380527 0.3315545986069256 0 -0.48475009422380527 0.3315545986069256 0 -0.46074553959095882 0.3332462425487791 0 -0.47186707529616939 0.3513175305497272 0 -0.494861198640831 0.34375347802017348 0 -0.48475009422380527 0.3315545986069256 0 -0.47186707529616939 0.3513175305497272 0 -0.48475009422380527 0.3315545986069256 0 -0.46074553959095882 0.3332462425487791 0 -0.48475009422380527 0.3315545986069256 0 -0.47224737878043732 0.31939135852267558 0 -0.46074553959095882 0.3332462425487791 0 -0.485708092488497 0.3189911195031831 0 -0.48475009422380527 0.3315545986069256 0 -0.47224737878043732 0.31939135852267558 0 -0.485708092488497 0.3189911195031831 0 -0.47224737878043732 0.31939135852267558 0 -0.48583489694974541 0.30845327583860088 0 -0.47224737878043732 0.31939135852267558 0 -0.46258830912673421 0.31343425170936878 0 -0.46074553959095882 0.3332462425487791 0 -0.46258830912673421 0.31343425170936878 0 -0.46074553959095882 0.3332462425487791 0 -0.45107709460752138 0.31557533431346357 0 -0.45911772068334677 0.34536620346235469 0 -0.47186707529616939 0.3513175305497272 0 -0.46074553959095882 0.3332462425487791 0 -0.45911772068334677 0.34536620346235469 0 -0.46074553959095882 0.3332462425487791 0 -0.44889299330712729 0.34242966823447613 0 -0.43674098495811231 0.33493788649063261 0 -0.46074553959095882 0.3332462425487791 0 -0.43674098495811231 0.33493788649063261 0 -0.46074553959095882 0.3332462425487791 0 -0.44889299330712729 0.34242966823447613 0 -0.43674098495811231 0.33493788649063261 0 -0.46074553959095882 0.3332462425487791 0 -0.43790895006943947 0.32081412042189511 0 -0.43674098495811231 0.33493788649063261 0 -0.43385085243219867 0.34555045147446217 0 -0.44889299330712729 0.34242966823447613 0 -0.46074553959095882 0.3332462425487791 0 -0.45107709460752138 0.31557533431346357 0 -0.43790895006943947 0.32081412042189511 0 -0.45107709460752138 0.31557533431346357 0 -0.43790895006943947 0.32081412042189511 0 -0.4401847358662575 0.3127477530096977 0 -0.44444415583193408 0.29216055381020578 0 -0.43122247783146522 0.30831868127488848 0 -0.44810052680614793 0.29565349026271098 0 -0.43122247783146522 0.30831868127488848 0 -0.44368336155109173 0.30649675881006838 0 -0.44810052680614793 0.29565349026271098 0 -0.43122247783146522 0.30831868127488848 0 -0.4401847358662575 0.3127477530096977 0 -0.44368336155109173 0.30649675881006838 0 -0.43122247783146522 0.30831868127488848 0 -0.44444415583193408 0.29216055381020578 0 -0.44810052680614793 0.29565349026271098 0 -0.43122247783146522 0.30831868127488848 0 -0.45107709460752138 0.31557533431346357 0 -0.4401847358662575 0.3127477530096977 0 -0.44368336155109173 0.30649675881006838 0 -0.44368336155109173 0.30649675881006838 0 -0.44996115485610377 0.3015940899144034 0 -0.4551770389262465 0.30483297142504889 0 -0.44368336155109173 0.30649675881006838 0 -0.44996115485610377 0.3015940899144034 0 -0.44810052680614793 0.29565349026271098 0 -0.45288369214092922 0.29939313915978533 0 -0.44996115485610377 0.3015940899144034 0 -0.44810052680614793 0.29565349026271098 0 -0.45288369214092922 0.29939313915978533 0 -0.44996115485610377 0.3015940899144034 0 -0.4551770389262465 0.30483297142504889 0 -0.45107709460752138 0.31557533431346357 0 -0.44368336155109173 0.30649675881006838 0 -0.4551770389262465 0.30483297142504889 0 -0.44702735364695217 0.27675533545947301 0 -0.43422108619098299 0.29621681389521232 0 -0.44444415583193408 0.29216055381020578 0 -0.44702735364695217 0.27675533545947301 0 -0.43422108619098299 0.29621681389521232 0 -0.44702735364695217 0.27675533545947301 0 -0.43274811138672559 0.28469846643612018 0 -0.43422108619098299 0.29621681389521232 0 -0.44810052680614793 0.29565349026271098 0 -0.4493542421043164 0.28919027156790111 0 -0.45395006383388498 0.28587005882998617 0 -0.44444415583193408 0.29216055381020578 0 -0.44810052680614793 0.29565349026271098 0 -0.4493542421043164 0.28919027156790111 0 -0.44444415583193408 0.29216055381020578 0 -0.4493542421043164 0.28919027156790111 0 -0.44702735364695217 0.27675533545947301 0 -0.4493542421043164 0.28919027156790111 0 -0.45395006383388498 0.28587005882998617 0 -0.44702735364695217 0.27675533545947301 0 -0.44810052680614793 0.29565349026271098 0 -0.45395006383388498 0.28587005882998617 0 -0.46497857578083068 0.28298829925053381 0 -0.44810052680614793 0.29565349026271098 0 -0.4593999708052337 0.29480301670676529 0 -0.46497857578083068 0.28298829925053381 0 -0.44810052680614793 0.29565349026271098 0 -0.46497857578083068 0.28298829925053381 0 -0.45288369214092922 0.29939313915978533 0 -0.44810052680614793 0.29565349026271098 0 -0.4593999708052337 0.29480301670676529 0 -0.4593999708052337 0.29480301670676529 0 -0.46827174088950307 0.29409138505043392 0 -0.46497857578083068 0.28298829925053381 0 -0.46258830912673421 0.31343425170936878 0 -0.45107709460752138 0.31557533431346357 0 -0.4551770389262465 0.30483297142504889 0 -0.45288369214092922 0.29939313915978533 0 -0.4593999708052337 0.29480301670676529 0 -0.4551770389262465 0.30483297142504889 0 -0.4593999708052337 0.29480301670676529 0 -0.4551770389262465 0.30483297142504889 0 -0.46625021185001803 0.30380681263807602 0 -0.4593999708052337 0.29480301670676529 0 -0.46827174088950307 0.29409138505043392 0 -0.46625021185001803 0.30380681263807602 0 -0.47224737878043732 0.31939135852267558 0 -0.46258830912673421 0.31343425170936878 0 -0.46625021185001803 0.30380681263807602 0 -0.46258830912673421 0.31343425170936878 0 -0.4551770389262465 0.30483297142504889 0 -0.46625021185001803 0.30380681263807602 0 -0.47551717359816043 0.30301602212345602 0 -0.4769183937012712 0.29196404103452073 0 -0.48583489694974541 0.30845327583860088 0 -0.47224737878043732 0.31939135852267558 0 -0.46625021185001803 0.30380681263807602 0 -0.47551717359816043 0.30301602212345602 0 -0.47224737878043732 0.31939135852267558 0 -0.47551717359816043 0.30301602212345602 0 -0.48583489694974541 0.30845327583860088 0 -0.46827174088950307 0.29409138505043392 0 -0.46625021185001803 0.30380681263807602 0 -0.47551717359816043 0.30301602212345602 0 -0.46827174088950307 0.29409138505043392 0 -0.46497857578083068 0.28298829925053381 0 -0.4769183937012712 0.29196404103452073 0 -0.4769183937012712 0.29196404103452073 0 -0.48757792524538679 0.2814999319082685 0 -0.48583489694974541 0.30845327583860088 0 -0.46827174088950307 0.29409138505043392 0 -0.47551717359816043 0.30301602212345602 0 -0.4769183937012712 0.29196404103452073 0 -0.46497857578083068 0.28298829925053381 0 -0.47783287987075052 0.28169384510791978 0 -0.4769183937012712 0.29196404103452073 0 -0.47783287987075052 0.28169384510791978 0 -0.4769183937012712 0.29196404103452073 0 -0.48757792524538679 0.2814999319082685 0 -0.5 0.29041063335547701 0 -0.48757792524538679 0.2814999319082685 0 -0.48583489694974541 0.30845327583860088 0 -0.48757792524538679 0.2814999319082685 0 -0.48583489694974541 0.30845327583860088 0 -0.5 0.31656524504453032 0 -0.5 0.29041063335547701 0 -0.48583489694974541 0.30845327583860088 0 -0.5 0.23810140997737081 0 -0.5 0.26425602166642381 0 -0.48932095354102823 0.25454658797793611 0 -0.48757792524538679 0.2814999319082685 0 -0.48932095354102823 0.25454658797793611 0 -0.48366697684514259 0.26703881783025729 0 -0.48757792524538679 0.2814999319082685 0 -0.5 0.26425602166642381 0 -0.48932095354102823 0.25454658797793611 0 -0.48757792524538679 0.2814999319082685 0 -0.48932095354102823 0.25454658797793611 0 -0.5 0.29041063335547701 0 -0.48757792524538679 0.2814999319082685 0 -0.5 0.26425602166642381 0 -0.46497857578083068 0.28298829925053381 0 -0.48185662475551339 0.27032310823835648 0 -0.46497857578083068 0.28298829925053381 0 -0.47783287987075052 0.28169384510791978 0 -0.48185662475551339 0.27032310823835648 0 -0.48366697684514259 0.26703881783025729 0 -0.45893043448094739 0.2699305570534084 0 -0.48757792524538679 0.2814999319082685 0 -0.48366697684514259 0.26703881783025729 0 -0.48185662475551339 0.27032310823835648 0 -0.48366697684514259 0.26703881783025729 0 -0.48185662475551339 0.27032310823835648 0 -0.47235815296560851 0.27257019559313889 0 -0.46497857578083068 0.28298829925053381 0 -0.48185662475551339 0.27032310823835648 0 -0.47235815296560851 0.27257019559313889 0 -0.48366697684514259 0.26703881783025729 0 -0.46959483388743167 0.25994315597580908 0 -0.45893043448094739 0.2699305570534084 0 -0.48366697684514259 0.26703881783025729 0 -0.47235815296560851 0.27257019559313889 0 -0.45893043448094739 0.2699305570534084 0 -0.47783287987075052 0.28169384510791978 0 -0.48757792524538679 0.2814999319082685 0 -0.48185662475551339 0.27032310823835648 0 -0.48932095354102823 0.25454658797793611 0 -0.48366697684514259 0.26703881783025729 0 -0.47792533453874358 0.25606878273296479 0 -0.48366697684514259 0.26703881783025729 0 -0.46959483388743167 0.25994315597580908 0 -0.47792533453874358 0.25606878273296479 0 -0.47864167104372218 0.246590621409366 0 -0.48932095354102823 0.25454658797793611 0 -0.47792533453874358 0.25606878273296479 0 -0.47864167104372218 0.246590621409366 0 -0.47792533453874358 0.25606878273296479 0 -0.46938038244821267 0.25133041049185839 0 -0.46959483388743167 0.25994315597580908 0 -0.47792533453874358 0.25606878273296479 0 -0.46938038244821267 0.25133041049185839 0 -0.46959483388743167 0.25994315597580908 0 -0.46938038244821267 0.25133041049185839 0 -0.45807104112411212 0.25534721177055669 0 -0.46959483388743167 0.25994315597580908 0 -0.45807104112411212 0.25534721177055669 0 -0.45893043448094739 0.2699305570534084 0 -0.45807104112411212 0.25534721177055669 0 -0.45893043448094739 0.2699305570534084 0 -0.44442574262614493 0.25832327296872359 0 -0.45395006383388498 0.28587005882998617 0 -0.46497857578083068 0.28298829925053381 0 -0.45893043448094739 0.2699305570534084 0 -0.45395006383388498 0.28587005882998617 0 -0.45893043448094739 0.2699305570534084 0 -0.44702735364695217 0.27675533545947301 0 -0.46497857578083068 0.28298829925053381 0 -0.47235815296560851 0.27257019559313889 0 -0.45893043448094739 0.2699305570534084 0 -0.45893043448094739 0.2699305570534084 0 -0.43419389211675241 0.27282229627655952 0 -0.45893043448094739 0.2699305570534084 0 -0.44442574262614493 0.25832327296872359 0 -0.43419389211675241 0.27282229627655952 0 -0.45893043448094739 0.2699305570534084 0 -0.44702735364695217 0.27675533545947301 0 -0.43419389211675241 0.27282229627655952 0 -0.44702735364695217 0.27675533545947301 0 -0.43419389211675241 0.27282229627655952 0 -0.43274811138672559 0.28469846643612018 0 -0.45046339488490522 0.249057113070103 0 -0.45807104112411212 0.25534721177055669 0 -0.44442574262614493 0.25832327296872359 0 -0.44062222049055039 0.24203477259657111 0 -0.44442574262614493 0.25832327296872359 0 -0.42503978512155383 0.25887440404814072 0 -0.44062222049055039 0.24203477259657111 0 -0.42503978512155383 0.25887440404814072 0 -0.44442574262614493 0.25832327296872359 0 -0.42503978512155383 0.25887440404814072 0 -0.43419389211675241 0.27282229627655952 0 -0.42503978512155383 0.25887440404814072 0 -0.40945734975255721 0.27571403549971041 0 -0.40585136056822319 0.25674789398696107 0 -0.4198454647722451 0.23985190764030939 0 -0.42503978512155383 0.25887440404814072 0 -0.40585136056822319 0.25674789398696107 0 -0.40945734975255721 0.27571403549971041 0 -0.43419389211675241 0.27282229627655952 0 -0.42503978512155383 0.25887440404814072 0 -0.40945734975255721 0.27571403549971041 0 -0.42503978512155383 0.25887440404814072 0 -0.40945734975255721 0.27571403549971041 0 -0.43419389211675241 0.27282229627655952 0 -0.40945734975255721 0.27571403549971041 0 -0.43419389211675241 0.27282229627655952 0 -0.4229835889384117 0.28415291652507912 0 -0.43419389211675241 0.27282229627655952 0 -0.43274811138672559 0.28469846643612018 0 -0.4229835889384117 0.28415291652507912 0 -0.43274811138672559 0.28469846643612018 0 -0.43422108619098299 0.29621681389521232 0 -0.42519236151645012 0.29288975242762622 0 -0.43274811138672559 0.28469846643612018 0 -0.42519236151645012 0.29288975242762622 0 -0.4229835889384117 0.28415291652507912 0 -0.42141481873501418 0.31567829233095179 0 -0.43422108619098299 0.29621681389521232 0 -0.42141481873501418 0.31567829233095179 0 -0.43422108619098299 0.29621681389521232 0 -0.42237726971740519 0.30236741203524931 0 -0.44444415583193408 0.29216055381020578 0 -0.43422108619098299 0.29621681389521232 0 -0.43122247783146522 0.30831868127488848 0 -0.42141481873501418 0.31567829233095179 0 -0.43422108619098299 0.29621681389521232 0 -0.43122247783146522 0.30831868127488848 0 -0.43422108619098299 0.29621681389521232 0 -0.42519236151645012 0.29288975242762622 0 -0.42237726971740519 0.30236741203524931 0 -0.42141481873501418 0.31567829233095179 0 -0.43122247783146522 0.30831868127488848 0 -0.42237726971740519 0.30236741203524931 0 -0.41647318301620623 0.31168328686166002 0 -0.40812109447663159 0.30329838776079099 0 -0.42141481873501418 0.31567829233095179 0 -0.42237726971740519 0.30236741203524931 0 -0.41647318301620623 0.31168328686166002 0 -0.42237726971740519 0.30236741203524931 0 -0.40812109447663159 0.30329838776079099 0 -0.41256551749876041 0.29129965580367562 0 -0.40826549608127172 0.31275764886218971 0 -0.41647318301620623 0.31168328686166002 0 -0.40812109447663159 0.30329838776079099 0 -0.40945734975255721 0.27571403549971041 0 -0.4229835889384117 0.28415291652507912 0 -0.41256551749876041 0.29129965580367562 0 -0.42519236151645012 0.29288975242762622 0 -0.4229835889384117 0.28415291652507912 0 -0.41256551749876041 0.29129965580367562 0 -0.42519236151645012 0.29288975242762622 0 -0.42237726971740519 0.30236741203524931 0 -0.41256551749876041 0.29129965580367562 0 -0.40945734975255721 0.27571403549971041 0 -0.39180528154043992 0.29479027846244049 0 -0.39350738277932218 0.27757861076756318 0 -0.40945734975255721 0.27571403549971041 0 -0.39180528154043992 0.29479027846244049 0 -0.40812109447663159 0.30329838776079099 0 -0.41256551749876041 0.29129965580367562 0 -0.39180528154043992 0.29479027846244049 0 -0.40945734975255721 0.27571403549971041 0 -0.41256551749876041 0.29129965580367562 0 -0.39180528154043992 0.29479027846244049 0 -0.38613629988198012 0.31665983269396758 0 -0.39830358576524327 0.31266849694114901 0 -0.39180528154043992 0.29479027846244049 0 -0.39830358576524327 0.31266849694114901 0 -0.40812109447663159 0.30329838776079099 0 -0.39180528154043992 0.29479027846244049 0 -0.39830358576524327 0.31266849694114901 0 -0.40826549608127172 0.31275764886218971 0 -0.40812109447663159 0.30329838776079099 0 -0.39180528154043992 0.29479027846244049 0 -0.37819889022761238 0.29924868842846319 0 -0.37415321332832258 0.31386652142517069 0 -0.38613629988198012 0.31665983269396758 0 -0.39180528154043992 0.29479027846244049 0 -0.37415321332832258 0.31386652142517069 0 -0.39180528154043992 0.29479027846244049 0 -0.37415321332832258 0.31386652142517069 0 -0.39180528154043992 0.29479027846244049 0 -0.37819889022761238 0.29924868842846319 0 -0.37870614451813112 0.28175948497688769 0 -0.39180528154043992 0.29479027846244049 0 -0.37870614451813112 0.28175948497688769 0 -0.39350738277932218 0.27757861076756318 0 -0.37870614451813112 0.28175948497688769 0 -0.37647038179830861 0.26645711442365799 0 -0.39350738277932218 0.27757861076756318 0 -0.37647038179830861 0.26645711442365799 0 -0.39336972403141229 0.26369738761855421 0 -0.39350738277932218 0.27757861076756318 0 -0.38790582398472923 0.24962922847932231 0 -0.37647038179830861 0.26645711442365799 0 -0.39336972403141229 0.26369738761855421 0 -0.38790582398472923 0.24962922847932231 0 -0.37647038179830861 0.26645711442365799 0 -0.36318679658289171 0.25196182354824148 0 -0.40945734975255721 0.27571403549971041 0 -0.40585136056822319 0.25674789398696107 0 -0.39336972403141229 0.26369738761855421 0 -0.38790582398472923 0.24962922847932231 0 -0.40585136056822319 0.25674789398696107 0 -0.39336972403141229 0.26369738761855421 0 -0.40945734975255721 0.27571403549971041 0 -0.39336972403141229 0.26369738761855421 0 -0.39350738277932218 0.27757861076756318 0 -0.40945734975255721 0.27571403549971041 0 -0.39350738277932218 0.27757861076756318 0 -0.35583614606747688 0.27501819518035592 0 -0.36318679658289171 0.25196182354824148 0 -0.33952374355129727 0.25899057541505788 0 -0.37647038179830861 0.26645711442365799 0 -0.35583614606747688 0.27501819518035592 0 -0.36318679658289171 0.25196182354824148 0 -0.37870614451813112 0.28175948497688769 0 -0.37647038179830861 0.26645711442365799 0 -0.35583614606747688 0.27501819518035592 0 -0.37819889022761238 0.29924868842846319 0 -0.37870614451813112 0.28175948497688769 0 -0.36775571630023218 0.2927315942663431 0 -0.37870614451813112 0.28175948497688769 0 -0.35583614606747688 0.27501819518035592 0 -0.36775571630023218 0.2927315942663431 0 -0.37819889022761238 0.29924868842846319 0 -0.36899777432263853 0.30469822459034263 0 -0.37415321332832258 0.31386652142517069 0 -0.36899777432263853 0.30469822459034263 0 -0.36272901898995358 0.31473918551029578 0 -0.37415321332832258 0.31386652142517069 0 -0.37819889022761238 0.29924868842846319 0 -0.36775571630023218 0.2927315942663431 0 -0.36899777432263853 0.30469822459034263 0 -0.36775571630023218 0.2927315942663431 0 -0.36899777432263853 0.30469822459034263 0 -0.35931620367806588 0.30475084950198522 0 -0.36775571630023218 0.2927315942663431 0 -0.35931620367806588 0.30475084950198522 0 -0.35261706249820868 0.29381533636168528 0 -0.36899777432263853 0.30469822459034263 0 -0.35931620367806588 0.30475084950198522 0 -0.36272901898995358 0.31473918551029578 0 -0.35931620367806588 0.30475084950198522 0 -0.35261706249820868 0.29381533636168528 0 -0.34344143829887858 0.30736403781452232 0 -0.35931620367806588 0.30475084950198522 0 -0.34344143829887858 0.30736403781452232 0 -0.35467675850453528 0.31743756764607989 0 -0.35931620367806588 0.30475084950198522 0 -0.35467675850453528 0.31743756764607989 0 -0.36272901898995358 0.31473918551029578 0 -0.35583614606747688 0.27501819518035592 0 -0.36775571630023218 0.2927315942663431 0 -0.35261706249820868 0.29381533636168528 0 -0.35583614606747688 0.27501819518035592 0 -0.35261706249820868 0.29381533636168528 0 -0.33673580814638959 0.28921200504521999 0 -0.35261706249820868 0.29381533636168528 0 -0.33673580814638959 0.28921200504521999 0 -0.34344143829887858 0.30736403781452232 0 -0.33673580814638959 0.28921200504521999 0 -0.32075162894010661 0.28280614760534989 0 -0.33379142081270979 0.2734424933293601 0 -0.34344143829887858 0.30736403781452232 0 -0.31699951866320542 0.30755322334125379 0 -0.34344143829887858 0.30736403781452232 0 -0.31699951866320542 0.30755322334125379 0 -0.33459812393413729 0.32207732583041709 0 -0.33673580814638959 0.28921200504521999 0 -0.34344143829887858 0.30736403781452232 0 -0.31699951866320542 0.30755322334125379 0 -0.33673580814638959 0.28921200504521999 0 -0.31699951866320542 0.30755322334125379 0 -0.32075162894010661 0.28280614760534989 0 -0.31699951866320542 0.30755322334125379 0 -0.32075162894010661 0.28280614760534989 0 -0.30493521127791462 0.28695781074044469 0 -0.32075162894010661 0.28280614760534989 0 -0.31931282352829687 0.26617321261290411 0 -0.33379142081270979 0.2734424933293601 0 -0.32075162894010661 0.28280614760534989 0 -0.31931282352829687 0.26617321261290411 0 -0.30493521127791462 0.28695781074044469 0 -0.35583614606747688 0.27501819518035592 0 -0.33673580814638959 0.28921200504521999 0 -0.33379142081270979 0.2734424933293601 0 -0.35583614606747688 0.27501819518035592 0 -0.33379142081270979 0.2734424933293601 0 -0.33952374355129727 0.25899057541505788 0 -0.31931282352829687 0.26617321261290411 0 -0.33379142081270979 0.2734424933293601 0 -0.33952374355129727 0.25899057541505788 0 -0.32200613725511351 0.24850726385495631 0 -0.31931282352829687 0.26617321261290411 0 -0.33952374355129727 0.25899057541505788 0 -0.32200613725511351 0.24850726385495631 0 -0.31931282352829687 0.26617321261290411 0 -0.30640548876467488 0.25787073169030861 0 -0.31931282352829687 0.26617321261290411 0 -0.30640548876467488 0.25787073169030861 0 -0.3010630097917536 0.27273037638764702 0 -0.31931282352829687 0.26617321261290411 0 -0.3010630097917536 0.27273037638764702 0 -0.30493521127791462 0.28695781074044469 0 -0.31931282352829687 0.26617321261290411 0 -0.30493521127791462 0.28695781074044469 0 -0.3010630097917536 0.27273037638764702 0 -0.29309283898050847 0.28048055459605348 0 -0.30493521127791462 0.28695781074044469 0 -0.3010630097917536 0.27273037638764702 0 -0.29309283898050847 0.28048055459605348 0 -0.28156868640737281 0.27216957229852412 0 -0.30640548876467488 0.25787073169030861 0 -0.3010630097917536 0.27273037638764702 0 -0.28156868640737281 0.27216957229852412 0 -0.30640548876467488 0.25787073169030861 0 -0.28156868640737281 0.27216957229852412 0 -0.28729818335365731 0.26780124082781631 0 -0.28156868640737281 0.27216957229852412 0 -0.28729818335365731 0.26780124082781631 0 -0.27880962639343299 0.26078065685839158 0 -0.29309283898050847 0.28048055459605348 0 -0.28156868640737281 0.27216957229852412 0 -0.28401529333418091 0.28255904946725641 0 -0.30640548876467488 0.25787073169030861 0 -0.28156868640737281 0.27216957229852412 0 -0.29125564533142001 0.24067530578368901 0 -0.30640548876467488 0.25787073169030861 0 -0.28729818335365731 0.26780124082781631 0 -0.29125564533142001 0.24067530578368901 0 -0.28729818335365731 0.26780124082781631 0 -0.27880962639343299 0.26078065685839158 0 -0.29125564533142001 0.24067530578368901 0 -0.28729818335365731 0.26780124082781631 0 -0.29125564533142001 0.24067530578368901 0 -0.26892213733164849 0.25365425058065472 0 -0.27880962639343299 0.26078065685839158 0 -0.26892213733164849 0.25365425058065472 0 -0.27880962639343299 0.26078065685839158 0 -0.26500347954306669 0.26960291480127369 0 -0.28156868640737281 0.27216957229852412 0 -0.25673188405007052 0.28646841290673969 0 -0.28156868640737281 0.27216957229852412 0 -0.26500347954306669 0.26960291480127369 0 -0.25673188405007052 0.28646841290673969 0 -0.28156868640737281 0.27216957229852412 0 -0.27880962639343299 0.26078065685839158 0 -0.26500347954306669 0.26960291480127369 0 -0.28156868640737281 0.27216957229852412 0 -0.27479408276187339 0.28687287199942368 0 -0.28401529333418091 0.28255904946725641 0 -0.26500347954306669 0.26960291480127369 0 -0.25265925142613249 0.26128234508680298 0 -0.25673188405007052 0.28646841290673969 0 -0.26892213733164849 0.25365425058065472 0 -0.26500347954306669 0.26960291480127369 0 -0.25265925142613249 0.26128234508680298 0 -0.25621817608628389 0.2460965770837312 0 -0.26892213733164849 0.25365425058065472 0 -0.25265925142613249 0.26128234508680298 0 -0.25505401324638421 0.30366623925853881 0 -0.26661761067819428 0.2958317928062858 0 -0.26721257633701828 0.30790943684761429 0 -0.25505401324638421 0.30366623925853881 0 -0.26721257633701828 0.30790943684761429 0 -0.25901197930261888 0.31383205914145501 0 -0.26721257633701828 0.30790943684761429 0 -0.25901197930261888 0.31383205914145501 0 -0.26528599585519008 0.31471464054907522 0 -0.25505401324638421 0.30366623925853881 0 -0.25901197930261888 0.31383205914145501 0 -0.24885494741763489 0.31718848033418301 0 -0.25505401324638421 0.30366623925853881 0 -0.25673188405007052 0.28646841290673969 0 -0.26661761067819428 0.2958317928062858 0 -0.26661761067819428 0.2958317928062858 0 -0.27573637841232751 0.29432500902679382 0 -0.27326763327687947 0.30016750757533939 0 -0.28156868640737281 0.27216957229852412 0 -0.25673188405007052 0.28646841290673969 0 -0.27479408276187339 0.28687287199942368 0 -0.26661761067819428 0.2958317928062858 0 -0.27479408276187339 0.28687287199942368 0 -0.27573637841232751 0.29432500902679382 0 -0.25673188405007052 0.28646841290673969 0 -0.26661761067819428 0.2958317928062858 0 -0.27479408276187339 0.28687287199942368 0 -0.27479408276187339 0.28687287199942368 0 -0.28401529333418091 0.28255904946725641 0 -0.28313816676434478 0.29069510378855717 0 -0.27479408276187339 0.28687287199942368 0 -0.27573637841232751 0.29432500902679382 0 -0.28313816676434478 0.29069510378855717 0 -0.27573637841232751 0.29432500902679382 0 -0.28086439858034518 0.29805776896436298 0 -0.28313816676434478 0.29069510378855717 0 -0.28086439858034518 0.29805776896436298 0 -0.27753065875984329 0.30327410754998058 0 -0.28274061889410179 0.30278083970340541 0 -0.27753065875984329 0.30327410754998058 0 -0.27514776209796898 0.30785266251660498 0 -0.28274061889410179 0.30278083970340541 0 -0.27753065875984329 0.30327410754998058 0 -0.27326763327687947 0.30016750757533939 0 -0.27348155140824082 0.30658246875079598 0 -0.28086439858034518 0.29805776896436298 0 -0.27753065875984329 0.30327410754998058 0 -0.27326763327687947 0.30016750757533939 0 -0.27573637841232751 0.29432500902679382 0 -0.28086439858034518 0.29805776896436298 0 -0.27326763327687947 0.30016750757533939 0 -0.26661761067819428 0.2958317928062858 0 -0.27326763327687947 0.30016750757533939 0 -0.26721257633701828 0.30790943684761429 0 -0.26721257633701828 0.30790943684761429 0 -0.27514776209796898 0.30785266251660498 0 -0.27123720609067609 0.3158529302113221 0 -0.26721257633701828 0.30790943684761429 0 -0.27348155140824082 0.30658246875079598 0 -0.27514776209796898 0.30785266251660498 0 -0.26721257633701828 0.30790943684761429 0 -0.27514776209796898 0.30785266251660498 0 -0.27326763327687947 0.30016750757533939 0 -0.26721257633701828 0.30790943684761429 0 -0.27348155140824082 0.30658246875079598 0 -0.27514776209796898 0.30785266251660498 0 -0.2851872012256097 0.31550597615259851 0 -0.27753065875984329 0.30327410754998058 0 -0.27348155140824082 0.30658246875079598 0 -0.27514776209796898 0.30785266251660498 0 -0.27348155140824082 0.30658246875079598 0 -0.27514776209796898 0.30785266251660498 0 -0.27514776209796898 0.30785266251660498 0 -0.2905575990275322 0.30774240886798532 0 -0.27514776209796898 0.30785266251660498 0 -0.2905575990275322 0.30774240886798532 0 -0.2851872012256097 0.31550597615259851 0 -0.2896026760048197 0.2969772506180926 0 -0.2905575990275322 0.30774240886798532 0 -0.30493521127791462 0.28695781074044469 0 -0.27514776209796898 0.30785266251660498 0 -0.28274061889410179 0.30278083970340541 0 -0.2905575990275322 0.30774240886798532 0 -0.2905575990275322 0.30774240886798532 0 -0.2851872012256097 0.31550597615259851 0 -0.28274061889410179 0.30278083970340541 0 -0.2896026760048197 0.2969772506180926 0 -0.2905575990275322 0.30774240886798532 0 -0.28086439858034518 0.29805776896436298 0 -0.28274061889410179 0.30278083970340541 0 -0.2896026760048197 0.2969772506180926 0 -0.28401529333418091 0.28255904946725641 0 -0.28313816676434478 0.29069510378855717 0 -0.29095683727235372 0.28753395384208091 0 -0.28086439858034518 0.29805776896436298 0 -0.2896026760048197 0.2969772506180926 0 -0.28313816676434478 0.29069510378855717 0 -0.2896026760048197 0.2969772506180926 0 -0.28313816676434478 0.29069510378855717 0 -0.29095683727235372 0.28753395384208091 0 -0.2896026760048197 0.2969772506180926 0 -0.29095683727235372 0.28753395384208091 0 -0.30493521127791462 0.28695781074044469 0 -0.29309283898050847 0.28048055459605348 0 -0.29095683727235372 0.28753395384208091 0 -0.30493521127791462 0.28695781074044469 0 -0.29309283898050847 0.28048055459605348 0 -0.28401529333418091 0.28255904946725641 0 -0.29095683727235372 0.28753395384208091 0 -0.31699951866320542 0.30755322334125379 0 -0.2905575990275322 0.30774240886798532 0 -0.30563014257680821 0.31779627416788381 0 -0.31699951866320542 0.30755322334125379 0 -0.2905575990275322 0.30774240886798532 0 -0.2905575990275322 0.30774240886798532 0 -0.30493521127791462 0.28695781074044469 0 -0.31699951866320542 0.30755322334125379 0 -0.2905575990275322 0.30774240886798532 0 -0.30493521127791462 0.28695781074044469 0 -0.30538608464820588 0.33090408634228141 0 -0.28942706780696309 0.31873813168532672 0 -0.30563014257680821 0.31779627416788381 0 -0.30538608464820588 0.33090408634228141 0 -0.31811651498789978 0.32488887006413791 0 -0.30563014257680821 0.31779627416788381 0 -0.30538608464820588 0.33090408634228141 0 -0.2937791937433501 0.31637108240395312 0 -0.30538608464820588 0.33090408634228141 0 -0.3017933608705089 0.344447887165377 0 -0.32134510148944728 0.34307004099923799 0 -0.30538608464820588 0.33090408634228141 0 -0.29093013722955491 0.33661105704622479 0 -0.3017933608705089 0.344447887165377 0 -0.30538608464820588 0.33090408634228141 0 -0.29093013722955491 0.33661105704622479 0 -0.2885751077852815 0.32830696870384862 0 -0.29093013722955491 0.33661105704622479 0 -0.28224162025157051 0.34582573333151501 0 -0.3017933608705089 0.344447887165377 0 -0.2885751077852815 0.32830696870384862 0 -0.28146834572906437 0.33465123959114113 0 -0.2790455690922089 0.3243844570517187 0 -0.29093013722955491 0.33661105704622479 0 -0.2885751077852815 0.32830696870384862 0 -0.28146834572906437 0.33465123959114113 0 -0.29093013722955491 0.33661105704622479 0 -0.28146834572906437 0.33465123959114113 0 -0.28224162025157051 0.34582573333151501 0 -0.30538608464820588 0.33090408634228141 0 -0.2885751077852815 0.32830696870384862 0 -0.28942706780696309 0.31873813168532672 0 -0.30538608464820588 0.33090408634228141 0 -0.28942706780696309 0.31873813168532672 0 -0.2937791937433501 0.31637108240395312 0 -0.28942706780696309 0.31873813168532672 0 -0.2937791937433501 0.31637108240395312 0 -0.2851872012256097 0.31550597615259851 0 -0.2905575990275322 0.30774240886798532 0 -0.30563014257680821 0.31779627416788381 0 -0.2937791937433501 0.31637108240395312 0 -0.2905575990275322 0.30774240886798532 0 -0.2937791937433501 0.31637108240395312 0 -0.2851872012256097 0.31550597615259851 0 -0.28942706780696309 0.31873813168532672 0 -0.2937791937433501 0.31637108240395312 0 -0.2885751077852815 0.32830696870384862 0 -0.28942706780696309 0.31873813168532672 0 -0.2790455690922089 0.3243844570517187 0 -0.28942706780696309 0.31873813168532672 0 -0.2790455690922089 0.3243844570517187 0 -0.2851872012256097 0.31550597615259851 0 -0.2790455690922089 0.3243844570517187 0 -0.28942706780696309 0.31873813168532672 0 -0.2851872012256097 0.31550597615259851 0 -0.2790455690922089 0.3243844570517187 0 -0.28942706780696309 0.31873813168532672 0 -0.2851872012256097 0.31550597615259851 0 -0.27514776209796898 0.30785266251660498 0 -0.2851872012256097 0.31550597615259851 0 -0.27699557949655113 0.31645322234696882 0 -0.2851872012256097 0.31550597615259851 0 -0.27699557949655113 0.31645322234696882 0 -0.2790455690922089 0.3243844570517187 0 -0.27514776209796898 0.30785266251660498 0 -0.27699557949655113 0.31645322234696882 0 -0.27123720609067609 0.3158529302113221 0 -0.27001263578126711 0.32263717043347712 0 -0.2790455690922089 0.3243844570517187 0 -0.25910260253645218 0.33523110656146687 0 -0.26721257633701828 0.30790943684761429 0 -0.27123720609067609 0.3158529302113221 0 -0.26528599585519008 0.31471464054907522 0 -0.27699557949655113 0.31645322234696882 0 -0.27123720609067609 0.3158529302113221 0 -0.27001263578126711 0.32263717043347712 0 -0.27123720609067609 0.3158529302113221 0 -0.26528599585519008 0.31471464054907522 0 -0.26368222169044719 0.32126413599590953 0 -0.27123720609067609 0.3158529302113221 0 -0.27001263578126711 0.32263717043347712 0 -0.26368222169044719 0.32126413599590953 0 -0.27699557949655113 0.31645322234696882 0 -0.27001263578126711 0.32263717043347712 0 -0.2790455690922089 0.3243844570517187 0 -0.2790455690922089 0.3243844570517187 0 -0.25910260253645218 0.33523110656146687 0 -0.2790455690922089 0.3243844570517187 0 -0.26824012707650141 0.34000504592112352 0 -0.28146834572906437 0.33465123959114113 0 -0.2790455690922089 0.3243844570517187 0 -0.26824012707650141 0.34000504592112352 0 -0.2790455690922089 0.3243844570517187 0 -0.26824012707650141 0.34000504592112352 0 -0.25910260253645218 0.33523110656146687 0 -0.28146834572906437 0.33465123959114113 0 -0.26824012707650141 0.34000504592112352 0 -0.28224162025157051 0.34582573333151501 0 -0.25910260253645218 0.33523110656146687 0 -0.25407523553642281 0.3497448278934856 0 -0.23915963598069589 0.34607775607121571 0 -0.25910260253645218 0.33523110656146687 0 -0.25407523553642281 0.3497448278934856 0 -0.26309588156361569 0.34576168367824162 0 -0.26824012707650141 0.34000504592112352 0 -0.25910260253645218 0.33523110656146687 0 -0.26309588156361569 0.34576168367824162 0 -0.25910260253645218 0.33523110656146687 0 -0.25451497659773847 0.32559442806853028 0 -0.24843663428782739 0.33758714710907461 0 -0.25451497659773847 0.32559442806853028 0 -0.25901197930261888 0.31383205914145501 0 -0.24885494741763489 0.31718848033418301 0 -0.25451497659773847 0.32559442806853028 0 -0.25901197930261888 0.31383205914145501 0 -0.26368222169044719 0.32126413599590953 0 -0.25901197930261888 0.31383205914145501 0 -0.26528599585519008 0.31471464054907522 0 -0.26368222169044719 0.32126413599590953 0 -0.27001263578126711 0.32263717043347712 0 -0.25910260253645218 0.33523110656146687 0 -0.26368222169044719 0.32126413599590953 0 -0.25910260253645218 0.33523110656146687 0 -0.25451497659773847 0.32559442806853028 0 -0.26368222169044719 0.32126413599590953 0 -0.26470209097228098 0.37140351159401941 0 -0.25562758441007077 0.36194187249828802 0 -0.266880351992417 0.3582272519812631 0 -0.26470209097228098 0.37140351159401941 0 -0.25213085833087667 0.37355178257669552 0 -0.25562758441007077 0.36194187249828802 0 -0.25213085833087667 0.37355178257669552 0 -0.25562758441007077 0.36194187249828802 0 -0.24329038266145239 0.36134909741814653 0 -0.25562758441007077 0.36194187249828802 0 -0.25407523553642281 0.3497448278934856 0 -0.24329038266145239 0.36134909741814653 0 -0.25407523553642281 0.3497448278934856 0 -0.26309588156361569 0.34576168367824162 0 -0.266880351992417 0.3582272519812631 0 -0.25562758441007077 0.36194187249828802 0 -0.25407523553642281 0.3497448278934856 0 -0.266880351992417 0.3582272519812631 0 -0.266880351992417 0.3582272519812631 0 -0.27640009279511962 0.35155878343443242 0 -0.28837447244510311 0.36628710188532532 0 -0.26309588156361569 0.34576168367824162 0 -0.266880351992417 0.3582272519812631 0 -0.27640009279511962 0.35155878343443242 0 -0.26824012707650141 0.34000504592112352 0 -0.26309588156361569 0.34576168367824162 0 -0.27640009279511962 0.35155878343443242 0 -0.26824012707650141 0.34000504592112352 0 -0.27640009279511962 0.35155878343443242 0 -0.28224162025157051 0.34582573333151501 0 -0.266880351992417 0.3582272519812631 0 -0.28837447244510311 0.36628710188532532 0 -0.266880351992417 0.3582272519812631 0 -0.28837447244510311 0.36628710188532532 0 -0.27747916353329311 0.37529003384729942 0 -0.26470209097228098 0.37140351159401941 0 -0.266880351992417 0.3582272519812631 0 -0.27747916353329311 0.37529003384729942 0 -0.28837447244510311 0.36628710188532532 0 -0.28714059247178902 0.37543321948423419 0 -0.27747916353329311 0.37529003384729942 0 -0.28837447244510311 0.36628710188532532 0 -0.28956810344150979 0.35324588380912608 0 -0.30292150033679799 0.36018321991941088 0 -0.28837447244510311 0.36628710188532532 0 -0.29874239202075642 0.37528196759933868 0 -0.28714059247178902 0.37543321948423419 0 -0.28224162025157051 0.34582573333151501 0 -0.3017933608705089 0.344447887165377 0 -0.28224162025157051 0.34582573333151501 0 -0.28956810344150979 0.35324588380912608 0 -0.3017933608705089 0.344447887165377 0 -0.27640009279511962 0.35155878343443242 0 -0.28224162025157051 0.34582573333151501 0 -0.28956810344150979 0.35324588380912608 0 -0.27640009279511962 0.35155878343443242 0 -0.28837447244510311 0.36628710188532532 0 -0.28956810344150979 0.35324588380912608 0 -0.3017933608705089 0.344447887165377 0 -0.31193410579265052 0.3536039280541286 0 -0.30292150033679799 0.36018321991941088 0 -0.28956810344150979 0.35324588380912608 0 -0.3017933608705089 0.344447887165377 0 -0.30292150033679799 0.36018321991941088 0 -0.3017933608705089 0.344447887165377 0 -0.32134510148944728 0.34307004099923799 0 -0.3017933608705089 0.344447887165377 0 -0.31193410579265052 0.3536039280541286 0 -0.32134510148944728 0.34307004099923799 0 -0.31193410579265052 0.3536039280541286 0 -0.30292150033679799 0.36018321991941088 0 -0.31340485972314069 0.36375751913665871 0 -0.28837447244510311 0.36628710188532532 0 -0.30292150033679799 0.36018321991941088 0 -0.30986859289778912 0.37434695178938759 0 -0.28837447244510311 0.36628710188532532 0 -0.30986859289778912 0.37434695178938759 0 -0.28837447244510311 0.36628710188532532 0 -0.30986859289778912 0.37434695178938759 0 -0.29874239202075642 0.37528196759933868 0 -0.30292150033679799 0.36018321991941088 0 -0.30986859289778912 0.37434695178938759 0 -0.31340485972314069 0.36375751913665871 0 -0.30986859289778912 0.37434695178938759 0 -0.31340485972314069 0.36375751913665871 0 -0.32167824364597858 0.36970754211250728 0 -0.31340485972314069 0.36375751913665871 0 -0.32243327870136801 0.35950699838777223 0 -0.32167824364597858 0.36970754211250728 0 -0.32243327870136801 0.35950699838777223 0 -0.32167824364597858 0.36970754211250728 0 -0.33132177355711989 0.36851943955526861 0 -0.32167824364597858 0.36970754211250728 0 -0.33132177355711989 0.36851943955526861 0 -0.33136271335047512 0.38240680169344993 0 -0.32243327870136801 0.35950699838777223 0 -0.33132177355711989 0.36851943955526861 0 -0.33989838930305449 0.35721367281084643 0 -0.33132177355711989 0.36851943955526861 0 -0.34304766554360439 0.37232322735168022 0 -0.33136271335047512 0.38240680169344993 0 -0.33132177355711989 0.36851943955526861 0 -0.34304766554360439 0.37232322735168022 0 -0.33989838930305449 0.35721367281084643 0 -0.33989838930305449 0.35721367281084643 0 -0.32134510148944728 0.34307004099923799 0 -0.33989838930305449 0.35721367281084643 0 -0.32134510148944728 0.34307004099923799 0 -0.3500233487104954 0.34104903357308669 0 -0.32243327870136801 0.35950699838777223 0 -0.33989838930305449 0.35721367281084643 0 -0.32134510148944728 0.34307004099923799 0 -0.31193410579265052 0.3536039280541286 0 -0.32243327870136801 0.35950699838777223 0 -0.32134510148944728 0.34307004099923799 0 -0.31193410579265052 0.3536039280541286 0 -0.31340485972314069 0.36375751913665871 0 -0.32243327870136801 0.35950699838777223 0 -0.30538608464820588 0.33090408634228141 0 -0.32134510148944728 0.34307004099923799 0 -0.30538608464820588 0.33090408634228141 0 -0.32134510148944728 0.34307004099923799 0 -0.31811651498789978 0.32488887006413791 0 -0.32134510148944728 0.34307004099923799 0 -0.31811651498789978 0.32488887006413791 0 -0.33459812393413729 0.32207732583041709 0 -0.31699951866320542 0.30755322334125379 0 -0.30563014257680821 0.31779627416788381 0 -0.31811651498789978 0.32488887006413791 0 -0.31699951866320542 0.30755322334125379 0 -0.31811651498789978 0.32488887006413791 0 -0.33459812393413729 0.32207732583041709 0 -0.32134510148944728 0.34307004099923799 0 -0.34342889555096417 0.33131534648734451 0 -0.3500233487104954 0.34104903357308669 0 -0.32134510148944728 0.34307004099923799 0 -0.33459812393413729 0.32207732583041709 0 -0.34342889555096417 0.33131534648734451 0 -0.32134510148944728 0.34307004099923799 0 -0.3500233487104954 0.34104903357308669 0 -0.3500233487104954 0.34104903357308669 0 -0.35650114511620551 0.33294276438790088 0 -0.36794029410566942 0.33226259727897972 0 -0.34342889555096417 0.33131534648734451 0 -0.3500233487104954 0.34104903357308669 0 -0.35650114511620551 0.33294276438790088 0 -0.33459812393413729 0.32207732583041709 0 -0.34342889555096417 0.33131534648734451 0 -0.35467675850453528 0.31743756764607989 0 -0.34344143829887858 0.30736403781452232 0 -0.33459812393413729 0.32207732583041709 0 -0.35467675850453528 0.31743756764607989 0 -0.35650114511620551 0.33294276438790088 0 -0.35467675850453528 0.31743756764607989 0 -0.36272901898995358 0.31473918551029578 0 -0.34342889555096417 0.33131534648734451 0 -0.35650114511620551 0.33294276438790088 0 -0.35467675850453528 0.31743756764607989 0 -0.35650114511620551 0.33294276438790088 0 -0.36272901898995358 0.31473918551029578 0 -0.37415321332832258 0.31386652142517069 0 -0.35650114511620551 0.33294276438790088 0 -0.37415321332832258 0.31386652142517069 0 -0.35650114511620551 0.33294276438790088 0 -0.37442838800096029 0.32044424157556423 0 -0.37415321332832258 0.31386652142517069 0 -0.37816355277066899 0.32985684687273281 0 -0.37442838800096029 0.32044424157556423 0 -0.36794029410566942 0.33226259727897972 0 -0.3787015959315434 0.33902802614693439 0 -0.3500233487104954 0.34104903357308669 0 -0.36794029410566942 0.33226259727897972 0 -0.35650114511620551 0.33294276438790088 0 -0.37442838800096029 0.32044424157556423 0 -0.36794029410566942 0.33226259727897972 0 -0.3787015959315434 0.33902802614693439 0 -0.3500233487104954 0.34104903357308669 0 -0.3787015959315434 0.33902802614693439 0 -0.37816355277066899 0.32985684687273281 0 -0.36794029410566942 0.33226259727897972 0 -0.3787015959315434 0.33902802614693439 0 -0.3500233487104954 0.34104903357308669 0 -0.36501658974902518 0.35367198233662939 0 -0.37823932191431281 0.35548757599615399 0 -0.3787015959315434 0.33902802614693439 0 -0.36501658974902518 0.35367198233662939 0 -0.37823932191431281 0.35548757599615399 0 -0.36501658974902518 0.35367198233662939 0 -0.37024808467873749 0.36543132639488701 0 -0.36501658974902518 0.35367198233662939 0 -0.37024808467873749 0.36543132639488701 0 -0.35845167711666143 0.37135730462245548 0 -0.37949655700884349 0.37153259571527891 0 -0.37024808467873749 0.36543132639488701 0 -0.36758280318953013 0.37627165255961892 0 -0.37024808467873749 0.36543132639488701 0 -0.35845167711666143 0.37135730462245548 0 -0.36758280318953013 0.37627165255961892 0 -0.36501658974902518 0.35367198233662939 0 -0.35845167711666143 0.37135730462245548 0 -0.35334750121980912 0.35582299833575448 0 -0.34304766554360439 0.37232322735168022 0 -0.33989838930305449 0.35721367281084643 0 -0.35845167711666143 0.37135730462245548 0 -0.33989838930305449 0.35721367281084643 0 -0.35845167711666143 0.37135730462245548 0 -0.35334750121980912 0.35582299833575448 0 -0.33989838930305449 0.35721367281084643 0 -0.35845167711666143 0.37135730462245548 0 -0.33989838930305449 0.35721367281084643 0 -0.3500233487104954 0.34104903357308669 0 -0.35334750121980912 0.35582299833575448 0 -0.3500233487104954 0.34104903357308669 0 -0.36501658974902518 0.35367198233662939 0 -0.35334750121980912 0.35582299833575448 0 -0.35285683380316007 0.39046665159751448 0 -0.36027192889352422 0.40897543894708011 0 -0.34270265381785459 0.40768080501023862 0 -0.34304766554360439 0.37232322735168022 0 -0.35845167711666143 0.37135730462245548 0 -0.35285683380316007 0.39046665159751448 0 -0.37686086334024771 0.38257038446795849 0 -0.35285683380316007 0.39046665159751448 0 -0.37686086334024771 0.38257038446795849 0 -0.35285683380316007 0.39046665159751448 0 -0.36758280318953013 0.37627165255961892 0 -0.35845167711666143 0.37135730462245548 0 -0.35285683380316007 0.39046665159751448 0 -0.36758280318953013 0.37627165255961892 0 -0.37686086334024771 0.38257038446795849 0 -0.37949655700884349 0.37153259571527891 0 -0.36758280318953013 0.37627165255961892 0 -0.37769092578324193 0.39977892163450779 0 -0.35285683380316007 0.39046665159751448 0 -0.37769092578324193 0.39977892163450779 0 -0.37686086334024771 0.38257038446795849 0 -0.35285683380316007 0.39046665159751448 0 -0.37769092578324193 0.39977892163450779 0 -0.35285683380316007 0.39046665159751448 0 -0.36027192889352422 0.40897543894708011 0 -0.37875820238401509 0.42613984176471847 0 -0.37769092578324193 0.39977892163450779 0 -0.36027192889352422 0.40897543894708011 0 -0.37875820238401509 0.42613984176471847 0 -0.36027192889352422 0.40897543894708011 0 -0.36048507512927641 0.42545129427310208 0 -0.37875820238401509 0.42613984176471847 0 -0.36048507512927641 0.42545129427310208 0 -0.35499138700470761 0.44318849185793469 0 -0.37875820238401509 0.42613984176471847 0 -0.35499138700470761 0.44318849185793469 0 -0.34691622899781399 0.42161541908905831 0 -0.33223168701086447 0.43660936806356893 0 -0.35499138700470761 0.44318849185793469 0 -0.36048507512927641 0.42545129427310208 0 -0.34691622899781399 0.42161541908905831 0 -0.35499138700470761 0.44318849185793469 0 -0.36027192889352422 0.40897543894708011 0 -0.34691622899781399 0.42161541908905831 0 -0.34270265381785459 0.40768080501023862 0 -0.36027192889352422 0.40897543894708011 0 -0.36048507512927641 0.42545129427310208 0 -0.34691622899781399 0.42161541908905831 0 -0.34270265381785459 0.40768080501023862 0 -0.32841174735063311 0.41773478988879181 0 -0.32505653004414181 0.39961172552874852 0 -0.34691622899781399 0.42161541908905831 0 -0.34270265381785459 0.40768080501023862 0 -0.32841174735063311 0.41773478988879181 0 -0.34691622899781399 0.42161541908905831 0 -0.32841174735063311 0.41773478988879181 0 -0.33223168701086447 0.43660936806356893 0 -0.32841174735063311 0.41773478988879181 0 -0.33223168701086447 0.43660936806356893 0 -0.31148998866141242 0.43181261152586448 0 -0.32841174735063311 0.41773478988879181 0 -0.31441363705571701 0.41408607272300291 0 -0.32505653004414181 0.39961172552874852 0 -0.32841174735063311 0.41773478988879181 0 -0.31441363705571701 0.41408607272300291 0 -0.31148998866141242 0.43181261152586448 0 -0.32505653004414181 0.39961172552874852 0 -0.31219235154091651 0.39185403334122892 0 -0.30619500853749271 0.39725637532293351 0 -0.32505653004414181 0.39961172552874852 0 -0.31778050989885959 0.38527433798844479 0 -0.31219235154091651 0.39185403334122892 0 -0.35285683380316007 0.39046665159751448 0 -0.32505653004414181 0.39961172552874852 0 -0.33136271335047512 0.38240680169344993 0 -0.35285683380316007 0.39046665159751448 0 -0.34270265381785459 0.40768080501023862 0 -0.32505653004414181 0.39961172552874852 0 -0.35285683380316007 0.39046665159751448 0 -0.32505653004414181 0.39961172552874852 0 -0.35285683380316007 0.39046665159751448 0 -0.33136271335047512 0.38240680169344993 0 -0.34304766554360439 0.37232322735168022 0 -0.35285683380316007 0.39046665159751448 0 -0.33136271335047512 0.38240680169344993 0 -0.30986859289778912 0.37434695178938759 0 -0.32167824364597858 0.36970754211250728 0 -0.33136271335047512 0.38240680169344993 0 -0.30986859289778912 0.37434695178938759 0 -0.33136271335047512 0.38240680169344993 0 -0.32505653004414181 0.39961172552874852 0 -0.33136271335047512 0.38240680169344993 0 -0.31778050989885959 0.38527433798844479 0 -0.30986859289778912 0.37434695178938759 0 -0.33136271335047512 0.38240680169344993 0 -0.31778050989885959 0.38527433798844479 0 -0.30986859289778912 0.37434695178938759 0 -0.31778050989885959 0.38527433798844479 0 -0.30574515252343709 0.38648905476423068 0 -0.30986859289778912 0.37434695178938759 0 -0.30574515252343709 0.38648905476423068 0 -0.29874239202075642 0.37528196759933868 0 -0.30574515252343709 0.38648905476423068 0 -0.29874239202075642 0.37528196759933868 0 -0.29146244090030071 0.40289140707507309 0 -0.31778050989885959 0.38527433798844479 0 -0.30574515252343709 0.38648905476423068 0 -0.31219235154091651 0.39185403334122892 0 -0.32505653004414181 0.39961172552874852 0 -0.30619500853749271 0.39725637532293351 0 -0.29725622628512233 0.40875679945997928 0 -0.32505653004414181 0.39961172552874852 0 -0.29725622628512233 0.40875679945997928 0 -0.30574515252343709 0.38648905476423068 0 -0.30619500853749271 0.39725637532293351 0 -0.29146244090030071 0.40289140707507309 0 -0.30574515252343709 0.38648905476423068 0 -0.31219235154091651 0.39185403334122892 0 -0.30619500853749271 0.39725637532293351 0 -0.30619500853749271 0.39725637532293351 0 -0.29146244090030071 0.40289140707507309 0 -0.29725622628512233 0.40875679945997928 0 -0.29146244090030071 0.40289140707507309 0 -0.2882496590958894 0.39023794275143442 0 -0.278827461574497 0.39790462172635238 0 -0.28396634188800352 0.38487377460497352 0 -0.2882496590958894 0.39023794275143442 0 -0.278827461574497 0.39790462172635238 0 -0.29146244090030071 0.40289140707507309 0 -0.278827461574497 0.39790462172635238 0 -0.27940045790464241 0.41220012044695847 0 -0.29874239202075642 0.37528196759933868 0 -0.29146244090030071 0.40289140707507309 0 -0.29874239202075642 0.37528196759933868 0 -0.29146244090030071 0.40289140707507309 0 -0.2882496590958894 0.39023794275143442 0 -0.29874239202075642 0.37528196759933868 0 -0.28396634188800352 0.38487377460497352 0 -0.28714059247178902 0.37543321948423419 0 -0.29874239202075642 0.37528196759933868 0 -0.28396634188800352 0.38487377460497352 0 -0.2882496590958894 0.39023794275143442 0 -0.28396634188800352 0.38487377460497352 0 -0.28714059247178902 0.37543321948423419 0 -0.27747916353329311 0.37529003384729942 0 -0.28396634188800352 0.38487377460497352 0 -0.27747916353329311 0.37529003384729942 0 -0.26775424033426293 0.38456849691175748 0 -0.28396634188800352 0.38487377460497352 0 -0.26775424033426293 0.38456849691175748 0 -0.278827461574497 0.39790462172635238 0 -0.26470209097228098 0.37140351159401941 0 -0.27747916353329311 0.37529003384729942 0 -0.26775424033426293 0.38456849691175748 0 -0.278827461574497 0.39790462172635238 0 -0.26298604578065232 0.3973558675440883 0 -0.2677584473194361 0.40899541659639099 0 -0.26775424033426293 0.38456849691175748 0 -0.278827461574497 0.39790462172635238 0 -0.26298604578065232 0.3973558675440883 0 -0.26298604578065232 0.3973558675440883 0 -0.25152819264859128 0.38883491631829081 0 -0.2490618870264745 0.40647588616764979 0 -0.26298604578065232 0.3973558675440883 0 -0.2677584473194361 0.40899541659639099 0 -0.2490618870264745 0.40647588616764979 0 -0.25213085833087667 0.37355178257669552 0 -0.26775424033426293 0.38456849691175748 0 -0.25152819264859128 0.38883491631829081 0 -0.26775424033426293 0.38456849691175748 0 -0.26298604578065232 0.3973558675440883 0 -0.25152819264859128 0.38883491631829081 0 -0.26470209097228098 0.37140351159401941 0 -0.25213085833087667 0.37355178257669552 0 -0.26775424033426293 0.38456849691175748 0 -0.2572482915111563 0.42152384209731297 0 -0.26330490497154813 0.43976041958731371 0 -0.24092688658692171 0.43286849171069308 0 -0.2572482915111563 0.42152384209731297 0 -0.27163392734069919 0.42205675226444578 0 -0.26330490497154813 0.43976041958731371 0 -0.2572482915111563 0.42152384209731297 0 -0.2677584473194361 0.40899541659639099 0 -0.2490618870264745 0.40647588616764979 0 -0.2572482915111563 0.42152384209731297 0 -0.2677584473194361 0.40899541659639099 0 -0.27163392734069919 0.42205675226444578 0 -0.27940045790464241 0.41220012044695847 0 -0.27163392734069919 0.42205675226444578 0 -0.28418248977984512 0.43050084655080739 0 -0.2677584473194361 0.40899541659639099 0 -0.27940045790464241 0.41220012044695847 0 -0.27163392734069919 0.42205675226444578 0 -0.278827461574497 0.39790462172635238 0 -0.2677584473194361 0.40899541659639099 0 -0.27940045790464241 0.41220012044695847 0 -0.27163392734069919 0.42205675226444578 0 -0.28418248977984512 0.43050084655080739 0 -0.26330490497154813 0.43976041958731371 0 -0.28418248977984512 0.43050084655080739 0 -0.29943060469912958 0.42576946359573847 0 -0.28981068171355151 0.44369098771903792 0 -0.29146244090030071 0.40289140707507309 0 -0.28418248977984512 0.43050084655080739 0 -0.29146244090030071 0.40289140707507309 0 -0.27940045790464241 0.41220012044695847 0 -0.28418248977984512 0.43050084655080739 0 -0.28418248977984512 0.43050084655080739 0 -0.29725622628512233 0.40875679945997928 0 -0.29943060469912958 0.42576946359573847 0 -0.29146244090030071 0.40289140707507309 0 -0.28418248977984512 0.43050084655080739 0 -0.29725622628512233 0.40875679945997928 0 -0.31441363705571701 0.41408607272300291 0 -0.32505653004414181 0.39961172552874852 0 -0.29725622628512233 0.40875679945997928 0 -0.31441363705571701 0.41408607272300291 0 -0.29725622628512233 0.40875679945997928 0 -0.29943060469912958 0.42576946359573847 0 -0.31441363705571701 0.41408607272300291 0 -0.29943060469912958 0.42576946359573847 0 -0.31148998866141242 0.43181261152586448 0 -0.29943060469912958 0.42576946359573847 0 -0.31148998866141242 0.43181261152586448 0 -0.28981068171355151 0.44369098771903792 0 -0.31148998866141242 0.43181261152586448 0 -0.30120616623050861 0.45239726712555162 0 -0.31718999816658727 0.45065056632578487 0 -0.31148998866141242 0.43181261152586448 0 -0.30120616623050861 0.45239726712555162 0 -0.31148998866141242 0.43181261152586448 0 -0.30120616623050861 0.45239726712555162 0 -0.28981068171355151 0.44369098771903792 0 -0.30120616623050861 0.45239726712555162 0 -0.29092234379960469 0.47298192272523881 0 -0.30745775624609217 0.47728579204436761 0 -0.30120616623050861 0.45239726712555162 0 -0.30745775624609217 0.47728579204436761 0 -0.31718999816658727 0.45065056632578487 0 -0.2852957606144535 0.45730244818253718 0 -0.28186649269177161 0.46567885888970018 0 -0.29092234379960469 0.47298192272523881 0 -0.30120616623050861 0.45239726712555162 0 -0.29092234379960469 0.47298192272523881 0 -0.30120616623050861 0.45239726712555162 0 -0.2852957606144535 0.45730244818253718 0 -0.29092234379960469 0.47298192272523881 0 -0.2852957606144535 0.45730244818253718 0 -0.28186649269177161 0.46567885888970018 0 -0.27690253865938408 0.45811028602654041 0 -0.28418248977984512 0.43050084655080739 0 -0.28981068171355151 0.44369098771903792 0 -0.27690253865938408 0.45811028602654041 0 -0.30120616623050861 0.45239726712555162 0 -0.2852957606144535 0.45730244818253718 0 -0.28981068171355151 0.44369098771903792 0 -0.2852957606144535 0.45730244818253718 0 -0.28981068171355151 0.44369098771903792 0 -0.27690253865938408 0.45811028602654041 0 -0.28418248977984512 0.43050084655080739 0 -0.27690253865938408 0.45811028602654041 0 -0.28418248977984512 0.43050084655080739 0 -0.27690253865938408 0.45811028602654041 0 -0.26330490497154813 0.43976041958731371 0 -0.2852957606144535 0.45730244818253718 0 -0.27690253865938408 0.45811028602654041 0 -0.28186649269177161 0.46567885888970018 0 -0.27690253865938408 0.45811028602654041 0 -0.27835780074514338 0.47366975871288508 0 -0.27690253865938408 0.45811028602654041 0 -0.25345677561811758 0.46036691342989022 0 -0.27690253865938408 0.45811028602654041 0 -0.25345677561811758 0.46036691342989022 0 -0.26590293397843329 0.47057525233348851 0 -0.25345677561811758 0.46036691342989022 0 -0.25315469521642581 0.4750486889203015 0 -0.26590293397843329 0.47057525233348851 0 -0.25345677561811758 0.46036691342989022 0 -0.26330490497154813 0.43976041958731371 0 -0.24129970279445639 0.44943490890582899 0 -0.27690253865938408 0.45811028602654041 0 -0.25345677561811758 0.46036691342989022 0 -0.26330490497154813 0.43976041958731371 0 -0.26169037092037989 0.4910190989046625 0 -0.25397816739109252 0.5 0 -0.27113802145370669 0.49283981386083792 0 -0.26169037092037989 0.4910190989046625 0 -0.25474868654415728 0.48692894813519849 0 -0.26689660829256312 0.48430763362261348 0 -0.26169037092037989 0.4910190989046625 0 -0.25397816739109252 0.5 0 -0.25474868654415728 0.48692894813519849 0 -0.25315469521642581 0.4750486889203015 0 -0.26689660829256312 0.48430763362261348 0 -0.25315469521642581 0.4750486889203015 0 -0.26689660829256312 0.48430763362261348 0 -0.26590293397843329 0.47057525233348851 0 -0.25474868654415728 0.48692894813519849 0 -0.25315469521642581 0.4750486889203015 0 -0.26689660829256312 0.48430763362261348 0 -0.27690253865938408 0.45811028602654041 0 -0.26590293397843329 0.47057525233348851 0 -0.26946370716205509 0.4860372782758946 0 -0.27690253865938408 0.45811028602654041 0 -0.26946370716205509 0.4860372782758946 0 -0.27690253865938408 0.45811028602654041 0 -0.27835780074514338 0.47366975871288508 0 -0.26946370716205509 0.4860372782758946 0 -0.26689660829256312 0.48430763362261348 0 -0.26590293397843329 0.47057525233348851 0 -0.26946370716205509 0.4860372782758946 0 -0.28186649269177161 0.46567885888970018 0 -0.27835780074514338 0.47366975871288508 0 -0.28298297564177088 0.4743823417855309 0 -0.27835780074514338 0.47366975871288508 0 -0.2798907507987049 0.48286402398659151 0 -0.28298297564177088 0.4743823417855309 0 -0.27835780074514338 0.47366975871288508 0 -0.2798907507987049 0.48286402398659151 0 -0.26946370716205509 0.4860372782758946 0 -0.26946370716205509 0.4860372782758946 0 -0.28063852136870049 0.49356657832492562 0 -0.26946370716205509 0.4860372782758946 0 -0.27113802145370669 0.49283981386083792 0 -0.28063852136870049 0.49356657832492562 0 -0.2798907507987049 0.48286402398659151 0 -0.26946370716205509 0.4860372782758946 0 -0.28063852136870049 0.49356657832492562 0 -0.25397816739109252 0.5 0 -0.27113802145370669 0.49283981386083792 0 -0.27742446875513049 0.50000000000000155 0 -0.26689660829256312 0.48430763362261348 0 -0.26946370716205509 0.4860372782758946 0 -0.27113802145370669 0.49283981386083792 0 -0.26169037092037989 0.4910190989046625 0 -0.26689660829256312 0.48430763362261348 0 -0.27113802145370669 0.49283981386083792 0 -0.26689660829256312 0.48430763362261348 0 -0.26946370716205509 0.4860372782758946 0 -0.27113802145370669 0.49283981386083792 0 -0.28063852136870049 0.49356657832492562 0 -0.27742446875513049 0.50000000000000155 0 -0.28063852136870049 0.49356657832492562 0 -0.27742446875513049 0.50000000000000155 0 -0.28063852136870049 0.49356657832492562 0 -0.27742446875513049 0.50000000000000155 0 -0.29018685806186229 0.50000000000000122 0 -0.28063852136870049 0.49356657832492562 0 -0.29018685806186229 0.50000000000000122 0 -0.29092234379960469 0.47298192272523881 0 -0.28063852136870049 0.49356657832492562 0 -0.29018685806186229 0.50000000000000122 0 -0.29018685806186229 0.50000000000000122 0 -0.29092234379960469 0.47298192272523881 0 -0.30745775624609217 0.47728579204436761 0 -0.28063852136870049 0.49356657832492562 0 -0.29092234379960469 0.47298192272523881 0 -0.2798907507987049 0.48286402398659151 0 -0.28063852136870049 0.49356657832492562 0 -0.29092234379960469 0.47298192272523881 0 -0.28186649269177161 0.46567885888970018 0 -0.28298297564177088 0.4743823417855309 0 -0.29092234379960469 0.47298192272523881 0 -0.2798907507987049 0.48286402398659151 0 -0.28298297564177088 0.4743823417855309 0 -0.29092234379960469 0.47298192272523881 0 -0.29018685806186229 0.50000000000000122 0 -0.30745775624609217 0.47728579204436761 0 -0.3640375775585698 0.5 0 -0.30745775624609217 0.47728579204436761 0 -0.33122457162539992 0.46023714195115112 0 -0.3640375775585698 0.5 0 -0.30745775624609217 0.47728579204436761 0 -0.33122457162539992 0.46023714195115112 0 -0.30745775624609217 0.47728579204436761 0 -0.31718999816658727 0.45065056632578487 0 -0.33122457162539992 0.46023714195115112 0 -0.33223168701086447 0.43660936806356893 0 -0.31148998866141242 0.43181261152586448 0 -0.31718999816658727 0.45065056632578487 0 -0.33223168701086447 0.43660936806356893 0 -0.31718999816658727 0.45065056632578487 0 -0.33122457162539992 0.46023714195115112 0 -0.33122457162539992 0.46023714195115112 0 -0.35499138700470761 0.44318849185793469 0 -0.33223168701086447 0.43660936806356893 0 -0.33122457162539992 0.46023714195115112 0 -0.35499138700470761 0.44318849185793469 0 -0.33122457162539992 0.46023714195115112 0 -0.35376164566254242 0.46494380824906301 0 -0.35499138700470761 0.44318849185793469 0 -0.38249991962136642 0.44345487931465249 0 -0.35499138700470761 0.44318849185793469 0 -0.37103467036260362 0.45695891695805302 0 -0.38249991962136642 0.44345487931465249 0 -0.37875820238401509 0.42613984176471847 0 -0.35499138700470761 0.44318849185793469 0 -0.35376164566254242 0.46494380824906301 0 -0.35499138700470761 0.44318849185793469 0 -0.37103467036260362 0.45695891695805302 0 -0.35376164566254242 0.46494380824906301 0 -0.37103467036260362 0.45695891695805302 0 -0.36943712044780219 0.47475959506207249 0 -0.33122457162539992 0.46023714195115112 0 -0.35376164566254242 0.46494380824906301 0 -0.3640375775585698 0.5 0 -0.38891458820749281 0.47713565504117422 0 -0.36943712044780219 0.47475959506207249 0 -0.3640375775585698 0.5 0 -0.35376164566254242 0.46494380824906301 0 -0.36943712044780219 0.47475959506207249 0 -0.3640375775585698 0.5 0 -0.1410608215807003 0.47118489318428192 0 -0.1506389915883973 0.47451242435581331 0 -0.15779819732271971 0.4695739402503486 0 -0.1410608215807003 0.47118489318428192 0 -0.15779819732271971 0.4695739402503486 0 -0.1455325599989582 0.47665965757352818 0 -0.14983465253105441 0.48099067897208148 0 -0.1405957742956809 0.47995063378193648 0 -0.14983465253105441 0.48099067897208148 0 -0.14427471349546869 0.48965289008050411 0 -0.1405957742956809 0.47995063378193648 0 -0.1455325599989582 0.47665965757352818 0 -0.1410608215807003 0.47118489318428192 0 -0.1506389915883973 0.47451242435581331 0 -0.1455325599989582 0.47665965757352818 0 -0.1410608215807003 0.47118489318428192 0 -0.1405957742956809 0.47995063378193648 0 -0.1506389915883973 0.47451242435581331 0 -0.15682389603308189 0.47748605108520858 0 -0.15779819732271971 0.4695739402503486 0 -0.1506389915883973 0.47451242435581331 0 -0.14983465253105441 0.48099067897208148 0 -0.15682389603308189 0.47748605108520858 0 -0.1455325599989582 0.47665965757352818 0 -0.1506389915883973 0.47451242435581331 0 -0.14983465253105441 0.48099067897208148 0 -0.14983465253105441 0.48099067897208148 0 -0.1558122254133027 0.48316327461493752 0 -0.15682389603308189 0.47748605108520858 0 -0.14983465253105441 0.48099067897208148 0 -0.1558122254133027 0.48316327461493752 0 -0.15140604362779489 0.486968875654338 0 -0.1558122254133027 0.48316327461493752 0 -0.15140604362779489 0.486968875654338 0 -0.15545271364459581 0.49281799385228547 0 -0.14983465253105441 0.48099067897208148 0 -0.15140604362779489 0.486968875654338 0 -0.14427471349546869 0.48965289008050411 0 -0.15140604362779489 0.486968875654338 0 -0.15545271364459581 0.49281799385228547 0 -0.14427471349546869 0.48965289008050411 0 -0.15453849507163009 0.5 0 -0.14427471349546869 0.48965289008050411 0 -0.12543772684428189 0.5 0 -0.15453849507163009 0.5 0 -0.15545271364459581 0.49281799385228547 0 -0.14427471349546869 0.48965289008050411 0 -0.14427471349546869 0.48965289008050411 0 -0.12543772684428189 0.5 0 -0.13178312884530541 0.48627570230508688 0 -0.14427471349546869 0.48965289008050411 0 -0.13178312884530541 0.48627570230508688 0 -0.1405957742956809 0.47995063378193648 0 -0.13178312884530541 0.48627570230508688 0 -0.1317912103042716 0.47600940211286807 0 -0.11642361318749669 0.48420448820259387 0 -0.1317912103042716 0.47600940211286807 0 -0.14083201439797821 0.46516349611765162 0 -0.12052644250191399 0.4682622397032008 0 -0.13178312884530541 0.48627570230508688 0 -0.1405957742956809 0.47995063378193648 0 -0.1317912103042716 0.47600940211286807 0 -0.1410608215807003 0.47118489318428192 0 -0.1405957742956809 0.47995063378193648 0 -0.1317912103042716 0.47600940211286807 0 -0.1410608215807003 0.47118489318428192 0 -0.1317912103042716 0.47600940211286807 0 -0.14083201439797821 0.46516349611765162 0 -0.12618187852634369 0.45882241462805679 0 -0.14083201439797821 0.46516349611765162 0 -0.12052644250191399 0.4682622397032008 0 -0.14083201439797821 0.46516349611765162 0 -0.12052644250191399 0.4682622397032008 0 -0.12618187852634369 0.45882241462805679 0 -0.13621980461969219 0.45775649261309698 0 -0.13482926781972801 0.45201676164804122 0 -0.13621980461969219 0.45775649261309698 0 -0.13482926781972801 0.45201676164804122 0 -0.1430360577347192 0.45502329805863873 0 -0.13621980461969219 0.45775649261309698 0 -0.14083201439797821 0.46516349611765162 0 -0.1430360577347192 0.45502329805863873 0 -0.12618187852634369 0.45882241462805679 0 -0.13621980461969219 0.45775649261309698 0 -0.14083201439797821 0.46516349611765162 0 -0.12618187852634369 0.45882241462805679 0 -0.13482926781972801 0.45201676164804122 0 -0.1248743097581413 0.44162978393037222 0 -0.13482926781972801 0.45201676164804122 0 -0.13973201497409549 0.44099892737807922 0 -0.1415241139788854 0.4488412036993919 0 -0.13482926781972801 0.45201676164804122 0 -0.1415241139788854 0.4488412036993919 0 -0.1430360577347192 0.45502329805863873 0 -0.13973201497409549 0.44099892737807922 0 -0.13491063247587859 0.43073185275000708 0 -0.1248743097581413 0.44162978393037222 0 -0.13482926781972801 0.45201676164804122 0 -0.13973201497409549 0.44099892737807922 0 -0.1248743097581413 0.44162978393037222 0 -0.13973201497409549 0.44099892737807922 0 -0.14849911538699881 0.44732582771280882 0 -0.14949031039727409 0.43903968606904947 0 -0.14849911538699881 0.44732582771280882 0 -0.1430360577347192 0.45502329805863873 0 -0.15230793746503779 0.45507497120342549 0 -0.13973201497409549 0.44099892737807922 0 -0.1415241139788854 0.4488412036993919 0 -0.14849911538699881 0.44732582771280882 0 -0.1415241139788854 0.4488412036993919 0 -0.14849911538699881 0.44732582771280882 0 -0.1430360577347192 0.45502329805863873 0 -0.14849911538699881 0.44732582771280882 0 -0.15230793746503779 0.45507497120342549 0 -0.15767924869329919 0.44641741059368378 0 -0.14949031039727409 0.43903968606904947 0 -0.15767924869329919 0.44641741059368378 0 -0.15912083936695831 0.4347249498771325 0 -0.14849911538699881 0.44732582771280882 0 -0.14949031039727409 0.43903968606904947 0 -0.15767924869329919 0.44641741059368378 0 -0.14083201439797821 0.46516349611765162 0 -0.16113758629404229 0.46206475253210239 0 -0.15779819732271971 0.4695739402503486 0 -0.1410608215807003 0.47118489318428192 0 -0.14083201439797821 0.46516349611765162 0 -0.15779819732271971 0.4695739402503486 0 -0.14083201439797821 0.46516349611765162 0 -0.16113758629404229 0.46206475253210239 0 -0.14083201439797821 0.46516349611765162 0 -0.15230793746503779 0.45507497120342549 0 -0.16113758629404229 0.46206475253210239 0 -0.14083201439797821 0.46516349611765162 0 -0.1430360577347192 0.45502329805863873 0 -0.15230793746503779 0.45507497120342549 0 -0.16113758629404229 0.46206475253210239 0 -0.16940388650370539 0.44815354093755089 0 -0.18144315819010631 0.45896600894655282 0 -0.16113758629404229 0.46206475253210239 0 -0.18144315819010631 0.45896600894655282 0 -0.16113758629404229 0.46206475253210239 0 -0.17453557306473899 0.46796298731641428 0 -0.15779819732271971 0.4695739402503486 0 -0.15230793746503779 0.45507497120342549 0 -0.16113758629404229 0.46206475253210239 0 -0.16013216473902109 0.45292766881669072 0 -0.16113758629404229 0.46206475253210239 0 -0.16013216473902109 0.45292766881669072 0 -0.16940388650370539 0.44815354093755089 0 -0.15767924869329919 0.44641741059368378 0 -0.16940388650370539 0.44815354093755089 0 -0.15912083936695831 0.4347249498771325 0 -0.15230793746503779 0.45507497120342549 0 -0.16013216473902109 0.45292766881669072 0 -0.15767924869329919 0.44641741059368378 0 -0.16013216473902109 0.45292766881669072 0 -0.15767924869329919 0.44641741059368378 0 -0.16940388650370539 0.44815354093755089 0 -0.1829590266345629 0.45699162349075462 0 -0.18255950863604661 0.43173185523385532 0 -0.1829590266345629 0.45699162349075462 0 -0.19557533522393281 0.44055915781337712 0 -0.18255950863604661 0.43173185523385532 0 -0.16940388650370539 0.44815354093755089 0 -0.1829590266345629 0.45699162349075462 0 -0.18255950863604661 0.43173185523385532 0 -0.16113758629404229 0.46206475253210239 0 -0.17453557306473899 0.46796298731641428 0 -0.18144315819010631 0.45896600894655282 0 -0.17453557306473899 0.46796298731641428 0 -0.18144315819010631 0.45896600894655282 0 -0.17453557306473899 0.46796298731641428 0 -0.18311948649431831 0.46713679563994498 0 -0.16940388650370539 0.44815354093755089 0 -0.18144315819010631 0.45896600894655282 0 -0.1829590266345629 0.45699162349075462 0 -0.18144315819010631 0.45896600894655282 0 -0.1829590266345629 0.45699162349075462 0 -0.18144315819010631 0.45896600894655282 0 -0.1829865290739871 0.45873048193697258 0 -0.1829590266345629 0.45699162349075462 0 -0.18144315819010631 0.45896600894655282 0 -0.1829865290739871 0.45873048193697258 0 -0.1829865290739871 0.45873048193697258 0 -0.1829590266345629 0.45699162349075462 0 -0.17453557306473899 0.46796298731641428 0 -0.18144315819010631 0.45896600894655282 0 -0.18311948649431831 0.46713679563994498 0 -0.1829865290739871 0.45873048193697258 0 -0.18311948649431831 0.46713679563994498 0 -0.18144315819010631 0.45896600894655282 0 -0.1829865290739871 0.45873048193697258 0 -0.18311948649431831 0.46713679563994498 0 -0.18311948649431831 0.46713679563994498 0 -0.18337937489664821 0.48356839781997168 0 -0.19511197543601369 0.47606725323690458 0 -0.18311948649431831 0.46713679563994498 0 -0.18337937489664821 0.48356839781997168 0 -0.18311948649431831 0.46713679563994498 0 -0.18337937489664821 0.48356839781997168 0 -0.17485937494801759 0.47808814193434568 0 -0.17453557306473899 0.46796298731641428 0 -0.18311948649431831 0.46713679563994498 0 -0.17485937494801759 0.47808814193434568 0 -0.17453557306473899 0.46796298731641428 0 -0.15779819732271971 0.4695739402503486 0 -0.17453557306473899 0.46796298731641428 0 -0.16499414335466689 0.48039049058434952 0 -0.17453557306473899 0.46796298731641428 0 -0.16499414335466689 0.48039049058434952 0 -0.15779819732271971 0.4695739402503486 0 -0.17453557306473899 0.46796298731641428 0 -0.17485937494801759 0.47808814193434568 0 -0.16499414335466689 0.48039049058434952 0 -0.17485937494801759 0.47808814193434568 0 -0.16499414335466689 0.48039049058434952 0 -0.1699453859209171 0.49288017845899518 0 -0.1558122254133027 0.48316327461493752 0 -0.16499414335466689 0.48039049058434952 0 -0.15682389603308189 0.47748605108520858 0 -0.16499414335466689 0.48039049058434952 0 -0.15682389603308189 0.47748605108520858 0 -0.15779819732271971 0.4695739402503486 0 -0.15453849507163009 0.5 0 -0.1699453859209171 0.49288017845899518 0 -0.18363926329897839 0.49999999999999828 0 -0.15453849507163009 0.5 0 -0.15545271364459581 0.49281799385228547 0 -0.1699453859209171 0.49288017845899518 0 -0.15545271364459581 0.49281799385228547 0 -0.16499414335466689 0.48039049058434952 0 -0.1699453859209171 0.49288017845899518 0 -0.15545271364459581 0.49281799385228547 0 -0.16499414335466689 0.48039049058434952 0 -0.1558122254133027 0.48316327461493752 0 -0.15545271364459581 0.49281799385228547 0 -0.16499414335466689 0.48039049058434952 0 -0.18337937489664821 0.48356839781997168 0 -0.18363926329897839 0.49999999999999828 0 -0.18337937489664821 0.48356839781997168 0 -0.1699453859209171 0.49288017845899518 0 -0.18363926329897839 0.49999999999999828 0 -0.18337937489664821 0.48356839781997168 0 -0.17485937494801759 0.47808814193434568 0 -0.1699453859209171 0.49288017845899518 0 -0.18337937489664821 0.48356839781997168 0 -0.18363926329897839 0.49999999999999828 0 -0.19848883175809501 0.48685236178056529 0 -0.18363926329897839 0.49999999999999828 0 -0.19848883175809501 0.48685236178056529 0 -0.20708556466301639 0.5 0 -0.18311948649431831 0.46713679563994498 0 -0.19511197543601369 0.47606725323690458 0 -0.20656524953558469 0.46488016823659339 0 -0.18337937489664821 0.48356839781997168 0 -0.19848883175809501 0.48685236178056529 0 -0.19511197543601369 0.47606725323690458 0 -0.19848883175809501 0.48685236178056529 0 -0.19511197543601369 0.47606725323690458 0 -0.206747867840962 0.47700509082497228 0 -0.19511197543601369 0.47606725323690458 0 -0.206747867840962 0.47700509082497228 0 -0.20656524953558469 0.46488016823659339 0 -0.19848883175809501 0.48685236178056529 0 -0.206747867840962 0.47700509082497228 0 -0.21585796601610141 0.48648558657266339 0 -0.206747867840962 0.47700509082497228 0 -0.21852396914967101 0.47285401242330122 0 -0.20656524953558469 0.46488016823659339 0 -0.206747867840962 0.47700509082497228 0 -0.21852396914967101 0.47285401242330122 0 -0.21585796601610141 0.48648558657266339 0 -0.20708556466301639 0.5 0 -0.21585796601610141 0.48648558657266339 0 -0.23053186602705439 0.5 0 -0.19848883175809501 0.48685236178056529 0 -0.20708556466301639 0.5 0 -0.21585796601610141 0.48648558657266339 0 -0.21585796601610141 0.48648558657266339 0 -0.23053186602705439 0.5 0 -0.2373192826940049 0.48342253064983348 0 -0.21852396914967101 0.47285401242330122 0 -0.2373192826940049 0.48342253064983348 0 -0.23001101257685119 0.46262354083324181 0 -0.21852396914967101 0.47285401242330122 0 -0.21585796601610141 0.48648558657266339 0 -0.2373192826940049 0.48342253064983348 0 -0.25474868654415728 0.48692894813519849 0 -0.25315469521642581 0.4750486889203015 0 -0.2373192826940049 0.48342253064983348 0 -0.25315469521642581 0.4750486889203015 0 -0.2373192826940049 0.48342253064983348 0 -0.23001101257685119 0.46262354083324181 0 -0.25397816739109252 0.5 0 -0.23053186602705439 0.5 0 -0.2373192826940049 0.48342253064983348 0 -0.25397816739109252 0.5 0 -0.25474868654415728 0.48692894813519849 0 -0.2373192826940049 0.48342253064983348 0 -0.26330490497154813 0.43976041958731371 0 -0.24129970279445639 0.44943490890582899 0 -0.24092688658692171 0.43286849171069308 0 -0.24129970279445639 0.44943490890582899 0 -0.2242493546558077 0.44235471361969553 0 -0.24092688658692171 0.43286849171069308 0 -0.25345677561811758 0.46036691342989022 0 -0.23001101257685119 0.46262354083324181 0 -0.25345677561811758 0.46036691342989022 0 -0.24129970279445639 0.44943490890582899 0 -0.23001101257685119 0.46262354083324181 0 -0.25345677561811758 0.46036691342989022 0 -0.25315469521642581 0.4750486889203015 0 -0.23001101257685119 0.46262354083324181 0 -0.24129970279445639 0.44943490890582899 0 -0.23001101257685119 0.46262354083324181 0 -0.2242493546558077 0.44235471361969553 0 -0.23001101257685119 0.46262354083324181 0 -0.2242493546558077 0.44235471361969553 0 -0.2144914677851314 0.45380351874251162 0 -0.2242493546558077 0.44235471361969553 0 -0.20880164963731279 0.443380440886459 0 -0.2144914677851314 0.45380351874251162 0 -0.20880164963731279 0.443380440886459 0 -0.2144914677851314 0.45380351874251162 0 -0.20415969833182021 0.45549933815243238 0 -0.23001101257685119 0.46262354083324181 0 -0.2144914677851314 0.45380351874251162 0 -0.20656524953558469 0.46488016823659339 0 -0.21852396914967101 0.47285401242330122 0 -0.23001101257685119 0.46262354083324181 0 -0.20656524953558469 0.46488016823659339 0 -0.23001101257685119 0.46262354083324181 0 -0.20656524953558469 0.46488016823659339 0 -0.2144914677851314 0.45380351874251162 0 -0.20415969833182021 0.45549933815243238 0 -0.20656524953558469 0.46488016823659339 0 -0.1829865290739871 0.45873048193697258 0 -0.1829590266345629 0.45699162349075462 0 -0.20415969833182021 0.45549933815243238 0 -0.1829865290739871 0.45873048193697258 0 -0.20415969833182021 0.45549933815243238 0 -0.18311948649431831 0.46713679563994498 0 -0.20415969833182021 0.45549933815243238 0 -0.20656524953558469 0.46488016823659339 0 -0.1829865290739871 0.45873048193697258 0 -0.18311948649431831 0.46713679563994498 0 -0.20415969833182021 0.45549933815243238 0 -0.18311948649431831 0.46713679563994498 0 -0.20656524953558469 0.46488016823659339 0 -0.1829590266345629 0.45699162349075462 0 -0.19557533522393281 0.44055915781337712 0 -0.1829590266345629 0.45699162349075462 0 -0.20415969833182021 0.45549933815243238 0 -0.19557533522393281 0.44055915781337712 0 -0.20880164963731279 0.443380440886459 0 -0.20415969833182021 0.45549933815243238 0 -0.19557533522393281 0.44055915781337712 0 -0.19557533522393281 0.44055915781337712 0 -0.20819164381331129 0.42412669213600601 0 -0.19557533522393281 0.44055915781337712 0 -0.19413142888046839 0.4217351031076268 0 -0.18255950863604661 0.43173185523385532 0 -0.19557533522393281 0.44055915781337712 0 -0.19413142888046839 0.4217351031076268 0 -0.20819164381331129 0.42412669213600601 0 -0.19413142888046839 0.4217351031076268 0 -0.20819164381331129 0.42412669213600601 0 -0.2021706660915297 0.40578572337793972 0 -0.19413142888046839 0.4217351031076268 0 -0.2021706660915297 0.40578572337793972 0 -0.18215999063752189 0.40647208697695608 0 -0.20819164381331129 0.42412669213600601 0 -0.22405449890785839 0.40643558214578251 0 -0.2021706660915297 0.40578572337793972 0 -0.20880164963731279 0.443380440886459 0 -0.19557533522393281 0.44055915781337712 0 -0.20819164381331129 0.42412669213600601 0 -0.2242493546558077 0.44235471361969553 0 -0.20880164963731279 0.443380440886459 0 -0.20819164381331129 0.42412669213600601 0 -0.2242493546558077 0.44235471361969553 0 -0.20819164381331129 0.42412669213600601 0 -0.22600929792909111 0.42518400498706249 0 -0.2242493546558077 0.44235471361969553 0 -0.22600929792909111 0.42518400498706249 0 -0.24092688658692171 0.43286849171069308 0 -0.20819164381331129 0.42412669213600601 0 -0.22600929792909111 0.42518400498706249 0 -0.22405449890785839 0.40643558214578251 0 -0.22600929792909111 0.42518400498706249 0 -0.22405449890785839 0.40643558214578251 0 -0.2382988550227183 0.41778448946306668 0 -0.2572482915111563 0.42152384209731297 0 -0.2382988550227183 0.41778448946306668 0 -0.2490618870264745 0.40647588616764979 0 -0.22405449890785839 0.40643558214578251 0 -0.2382988550227183 0.41778448946306668 0 -0.2490618870264745 0.40647588616764979 0 -0.2572482915111563 0.42152384209731297 0 -0.2382988550227183 0.41778448946306668 0 -0.24092688658692171 0.43286849171069308 0 -0.22600929792909111 0.42518400498706249 0 -0.2382988550227183 0.41778448946306668 0 -0.24092688658692171 0.43286849171069308 0 -0.24000210142933509 0.37809552861286783 0 -0.23801773827758249 0.39392053259368742 0 -0.22567210936962789 0.38582584627882549 0 -0.25152819264859128 0.38883491631829081 0 -0.24000210142933509 0.37809552861286783 0 -0.23801773827758249 0.39392053259368742 0 -0.25213085833087667 0.37355178257669552 0 -0.25152819264859128 0.38883491631829081 0 -0.24000210142933509 0.37809552861286783 0 -0.25152819264859128 0.38883491631829081 0 -0.2490618870264745 0.40647588616764979 0 -0.23801773827758249 0.39392053259368742 0 -0.22405449890785839 0.40643558214578251 0 -0.2490618870264745 0.40647588616764979 0 -0.23801773827758249 0.39392053259368742 0 -0.22405449890785839 0.40643558214578251 0 -0.22567210936962789 0.38582584627882549 0 -0.2099895612515065 0.38861519238670661 0 -0.22405449890785839 0.40643558214578251 0 -0.23801773827758249 0.39392053259368742 0 -0.22567210936962789 0.38582584627882549 0 -0.22567210936962789 0.38582584627882549 0 -0.21752164111765379 0.37637519474985792 0 -0.23054114355980421 0.3681661286558337 0 -0.24000210142933509 0.37809552861286783 0 -0.22567210936962789 0.38582584627882549 0 -0.23054114355980421 0.3681661286558337 0 -0.22567210936962789 0.38582584627882549 0 -0.21752164111765379 0.37637519474985792 0 -0.2099895612515065 0.38861519238670661 0 -0.21752164111765379 0.37637519474985792 0 -0.2099895612515065 0.38861519238670661 0 -0.20825127389149589 0.37038948781896619 0 -0.2099895612515065 0.38861519238670661 0 -0.1956253707180633 0.37355818799515828 0 -0.20825127389149589 0.37038948781896619 0 -0.22405449890785839 0.40643558214578251 0 -0.2099895612515065 0.38861519238670661 0 -0.2021706660915297 0.40578572337793972 0 -0.2021706660915297 0.40578572337793972 0 -0.19434121226752371 0.39112870189136351 0 -0.18215999063752189 0.40647208697695608 0 -0.2099895612515065 0.38861519238670661 0 -0.2021706660915297 0.40578572337793972 0 -0.19434121226752371 0.39112870189136351 0 -0.2099895612515065 0.38861519238670661 0 -0.19434121226752371 0.39112870189136351 0 -0.1956253707180633 0.37355818799515828 0 -0.19434121226752371 0.39112870189136351 0 -0.18176047263899719 0.38121231872005679 0 -0.1956253707180633 0.37355818799515828 0 -0.18176047263899719 0.38121231872005679 0 -0.16585623702428451 0.39107516703040651 0 -0.16689278400863089 0.37048631692620287 0 -0.16585623702428451 0.39107516703040651 0 -0.1532541744773912 0.375434017343177 0 -0.15169756500005979 0.38990146883471011 0 -0.16585623702428451 0.39107516703040651 0 -0.1532541744773912 0.375434017343177 0 -0.16689278400863089 0.37048631692620287 0 -0.16585623702428451 0.39107516703040651 0 -0.1665369108918931 0.40914444316194981 0 -0.1556916669008335 0.40278409093046019 0 -0.16585623702428451 0.39107516703040651 0 -0.18215999063752189 0.40647208697695608 0 -0.1665369108918931 0.40914444316194981 0 -0.16585623702428451 0.39107516703040651 0 -0.15169756500005979 0.38990146883471011 0 -0.1556916669008335 0.40278409093046019 0 -0.18176047263899719 0.38121231872005679 0 -0.16585623702428451 0.39107516703040651 0 -0.18215999063752189 0.40647208697695608 0 -0.18176047263899719 0.38121231872005679 0 -0.18215999063752189 0.40647208697695608 0 -0.19434121226752371 0.39112870189136351 0 -0.18176047263899719 0.38121231872005679 0 -0.18215999063752189 0.40647208697695608 0 -0.18215999063752189 0.40647208697695608 0 -0.18255950863604661 0.43173185523385532 0 -0.18215999063752189 0.40647208697695608 0 -0.16958367679162159 0.42493542776846188 0 -0.1665369108918931 0.40914444316194981 0 -0.19413142888046839 0.4217351031076268 0 -0.18215999063752189 0.40647208697695608 0 -0.18255950863604661 0.43173185523385532 0 -0.18215999063752189 0.40647208697695608 0 -0.18255950863604661 0.43173185523385532 0 -0.16958367679162159 0.42493542776846188 0 -0.16940388650370539 0.44815354093755089 0 -0.18255950863604661 0.43173185523385532 0 -0.16958367679162159 0.42493542776846188 0 -0.16940388650370539 0.44815354093755089 0 -0.16958367679162159 0.42493542776846188 0 -0.15912083936695831 0.4347249498771325 0 -0.16958367679162159 0.42493542776846188 0 -0.15912083936695831 0.4347249498771325 0 -0.15604886632200479 0.41831593774319042 0 -0.16958367679162159 0.42493542776846188 0 -0.1665369108918931 0.40914444316194981 0 -0.15604886632200479 0.41831593774319042 0 -0.1665369108918931 0.40914444316194981 0 -0.15604886632200479 0.41831593774319042 0 -0.1556916669008335 0.40278409093046019 0 -0.15604886632200479 0.41831593774319042 0 -0.14768726638806501 0.40958107086639878 0 -0.1556916669008335 0.40278409093046019 0 -0.15604886632200479 0.41831593774319042 0 -0.1455440964649429 0.41771164433310332 0 -0.14575226394851429 0.42876386523653243 0 -0.15604886632200479 0.41831593774319042 0 -0.1455440964649429 0.41771164433310332 0 -0.14768726638806501 0.40958107086639878 0 -0.1455440964649429 0.41771164433310332 0 -0.14768726638806501 0.40958107086639878 0 -0.13820848934052041 0.41088683445876423 0 -0.15912083936695831 0.4347249498771325 0 -0.15604886632200479 0.41831593774319042 0 -0.14575226394851429 0.42876386523653243 0 -0.14949031039727409 0.43903968606904947 0 -0.15912083936695831 0.4347249498771325 0 -0.14575226394851429 0.42876386523653243 0 -0.1455440964649429 0.41771164433310332 0 -0.14575226394851429 0.42876386523653243 0 -0.13557398954387551 0.42076075412316039 0 -0.13973201497409549 0.44099892737807922 0 -0.14949031039727409 0.43903968606904947 0 -0.14575226394851429 0.42876386523653243 0 -0.13491063247587859 0.43073185275000708 0 -0.1242188050129694 0.42501783294758849 0 -0.1248743097581413 0.44162978393037222 0 -0.13973201497409549 0.44099892737807922 0 -0.14575226394851429 0.42876386523653243 0 -0.13491063247587859 0.43073185275000708 0 -0.14575226394851429 0.42876386523653243 0 -0.13491063247587859 0.43073185275000708 0 -0.13557398954387551 0.42076075412316039 0 -0.13491063247587859 0.43073185275000708 0 -0.13557398954387551 0.42076075412316039 0 -0.1242188050129694 0.42501783294758849 0 -0.13820848934052041 0.41088683445876423 0 -0.13557398954387551 0.42076075412316039 0 -0.12623023605756489 0.41143854881348008 0 -0.1455440964649429 0.41771164433310332 0 -0.13820848934052041 0.41088683445876423 0 -0.13557398954387551 0.42076075412316039 0 -0.13557398954387551 0.42076075412316039 0 -0.12623023605756489 0.41143854881348008 0 -0.1242188050129694 0.42501783294758849 0 -0.13820848934052041 0.41088683445876423 0 -0.12623023605756489 0.41143854881348008 0 -0.13398515235888339 0.40371564514020769 0 -0.12997925716256209 0.39431640422262348 0 -0.14074253368576661 0.38200722200303072 0 -0.1429432129120235 0.39820684686647628 0 -0.12623023605756489 0.41143854881348008 0 -0.13398515235888339 0.40371564514020769 0 -0.12997925716256209 0.39431640422262348 0 -0.13398515235888339 0.40371564514020769 0 -0.12997925716256209 0.39431640422262348 0 -0.1429432129120235 0.39820684686647628 0 -0.13820848934052041 0.41088683445876423 0 -0.13398515235888339 0.40371564514020769 0 -0.1429432129120235 0.39820684686647628 0 -0.12997925716256209 0.39431640422262348 0 -0.14074253368576661 0.38200722200303072 0 -0.12523428666698541 0.37069662222368049 0 -0.12997925716256209 0.39431640422262348 0 -0.12523428666698541 0.37069662222368049 0 -0.12103247972044499 0.39311621374447298 0 -0.14074253368576661 0.38200722200303072 0 -0.15169756500005979 0.38990146883471011 0 -0.1429432129120235 0.39820684686647628 0 -0.14074253368576661 0.38200722200303072 0 -0.1532541744773912 0.375434017343177 0 -0.15169756500005979 0.38990146883471011 0 -0.15169756500005979 0.38990146883471011 0 -0.1556916669008335 0.40278409093046019 0 -0.1429432129120235 0.39820684686647628 0 -0.14768726638806501 0.40958107086639878 0 -0.1556916669008335 0.40278409093046019 0 -0.1429432129120235 0.39820684686647628 0 -0.14768726638806501 0.40958107086639878 0 -0.13820848934052041 0.41088683445876423 0 -0.1429432129120235 0.39820684686647628 0 -0.14407255521749979 0.34403263722221961 0 -0.15504053286571459 0.3545366000593369 0 -0.14129669608781389 0.36249735492572199 0 -0.14407255521749979 0.34403263722221961 0 -0.15504053286571459 0.3545366000593369 0 -0.1549481930100888 0.34056708499864929 0 -0.14074253368576661 0.38200722200303072 0 -0.1532541744773912 0.375434017343177 0 -0.14129669608781389 0.36249735492572199 0 -0.1532541744773912 0.375434017343177 0 -0.15504053286571459 0.3545366000593369 0 -0.14129669608781389 0.36249735492572199 0 -0.14129669608781389 0.36249735492572199 0 -0.12523428666698541 0.37069662222368049 0 -0.1294360936135257 0.3482770307028879 0 -0.12523428666698541 0.37069662222368049 0 -0.1294360936135257 0.3482770307028879 0 -0.14074253368576661 0.38200722200303072 0 -0.14129669608781389 0.36249735492572199 0 -0.12523428666698541 0.37069662222368049 0 -0.14407255521749979 0.34403263722221961 0 -0.14129669608781389 0.36249735492572199 0 -0.1294360936135257 0.3482770307028879 0 -0.1294360936135257 0.3482770307028879 0 -0.13363790056006589 0.32585743918209531 0 -0.14407255521749979 0.34403263722221961 0 -0.1294360936135257 0.3482770307028879 0 -0.13363790056006589 0.32585743918209531 0 -0.1294360936135257 0.3482770307028879 0 -0.13363790056006589 0.32585743918209531 0 -0.1154499742120704 0.34086754873962172 0 -0.12722248981549561 0.3181430308760943 0 -0.13363790056006589 0.32585743918209531 0 -0.1360408951285694 0.3130357752318072 0 -0.12722248981549561 0.3181430308760943 0 -0.1360408951285694 0.3130357752318072 0 -0.12136448477009221 0.30951812845445109 0 -0.12722248981549561 0.3181430308760943 0 -0.13363790056006589 0.32585743918209531 0 -0.12142985306419619 0.32461006626398298 0 -0.13363790056006589 0.32585743918209531 0 -0.12142985306419619 0.32461006626398298 0 -0.13363790056006589 0.32585743918209531 0 -0.1360408951285694 0.3130357752318072 0 -0.14290423209994971 0.32095809222069871 0 -0.13363790056006589 0.32585743918209531 0 -0.1360408951285694 0.3130357752318072 0 -0.14290423209994971 0.32095809222069871 0 -0.1532404752523272 0.32269894785805692 0 -0.1464174014568787 0.29836992735667278 0 -0.13363790056006589 0.32585743918209531 0 -0.14290423209994971 0.32095809222069871 0 -0.15729966860100811 0.32827511069417059 0 -0.13363790056006589 0.32585743918209531 0 -0.15729966860100811 0.32827511069417059 0 -0.14290423209994971 0.32095809222069871 0 -0.1532404752523272 0.32269894785805692 0 -0.15729966860100811 0.32827511069417059 0 -0.1532404752523272 0.32269894785805692 0 -0.15943794807189979 0.31595908059817063 0 -0.1547819877644892 0.3091453549012102 0 -0.14407255521749979 0.34403263722221961 0 -0.13363790056006589 0.32585743918209531 0 -0.14748957934716561 0.33468306802428371 0 -0.13363790056006589 0.32585743918209531 0 -0.14748957934716561 0.33468306802428371 0 -0.15729966860100811 0.32827511069417059 0 -0.14748957934716561 0.33468306802428371 0 -0.1549481930100888 0.34056708499864929 0 -0.15729966860100811 0.32827511069417059 0 -0.14407255521749979 0.34403263722221961 0 -0.14748957934716561 0.33468306802428371 0 -0.1549481930100888 0.34056708499864929 0 -0.15729966860100811 0.32827511069417059 0 -0.18096143664194889 0.33069278220625808 0 -0.1549481930100888 0.34056708499864929 0 -0.15729966860100811 0.32827511069417059 0 -0.16781010436956259 0.34240718275037813 0 -0.15729966860100811 0.32827511069417059 0 -0.16781010436956259 0.34240718275037813 0 -0.18096143664194889 0.33069278220625808 0 -0.15729966860100811 0.32827511069417059 0 -0.17028988351433311 0.32233995817617028 0 -0.18096143664194889 0.33069278220625808 0 -0.15943794807189979 0.31595908059817063 0 -0.16495134068588049 0.31685297469802859 0 -0.1638395481514221 0.30983277085387728 0 -0.1532404752523272 0.32269894785805692 0 -0.15943794807189979 0.31595908059817063 0 -0.16037638850537991 0.32126535467967993 0 -0.15943794807189979 0.31595908059817063 0 -0.16037638850537991 0.32126535467967993 0 -0.16495134068588049 0.31685297469802859 0 -0.15729966860100811 0.32827511069417059 0 -0.16037638850537991 0.32126535467967993 0 -0.17028988351433311 0.32233995817617028 0 -0.1532404752523272 0.32269894785805692 0 -0.15729966860100811 0.32827511069417059 0 -0.16037638850537991 0.32126535467967993 0 -0.16495134068588049 0.31685297469802859 0 -0.17285953122972289 0.31090601179704258 0 -0.1638395481514221 0.30983277085387728 0 -0.17028988351433311 0.32233995817617028 0 -0.16495134068588049 0.31685297469802859 0 -0.17285953122972289 0.31090601179704258 0 -0.16037638850537991 0.32126535467967993 0 -0.17028988351433311 0.32233995817617028 0 -0.16495134068588049 0.31685297469802859 0 -0.18077272512400111 0.31876138179813301 0 -0.17285953122972289 0.31090601179704258 0 -0.17028988351433311 0.32233995817617028 0 -0.18077272512400111 0.31876138179813301 0 -0.17285953122972289 0.31090601179704258 0 -0.17028988351433311 0.32233995817617028 0 -0.18077272512400111 0.31876138179813301 0 -0.18096143664194889 0.33069278220625808 0 -0.18077272512400111 0.31876138179813301 0 -0.19386790912735871 0.33176087567547108 0 -0.18077272512400111 0.31876138179813301 0 -0.18096143664194889 0.33069278220625808 0 -0.18077272512400111 0.31876138179813301 0 -0.18096143664194889 0.33069278220625808 0 -0.19386790912735871 0.33176087567547108 0 -0.18096143664194889 0.33069278220625808 0 -0.1813609546404725 0.35595255046315749 0 -0.18096143664194889 0.33069278220625808 0 -0.1813609546404725 0.35595255046315749 0 -0.19258948339875709 0.33633707034479371 0 -0.16781010436956259 0.34240718275037813 0 -0.18096143664194889 0.33069278220625808 0 -0.1813609546404725 0.35595255046315749 0 -0.18096143664194889 0.33069278220625808 0 -0.19386790912735871 0.33176087567547108 0 -0.15504053286571459 0.3545366000593369 0 -0.16781010436956259 0.34240718275037813 0 -0.1813609546404725 0.35595255046315749 0 -0.15504053286571459 0.3545366000593369 0 -0.1549481930100888 0.34056708499864929 0 -0.16781010436956259 0.34240718275037813 0 -0.1532541744773912 0.375434017343177 0 -0.15504053286571459 0.3545366000593369 0 -0.16689278400863089 0.37048631692620287 0 -0.15504053286571459 0.3545366000593369 0 -0.1813609546404725 0.35595255046315749 0 -0.16689278400863089 0.37048631692620287 0 -0.18176047263899719 0.38121231872005679 0 -0.1813609546404725 0.35595255046315749 0 -0.18176047263899719 0.38121231872005679 0 -0.1813609546404725 0.35595255046315749 0 -0.1956253707180633 0.37355818799515828 0 -0.18176047263899719 0.38121231872005679 0 -0.1813609546404725 0.35595255046315749 0 -0.16689278400863089 0.37048631692620287 0 -0.1813609546404725 0.35595255046315749 0 -0.1956253707180633 0.37355818799515828 0 -0.2000380028121157 0.35856944723279938 0 -0.1956253707180633 0.37355818799515828 0 -0.2000380028121157 0.35856944723279938 0 -0.20825127389149589 0.37038948781896619 0 -0.1813609546404725 0.35595255046315749 0 -0.1951678646333711 0.34883535218340811 0 -0.19258948339875709 0.33633707034479371 0 -0.1813609546404725 0.35595255046315749 0 -0.1951678646333711 0.34883535218340811 0 -0.2000380028121157 0.35856944723279938 0 -0.1951678646333711 0.34883535218340811 0 -0.2000380028121157 0.35856944723279938 0 -0.20668301768213909 0.34448234069288158 0 -0.20668301768213909 0.34448234069288158 0 -0.2120127789660084 0.36084248239747968 0 -0.21921666942493959 0.3569244055809645 0 -0.2000380028121157 0.35856944723279938 0 -0.20668301768213909 0.34448234069288158 0 -0.2120127789660084 0.36084248239747968 0 -0.2120127789660084 0.36084248239747968 0 -0.21921666942493959 0.3569244055809645 0 -0.20668301768213909 0.34448234069288158 0 -0.21921666942493959 0.3569244055809645 0 -0.22158808080033929 0.34557455345049992 0 -0.20668301768213909 0.34448234069288158 0 -0.21921666942493959 0.3569244055809645 0 -0.2000380028121157 0.35856944723279938 0 -0.20825127389149589 0.37038948781896619 0 -0.2120127789660084 0.36084248239747968 0 -0.2120127789660084 0.36084248239747968 0 -0.2199937556016836 0.36693485901855288 0 -0.21921666942493959 0.3569244055809645 0 -0.20825127389149589 0.37038948781896619 0 -0.2120127789660084 0.36084248239747968 0 -0.2199937556016836 0.36693485901855288 0 -0.21752164111765379 0.37637519474985792 0 -0.20825127389149589 0.37038948781896619 0 -0.2199937556016836 0.36693485901855288 0 -0.21752164111765379 0.37637519474985792 0 -0.23054114355980421 0.3681661286558337 0 -0.2199937556016836 0.36693485901855288 0 -0.23054114355980421 0.3681661286558337 0 -0.21921666942493959 0.3569244055809645 0 -0.23305195790672301 0.35812934693154008 0 -0.23054114355980421 0.3681661286558337 0 -0.2199937556016836 0.36693485901855288 0 -0.21921666942493959 0.3569244055809645 0 -0.23054114355980421 0.3681661286558337 0 -0.21921666942493959 0.3569244055809645 0 -0.21921666942493959 0.3569244055809645 0 -0.22158808080033929 0.34557455345049992 0 -0.23915963598069589 0.34607775607121571 0 -0.21921666942493959 0.3569244055809645 0 -0.23915963598069589 0.34607775607121571 0 -0.21921666942493959 0.3569244055809645 0 -0.23305195790672301 0.35812934693154008 0 -0.23915963598069589 0.34607775607121571 0 -0.23305195790672301 0.35812934693154008 0 -0.23915963598069589 0.34607775607121571 0 -0.24329038266145239 0.36134909741814653 0 -0.25407523553642281 0.3497448278934856 0 -0.23915963598069589 0.34607775607121571 0 -0.24329038266145239 0.36134909741814653 0 -0.25213085833087667 0.37355178257669552 0 -0.24000210142933509 0.37809552861286783 0 -0.24329038266145239 0.36134909741814653 0 -0.24000210142933509 0.37809552861286783 0 -0.23054114355980421 0.3681661286558337 0 -0.24329038266145239 0.36134909741814653 0 -0.23054114355980421 0.3681661286558337 0 -0.23305195790672301 0.35812934693154008 0 -0.24329038266145239 0.36134909741814653 0 -0.23582541811145999 0.32679902143390172 0 -0.24885494741763489 0.31718848033418301 0 -0.23189508169276829 0.30076725351495531 0 -0.23582541811145999 0.32679902143390172 0 -0.24885494741763489 0.31718848033418301 0 -0.24633099797708269 0.32737693631841108 0 -0.25451497659773847 0.32559442806853028 0 -0.24885494741763489 0.31718848033418301 0 -0.24633099797708269 0.32737693631841108 0 -0.24843663428782739 0.33758714710907461 0 -0.22129300011358269 0.33481371145693772 0 -0.25451497659773847 0.32559442806853028 0 -0.24633099797708269 0.32737693631841108 0 -0.24843663428782739 0.33758714710907461 0 -0.25910260253645218 0.33523110656146687 0 -0.23915963598069589 0.34607775607121571 0 -0.23582541811145999 0.32679902143390172 0 -0.24633099797708269 0.32737693631841108 0 -0.24843663428782739 0.33758714710907461 0 -0.25910260253645218 0.33523110656146687 0 -0.23915963598069589 0.34607775607121571 0 -0.24843663428782739 0.33758714710907461 0 -0.23582541811145999 0.32679902143390172 0 -0.24843663428782739 0.33758714710907461 0 -0.22129300011358269 0.33481371145693772 0 -0.23915963598069589 0.34607775607121571 0 -0.24843663428782739 0.33758714710907461 0 -0.22129300011358269 0.33481371145693772 0 -0.22158808080033929 0.34557455345049992 0 -0.23915963598069589 0.34607775607121571 0 -0.22129300011358269 0.33481371145693772 0 -0.23582541811145999 0.32679902143390172 0 -0.21954464392232159 0.31820766509236142 0 -0.23189508169276829 0.30076725351495531 0 -0.23582541811145999 0.32679902143390172 0 -0.22129300011358269 0.33481371145693772 0 -0.21954464392232159 0.31820766509236142 0 -0.21954464392232159 0.31820766509236142 0 -0.20492818889453221 0.32276220977772679 0 -0.20060783596013981 0.3076349397264902 0 -0.22129300011358269 0.33481371145693772 0 -0.21954464392232159 0.31820766509236142 0 -0.20492818889453221 0.32276220977772679 0 -0.22129300011358269 0.33481371145693772 0 -0.20492818889453221 0.32276220977772679 0 -0.19386790912735871 0.33176087567547108 0 -0.22129300011358269 0.33481371145693772 0 -0.19386790912735871 0.33176087567547108 0 -0.20668301768213909 0.34448234069288158 0 -0.22129300011358269 0.33481371145693772 0 -0.19386790912735871 0.33176087567547108 0 -0.20668301768213909 0.34448234069288158 0 -0.22158808080033929 0.34557455345049992 0 -0.22129300011358269 0.33481371145693772 0 -0.20668301768213909 0.34448234069288158 0 -0.19386790912735871 0.33176087567547108 0 -0.19258948339875709 0.33633707034479371 0 -0.20668301768213909 0.34448234069288158 0 -0.19386790912735871 0.33176087567547108 0 -0.1951678646333711 0.34883535218340811 0 -0.20668301768213909 0.34448234069288158 0 -0.19258948339875709 0.33633707034479371 0 -0.18096143664194889 0.33069278220625808 0 -0.19386790912735871 0.33176087567547108 0 -0.19258948339875709 0.33633707034479371 0 -0.19386790912735871 0.33176087567547108 0 -0.19258948339875709 0.33633707034479371 0 -0.18077272512400111 0.31876138179813301 0 -0.19386790912735871 0.33176087567547108 0 -0.20060783596013981 0.3076349397264902 0 -0.20492818889453221 0.32276220977772679 0 -0.19386790912735871 0.33176087567547108 0 -0.20060783596013981 0.3076349397264902 0 -0.19386790912735871 0.33176087567547108 0 -0.20060783596013981 0.3076349397264902 0 -0.20060783596013981 0.3076349397264902 0 -0.20734776279292019 0.28350900377750898 0 -0.23189508169276829 0.30076725351495531 0 -0.21954464392232159 0.31820766509236142 0 -0.20060783596013981 0.3076349397264902 0 -0.23189508169276829 0.30076725351495531 0 -0.20060783596013981 0.3076349397264902 0 -0.20734776279292019 0.28350900377750898 0 -0.18034630435624241 0.29180066960649809 0 -0.20734776279292019 0.28350900377750898 0 -0.19375927737912041 0.2730469699042487 0 -0.18034630435624241 0.29180066960649809 0 -0.20060783596013981 0.3076349397264902 0 -0.20734776279292019 0.28350900377750898 0 -0.20734776279292019 0.28350900377750898 0 -0.23189508169276829 0.30076725351495531 0 -0.22396762922540969 0.27514125130055722 0 -0.23189508169276829 0.30076725351495531 0 -0.2378434694439332 0.28391349183279069 0 -0.22396762922540969 0.27514125130055722 0 -0.25673188405007052 0.28646841290673969 0 -0.23189508169276829 0.30076725351495531 0 -0.2378434694439332 0.28391349183279069 0 -0.25673188405007052 0.28646841290673969 0 -0.23189508169276829 0.30076725351495531 0 -0.25505401324638421 0.30366623925853881 0 -0.25673188405007052 0.28646841290673969 0 -0.23189508169276829 0.30076725351495531 0 -0.25505401324638421 0.30366623925853881 0 -0.24885494741763489 0.31718848033418301 0 -0.23189508169276829 0.30076725351495531 0 -0.25265925142613249 0.26128234508680298 0 -0.23885305679183191 0.2684477152547543 0 -0.23951274761537589 0.2474853768326048 0 -0.23885305679183191 0.2684477152547543 0 -0.22811192938500721 0.25829645972706228 0 -0.23951274761537589 0.2474853768326048 0 -0.25621817608628389 0.2460965770837312 0 -0.25265925142613249 0.26128234508680298 0 -0.23951274761537589 0.2474853768326048 0 -0.25673188405007052 0.28646841290673969 0 -0.2378434694439332 0.28391349183279069 0 -0.23885305679183191 0.2684477152547543 0 -0.25265925142613249 0.26128234508680298 0 -0.25673188405007052 0.28646841290673969 0 -0.23885305679183191 0.2684477152547543 0 -0.23885305679183191 0.2684477152547543 0 -0.22396762922540969 0.27514125130055722 0 -0.22811192938500721 0.25829645972706228 0 -0.2378434694439332 0.28391349183279069 0 -0.23885305679183191 0.2684477152547543 0 -0.22396762922540969 0.27514125130055722 0 -0.22811192938500721 0.25829645972706228 0 -0.22371849106378741 0.2462845034026982 0 -0.23951274761537589 0.2474853768326048 0 -0.22396762922540969 0.27514125130055722 0 -0.22811192938500721 0.25829645972706228 0 -0.21408768962570049 0.25938306782852782 0 -0.22811192938500721 0.25829645972706228 0 -0.21408768962570049 0.25938306782852782 0 -0.22371849106378741 0.2462845034026982 0 -0.21408768962570049 0.25938306782852782 0 -0.19928355658839081 0.25766712263582692 0 -0.2066863838603582 0.24242880758937649 0 -0.21408768962570049 0.25938306782852782 0 -0.20163280817849061 0.26608937016207479 0 -0.19928355658839081 0.25766712263582692 0 -0.20734776279292019 0.28350900377750898 0 -0.21408768962570049 0.25938306782852782 0 -0.20734776279292019 0.28350900377750898 0 -0.22396762922540969 0.27514125130055722 0 -0.21408768962570049 0.25938306782852782 0 -0.20734776279292019 0.28350900377750898 0 -0.21408768962570049 0.25938306782852782 0 -0.20163280817849061 0.26608937016207479 0 -0.20734776279292019 0.28350900377750898 0 -0.20163280817849061 0.26608937016207479 0 -0.19375927737912041 0.2730469699042487 0 -0.20163280817849061 0.26608937016207479 0 -0.19375927737912041 0.2730469699042487 0 -0.19160269433399771 0.26436194023610149 0 -0.19375927737912041 0.2730469699042487 0 -0.19160269433399771 0.26436194023610149 0 -0.17991988358848049 0.26483995741486333 0 -0.19928355658839081 0.25766712263582692 0 -0.18259587964237009 0.2606558300825601 0 -0.2066863838603582 0.24242880758937649 0 -0.18259587964237009 0.2606558300825601 0 -0.19333963139412971 0.24385714112684301 0 -0.19928355658839081 0.25766712263582692 0 -0.19160269433399771 0.26436194023610149 0 -0.18259587964237009 0.2606558300825601 0 -0.18259587964237009 0.2606558300825601 0 -0.2066863838603582 0.24242880758937649 0 -0.20163280817849061 0.26608937016207479 0 -0.19928355658839081 0.25766712263582692 0 -0.19160269433399771 0.26436194023610149 0 -0.17991988358848049 0.26483995741486333 0 -0.17951502337729761 0.2392424245160312 0 -0.17991988358848049 0.26483995741486333 0 -0.17042143569771079 0.26099360542817968 0 -0.17951502337729761 0.2392424245160312 0 -0.18259587964237009 0.2606558300825601 0 -0.17991988358848049 0.26483995741486333 0 -0.17951502337729761 0.2392424245160312 0 -0.19160269433399771 0.26436194023610149 0 -0.18259587964237009 0.2606558300825601 0 -0.17991988358848049 0.26483995741486333 0 -0.18259587964237009 0.2606558300825601 0 -0.17991988358848049 0.26483995741486333 0 -0.17991988358848049 0.26483995741486333 0 -0.17042143569771079 0.26099360542817968 0 -0.17716480609589361 0.26914773470870201 0 -0.17042143569771079 0.26099360542817968 0 -0.1627301728603629 0.26968240911070368 0 -0.1532221513837192 0.25419418888983192 0 -0.17042143569771079 0.26099360542817968 0 -0.1532221513837192 0.25419418888983192 0 -0.17951502337729761 0.2392424245160312 0 -0.1627301728603629 0.26968240911070368 0 -0.1620479085915319 0.28265904931380531 0 -0.15271877240598841 0.27446820953958367 0 -0.17042143569771079 0.26099360542817968 0 -0.1627301728603629 0.26968240911070368 0 -0.1699765768805111 0.26885491792894611 0 -0.1627301728603629 0.26968240911070368 0 -0.1699765768805111 0.26885491792894611 0 -0.16860704672851359 0.27535934789532951 0 -0.1627301728603629 0.26968240911070368 0 -0.16860704672851359 0.27535934789532951 0 -0.1620479085915319 0.28265904931380531 0 -0.16860704672851359 0.27535934789532951 0 -0.17077339862397739 0.28423195702734899 0 -0.1620479085915319 0.28265904931380531 0 -0.17991988358848049 0.26483995741486333 0 -0.18034630435624241 0.29180066960649809 0 -0.17991988358848049 0.26483995741486333 0 -0.17716480609589361 0.26914773470870201 0 -0.18034630435624241 0.29180066960649809 0 -0.16860704672851359 0.27535934789532951 0 -0.17716480609589361 0.26914773470870201 0 -0.17077339862397739 0.28423195702734899 0 -0.19375927737912041 0.2730469699042487 0 -0.17991988358848049 0.26483995741486333 0 -0.18034630435624241 0.29180066960649809 0 -0.17042143569771079 0.26099360542817968 0 -0.1699765768805111 0.26885491792894611 0 -0.17716480609589361 0.26914773470870201 0 -0.1699765768805111 0.26885491792894611 0 -0.16860704672851359 0.27535934789532951 0 -0.17716480609589361 0.26914773470870201 0 -0.17991988358848049 0.26483995741486333 0 -0.17716480609589361 0.26914773470870201 0 -0.17716480609589361 0.26914773470870201 0 -0.18034630435624241 0.29180066960649809 0 -0.17077339862397739 0.28423195702734899 0 -0.18034630435624241 0.29180066960649809 0 -0.16501618616712291 0.29775164083812761 0 -0.17077339862397739 0.28423195702734899 0 -0.18077272512400111 0.31876138179813301 0 -0.18034630435624241 0.29180066960649809 0 -0.18077272512400111 0.31876138179813301 0 -0.18034630435624241 0.29180066960649809 0 -0.17285953122972289 0.31090601179704258 0 -0.18034630435624241 0.29180066960649809 0 -0.17285953122972289 0.31090601179704258 0 -0.16501618616712291 0.29775164083812761 0 -0.18077272512400111 0.31876138179813301 0 -0.20060783596013981 0.3076349397264902 0 -0.18034630435624241 0.29180066960649809 0 -0.16501618616712291 0.29775164083812761 0 -0.15329008091572741 0.28945008379417048 0 -0.1547819877644892 0.3091453549012102 0 -0.17285953122972289 0.31090601179704258 0 -0.16501618616712291 0.29775164083812761 0 -0.1638395481514221 0.30983277085387728 0 -0.16501618616712291 0.29775164083812761 0 -0.1638395481514221 0.30983277085387728 0 -0.1547819877644892 0.3091453549012102 0 -0.15943794807189979 0.31595908059817063 0 -0.1638395481514221 0.30983277085387728 0 -0.1547819877644892 0.3091453549012102 0 -0.16501618616712291 0.29775164083812761 0 -0.17077339862397739 0.28423195702734899 0 -0.1620479085915319 0.28265904931380531 0 -0.16501618616712291 0.29775164083812761 0 -0.1620479085915319 0.28265904931380531 0 -0.15329008091572741 0.28945008379417048 0 -0.1464174014568787 0.29836992735667278 0 -0.13959432766143021 0.2740409068552887 0 -0.1620479085915319 0.28265904931380531 0 -0.15329008091572741 0.28945008379417048 0 -0.15271877240598841 0.27446820953958367 0 -0.15329008091572741 0.28945008379417048 0 -0.1464174014568787 0.29836992735667278 0 -0.13959432766143021 0.2740409068552887 0 -0.15329008091572741 0.28945008379417048 0 -0.1464174014568787 0.29836992735667278 0 -0.1547819877644892 0.3091453549012102 0 -0.1532404752523272 0.32269894785805692 0 -0.1464174014568787 0.29836992735667278 0 -0.1360408951285694 0.3130357752318072 0 -0.14290423209994971 0.32095809222069871 0 -0.1464174014568787 0.29836992735667278 0 -0.1532404752523272 0.32269894785805692 0 -0.1464174014568787 0.29836992735667278 0 -0.1547819877644892 0.3091453549012102 0 -0.1360408951285694 0.3130357752318072 0 -0.1264253840414637 0.29528772621663357 0 -0.12136448477009221 0.30951812845445109 0 -0.1360408951285694 0.3130357752318072 0 -0.1464174014568787 0.29836992735667278 0 -0.1264253840414637 0.29528772621663357 0 -0.1464174014568787 0.29836992735667278 0 -0.1264253840414637 0.29528772621663357 0 -0.13959432766143021 0.2740409068552887 0 -0.1264253840414637 0.29528772621663357 0 -0.13959432766143021 0.2740409068552887 0 -0.1185373796182298 0.27837978510360878 0 -0.13959432766143021 0.2740409068552887 0 -0.1327712538659816 0.24971188635390451 0 -0.13959432766143021 0.2740409068552887 0 -0.116744543106582 0.25728181003509248 0 -0.1327712538659816 0.24971188635390451 0 -0.13959432766143021 0.2740409068552887 0 -0.1532221513837192 0.25419418888983192 0 -0.1327712538659816 0.24971188635390451 0 -0.1627301728603629 0.26968240911070368 0 -0.1532221513837192 0.25419418888983192 0 -0.15271877240598841 0.27446820953958367 0 -0.13959432766143021 0.2740409068552887 0 -0.1532221513837192 0.25419418888983192 0 -0.15271877240598841 0.27446820953958367 0 -0.15329008091572741 0.28945008379417048 0 -0.13959432766143021 0.2740409068552887 0 -0.15271877240598841 0.27446820953958367 0 -0.1061606963602142 0.26761343855331338 0 -0.1001789302111205 0.27974269320078388 0 -0.1185373796182298 0.27837978510360878 0 -0.1061606963602142 0.26761343855331338 0 -0.1001789302111205 0.27974269320078388 0 -0.092613028744971265 0.26767711662392979 0 -0.1061606963602142 0.26761343855331338 0 -0.10005120432924321 0.25626016583208688 0 -0.116744543106582 0.25728181003509248 0 -0.1061606963602142 0.26761343855331338 0 -0.10005120432924321 0.25626016583208688 0 -0.092613028744971265 0.26767711662392979 0 -0.10005120432924321 0.25626016583208688 0 -0.116744543106582 0.25728181003509248 0 -0.1045487088169635 0.24438495162540061 0 -0.13959432766143021 0.2740409068552887 0 -0.116744543106582 0.25728181003509248 0 -0.1185373796182298 0.27837978510360878 0 -0.1061606963602142 0.26761343855331338 0 -0.116744543106582 0.25728181003509248 0 -0.1185373796182298 0.27837978510360878 0 -0.1264253840414637 0.29528772621663357 0 -0.1127724140037699 0.30190213115774378 0 -0.1091517300735869 0.29135078386346752 0 -0.1264253840414637 0.29528772621663357 0 -0.1185373796182298 0.27837978510360878 0 -0.1091517300735869 0.29135078386346752 0 -0.1264253840414637 0.29528772621663357 0 -0.12136448477009221 0.30951812845445109 0 -0.1127724140037699 0.30190213115774378 0 -0.12136448477009221 0.30951812845445109 0 -0.1127724140037699 0.30190213115774378 0 -0.1061991548417472 0.31213959050036899 0 -0.1127724140037699 0.30190213115774378 0 -0.1061991548417472 0.31213959050036899 0 -0.1005146973405663 0.30141191014932889 0 -0.1127724140037699 0.30190213115774378 0 -0.1005146973405663 0.30141191014932889 0 -0.1091517300735869 0.29135078386346752 0 -0.1005146973405663 0.30141191014932889 0 -0.094430836728355921 0.29177030977787999 0 -0.089068024122243669 0.30112896568664949 0 -0.1061991548417472 0.31213959050036899 0 -0.1005146973405663 0.30141191014932889 0 -0.090928135519314904 0.31087631578889069 0 -0.1001789302111205 0.27974269320078388 0 -0.1185373796182298 0.27837978510360878 0 -0.1091517300735869 0.29135078386346752 0 -0.1005146973405663 0.30141191014932889 0 -0.1091517300735869 0.29135078386346752 0 -0.094430836728355921 0.29177030977787999 0 -0.1001789302111205 0.27974269320078388 0 -0.1091517300735869 0.29135078386346752 0 -0.094430836728355921 0.29177030977787999 0 -0.1001789302111205 0.27974269320078388 0 -0.094430836728355921 0.29177030977787999 0 -0.086145563619835275 0.2816538088019015 0 -0.094430836728355921 0.29177030977787999 0 -0.086145563619835275 0.2816538088019015 0 -0.081526075002782958 0.29533369696514911 0 -0.094430836728355921 0.29177030977787999 0 -0.081526075002782958 0.29533369696514911 0 -0.089068024122243669 0.30112896568664949 0 -0.086145563619835275 0.2816538088019015 0 -0.081526075002782958 0.29533369696514911 0 -0.070830210313899522 0.29195808219782299 0 -0.090928135519314904 0.31087631578889069 0 -0.079482369404140468 0.30560554845979909 0 -0.074915307566508993 0.31649039264194578 0 -0.090928135519314904 0.31087631578889069 0 -0.089068024122243669 0.30112896568664949 0 -0.079482369404140468 0.30560554845979909 0 -0.1005146973405663 0.30141191014932889 0 -0.090928135519314904 0.31087631578889069 0 -0.089068024122243669 0.30112896568664949 0 -0.081526075002782958 0.29533369696514911 0 -0.089068024122243669 0.30112896568664949 0 -0.079482369404140468 0.30560554845979909 0 -0.054647974243728172 0.30430181459310768 0 -0.074915307566508993 0.31649039264194578 0 -0.079482369404140468 0.30560554845979909 0 -0.068661557073843291 0.3005821027458685 0 -0.074915307566508993 0.31649039264194578 0 -0.068661557073843291 0.3005821027458685 0 -0.054647974243728172 0.30430181459310768 0 -0.074915307566508993 0.31649039264194578 0 -0.081526075002782958 0.29533369696514911 0 -0.079482369404140468 0.30560554845979909 0 -0.068661557073843291 0.3005821027458685 0 -0.070830210313899522 0.29195808219782299 0 -0.067453711470644842 0.27023673344429472 0 -0.052574645638654917 0.28480468584225688 0 -0.081526075002782958 0.29533369696514911 0 -0.068661557073843291 0.3005821027458685 0 -0.070830210313899522 0.29195808219782299 0 -0.068661557073843291 0.3005821027458685 0 -0.070830210313899522 0.29195808219782299 0 -0.068661557073843291 0.3005821027458685 0 -0.070830210313899522 0.29195808219782299 0 -0.059610011597539182 0.29372125904316332 0 -0.086145563619835275 0.2816538088019015 0 -0.070830210313899522 0.29195808219782299 0 -0.077256670317037021 0.26667642926106078 0 -0.070830210313899522 0.29195808219782299 0 -0.067453711470644842 0.27023673344429472 0 -0.070830210313899522 0.29195808219782299 0 -0.077256670317037021 0.26667642926106078 0 -0.070830210313899522 0.29195808219782299 0 -0.067453711470644842 0.27023673344429472 0 -0.077256670317037021 0.26667642926106078 0 -0.086145563619835275 0.2816538088019015 0 -0.077256670317037021 0.26667642926106078 0 -0.092613028744971265 0.26767711662392979 0 -0.1001789302111205 0.27974269320078388 0 -0.086145563619835275 0.2816538088019015 0 -0.092613028744971265 0.26767711662392979 0 -0.077256670317037021 0.26667642926106078 0 -0.086302411784292182 0.25447467192259482 0 -0.083666647235009842 0.24139059785004849 0 -0.077256670317037021 0.26667642926106078 0 -0.083666647235009842 0.24139059785004849 0 -0.10005120432924321 0.25626016583208688 0 -0.086302411784292182 0.25447467192259482 0 -0.094679029848152713 0.24609146959404629 0 -0.10005120432924321 0.25626016583208688 0 -0.092613028744971265 0.26767711662392979 0 -0.086302411784292182 0.25447467192259482 0 -0.077256670317037021 0.26667642926106078 0 -0.092613028744971265 0.26767711662392979 0 -0.086302411784292182 0.25447467192259482 0 -0.077256670317037021 0.26667642926106078 0 -0.064077212627390134 0.24851538469076631 0 -0.083666647235009842 0.24139059785004849 0 -0.067453711470644842 0.27023673344429472 0 -0.077256670317037021 0.26667642926106078 0 -0.064077212627390134 0.24851538469076631 0 -0.067453711470644842 0.27023673344429472 0 -0.064077212627390134 0.24851538469076631 0 -0.067453711470644842 0.27023673344429472 0 -0.04634179854296408 0.26632715615711849 0 -0.064077212627390134 0.24851538469076631 0 -0.04634179854296408 0.26632715615711849 0 -0.064077212627390134 0.24851538469076631 0 -0.046578861792199937 0.24361118962503389 0 -0.067453711470644842 0.27023673344429472 0 -0.04634179854296408 0.26632715615711849 0 -0.052574645638654917 0.28480468584225688 0 -0.04634179854296408 0.26632715615711849 0 -0.034380640920947357 0.29211323654426968 0 -0.052574645638654917 0.28480468584225688 0 -0.04634179854296408 0.26632715615711849 0 -0.022607631921228569 0.27169805167723737 0 -0.034380640920947357 0.29211323654426968 0 -0.04634179854296408 0.26632715615711849 0 -0.03068766995985707 0.25286978792993342 0 -0.022607631921228569 0.27169805167723737 0 -0.04634179854296408 0.26632715615711849 0 -0.03068766995985707 0.25286978792993342 0 -0.046578861792199937 0.24361118962503389 0 -0.03068766995985707 0.25286978792993342 0 -0.022607631921228569 0.27169805167723737 0 -0.0098044441781452579 0.25473951632571468 0 -0.022607631921228569 0.27169805167723737 0 -0.015153941911089409 0.29208252597919021 0 3.3590645499582607e-05 0.27236849017123349 0 -0.022607631921228569 0.27169805167723737 0 -0.0098044441781452579 0.25473951632571468 0 3.3590645499582607e-05 0.27236849017123349 0 -0.0098044441781452579 0.25473951632571468 0 0.0073806355134042019 0.25529449578482938 0 3.3590645499582607e-05 0.27236849017123349 0 -0.0088759444352828343 0.31092800175718183 0 -0.015153941911089409 0.29208252597919021 0 0.0083336089875100904 0.29343585490586271 0 -0.015153941911089409 0.29208252597919021 0 0.0083336089875100904 0.29343585490586271 0 3.3590645499582607e-05 0.27236849017123349 0 -0.022607631921228569 0.27169805167723737 0 -0.015153941911089409 0.29208252597919021 0 -0.034380640920947357 0.29211323654426968 0 -0.0088759444352828343 0.31092800175718183 0 -0.015153941911089409 0.29208252597919021 0 -0.03508050583840458 0.3127012881250415 0 -0.015153941911089409 0.29208252597919021 0 -0.034380640920947357 0.29211323654426968 0 -0.03508050583840458 0.3127012881250415 0 -0.034380640920947357 0.29211323654426968 0 -0.054647974243728172 0.30430181459310768 0 -0.034380640920947357 0.29211323654426968 0 -0.054647974243728172 0.30430181459310768 0 -0.03508050583840458 0.3127012881250415 0 -0.034380640920947357 0.29211323654426968 0 -0.052574645638654917 0.28480468584225688 0 -0.054647974243728172 0.30430181459310768 0 -0.052574645638654917 0.28480468584225688 0 -0.059610011597539182 0.29372125904316332 0 -0.054647974243728172 0.30430181459310768 0 -0.070830210313899522 0.29195808219782299 0 -0.052574645638654917 0.28480468584225688 0 -0.059610011597539182 0.29372125904316332 0 -0.068661557073843291 0.3005821027458685 0 -0.059610011597539182 0.29372125904316332 0 -0.054647974243728172 0.30430181459310768 0 -0.058679851530075752 0.32054224196392622 0 -0.045885169747561752 0.33132665820789581 0 -0.073191842414501496 0.33174208285196288 0 -0.054647974243728172 0.30430181459310768 0 -0.058679851530075752 0.32054224196392622 0 -0.03508050583840458 0.3127012881250415 0 -0.045885169747561752 0.33132665820789581 0 -0.067541502003893042 0.3482616942848048 0 -0.073191842414501496 0.33174208285196288 0 -0.045885169747561752 0.33132665820789581 0 -0.073191842414501496 0.33174208285196288 0 -0.045885169747561752 0.33132665820789581 0 -0.018578497080621779 0.33091123356382868 0 -0.045885169747561752 0.33132665820789581 0 -0.03508050583840458 0.3127012881250415 0 -0.018578497080621779 0.33091123356382868 0 -0.058679851530075752 0.32054224196392622 0 -0.045885169747561752 0.33132665820789581 0 -0.03508050583840458 0.3127012881250415 0 -0.0088759444352828343 0.31092800175718183 0 -0.03508050583840458 0.3127012881250415 0 -0.018578497080621779 0.33091123356382868 0 -0.018578497080621779 0.33091123356382868 0 -0.0050552824635438226 0.34569829691311771 0 -0.02749858990914332 0.35301881799134821 0 -0.045885169747561752 0.33132665820789581 0 -0.018578497080621779 0.33091123356382868 0 -0.02749858990914332 0.35301881799134821 0 -0.018578497080621779 0.33091123356382868 0 -0.0050552824635438226 0.34569829691311771 0 0.0064742168078369342 0.3347740657525386 0 -0.018578497080621779 0.33091123356382868 0 0.0087281755863181168 0.33049580891976171 0 -0.018578497080621779 0.33091123356382868 0 0.0064742168078369342 0.3347740657525386 0 0.0087281755863181168 0.33049580891976171 0 -0.018578497080621779 0.33091123356382868 0 -0.003280447873963227 0.32161399115684158 0 0.0087281755863181168 0.33049580891976171 0 -0.0088759444352828343 0.31092800175718183 0 -0.018578497080621779 0.33091123356382868 0 -0.003280447873963227 0.32161399115684158 0 -0.0088759444352828343 0.31092800175718183 0 -0.003280447873963227 0.32161399115684158 0 0.0056044744337335906 0.31412092038659428 0 -0.0052616759920083916 0.36132776784546622 0 -0.0045342830833226501 0.3863935686212247 0 -0.0052616759920083916 0.36132776784546622 0 -0.024169526760701381 0.37267007813580277 0 -0.0045342830833226501 0.3863935686212247 0 -0.0052616759920083916 0.36132776784546622 0 -0.0045342830833226501 0.3863935686212247 0 0.0079023355216259559 0.37348921158265391 0 -0.0052616759920083916 0.36132776784546622 0 -0.0050552824635438226 0.34569829691311771 0 0.0061318462344260851 0.35417601161121459 0 -0.0052616759920083916 0.36132776784546622 0 -0.0050552824635438226 0.34569829691311771 0 -0.02749858990914332 0.35301881799134821 0 -0.02749858990914332 0.35301881799134821 0 -0.024169526760701381 0.37267007813580277 0 -0.04149310004589906 0.37124785083274592 0 -0.0052616759920083916 0.36132776784546622 0 -0.02749858990914332 0.35301881799134821 0 -0.024169526760701381 0.37267007813580277 0 -0.02749858990914332 0.35301881799134821 0 -0.04149310004589906 0.37124785083274592 0 -0.051818441616049399 0.35735321764765782 0 -0.045885169747561752 0.33132665820789581 0 -0.02749858990914332 0.35301881799134821 0 -0.051818441616049399 0.35735321764765782 0 -0.045885169747561752 0.33132665820789581 0 -0.051818441616049399 0.35735321764765782 0 -0.067541502003893042 0.3482616942848048 0 -0.04149310004589906 0.37124785083274592 0 -0.051818441616049399 0.35735321764765782 0 -0.056875823715872062 0.37631267096962301 0 -0.051818441616049399 0.35735321764765782 0 -0.069616273344600341 0.3650636543096733 0 -0.056875823715872062 0.37631267096962301 0 -0.069616273344600341 0.3650636543096733 0 -0.085055645225370236 0.37193713089684588 0 -0.071788917171084016 0.3809272333041443 0 -0.069616273344600341 0.3650636543096733 0 -0.071788917171084016 0.3809272333041443 0 -0.056875823715872062 0.37631267096962301 0 -0.069616273344600341 0.3650636543096733 0 -0.085055645225370236 0.37193713089684588 0 -0.084100884505446297 0.3554636863979832 0 -0.085055645225370236 0.37193713089684588 0 -0.084100884505446297 0.3554636863979832 0 -0.1008292236537022 0.36036332390371462 0 -0.084100884505446297 0.3554636863979832 0 -0.067541502003893042 0.3482616942848048 0 -0.085709514220790303 0.34113927750747819 0 -0.084100884505446297 0.3554636863979832 0 -0.085709514220790303 0.34113927750747819 0 -0.099722393067727538 0.34687368244968458 0 -0.069616273344600341 0.3650636543096733 0 -0.084100884505446297 0.3554636863979832 0 -0.067541502003893042 0.3482616942848048 0 -0.051818441616049399 0.35735321764765782 0 -0.069616273344600341 0.3650636543096733 0 -0.067541502003893042 0.3482616942848048 0 -0.067541502003893042 0.3482616942848048 0 -0.073191842414501496 0.33174208285196288 0 -0.085709514220790303 0.34113927750747819 0 -0.058679851530075752 0.32054224196392622 0 -0.073191842414501496 0.33174208285196288 0 -0.074915307566508993 0.31649039264194578 0 -0.054647974243728172 0.30430181459310768 0 -0.058679851530075752 0.32054224196392622 0 -0.074915307566508993 0.31649039264194578 0 -0.073191842414501496 0.33174208285196288 0 -0.074915307566508993 0.31649039264194578 0 -0.095182640889289766 0.32867897069078372 0 -0.090928135519314904 0.31087631578889069 0 -0.074915307566508993 0.31649039264194578 0 -0.095182640889289766 0.32867897069078372 0 -0.074915307566508993 0.31649039264194578 0 -0.095182640889289766 0.32867897069078372 0 -0.073191842414501496 0.33174208285196288 0 -0.085709514220790303 0.34113927750747819 0 -0.095182640889289766 0.32867897069078372 0 -0.085709514220790303 0.34113927750747819 0 -0.095182640889289766 0.32867897069078372 0 -0.099722393067727538 0.34687368244968458 0 -0.095182640889289766 0.32867897069078372 0 -0.1154499742120704 0.34086754873962172 0 -0.095182640889289766 0.32867897069078372 0 -0.1098512680755149 0.32470257897991811 0 -0.1154499742120704 0.34086754873962172 0 -0.095182640889289766 0.32867897069078372 0 -0.1154499742120704 0.34086754873962172 0 -0.099722393067727538 0.34687368244968458 0 -0.1061991548417472 0.31213959050036899 0 -0.090928135519314904 0.31087631578889069 0 -0.095182640889289766 0.32867897069078372 0 -0.1061991548417472 0.31213959050036899 0 -0.095182640889289766 0.32867897069078372 0 -0.1098512680755149 0.32470257897991811 0 -0.1061991548417472 0.31213959050036899 0 -0.115330384384618 0.31728312261503783 0 -0.1098512680755149 0.32470257897991811 0 -0.12136448477009221 0.30951812845445109 0 -0.1061991548417472 0.31213959050036899 0 -0.115330384384618 0.31728312261503783 0 -0.115330384384618 0.31728312261503783 0 -0.1098512680755149 0.32470257897991811 0 -0.12142985306419619 0.32461006626398298 0 -0.12722248981549561 0.3181430308760943 0 -0.115330384384618 0.31728312261503783 0 -0.12142985306419619 0.32461006626398298 0 -0.12722248981549561 0.3181430308760943 0 -0.12136448477009221 0.30951812845445109 0 -0.115330384384618 0.31728312261503783 0 -0.1098512680755149 0.32470257897991811 0 -0.12142985306419619 0.32461006626398298 0 -0.1154499742120704 0.34086754873962172 0 -0.13363790056006589 0.32585743918209531 0 -0.12142985306419619 0.32461006626398298 0 -0.1154499742120704 0.34086754873962172 0 -0.12523428666698541 0.37069662222368049 0 -0.1294360936135257 0.3482770307028879 0 -0.1154159689866658 0.35521970897278921 0 -0.1154499742120704 0.34086754873962172 0 -0.1154159689866658 0.35521970897278921 0 -0.099722393067727538 0.34687368244968458 0 -0.1294360936135257 0.3482770307028879 0 -0.1154499742120704 0.34086754873962172 0 -0.1154159689866658 0.35521970897278921 0 -0.12523428666698541 0.37069662222368049 0 -0.1154159689866658 0.35521970897278921 0 -0.11117961403065831 0.36839673047223442 0 -0.12523428666698541 0.37069662222368049 0 -0.11117961403065831 0.36839673047223442 0 -0.1123930043347208 0.38073562172137532 0 -0.11117961403065831 0.36839673047223442 0 -0.1008292236537022 0.36036332390371462 0 -0.09970079949094271 0.37763208900548878 0 -0.1154159689866658 0.35521970897278921 0 -0.11117961403065831 0.36839673047223442 0 -0.1008292236537022 0.36036332390371462 0 -0.085055645225370236 0.37193713089684588 0 -0.1008292236537022 0.36036332390371462 0 -0.09970079949094271 0.37763208900548878 0 -0.084100884505446297 0.3554636863979832 0 -0.1008292236537022 0.36036332390371462 0 -0.099722393067727538 0.34687368244968458 0 -0.1154159689866658 0.35521970897278921 0 -0.1008292236537022 0.36036332390371462 0 -0.099722393067727538 0.34687368244968458 0 -0.1036554482544351 0.39516830989393792 0 -0.1102807352191843 0.41378788895710661 0 -0.09259379641793411 0.40948313349934218 0 -0.1036554482544351 0.39516830989393792 0 -0.09970079949094271 0.37763208900548878 0 -0.1123930043347208 0.38073562172137532 0 -0.1036554482544351 0.39516830989393792 0 -0.09970079949094271 0.37763208900548878 0 -0.084297773186445962 0.39217279846007119 0 -0.11117961403065831 0.36839673047223442 0 -0.09970079949094271 0.37763208900548878 0 -0.1123930043347208 0.38073562172137532 0 -0.12523428666698541 0.37069662222368049 0 -0.1123930043347208 0.38073562172137532 0 -0.12103247972044499 0.39311621374447298 0 -0.1036554482544351 0.39516830989393792 0 -0.1123930043347208 0.38073562172137532 0 -0.12103247972044499 0.39311621374447298 0 -0.12523428666698541 0.37069662222368049 0 -0.12103247972044499 0.39311621374447298 0 -0.1036554482544351 0.39516830989393792 0 -0.12103247972044499 0.39311621374447298 0 -0.1102807352191843 0.41378788895710661 0 -0.12997925716256209 0.39431640422262348 0 -0.1102807352191843 0.41378788895710661 0 -0.12997925716256209 0.39431640422262348 0 -0.12103247972044499 0.39311621374447298 0 -0.1102807352191843 0.41378788895710661 0 -0.12623023605756489 0.41143854881348008 0 -0.1102807352191843 0.41378788895710661 0 -0.1242188050129694 0.42501783294758849 0 -0.12623023605756489 0.41143854881348008 0 -0.12997925716256209 0.39431640422262348 0 -0.1102807352191843 0.41378788895710661 0 -0.1102807352191843 0.41378788895710661 0 -0.1104760497445479 0.43296770510105842 0 -0.1242188050129694 0.42501783294758849 0 -0.1104760497445479 0.43296770510105842 0 -0.1242188050129694 0.42501783294758849 0 -0.1248743097581413 0.44162978393037222 0 -0.1102807352191843 0.41378788895710661 0 -0.090582213275806372 0.43325937369158968 0 -0.1102807352191843 0.41378788895710661 0 -0.1104760497445479 0.43296770510105842 0 -0.090582213275806372 0.43325937369158968 0 -0.1102807352191843 0.41378788895710661 0 -0.09259379641793411 0.40948313349934218 0 -0.090582213275806372 0.43325937369158968 0 -0.09259379641793411 0.40948313349934218 0 -0.090582213275806372 0.43325937369158968 0 -0.074152812153798875 0.41302729649400538 0 -0.090582213275806372 0.43325937369158968 0 -0.066022972602334681 0.42956105407568013 0 -0.074152812153798875 0.41302729649400538 0 -0.066022972602334681 0.42956105407568013 0 -0.074152812153798875 0.41302729649400538 0 -0.049329429094603867 0.41198700835812702 0 -0.074152812153798875 0.41302729649400538 0 -0.063154715464804681 0.39516467689365731 0 -0.084297773186445962 0.39217279846007119 0 -0.09259379641793411 0.40948313349934218 0 -0.074152812153798875 0.41302729649400538 0 -0.084297773186445962 0.39217279846007119 0 -0.1036554482544351 0.39516830989393792 0 -0.09259379641793411 0.40948313349934218 0 -0.084297773186445962 0.39217279846007119 0 -0.085055645225370236 0.37193713089684588 0 -0.09970079949094271 0.37763208900548878 0 -0.084297773186445962 0.39217279846007119 0 -0.085055645225370236 0.37193713089684588 0 -0.084297773186445962 0.39217279846007119 0 -0.071788917171084016 0.3809272333041443 0 -0.063154715464804681 0.39516467689365731 0 -0.084297773186445962 0.39217279846007119 0 -0.071788917171084016 0.3809272333041443 0 -0.063154715464804681 0.39516467689365731 0 -0.071788917171084016 0.3809272333041443 0 -0.056875823715872062 0.37631267096962301 0 -0.04149310004589906 0.37124785083274592 0 -0.056875823715872062 0.37631267096962301 0 -0.04338349465279491 0.38811939282985902 0 -0.063154715464804681 0.39516467689365731 0 -0.056875823715872062 0.37631267096962301 0 -0.04338349465279491 0.38811939282985902 0 -0.063154715464804681 0.39516467689365731 0 -0.04338349465279491 0.38811939282985902 0 -0.049329429094603867 0.41198700835812702 0 -0.04338349465279491 0.38811939282985902 0 -0.024844401122877391 0.39948633252540261 0 -0.049329429094603867 0.41198700835812702 0 -0.024169526760701381 0.37267007813580277 0 -0.04149310004589906 0.37124785083274592 0 -0.04338349465279491 0.38811939282985902 0 -0.024169526760701381 0.37267007813580277 0 -0.04338349465279491 0.38811939282985902 0 -0.024844401122877391 0.39948633252540261 0 -0.024169526760701381 0.37267007813580277 0 -0.024844401122877391 0.39948633252540261 0 -0.0045342830833226501 0.3863935686212247 0 -0.024844401122877391 0.39948633252540261 0 -0.0045342830833226501 0.3863935686212247 0 -0.0038092142255275289 0.41137928311071797 0 -0.0045342830833226501 0.3863935686212247 0 -0.0038092142255275289 0.41137928311071797 0 -0.024169526760701381 0.37267007813580277 0 -0.0045342830833226501 0.3863935686212247 0 -0.0030841453677343121 0.43636499760021141 0 -0.0038092142255275289 0.41137928311071797 0 -0.026324668085478481 0.42779129271708288 0 -0.0030841453677343121 0.43636499760021141 0 -0.0038092142255275289 0.41137928311071797 0 -0.024844401122877391 0.39948633252540261 0 -0.0038092142255275289 0.41137928311071797 0 -0.026324668085478481 0.42779129271708288 0 -0.026324668085478481 0.42779129271708288 0 -0.049329429094603867 0.41198700835812702 0 -0.049413859365407042 0.43472239834070731 0 -0.024844401122877391 0.39948633252540261 0 -0.026324668085478481 0.42779129271708288 0 -0.049329429094603867 0.41198700835812702 0 -0.074152812153798875 0.41302729649400538 0 -0.063154715464804681 0.39516467689365731 0 -0.049329429094603867 0.41198700835812702 0 -0.066022972602334681 0.42956105407568013 0 -0.049329429094603867 0.41198700835812702 0 -0.049413859365407042 0.43472239834070731 0 -0.066022972602334681 0.42956105407568013 0 -0.049413859365407042 0.43472239834070731 0 -0.0708836913324285 0.45273085842607269 0 -0.0393713920190637 0.45112048084748302 0 -0.052402143273794041 0.47435943831340011 0 -0.0708836913324285 0.45273085842607269 0 -0.049413859365407042 0.43472239834070731 0 -0.0393713920190637 0.45112048084748302 0 -0.0708836913324285 0.45273085842607269 0 -0.0393713920190637 0.45112048084748302 0 -0.02876560419008364 0.47203163756026523 0 -0.052402143273794041 0.47435943831340011 0 -0.026324668085478481 0.42779129271708288 0 -0.049413859365407042 0.43472239834070731 0 -0.0393713920190637 0.45112048084748302 0 -0.0030841453677343121 0.43636499760021141 0 -0.026324668085478481 0.42779129271708288 0 -0.01888650882967766 0.45329231687868837 0 -0.026324668085478481 0.42779129271708288 0 -0.0393713920190637 0.45112048084748302 0 -0.01888650882967766 0.45329231687868837 0 -0.0393713920190637 0.45112048084748302 0 -0.01888650882967766 0.45329231687868837 0 -0.02876560419008364 0.47203163756026523 0 -0.01888650882967766 0.45329231687868837 0 -0.01341416680576474 0.47109478045738301 0 -0.02876560419008364 0.47203163756026523 0 -0.01888650882967766 0.45329231687868837 0 -0.002359076509941094 0.46135071208970457 0 -0.01341416680576474 0.47109478045738301 0 -0.0030841453677343121 0.43636499760021141 0 -0.01888650882967766 0.45329231687868837 0 -0.002359076509941094 0.46135071208970457 0 -0.0030841453677343121 0.43636499760021141 0 -0.002359076509941094 0.46135071208970457 0 -0.0090346539348886701 0.5 0 -0.0016340076521478781 0.48633642657919801 0 -0.017460482120078509 0.48648722646036041 0 -0.0016340076521478781 0.48633642657919801 0 -0.01341416680576474 0.47109478045738301 0 -0.017460482120078509 0.48648722646036041 0 -0.002359076509941094 0.46135071208970457 0 -0.0016340076521478781 0.48633642657919801 0 -0.01341416680576474 0.47109478045738301 0 -0.002359076509941094 0.46135071208970457 0 -0.0016340076521478781 0.48633642657919801 0 -0.002359076509941094 0.46135071208970457 0 -0.0016340076521478781 0.48633642657919801 0 0.0036787250480955699 0.47408322248379448 0 -0.01341416680576474 0.47109478045738301 0 -0.02876560419008364 0.47203163756026523 0 -0.017460482120078509 0.48648722646036041 0 -0.02876560419008364 0.47203163756026523 0 -0.017460482120078509 0.48648722646036041 0 -0.038135422162237087 0.5 0 -0.0090346539348886701 0.5 0 -0.017460482120078509 0.48648722646036041 0 -0.038135422162237087 0.5 0 -0.02876560419008364 0.47203163756026523 0 -0.038135422162237087 0.5 0 -0.052402143273794041 0.47435943831340011 0 -0.038135422162237087 0.5 0 -0.052402143273794041 0.47435943831340011 0 -0.067236190389585393 0.5 0 -0.052402143273794041 0.47435943831340011 0 -0.067236190389585393 0.5 0 -0.073349005429332273 0.47921852398434828 0 -0.067236190389585393 0.5 0 -0.073349005429332273 0.47921852398434828 0 -0.096336958616933588 0.5 0 -0.073349005429332273 0.47921852398434828 0 -0.096336958616933588 0.5 0 -0.093805091172543903 0.47224368257650851 0 -0.052402143273794041 0.47435943831340011 0 -0.073349005429332273 0.47921852398434828 0 -0.0708836913324285 0.45273085842607269 0 -0.0708836913324285 0.45273085842607269 0 -0.1043361340672995 0.45358667135048331 0 -0.093805091172543903 0.47224368257650851 0 -0.090582213275806372 0.43325937369158968 0 -0.0708836913324285 0.45273085842607269 0 -0.1043361340672995 0.45358667135048331 0 -0.090582213275806372 0.43325937369158968 0 -0.066022972602334681 0.42956105407568013 0 -0.0708836913324285 0.45273085842607269 0 -0.090582213275806372 0.43325937369158968 0 -0.0708836913324285 0.45273085842607269 0 -0.073349005429332273 0.47921852398434828 0 -0.0708836913324285 0.45273085842607269 0 -0.093805091172543903 0.47224368257650851 0 -0.1043361340672995 0.45358667135048331 0 -0.12052644250191399 0.4682622397032008 0 -0.093805091172543903 0.47224368257650851 0 -0.1104760497445479 0.43296770510105842 0 -0.090582213275806372 0.43325937369158968 0 -0.1043361340672995 0.45358667135048331 0 -0.12618187852634369 0.45882241462805679 0 -0.1043361340672995 0.45358667135048331 0 -0.1248743097581413 0.44162978393037222 0 -0.1104760497445479 0.43296770510105842 0 -0.1043361340672995 0.45358667135048331 0 -0.1248743097581413 0.44162978393037222 0 -0.12618187852634369 0.45882241462805679 0 -0.1043361340672995 0.45358667135048331 0 -0.12052644250191399 0.4682622397032008 0 -0.1317912103042716 0.47600940211286807 0 -0.12052644250191399 0.4682622397032008 0 -0.11642361318749669 0.48420448820259387 0 -0.12052644250191399 0.4682622397032008 0 -0.11642361318749669 0.48420448820259387 0 -0.093805091172543903 0.47224368257650851 0 -0.12543772684428189 0.5 0 -0.11642361318749669 0.48420448820259387 0 -0.096336958616933588 0.5 0 -0.12543772684428189 0.5 0 -0.13178312884530541 0.48627570230508688 0 -0.11642361318749669 0.48420448820259387 0 -0.11642361318749669 0.48420448820259387 0 -0.096336958616933588 0.5 0 -0.093805091172543903 0.47224368257650851 0 -0.1693268494853358 0.079538523923443544 0 -0.16945340910355561 0.089496265134995978 0 -0.1618062267740645 0.07958177760614682 0 -0.16945340910355561 0.089496265134995978 0 -0.1618062267740645 0.07958177760614682 0 -0.1616157516695074 0.095139316102685473 0 -0.1618062267740645 0.07958177760614682 0 -0.1616157516695074 0.095139316102685473 0 -0.14767322655010931 0.084806545451415583 0 -0.1618062267740645 0.07958177760614682 0 -0.16640070467345031 0.07104807823334372 0 -0.15517576509654349 0.068304766057398533 0 -0.16640070467345031 0.07104807823334372 0 -0.15517576509654349 0.068304766057398533 0 -0.16451238623864939 0.061110077383343737 0 -0.16640070467345031 0.07104807823334372 0 -0.17354141001077031 0.063798093567348918 0 -0.16451238623864939 0.061110077383343737 0 -0.17157411485926041 0.074087910936242465 0 -0.16640070467345031 0.07104807823334372 0 -0.17354141001077031 0.063798093567348918 0 -0.1693268494853358 0.079538523923443544 0 -0.17157411485926041 0.074087910936242465 0 -0.16640070467345031 0.07104807823334372 0 -0.1693268494853358 0.079538523923443544 0 -0.1618062267740645 0.07958177760614682 0 -0.16640070467345031 0.07104807823334372 0 -0.17354141001077031 0.063798093567348918 0 -0.17702749526748529 0.081966948020833708 0 -0.17656426821359539 0.052679136019797047 0 -0.18185637422210199 0.067243003367259677 0 -0.17702749526748529 0.081966948020833708 0 -0.17656426821359539 0.052679136019797047 0 -0.17702749526748529 0.081966948020833708 0 -0.17656426821359539 0.052679136019797047 0 -0.17157411485926041 0.074087910936242465 0 -0.17354141001077031 0.063798093567348918 0 -0.17702749526748529 0.081966948020833708 0 -0.18185637422210199 0.067243003367259677 0 -0.1853153676200878 0.058850167416455039 0 -0.18892740292417859 0.064703221589215376 0 -0.18185637422210199 0.067243003367259677 0 -0.19050021368002351 0.072419239531055349 0 -0.18892740292417859 0.064703221589215376 0 -0.18185637422210199 0.067243003367259677 0 -0.18141962227324601 0.075216957450553817 0 -0.17702749526748529 0.081966948020833708 0 -0.18185637422210199 0.067243003367259677 0 -0.18141962227324601 0.075216957450553817 0 -0.19050021368002351 0.072419239531055349 0 -0.18141962227324601 0.075216957450553817 0 -0.1867192510276118 0.077748512173410014 0 -0.19050021368002351 0.072419239531055349 0 -0.18141962227324601 0.075216957450553817 0 -0.1867192510276118 0.077748512173410014 0 -0.1819129998543452 0.079414551687582866 0 -0.18248563084903771 0.082725789105533951 0 -0.17702749526748529 0.081966948020833708 0 -0.17749072232138041 0.1112547600218704 0 -0.1867192510276118 0.077748512173410014 0 -0.18248563084903771 0.082725789105533951 0 -0.1819129998543452 0.079414551687582866 0 -0.18141962227324601 0.075216957450553817 0 -0.1819129998543452 0.079414551687582866 0 -0.17702749526748529 0.081966948020833708 0 -0.18248563084903771 0.082725789105533951 0 -0.1819129998543452 0.079414551687582866 0 -0.17702749526748529 0.081966948020833708 0 -0.1693268494853358 0.079538523923443544 0 -0.16945340910355561 0.089496265134995978 0 -0.17702749526748529 0.081966948020833708 0 -0.1693268494853358 0.079538523923443544 0 -0.17157411485926041 0.074087910936242465 0 -0.17702749526748529 0.081966948020833708 0 -0.17702749526748529 0.081966948020833708 0 -0.17749072232138041 0.1112547600218704 0 -0.16945340910355561 0.089496265134995978 0 -0.17702749526748529 0.081966948020833708 0 -0.17749072232138041 0.1112547600218704 0 -0.17749072232138041 0.1112547600218704 0 -0.1951643137470572 0.093770439387570487 0 -0.18248563084903771 0.082725789105533951 0 -0.17749072232138041 0.1112547600218704 0 -0.1951643137470572 0.093770439387570487 0 -0.17749072232138041 0.1112547600218704 0 -0.19150979458678249 0.1243728737611647 0 -0.17789558253256721 0.1368522929207025 0 -0.17749072232138041 0.1112547600218704 0 -0.17789558253256721 0.1368522929207025 0 -0.17749072232138041 0.1112547600218704 0 -0.16113979031376621 0.12743058591966341 0 -0.17749072232138041 0.1112547600218704 0 -0.15084139672814201 0.110160429760413 0 -0.16113979031376621 0.12743058591966341 0 -0.17749072232138041 0.1112547600218704 0 -0.1616157516695074 0.095139316102685473 0 -0.15084139672814201 0.110160429760413 0 -0.16945340910355561 0.089496265134995978 0 -0.17749072232138041 0.1112547600218704 0 -0.1616157516695074 0.095139316102685473 0 -0.1616157516695074 0.095139316102685473 0 -0.15084139672814201 0.110160429760413 0 -0.14767322655010931 0.084806545451415583 0 -0.15084139672814201 0.110160429760413 0 -0.1348328660863515 0.097215266237156234 0 -0.14767322655010931 0.084806545451415583 0 -0.15084139672814201 0.110160429760413 0 -0.13137241316615089 0.11357835761918721 0 -0.14300315410871919 0.1253406317882016 0 -0.15084139672814201 0.110160429760413 0 -0.16113979031376621 0.12743058591966341 0 -0.14300315410871919 0.1253406317882016 0 -0.13137241316615089 0.11357835761918721 0 -0.14300315410871919 0.1253406317882016 0 -0.12687331202938101 0.13192737382428379 0 -0.13137241316615089 0.11357835761918721 0 -0.1348328660863515 0.097215266237156234 0 -0.1198812247159142 0.095002477965890675 0 -0.15084139672814201 0.110160429760413 0 -0.13137241316615089 0.11357835761918721 0 -0.1348328660863515 0.097215266237156234 0 -0.1348328660863515 0.097215266237156234 0 -0.12533951967512769 0.078274991835817334 0 -0.1198812247159142 0.095002477965890675 0 -0.1348328660863515 0.097215266237156234 0 -0.12533951967512769 0.078274991835817334 0 -0.14767322655010931 0.084806545451415583 0 -0.1618062267740645 0.07958177760614682 0 -0.14767322655010931 0.084806545451415583 0 -0.15517576509654349 0.068304766057398533 0 -0.14767322655010931 0.084806545451415583 0 -0.15517576509654349 0.068304766057398533 0 -0.14001017723872511 0.063978020277280875 0 -0.12533951967512769 0.078274991835817334 0 -0.14767322655010931 0.084806545451415583 0 -0.14001017723872511 0.063978020277280875 0 -0.12533951967512769 0.078274991835817334 0 -0.14001017723872511 0.063978020277280875 0 -0.1248745965026067 0.059896082918310993 0 -0.14001017723872511 0.063978020277280875 0 -0.13626681081840961 0.042829268155062397 0 -0.1248745965026067 0.059896082918310993 0 -0.13626681081840961 0.042829268155062397 0 -0.1339340902388827 0.022300844741854581 0 -0.1180188049733784 0.030804183747700629 0 -0.13626681081840961 0.042829268155062397 0 -0.1339340902388827 0.022300844741854581 0 -0.15968783393996419 0.037567277286728401 0 -0.13626681081840961 0.042829268155062397 0 -0.15351002702878311 0.053877414325468623 0 -0.15968783393996419 0.037567277286728401 0 -0.13626681081840961 0.042829268155062397 0 -0.15968783393996419 0.037567277286728401 0 -0.14001017723872511 0.063978020277280875 0 -0.13626681081840961 0.042829268155062397 0 -0.15351002702878311 0.053877414325468623 0 -0.15517576509654349 0.068304766057398533 0 -0.14001017723872511 0.063978020277280875 0 -0.15351002702878311 0.053877414325468623 0 -0.12735709500343681 0.004015926865657337 0 -0.15177498865293759 0.016606981474429749 0 -0.12735709500343681 0.004015926865657337 0 -0.1339340902388827 0.022300844741854581 0 -0.15177498865293759 0.016606981474429749 0 -0.12735709500343681 0.004015926865657337 0 -0.1339340902388827 0.022300844741854581 0 -0.11835839359799651 0.016938700943610479 0 -0.1339340902388827 0.022300844741854581 0 -0.15177498865293759 0.016606981474429749 0 -0.15968783393996419 0.037567277286728401 0 -0.1339340902388827 0.022300844741854581 0 -0.15968783393996419 0.037567277286728401 0 -0.12735709500343681 0.004015926865657337 0 -0.15177498865293759 0.016606981474429749 0 -0.14801408494475049 0.0031182785745780331 0 -0.15177498865293759 0.016606981474429749 0 -0.14801408494475049 0.0031182785745780331 0 -0.1619193683370386 0.0066468078375689294 0 -0.15773416148281841 -0.0035868741371463562 0 -0.14801408494475049 0.0031182785745780331 0 -0.1619193683370386 0.0066468078375689294 0 -0.15177498865293759 0.016606981474429749 0 -0.1619193683370386 0.0066468078375689294 0 -0.16760309597538539 0.015861310899326669 0 -0.16716832075785379 -0.0032078365625175 0 -0.1619193683370386 0.0066468078375689294 0 -0.17584419881677341 0.0071523107965592754 0 -0.1619193683370386 0.0066468078375689294 0 -0.16760309597538539 0.015861310899326669 0 -0.17584419881677341 0.0071523107965592754 0 -0.15177498865293759 0.016606981474429749 0 -0.17619288230243149 0.029198036083215671 0 -0.15177498865293759 0.016606981474429749 0 -0.17619288230243149 0.029198036083215671 0 -0.15968783393996419 0.037567277286728401 0 -0.15177498865293759 0.016606981474429749 0 -0.16760309597538539 0.015861310899326669 0 -0.17619288230243149 0.029198036083215671 0 -0.17619288230243149 0.029198036083215671 0 -0.1852069371874478 0.015311100034367831 0 -0.17584419881677341 0.0071523107965592754 0 -0.17619288230243149 0.029198036083215671 0 -0.17584419881677341 0.0071523107965592754 0 -0.16760309597538539 0.015861310899326669 0 -0.17619288230243149 0.029198036083215671 0 -0.17584419881677341 0.0071523107965592754 0 -0.17619288230243149 0.029198036083215671 0 -0.19572946351785711 0.039272048382664133 0 -0.19029700863621521 0.024089069561314659 0 -0.17619288230243149 0.029198036083215671 0 -0.1852069371874478 0.015311100034367831 0 -0.19029700863621521 0.024089069561314659 0 -0.1852069371874478 0.015311100034367831 0 -0.18717715497560061 0.0062623078557712403 0 -0.17584419881677341 0.0071523107965592754 0 -0.18154179604087481 -0.0036104187285780349 0 -0.18717715497560061 0.0062623078557712403 0 -0.17584419881677341 0.0071523107965592754 0 -0.15351002702878311 0.053877414325468623 0 -0.1659033968134131 0.050269055427132232 0 -0.15968783393996419 0.037567277286728401 0 -0.1659033968134131 0.050269055427132232 0 -0.16451238623864939 0.061110077383343737 0 -0.17656426821359539 0.052679136019797047 0 -0.17354141001077031 0.063798093567348918 0 -0.16451238623864939 0.061110077383343737 0 -0.17656426821359539 0.052679136019797047 0 -0.16451238623864939 0.061110077383343737 0 -0.17656426821359539 0.052679136019797047 0 -0.15351002702878311 0.053877414325468623 0 -0.1659033968134131 0.050269055427132232 0 -0.16451238623864939 0.061110077383343737 0 -0.15517576509654349 0.068304766057398533 0 -0.15351002702878311 0.053877414325468623 0 -0.16451238623864939 0.061110077383343737 0 -0.15968783393996419 0.037567277286728401 0 -0.1762663423330757 0.033842591165095401 0 -0.1659033968134131 0.050269055427132232 0 -0.15968783393996419 0.037567277286728401 0 -0.1764827173319595 0.047523031967639129 0 -0.17619288230243149 0.029198036083215671 0 -0.15968783393996419 0.037567277286728401 0 -0.1762663423330757 0.033842591165095401 0 -0.15968783393996419 0.037567277286728401 0 -0.1764827173319595 0.047523031967639129 0 -0.15968783393996419 0.037567277286728401 0 -0.1762663423330757 0.033842591165095401 0 -0.1764827173319595 0.047523031967639129 0 -0.17619288230243149 0.029198036083215671 0 -0.19572946351785711 0.039272048382664133 0 -0.181281627628781 0.040827380692469641 0 -0.18051660755046151 0.049914261515807259 0 -0.1764827173319595 0.047523031967639129 0 -0.17619288230243149 0.029198036083215671 0 -0.1762663423330757 0.033842591165095401 0 -0.19572946351785711 0.039272048382664133 0 -0.1762663423330757 0.033842591165095401 0 -0.181281627628781 0.040827380692469641 0 -0.19572946351785711 0.039272048382664133 0 -0.1762663423330757 0.033842591165095401 0 -0.181281627628781 0.040827380692469641 0 -0.1764827173319595 0.047523031967639129 0 -0.1762663423330757 0.033842591165095401 0 -0.1764827173319595 0.047523031967639129 0 -0.17619288230243149 0.029198036083215671 0 -0.1762663423330757 0.033842591165095401 0 -0.181281627628781 0.040827380692469641 0 -0.18051660755046151 0.049914261515807259 0 -0.19572946351785711 0.039272048382664133 0 -0.18051660755046151 0.049914261515807259 0 -0.17656426821359539 0.052679136019797047 0 -0.1853153676200878 0.058850167416455039 0 -0.18051660755046151 0.049914261515807259 0 -0.1764827173319595 0.047523031967639129 0 -0.1764827173319595 0.047523031967639129 0 -0.17656426821359539 0.052679136019797047 0 -0.1659033968134131 0.050269055427132232 0 -0.1764827173319595 0.047523031967639129 0 -0.17656426821359539 0.052679136019797047 0 -0.18051660755046151 0.049914261515807259 0 -0.1764827173319595 0.047523031967639129 0 -0.17656426821359539 0.052679136019797047 0 -0.18051660755046151 0.049914261515807259 0 -0.17656426821359539 0.052679136019797047 0 -0.18185637422210199 0.067243003367259677 0 -0.17656426821359539 0.052679136019797047 0 -0.1853153676200878 0.058850167416455039 0 -0.1853153676200878 0.058850167416455039 0 -0.19803765617450109 0.060300476042091433 0 -0.18892740292417859 0.064703221589215376 0 -0.18051660755046151 0.049914261515807259 0 -0.19803765617450109 0.060300476042091433 0 -0.1977866825790292 0.05007637869738242 0 -0.18051660755046151 0.049914261515807259 0 -0.1853153676200878 0.058850167416455039 0 -0.19803765617450109 0.060300476042091433 0 -0.18051660755046151 0.049914261515807259 0 -0.19803765617450109 0.060300476042091433 0 -0.19803765617450109 0.060300476042091433 0 -0.1977866825790292 0.05007637869738242 0 -0.2066297839190599 0.054855205218219752 0 -0.18051660755046151 0.049914261515807259 0 -0.1977866825790292 0.05007637869738242 0 -0.19572946351785711 0.039272048382664133 0 -0.18051660755046151 0.049914261515807259 0 -0.19572946351785711 0.039272048382664133 0 -0.19572946351785711 0.039272048382664133 0 -0.2098237389609823 0.029412342647955388 0 -0.1977866825790292 0.05007637869738242 0 -0.19572946351785711 0.039272048382664133 0 -0.2073344650466164 0.045256152092875389 0 -0.19572946351785711 0.039272048382664133 0 -0.2073344650466164 0.045256152092875389 0 -0.2073344650466164 0.045256152092875389 0 -0.21702036639386221 0.038769314305699548 0 -0.2098237389609823 0.029412342647955388 0 -0.19572946351785711 0.039272048382664133 0 -0.2073344650466164 0.045256152092875389 0 -0.2098237389609823 0.029412342647955388 0 -0.21702036639386221 0.038769314305699548 0 -0.2098237389609823 0.029412342647955388 0 -0.2284051488343061 0.035137669629428533 0 -0.2073344650466164 0.045256152092875389 0 -0.21702036639386221 0.038769314305699548 0 -0.22251811273354419 0.045271092852538893 0 -0.2073344650466164 0.045256152092875389 0 -0.21769334509658461 0.055951218203848879 0 -0.22251811273354419 0.045271092852538893 0 -0.21769334509658461 0.055951218203848879 0 -0.20947987249717179 0.060448397508133619 0 -0.2066297839190599 0.054855205218219752 0 -0.21769334509658461 0.055951218203848879 0 -0.20947987249717179 0.060448397508133619 0 -0.2155587047985415 0.070686690568374386 0 -0.19803765617450109 0.060300476042091433 0 -0.20947987249717179 0.060448397508133619 0 -0.2066297839190599 0.054855205218219752 0 -0.1977866825790292 0.05007637869738242 0 -0.2073344650466164 0.045256152092875389 0 -0.2066297839190599 0.054855205218219752 0 -0.2073344650466164 0.045256152092875389 0 -0.21769334509658461 0.055951218203848879 0 -0.2066297839190599 0.054855205218219752 0 -0.1989264366345522 -0.0080023544535597537 0 -0.1965234412062255 0.0098537758749781944 0 -0.20713549204565579 6.5395444916274768e-05 0 -0.19066530249761049 -0.0041303576494283751 0 -0.18717715497560061 0.0062623078557712403 0 -0.1965234412062255 0.0098537758749781944 0 -0.1852069371874478 0.015311100034367831 0 -0.18717715497560061 0.0062623078557712403 0 -0.1965234412062255 0.0098537758749781944 0 -0.1965234412062255 0.0098537758749781944 0 -0.20113962024173071 0.02227838771243261 0 -0.2107847094499361 0.011405203725301251 0 -0.19572946351785711 0.039272048382664133 0 -0.20113962024173071 0.02227838771243261 0 -0.2098237389609823 0.029412342647955388 0 -0.19572946351785711 0.039272048382664133 0 -0.20113962024173071 0.02227838771243261 0 -0.19029700863621521 0.024089069561314659 0 -0.1965234412062255 0.0098537758749781944 0 -0.20113962024173071 0.02227838771243261 0 -0.19029700863621521 0.024089069561314659 0 -0.1852069371874478 0.015311100034367831 0 -0.1965234412062255 0.0098537758749781944 0 -0.19029700863621521 0.024089069561314659 0 -0.2098237389609823 0.029412342647955388 0 -0.2107847094499361 0.011405203725301251 0 -0.22391801440410891 0.019552636913248388 0 -0.20113962024173071 0.02227838771243261 0 -0.2098237389609823 0.029412342647955388 0 -0.2107847094499361 0.011405203725301251 0 -0.2098237389609823 0.029412342647955388 0 -0.22391801440410891 0.019552636913248388 0 -0.21702438745170211 -0.0043907958627755336 0 -0.2107847094499361 0.011405203725301251 0 -0.20713549204565579 6.5395444916274768e-05 0 -0.21702438745170211 -0.0043907958627755336 0 -0.2107847094499361 0.011405203725301251 0 -0.22391801440410891 0.019552636913248388 0 -0.1965234412062255 0.0098537758749781944 0 -0.2107847094499361 0.011405203725301251 0 -0.20713549204565579 6.5395444916274768e-05 0 -0.22867745033346079 0.0038692188645070222 0 -0.22391801440410891 0.019552636913248388 0 -0.2344599051246074 0.012178015861532989 0 -0.21702438745170211 -0.0043907958627755336 0 -0.22391801440410891 0.019552636913248388 0 -0.21702438745170211 -0.0043907958627755336 0 -0.22867745033346079 0.0038692188645070222 0 -0.22391801440410891 0.019552636913248388 0 -0.22391801440410891 0.019552636913248388 0 -0.2403792472176362 0.02548084658656756 0 -0.2344599051246074 0.012178015861532989 0 -0.2098237389609823 0.029412342647955388 0 -0.22391801440410891 0.019552636913248388 0 -0.2284051488343061 0.035137669629428533 0 -0.22391801440410891 0.019552636913248388 0 -0.2403792472176362 0.02548084658656756 0 -0.2284051488343061 0.035137669629428533 0 -0.22391801440410891 0.019552636913248388 0 -0.2344599051246074 0.012178015861532989 0 -0.22391801440410891 0.019552636913248388 0 -0.2284051488343061 0.035137669629428533 0 -0.2522816967992324 0.037264740289820159 0 -0.25157722050270093 0.012682655753942951 0 -0.2403792472176362 0.02548084658656756 0 -0.25157722050270093 0.012682655753942951 0 -0.2403792472176362 0.02548084658656756 0 -0.2344599051246074 0.012178015861532989 0 -0.25267499080189931 -0.0034516002120552492 0 -0.25157722050270093 0.012682655753942951 0 -0.2401015516947359 0.00075261550232862703 0 -0.25157722050270093 0.012682655753942951 0 -0.2344599051246074 0.012178015861532989 0 -0.2401015516947359 0.00075261550232862703 0 -0.22867745033346079 0.0038692188645070222 0 -0.2344599051246074 0.012178015861532989 0 -0.2401015516947359 0.00075261550232862703 0 -0.21769334509658461 0.055951218203848879 0 -0.23255980098598539 0.056775429521547523 0 -0.2155587047985415 0.070686690568374386 0 -0.23289228326450309 0.050722702345608793 0 -0.22641588552015429 0.052180110730886013 0 -0.22251811273354419 0.045271092852538893 0 -0.23289228326450309 0.050722702345608793 0 -0.23255980098598539 0.056775429521547523 0 -0.22641588552015429 0.052180110730886013 0 -0.21769334509658461 0.055951218203848879 0 -0.23255980098598539 0.056775429521547523 0 -0.22641588552015429 0.052180110730886013 0 -0.21769334509658461 0.055951218203848879 0 -0.22641588552015429 0.052180110730886013 0 -0.22251811273354419 0.045271092852538893 0 -0.21702036639386221 0.038769314305699548 0 -0.22251811273354419 0.045271092852538893 0 -0.2284051488343061 0.035137669629428533 0 -0.23289228326450309 0.050722702345608793 0 -0.22251811273354419 0.045271092852538893 0 -0.2284051488343061 0.035137669629428533 0 -0.23289228326450309 0.050722702345608793 0 -0.2284051488343061 0.035137669629428533 0 -0.2522816967992324 0.037264740289820159 0 -0.2403792472176362 0.02548084658656756 0 -0.2284051488343061 0.035137669629428533 0 -0.2522816967992324 0.037264740289820159 0 -0.23289228326450309 0.050722702345608793 0 -0.2284051488343061 0.035137669629428533 0 -0.2522816967992324 0.037264740289820159 0 -0.23289228326450309 0.050722702345608793 0 -0.23255980098598539 0.056775429521547523 0 -0.2522816967992324 0.037264740289820159 0 -0.23255980098598539 0.056775429521547523 0 -0.2522816967992324 0.037264740289820159 0 -0.23255980098598539 0.056775429521547523 0 -0.24906194248509719 0.058488871325365822 0 -0.23255980098598539 0.056775429521547523 0 -0.24906194248509719 0.058488871325365822 0 -0.23770452364983391 0.071010308971772351 0 -0.26257114212692878 0.06573449919026883 0 -0.24906194248509719 0.058488871325365822 0 -0.23770452364983391 0.071010308971772351 0 -0.25261226255175379 0.080423606239198905 0 -0.23770452364983391 0.071010308971772351 0 -0.23158356521460469 0.085326977986282804 0 -0.25261226255175379 0.080423606239198905 0 -0.23158356521460469 0.085326977986282804 0 -0.24377998071086901 0.096378574065869249 0 -0.23158356521460469 0.085326977986282804 0 -0.21283790517273879 0.076286118753275345 0 -0.22135706029896429 0.097751395037259853 0 -0.23158356521460469 0.085326977986282804 0 -0.22135706029896429 0.097751395037259853 0 -0.24377998071086901 0.096378574065869249 0 -0.23255980098598539 0.056775429521547523 0 -0.21283790517273879 0.076286118753275345 0 -0.23770452364983391 0.071010308971772351 0 -0.23158356521460469 0.085326977986282804 0 -0.21283790517273879 0.076286118753275345 0 -0.23255980098598539 0.056775429521547523 0 -0.23770452364983391 0.071010308971772351 0 -0.21283790517273879 0.076286118753275345 0 -0.23255980098598539 0.056775429521547523 0 -0.21283790517273879 0.076286118753275345 0 -0.2155587047985415 0.070686690568374386 0 -0.23770452364983391 0.071010308971772351 0 -0.21283790517273879 0.076286118753275345 0 -0.19803765617450109 0.060300476042091433 0 -0.20947987249717179 0.060448397508133619 0 -0.2155587047985415 0.070686690568374386 0 -0.19803765617450109 0.060300476042091433 0 -0.20333782300263301 0.070680183335342567 0 -0.2155587047985415 0.070686690568374386 0 -0.19803765617450109 0.060300476042091433 0 -0.2155587047985415 0.070686690568374386 0 -0.21283790517273879 0.076286118753275345 0 -0.19766176801088831 0.079505953929404904 0 -0.20333782300263301 0.070680183335342567 0 -0.21283790517273879 0.076286118753275345 0 -0.19766176801088831 0.079505953929404904 0 -0.20333782300263301 0.070680183335342567 0 -0.21283790517273879 0.076286118753275345 0 -0.2155587047985415 0.070686690568374386 0 -0.21283790517273879 0.076286118753275345 0 -0.1951643137470572 0.093770439387570487 0 -0.22135706029896429 0.097751395037259853 0 -0.21283790517273879 0.076286118753275345 0 -0.1951643137470572 0.093770439387570487 0 -0.21283790517273879 0.076286118753275345 0 -0.19766176801088831 0.079505953929404904 0 -0.1951643137470572 0.093770439387570487 0 -0.18248563084903771 0.082725789105533951 0 -0.19766176801088831 0.079505953929404904 0 -0.1951643137470572 0.093770439387570487 0 -0.1867192510276118 0.077748512173410014 0 -0.18248563084903771 0.082725789105533951 0 -0.19766176801088831 0.079505953929404904 0 -0.18248563084903771 0.082725789105533951 0 -0.19766176801088831 0.079505953929404904 0 -0.1867192510276118 0.077748512173410014 0 -0.19766176801088831 0.079505953929404904 0 -0.19050021368002351 0.072419239531055349 0 -0.19803765617450109 0.060300476042091433 0 -0.19050021368002351 0.072419239531055349 0 -0.18892740292417859 0.064703221589215376 0 -0.19803765617450109 0.060300476042091433 0 -0.20333782300263301 0.070680183335342567 0 -0.19050021368002351 0.072419239531055349 0 -0.20333782300263301 0.070680183335342567 0 -0.19766176801088831 0.079505953929404904 0 -0.19050021368002351 0.072419239531055349 0 -0.17749072232138041 0.1112547600218704 0 -0.19150979458678249 0.1243728737611647 0 -0.1951643137470572 0.093770439387570487 0 -0.19150979458678249 0.1243728737611647 0 -0.1951643137470572 0.093770439387570487 0 -0.20994497012605751 0.11823125198409511 0 -0.1951643137470572 0.093770439387570487 0 -0.20994497012605751 0.11823125198409511 0 -0.22135706029896429 0.097751395037259853 0 -0.20994497012605751 0.11823125198409511 0 -0.2348316268224595 0.11651500804646669 0 -0.2235388627286797 0.12965651036182041 0 -0.20994497012605751 0.11823125198409511 0 -0.22135706029896429 0.097751395037259853 0 -0.2348316268224595 0.11651500804646669 0 -0.22135706029896429 0.097751395037259853 0 -0.24377998071086901 0.096378574065869249 0 -0.2348316268224595 0.11651500804646669 0 -0.25136603029008331 0.1103208693098497 0 -0.24377998071086901 0.096378574065869249 0 -0.2348316268224595 0.11651500804646669 0 -0.25922316449870308 0.12628093809151891 0 -0.25136603029008331 0.1103208693098497 0 -0.2348316268224595 0.11651500804646669 0 -0.25922316449870308 0.12628093809151891 0 -0.2348316268224595 0.11651500804646669 0 -0.2369615480924761 0.1404602413506009 0 -0.2369615480924761 0.1404602413506009 0 -0.2235388627286797 0.12965651036182041 0 -0.2124173058737257 0.14341954006611901 0 -0.2348316268224595 0.11651500804646669 0 -0.2369615480924761 0.1404602413506009 0 -0.2235388627286797 0.12965651036182041 0 -0.2369615480924761 0.1404602413506009 0 -0.22679867445049531 0.16064067306310431 0 -0.2124173058737257 0.14341954006611901 0 -0.2369615480924761 0.1404602413506009 0 -0.247018622616726 0.15992587597476091 0 -0.22679867445049531 0.16064067306310431 0 -0.25846103874104392 0.14702121199507179 0 -0.2369615480924761 0.1404602413506009 0 -0.247018622616726 0.15992587597476091 0 -0.247018622616726 0.15992587597476091 0 -0.23359887481107691 0.1809086922627815 0 -0.247018622616726 0.15992587597476091 0 -0.23359887481107691 0.1809086922627815 0 -0.22679867445049531 0.16064067306310431 0 -0.26439180367967152 0.18225540552070321 0 -0.247018622616726 0.15992587597476091 0 -0.23359887481107691 0.1809086922627815 0 -0.23359887481107691 0.1809086922627815 0 -0.20517995294037331 0.17379218369948349 0 -0.2201791270054278 0.2018915085508021 0 -0.23359887481107691 0.1809086922627815 0 -0.22679867445049531 0.16064067306310431 0 -0.20517995294037331 0.17379218369948349 0 -0.22679867445049531 0.16064067306310431 0 -0.20517995294037331 0.17379218369948349 0 -0.2124173058737257 0.14341954006611901 0 -0.20517995294037331 0.17379218369948349 0 -0.19274338499996449 0.14807478539393409 0 -0.17830044274374979 0.16244982581953471 0 -0.19150979458678249 0.1243728737611647 0 -0.19274338499996449 0.14807478539393409 0 -0.2124173058737257 0.14341954006611901 0 -0.20994497012605751 0.11823125198409511 0 -0.2235388627286797 0.12965651036182041 0 -0.2124173058737257 0.14341954006611901 0 -0.19150979458678249 0.1243728737611647 0 -0.20994497012605751 0.11823125198409511 0 -0.2124173058737257 0.14341954006611901 0 -0.20517995294037331 0.17379218369948349 0 -0.19274338499996449 0.14807478539393409 0 -0.2124173058737257 0.14341954006611901 0 -0.22371849106378741 0.2462845034026982 0 -0.23019370483249479 0.22382880503591951 0 -0.2066863838603582 0.24242880758937649 0 -0.22371849106378741 0.2462845034026982 0 -0.23951274761537589 0.2474853768326048 0 -0.23019370483249479 0.22382880503591951 0 -0.25272375818517617 0.22994970808158929 0 -0.25621817608628389 0.2460965770837312 0 -0.23951274761537589 0.2474853768326048 0 -0.25370102580463139 0.2052288024824625 0 -0.25272375818517617 0.22994970808158929 0 -0.23019370483249479 0.22382880503591951 0 -0.25272375818517617 0.22994970808158929 0 -0.23951274761537589 0.2474853768326048 0 -0.23019370483249479 0.22382880503591951 0 -0.25370102580463139 0.2052288024824625 0 -0.23359887481107691 0.1809086922627815 0 -0.2201791270054278 0.2018915085508021 0 -0.25370102580463139 0.2052288024824625 0 -0.23019370483249479 0.22382880503591951 0 -0.2201791270054278 0.2018915085508021 0 -0.23019370483249479 0.22382880503591951 0 -0.2201791270054278 0.2018915085508021 0 -0.20675937919977869 0.22287432483882261 0 -0.25370102580463139 0.2052288024824625 0 -0.23019370483249479 0.22382880503591951 0 -0.23359887481107691 0.1809086922627815 0 -0.2201791270054278 0.2018915085508021 0 -0.20517995294037331 0.17379218369948349 0 -0.2201791270054278 0.2018915085508021 0 -0.19686056424972551 0.20437535499954981 0 -0.20517995294037331 0.17379218369948349 0 -0.19686056424972551 0.20437535499954981 0 -0.17870530295493239 0.18804735871836689 0 -0.19686056424972551 0.20437535499954981 0 -0.20675937919977869 0.22287432483882261 0 -0.19122946023172571 0.22600186257262461 0 -0.19686056424972551 0.20437535499954981 0 -0.19122946023172571 0.22600186257262461 0 -0.179110163166115 0.21364489161719899 0 -0.2201791270054278 0.2018915085508021 0 -0.19686056424972551 0.20437535499954981 0 -0.20675937919977869 0.22287432483882261 0 -0.2201791270054278 0.2018915085508021 0 -0.20675937919977869 0.22287432483882261 0 -0.23019370483249479 0.22382880503591951 0 -0.2066863838603582 0.24242880758937649 0 -0.23019370483249479 0.22382880503591951 0 -0.20675937919977869 0.22287432483882261 0 -0.2066863838603582 0.24242880758937649 0 -0.20675937919977869 0.22287432483882261 0 -0.19333963139412971 0.24385714112684301 0 -0.20675937919977869 0.22287432483882261 0 -0.19122946023172571 0.22600186257262461 0 -0.19333963139412971 0.24385714112684301 0 -0.19122946023172571 0.22600186257262461 0 -0.19333963139412971 0.24385714112684301 0 -0.17951502337729761 0.2392424245160312 0 -0.20675937919977869 0.22287432483882261 0 -0.19333963139412971 0.24385714112684301 0 -0.2066863838603582 0.24242880758937649 0 -0.18259587964237009 0.2606558300825601 0 -0.19333963139412971 0.24385714112684301 0 -0.2066863838603582 0.24242880758937649 0 -0.21408768962570049 0.25938306782852782 0 -0.22371849106378741 0.2462845034026982 0 -0.2066863838603582 0.24242880758937649 0 -0.1532221513837192 0.25419418888983192 0 -0.17951502337729761 0.2392424245160312 0 -0.15110003921584569 0.22881829817408891 0 -0.18259587964237009 0.2606558300825601 0 -0.19333963139412971 0.24385714112684301 0 -0.17951502337729761 0.2392424245160312 0 -0.17951502337729761 0.2392424245160312 0 -0.1619547442009632 0.2162214427956837 0 -0.179110163166115 0.21364489161719899 0 -0.19122946023172571 0.22600186257262461 0 -0.17951502337729761 0.2392424245160312 0 -0.179110163166115 0.21364489161719899 0 -0.17951502337729761 0.2392424245160312 0 -0.179110163166115 0.21364489161719899 0 -0.17951502337729761 0.2392424245160312 0 -0.1619547442009632 0.2162214427956837 0 -0.15110003921584569 0.22881829817408891 0 -0.1619547442009632 0.2162214427956837 0 -0.179110163166115 0.21364489161719899 0 -0.17870530295493239 0.18804735871836689 0 -0.19686056424972551 0.20437535499954981 0 -0.179110163166115 0.21364489161719899 0 -0.17870530295493239 0.18804735871836689 0 -0.179110163166115 0.21364489161719899 0 -0.17870530295493239 0.18804735871836689 0 -0.1619547442009632 0.2162214427956837 0 -0.17870530295493239 0.18804735871836689 0 -0.15775407484820861 0.18727827749961631 0 -0.14804225966403101 0.20585853828705919 0 -0.15775407484820861 0.18727827749961631 0 -0.13876353146598761 0.18223131465273959 0 -0.1619547442009632 0.2162214427956837 0 -0.14804225966403101 0.20585853828705919 0 -0.15775407484820861 0.18727827749961631 0 -0.13876353146598761 0.18223131465273959 0 -0.1245765098090509 0.17966052017845999 0 -0.1190175871807343 0.20067046473278771 0 -0.14804225966403101 0.20585853828705919 0 -0.13876353146598761 0.18223131465273959 0 -0.1190175871807343 0.20067046473278771 0 -0.14804225966403101 0.20585853828705919 0 -0.13479108425045189 0.2189379304695287 0 -0.1190175871807343 0.20067046473278771 0 -0.13479108425045189 0.2189379304695287 0 -0.12594818007053379 0.2253828658525201 0 -0.1190175871807343 0.20067046473278771 0 -0.1619547442009632 0.2162214427956837 0 -0.14804225966403101 0.20585853828705919 0 -0.15110003921584569 0.22881829817408891 0 -0.14804225966403101 0.20585853828705919 0 -0.15110003921584569 0.22881829817408891 0 -0.13479108425045189 0.2189379304695287 0 -0.15110003921584569 0.22881829817408891 0 -0.13479108425045189 0.2189379304695287 0 -0.1378537507735782 0.22769286600650679 0 -0.15110003921584569 0.22881829817408891 0 -0.1378537507735782 0.22769286600650679 0 -0.13827307027013019 0.2362506378269415 0 -0.13479108425045189 0.2189379304695287 0 -0.12594818007053379 0.2253828658525201 0 -0.1378537507735782 0.22769286600650679 0 -0.12594818007053379 0.2253828658525201 0 -0.1378537507735782 0.22769286600650679 0 -0.13827307027013019 0.2362506378269415 0 -0.12594818007053379 0.2253828658525201 0 -0.13827307027013019 0.2362506378269415 0 -0.1327712538659816 0.24971188635390451 0 -0.12594818007053379 0.2253828658525201 0 -0.1327712538659816 0.24971188635390451 0 -0.1532221513837192 0.25419418888983192 0 -0.15110003921584569 0.22881829817408891 0 -0.13827307027013019 0.2362506378269415 0 -0.1532221513837192 0.25419418888983192 0 -0.13827307027013019 0.2362506378269415 0 -0.1327712538659816 0.24971188635390451 0 -0.16317411874061041 0.14897554401654969 0 -0.16113979031376621 0.12743058591966341 0 -0.1447888583061562 0.1436064118174607 0 -0.16317411874061041 0.14897554401654969 0 -0.16113979031376621 0.12743058591966341 0 -0.17789558253256721 0.1368522929207025 0 -0.17749072232138041 0.1112547600218704 0 -0.16113979031376621 0.12743058591966341 0 -0.17789558253256721 0.1368522929207025 0 -0.19150979458678249 0.1243728737611647 0 -0.19274338499996449 0.14807478539393409 0 -0.17789558253256721 0.1368522929207025 0 -0.16317411874061041 0.14897554401654969 0 -0.17789558253256721 0.1368522929207025 0 -0.17830044274374979 0.16244982581953471 0 -0.17789558253256721 0.1368522929207025 0 -0.17830044274374979 0.16244982581953471 0 -0.19274338499996449 0.14807478539393409 0 -0.17789558253256721 0.1368522929207025 0 -0.17830044274374979 0.16244982581953471 0 -0.20517995294037331 0.17379218369948349 0 -0.17870530295493239 0.18804735871836689 0 -0.17830044274374979 0.16244982581953471 0 -0.17870530295493239 0.18804735871836689 0 -0.17830044274374979 0.16244982581953471 0 -0.17870530295493239 0.18804735871836689 0 -0.17830044274374979 0.16244982581953471 0 -0.15775407484820861 0.18727827749961631 0 -0.17830044274374979 0.16244982581953471 0 -0.15775407484820861 0.18727827749961631 0 -0.15245232938168229 0.1648839185887534 0 -0.16317411874061041 0.14897554401654969 0 -0.17830044274374979 0.16244982581953471 0 -0.15245232938168229 0.1648839185887534 0 -0.15775407484820861 0.18727827749961631 0 -0.15245232938168229 0.1648839185887534 0 -0.13876353146598761 0.18223131465273959 0 -0.13876353146598761 0.18223131465273959 0 -0.12843792629854631 0.15978223771525801 0 -0.1245765098090509 0.17966052017845999 0 -0.15245232938168229 0.1648839185887534 0 -0.13876353146598761 0.18223131465273959 0 -0.12843792629854631 0.15978223771525801 0 -0.12843792629854631 0.15978223771525801 0 -0.1447888583061562 0.1436064118174607 0 -0.12843792629854631 0.15978223771525801 0 -0.1447888583061562 0.1436064118174607 0 -0.1204435081575875 0.14623213693654391 0 -0.16317411874061041 0.14897554401654969 0 -0.15245232938168229 0.1648839185887534 0 -0.1447888583061562 0.1436064118174607 0 -0.15245232938168229 0.1648839185887534 0 -0.12843792629854631 0.15978223771525801 0 -0.1447888583061562 0.1436064118174607 0 -0.16113979031376621 0.12743058591966341 0 -0.1447888583061562 0.1436064118174607 0 -0.14300315410871919 0.1253406317882016 0 -0.16113979031376621 0.12743058591966341 0 -0.1447888583061562 0.1436064118174607 0 -0.1447888583061562 0.1436064118174607 0 -0.12687331202938101 0.13192737382428379 0 -0.1204435081575875 0.14623213693654391 0 -0.1447888583061562 0.1436064118174607 0 -0.14300315410871919 0.1253406317882016 0 -0.12687331202938101 0.13192737382428379 0 -0.12687331202938101 0.13192737382428379 0 -0.1130049083687871 0.13722853083192951 0 -0.10667563132183119 0.1260080396076822 0 -0.12687331202938101 0.13192737382428379 0 -0.1130049083687871 0.13722853083192951 0 -0.1204435081575875 0.14623213693654391 0 -0.10667563132183119 0.1260080396076822 0 -0.081978849477511453 0.1384377215961772 0 -0.096577670607123245 0.1239972751083621 0 -0.10667563132183119 0.1260080396076822 0 -0.1008242758955458 0.1385116675773613 0 -0.081978849477511453 0.1384377215961772 0 -0.10667563132183119 0.1260080396076822 0 -0.081978849477511453 0.1384377215961772 0 -0.1130049083687871 0.13722853083192951 0 -0.10667563132183119 0.1260080396076822 0 -0.1008242758955458 0.1385116675773613 0 -0.1130049083687871 0.13722853083192951 0 -0.1008242758955458 0.1385116675773613 0 -0.1078791741402548 0.14587794917826699 0 -0.094422293866394627 0.1556947047027778 0 -0.094582816169344081 0.14500609667275041 0 -0.1078791741402548 0.14587794917826699 0 -0.1008242758955458 0.1385116675773613 0 -0.094582816169344081 0.14500609667275041 0 -0.1078791741402548 0.14587794917826699 0 -0.12843792629854631 0.15978223771525801 0 -0.1204435081575875 0.14623213693654391 0 -0.1073217141416921 0.15896651377475199 0 -0.1078791741402548 0.14587794917826699 0 -0.1204435081575875 0.14623213693654391 0 -0.1073217141416921 0.15896651377475199 0 -0.1130049083687871 0.13722853083192951 0 -0.1078791741402548 0.14587794917826699 0 -0.1204435081575875 0.14623213693654391 0 -0.12843792629854631 0.15978223771525801 0 -0.1245765098090509 0.17966052017845999 0 -0.1120869942909358 0.17595806361305491 0 -0.1120869942909358 0.17595806361305491 0 -0.1073217141416921 0.15896651377475199 0 -0.12843792629854631 0.15978223771525801 0 -0.1120869942909358 0.17595806361305491 0 -0.12843792629854631 0.15978223771525801 0 -0.1120869942909358 0.17595806361305491 0 -0.1073217141416921 0.15896651377475199 0 -0.1245765098090509 0.17966052017845999 0 -0.1120869942909358 0.17595806361305491 0 -0.1190175871807343 0.20067046473278771 0 -0.1120869942909358 0.17595806361305491 0 -0.1020860412129876 0.1687304780430319 0 -0.095149617161195271 0.19271405424946009 0 -0.1020860412129876 0.1687304780430319 0 -0.095149617161195271 0.19271405424946009 0 -0.1120869942909358 0.17595806361305491 0 -0.095149617161195271 0.19271405424946009 0 -0.1020860412129876 0.1687304780430319 0 -0.093279947424905002 0.17994671451597891 0 -0.095149617161195271 0.19271405424946009 0 -0.1020860412129876 0.1687304780430319 0 -0.089956478385260899 0.16811851343374709 0 -0.093279947424905002 0.17994671451597891 0 -0.094422293866394627 0.1556947047027778 0 -0.1078791741402548 0.14587794917826699 0 -0.1020860412129876 0.1687304780430319 0 -0.1078791741402548 0.14587794917826699 0 -0.1073217141416921 0.15896651377475199 0 -0.1020860412129876 0.1687304780430319 0 -0.1120869942909358 0.17595806361305491 0 -0.1073217141416921 0.15896651377475199 0 -0.1020860412129876 0.1687304780430319 0 -0.1078791741402548 0.14587794917826699 0 -0.1020860412129876 0.1687304780430319 0 -0.094422293866394627 0.1556947047027778 0 -0.1020860412129876 0.1687304780430319 0 -0.089956478385260899 0.16811851343374709 0 -0.094422293866394627 0.1556947047027778 0 -0.089956478385260899 0.16811851343374709 0 -0.084742563178951485 0.15922574422532609 0 -0.089956478385260899 0.16811851343374709 0 -0.080023232193096983 0.1657260639694961 0 -0.084742563178951485 0.15922574422532609 0 -0.089956478385260899 0.16811851343374709 0 -0.080023232193096983 0.1657260639694961 0 -0.081293191825158789 0.17801619480298669 0 -0.080023232193096983 0.1657260639694961 0 -0.084742563178951485 0.15922574422532609 0 -0.074930767296401246 0.15918989644816289 0 -0.081293191825158789 0.17801619480298669 0 -0.095149617161195271 0.19271405424946009 0 -0.073474196407973841 0.19079473501472519 0 -0.081293191825158789 0.17801619480298669 0 -0.095149617161195271 0.19271405424946009 0 -0.093279947424905002 0.17994671451597891 0 -0.081293191825158789 0.17801619480298669 0 -0.095149617161195271 0.19271405424946009 0 -0.089956478385260899 0.16811851343374709 0 -0.093279947424905002 0.17994671451597891 0 -0.081293191825158789 0.17801619480298669 0 -0.064604308801312821 0.18244611143699499 0 -0.069549912031587807 0.17131438064227461 0 -0.073474196407973841 0.19079473501472519 0 -0.081293191825158789 0.17801619480298669 0 -0.069549912031587807 0.17131438064227461 0 -0.073474196407973841 0.19079473501472519 0 -0.069549912031587807 0.17131438064227461 0 -0.073474196407973841 0.19079473501472519 0 -0.064604308801312821 0.18244611143699499 0 -0.069549912031587807 0.17131438064227461 0 -0.062041409668937363 0.1723934095439342 0 -0.084742563178951485 0.15922574422532609 0 -0.074930767296401246 0.15918989644816289 0 -0.074588176879671189 0.15080810715310269 0 -0.080023232193096983 0.1657260639694961 0 -0.074930767296401246 0.15918989644816289 0 -0.06743676648912228 0.16331833535651319 0 -0.081293191825158789 0.17801619480298669 0 -0.069549912031587807 0.17131438064227461 0 -0.06743676648912228 0.16331833535651319 0 -0.080023232193096983 0.1657260639694961 0 -0.081293191825158789 0.17801619480298669 0 -0.06743676648912228 0.16331833535651319 0 -0.081293191825158789 0.17801619480298669 0 -0.06743676648912228 0.16331833535651319 0 -0.069549912031587807 0.17131438064227461 0 -0.062031688412593149 0.16441565219234799 0 -0.062041409668937363 0.1723934095439342 0 -0.069549912031587807 0.17131438064227461 0 -0.06743676648912228 0.16331833535651319 0 -0.062031688412593149 0.16441565219234799 0 -0.06743676648912228 0.16331833535651319 0 -0.06725389334219653 0.15771987894696021 0 -0.062031688412593149 0.16441565219234799 0 -0.074930767296401246 0.15918989644816289 0 -0.06743676648912228 0.16331833535651319 0 -0.06725389334219653 0.15771987894696021 0 -0.081978849477511453 0.1384377215961772 0 -0.05728206763319247 0.1508674035846734 0 -0.06725389334219653 0.15771987894696021 0 -0.074588176879671189 0.15080810715310269 0 -0.05728206763319247 0.1508674035846734 0 -0.074588176879671189 0.15080810715310269 0 -0.081978849477511453 0.1384377215961772 0 -0.05728206763319247 0.1508674035846734 0 -0.081978849477511453 0.1384377215961772 0 -0.06070043620975589 0.134524720015781 0 -0.05728206763319247 0.1508674035846734 0 -0.074930767296401246 0.15918989644816289 0 -0.06725389334219653 0.15771987894696021 0 -0.074588176879671189 0.15080810715310269 0 -0.071786582042575819 0.1280585334591178 0 -0.081978849477511453 0.1384377215961772 0 -0.08034823769671974 0.121089655777625 0 -0.071786582042575819 0.1280585334591178 0 -0.081978849477511453 0.1384377215961772 0 -0.06070043620975589 0.134524720015781 0 -0.071786582042575819 0.1280585334591178 0 -0.06070043620975589 0.134524720015781 0 -0.06411880478631618 0.11818203644688791 0 -0.081978849477511453 0.1384377215961772 0 -0.08034823769671974 0.121089655777625 0 -0.096577670607123245 0.1239972751083621 0 -0.1008242758955458 0.1385116675773613 0 -0.094582816169344081 0.14500609667275041 0 -0.081978849477511453 0.1384377215961772 0 -0.094582816169344081 0.14500609667275041 0 -0.081978849477511453 0.1384377215961772 0 -0.0854808471676783 0.14892295327365951 0 -0.094422293866394627 0.1556947047027778 0 -0.084742563178951485 0.15922574422532609 0 -0.0854808471676783 0.14892295327365951 0 -0.094422293866394627 0.1556947047027778 0 -0.094582816169344081 0.14500609667275041 0 -0.0854808471676783 0.14892295327365951 0 -0.084742563178951485 0.15922574422532609 0 -0.074588176879671189 0.15080810715310269 0 -0.0854808471676783 0.14892295327365951 0 -0.074588176879671189 0.15080810715310269 0 -0.081978849477511453 0.1384377215961772 0 -0.0854808471676783 0.14892295327365951 0 -0.1045487088169635 0.24438495162540061 0 -0.11455994162881621 0.23631135170566109 0 -0.098826177075254387 0.23394696074010041 0 -0.10005120432924321 0.25626016583208688 0 -0.094679029848152713 0.24609146959404629 0 -0.1045487088169635 0.24438495162540061 0 -0.094679029848152713 0.24609146959404629 0 -0.1045487088169635 0.24438495162540061 0 -0.098826177075254387 0.23394696074010041 0 -0.116744543106582 0.25728181003509248 0 -0.1045487088169635 0.24438495162540061 0 -0.11455994162881621 0.23631135170566109 0 -0.116744543106582 0.25728181003509248 0 -0.1327712538659816 0.24971188635390451 0 -0.11455994162881621 0.23631135170566109 0 -0.12594818007053379 0.2253828658525201 0 -0.1327712538659816 0.24971188635390451 0 -0.11455994162881621 0.23631135170566109 0 -0.11455994162881621 0.23631135170566109 0 -0.1144435087069731 0.2232582902708152 0 -0.1063794885369051 0.22193246116811141 0 -0.12594818007053379 0.2253828658525201 0 -0.1144435087069731 0.2232582902708152 0 -0.1108864245916369 0.20940648235696879 0 -0.12594818007053379 0.2253828658525201 0 -0.11455994162881621 0.23631135170566109 0 -0.1144435087069731 0.2232582902708152 0 -0.11455994162881621 0.23631135170566109 0 -0.1063794885369051 0.22193246116811141 0 -0.098826177075254387 0.23394696074010041 0 -0.1063794885369051 0.22193246116811141 0 -0.098826177075254387 0.23394696074010041 0 -0.089950704149474564 0.21660149084549701 0 -0.1063794885369051 0.22193246116811141 0 -0.089950704149474564 0.21660149084549701 0 -0.10053720550511509 0.21148400771379949 0 -0.095149617161195271 0.19271405424946009 0 -0.089950704149474564 0.21660149084549701 0 -0.1063794885369051 0.22193246116811141 0 -0.10053720550511509 0.21148400771379949 0 -0.089950704149474564 0.21660149084549701 0 -0.10053720550511509 0.21148400771379949 0 -0.1108864245916369 0.20940648235696879 0 -0.095149617161195271 0.19271405424946009 0 -0.1063794885369051 0.22193246116811141 0 -0.10053720550511509 0.21148400771379949 0 -0.1108864245916369 0.20940648235696879 0 -0.12594818007053379 0.2253828658525201 0 -0.1190175871807343 0.20067046473278771 0 -0.12594818007053379 0.2253828658525201 0 -0.1108864245916369 0.20940648235696879 0 -0.1190175871807343 0.20067046473278771 0 -0.12594818007053379 0.2253828658525201 0 -0.1108864245916369 0.20940648235696879 0 -0.1144435087069731 0.2232582902708152 0 -0.1063794885369051 0.22193246116811141 0 -0.1108864245916369 0.20940648235696879 0 -0.1120869942909358 0.17595806361305491 0 -0.1190175871807343 0.20067046473278771 0 -0.1108864245916369 0.20940648235696879 0 -0.1190175871807343 0.20067046473278771 0 -0.10682171669235439 0.1942096232944058 0 -0.1120869942909358 0.17595806361305491 0 -0.1190175871807343 0.20067046473278771 0 -0.10682171669235439 0.1942096232944058 0 -0.1108864245916369 0.20940648235696879 0 -0.095149617161195271 0.19271405424946009 0 -0.1108864245916369 0.20940648235696879 0 -0.10682171669235439 0.1942096232944058 0 -0.095149617161195271 0.19271405424946009 0 -0.1120869942909358 0.17595806361305491 0 -0.10682171669235439 0.1942096232944058 0 -0.095149617161195271 0.19271405424946009 0 -0.095149617161195271 0.19271405424946009 0 -0.077398480784349299 0.2102750893871779 0 -0.095149617161195271 0.19271405424946009 0 -0.073474196407973841 0.19079473501472519 0 -0.077398480784349299 0.2102750893871779 0 -0.095149617161195271 0.19271405424946009 0 -0.077398480784349299 0.2102750893871779 0 -0.087241526055590657 0.20514135106535239 0 -0.073474196407973841 0.19079473501472519 0 -0.077398480784349299 0.2102750893871779 0 -0.073474196407973841 0.19079473501472519 0 -0.077398480784349299 0.2102750893871779 0 -0.068984895145132993 0.20348567813270921 0 -0.064604308801312821 0.18244611143699499 0 -0.073474196407973841 0.19079473501472519 0 -0.062951628171730722 0.19451437844324071 0 -0.073474196407973841 0.19079473501472519 0 -0.062951628171730722 0.19451437844324071 0 -0.068984895145132993 0.20348567813270921 0 -0.062951628171730722 0.19451437844324071 0 -0.068984895145132993 0.20348567813270921 0 -0.057478398324341332 0.20606456403591589 0 -0.068984895145132993 0.20348567813270921 0 -0.075683327299925024 0.21197187487555791 0 -0.057478398324341332 0.20606456403591589 0 -0.075683327299925024 0.21197187487555791 0 -0.060700713784132942 0.2267940359372384 0 -0.057478398324341332 0.20606456403591589 0 -0.075683327299925024 0.21197187487555791 0 -0.057478398324341332 0.20606456403591589 0 -0.077398480784349299 0.2102750893871779 0 -0.068984895145132993 0.20348567813270921 0 -0.075683327299925024 0.21197187487555791 0 -0.075683327299925024 0.21197187487555791 0 -0.077884159070199604 0.2126860219832131 0 -0.060700713784132942 0.2267940359372384 0 -0.075683327299925024 0.21197187487555791 0 -0.077884159070199604 0.2126860219832131 0 -0.077398480784349299 0.2102750893871779 0 -0.075683327299925024 0.21197187487555791 0 -0.077884159070199604 0.2126860219832131 0 -0.077398480784349299 0.2102750893871779 0 -0.077884159070199604 0.2126860219832131 0 -0.077398480784349299 0.2102750893871779 0 -0.075683327299925024 0.21197187487555791 0 -0.077884159070199604 0.2126860219832131 0 -0.089950704149474564 0.21660149084549701 0 -0.077884159070199604 0.2126860219832131 0 -0.087241526055590657 0.20514135106535239 0 -0.089950704149474564 0.21660149084549701 0 -0.095149617161195271 0.19271405424946009 0 -0.087241526055590657 0.20514135106535239 0 -0.089950704149474564 0.21660149084549701 0 -0.095149617161195271 0.19271405424946009 0 -0.089950704149474564 0.21660149084549701 0 -0.077398480784349299 0.2102750893871779 0 -0.077884159070199604 0.2126860219832131 0 -0.087241526055590657 0.20514135106535239 0 -0.077884159070199604 0.2126860219832131 0 -0.083666647235009842 0.24139059785004849 0 -0.089950704149474564 0.21660149084549701 0 -0.083666647235009842 0.24139059785004849 0 -0.077884159070199604 0.2126860219832131 0 -0.089950704149474564 0.21660149084549701 0 -0.083666647235009842 0.24139059785004849 0 -0.098826177075254387 0.23394696074010041 0 -0.089950704149474564 0.21660149084549701 0 -0.083666647235009842 0.24139059785004849 0 -0.077884159070199604 0.2126860219832131 0 -0.083666647235009842 0.24139059785004849 0 -0.060700713784132942 0.2267940359372384 0 -0.075683327299925024 0.21197187487555791 0 -0.060700713784132942 0.2267940359372384 0 -0.064077212627390134 0.24851538469076631 0 -0.083666647235009842 0.24139059785004849 0 -0.060700713784132942 0.2267940359372384 0 -0.086302411784292182 0.25447467192259482 0 -0.083666647235009842 0.24139059785004849 0 -0.094679029848152713 0.24609146959404629 0 -0.098826177075254387 0.23394696074010041 0 -0.083666647235009842 0.24139059785004849 0 -0.086302411784292182 0.25447467192259482 0 -0.094679029848152713 0.24609146959404629 0 -0.083666647235009842 0.24139059785004849 0 -0.03068766995985707 0.25286978792993342 0 -0.034335222642673788 0.23481172099035691 0 -0.046578861792199937 0.24361118962503389 0 -0.034335222642673788 0.23481172099035691 0 -0.046578861792199937 0.24361118962503389 0 -0.045510089746351297 0.2289623102588538 0 -0.064077212627390134 0.24851538469076631 0 -0.046578861792199937 0.24361118962503389 0 -0.055802081643016588 0.23164020743468811 0 -0.064077212627390134 0.24851538469076631 0 -0.055802081643016588 0.23164020743468811 0 -0.060700713784132942 0.2267940359372384 0 -0.064077212627390134 0.24851538469076631 0 -0.060700713784132942 0.2267940359372384 0 -0.046578861792199937 0.24361118962503389 0 -0.055802081643016588 0.23164020743468811 0 -0.045510089746351297 0.2289623102588538 0 -0.055802081643016588 0.23164020743468811 0 -0.053252725762674542 0.2222055350902031 0 -0.045510089746351297 0.2289623102588538 0 -0.055802081643016588 0.23164020743468811 0 -0.060700713784132942 0.2267940359372384 0 -0.053252725762674542 0.2222055350902031 0 -0.055802081643016588 0.23164020743468811 0 -0.060700713784132942 0.2267940359372384 0 -0.053252725762674542 0.2222055350902031 0 -0.045510089746351297 0.2289623102588538 0 -0.046772345315528908 0.21756655778431969 0 -0.045510089746351297 0.2289623102588538 0 -0.036443083940353373 0.22210497005765251 0 -0.046772345315528908 0.21756655778431969 0 -0.034335222642673788 0.23481172099035691 0 -0.045510089746351297 0.2289623102588538 0 -0.036443083940353373 0.22210497005765251 0 -0.034335222642673788 0.23481172099035691 0 -0.036443083940353373 0.22210497005765251 0 -0.024866254401544021 0.22078734426404351 0 -0.036443083940353373 0.22210497005765251 0 -0.046772345315528908 0.21756655778431969 0 -0.031637039445344017 0.19767931081015269 0 -0.046772345315528908 0.21756655778431969 0 -0.057478398324341332 0.20606456403591589 0 -0.031637039445344017 0.19767931081015269 0 -0.060700713784132942 0.2267940359372384 0 -0.053252725762674542 0.2222055350902031 0 -0.057478398324341332 0.20606456403591589 0 -0.060700713784132942 0.2267940359372384 0 -0.057478398324341332 0.20606456403591589 0 -0.053252725762674542 0.2222055350902031 0 -0.046772345315528908 0.21756655778431969 0 -0.057478398324341332 0.20606456403591589 0 -0.062951628171730722 0.19451437844324071 0 -0.057478398324341332 0.20606456403591589 0 -0.054948738746262903 0.1897910154656581 0 -0.057478398324341332 0.20606456403591589 0 -0.054948738746262903 0.1897910154656581 0 -0.031637039445344017 0.19767931081015269 0 -0.057478398324341332 0.20606456403591589 0 -0.054948738746262903 0.1897910154656581 0 -0.054948738746262903 0.1897910154656581 0 -0.031637039445344017 0.19767931081015269 0 -0.039999697082172873 0.18418677263352329 0 -0.057478398324341332 0.20606456403591589 0 -0.031637039445344017 0.19767931081015269 0 -0.031637039445344017 0.19767931081015269 0 -0.0057956805663459468 0.1892940575843915 0 -0.031637039445344017 0.19767931081015269 0 -0.0057956805663459468 0.1892940575843915 0 -0.024775833668462071 0.17590936267321361 0 -0.031637039445344017 0.19767931081015269 0 -0.0057956805663459468 0.1892940575843915 0 -0.01019634689217482 0.20814994011246479 0 -0.0057956805663459468 0.1892940575843915 0 -0.01019634689217482 0.20814994011246479 0 0.0090806704795409685 0.20996839310177981 0 -0.01019634689217482 0.20814994011246479 0 0.00014186162909880781 0.2338185852574263 0 0.0090806704795409685 0.20996839310177981 0 -0.036443083940353373 0.22210497005765251 0 -0.031637039445344017 0.19767931081015269 0 -0.024866254401544021 0.22078734426404351 0 -0.031637039445344017 0.19767931081015269 0 -0.01019634689217482 0.20814994011246479 0 -0.024866254401544021 0.22078734426404351 0 -0.034335222642673788 0.23481172099035691 0 -0.024866254401544021 0.22078734426404351 0 -0.01991034591062427 0.239405390953495 0 -0.024866254401544021 0.22078734426404351 0 0.00014186162909880781 0.2338185852574263 0 -0.024866254401544021 0.22078734426404351 0 -0.01991034591062427 0.239405390953495 0 0.00014186162909880781 0.2338185852574263 0 -0.01019634689217482 0.20814994011246479 0 -0.024866254401544021 0.22078734426404351 0 0.00014186162909880781 0.2338185852574263 0 -0.0098044441781452579 0.25473951632571468 0 0.00014186162909880781 0.2338185852574263 0 0.0073806355134042019 0.25529449578482938 0 -0.0098044441781452579 0.25473951632571468 0 -0.01991034591062427 0.239405390953495 0 0.00014186162909880781 0.2338185852574263 0 -0.03068766995985707 0.25286978792993342 0 -0.034335222642673788 0.23481172099035691 0 -0.01991034591062427 0.239405390953495 0 -0.03068766995985707 0.25286978792993342 0 -0.0098044441781452579 0.25473951632571468 0 -0.01991034591062427 0.239405390953495 0 -0.045513089216113363 0.1481501368583191 0 -0.039963318838929777 0.1583549670989208 0 -0.028048700007850699 0.14601834090005769 0 -0.045513089216113363 0.1481501368583191 0 -0.037584816749385713 0.12707105787504261 0 -0.028048700007850699 0.14601834090005769 0 -0.037584816749385713 0.12707105787504261 0 -0.028048700007850699 0.14601834090005769 0 -0.045513089216113363 0.1481501368583191 0 -0.037584816749385713 0.12707105787504261 0 -0.045513089216113363 0.1481501368583191 0 -0.037584816749385713 0.12707105787504261 0 -0.049753839012929922 0.13582205838018921 0 -0.037584816749385713 0.12707105787504261 0 -0.049753839012929922 0.13582205838018921 0 -0.051208231868337763 0.1260313133231428 0 -0.049753839012929922 0.13582205838018921 0 -0.06070043620975589 0.134524720015781 0 -0.052276118599972977 0.1457036522838337 0 -0.051208231868337763 0.1260313133231428 0 -0.06070043620975589 0.134524720015781 0 -0.06411880478631618 0.11818203644688791 0 -0.06070043620975589 0.134524720015781 0 -0.06411880478631618 0.11818203644688791 0 -0.049753839012929922 0.13582205838018921 0 -0.051208231868337763 0.1260313133231428 0 -0.06070043620975589 0.134524720015781 0 -0.06070043620975589 0.134524720015781 0 -0.052276118599972977 0.1457036522838337 0 -0.05728206763319247 0.1508674035846734 0 -0.06070043620975589 0.134524720015781 0 -0.05728206763319247 0.1508674035846734 0 -0.045513089216113363 0.1481501368583191 0 -0.049753839012929922 0.13582205838018921 0 -0.052276118599972977 0.1457036522838337 0 -0.045513089216113363 0.1481501368583191 0 -0.052276118599972977 0.1457036522838337 0 -0.053440893212920608 0.15280063427064891 0 -0.052276118599972977 0.1457036522838337 0 -0.053440893212920608 0.15280063427064891 0 -0.05728206763319247 0.1508674035846734 0 -0.053440893212920608 0.15280063427064891 0 -0.05728206763319247 0.1508674035846734 0 -0.05728206763319247 0.1508674035846734 0 -0.062031688412593149 0.16441565219234799 0 -0.053441361682841117 0.16922921584159559 0 -0.053440893212920608 0.15280063427064891 0 -0.05728206763319247 0.1508674035846734 0 -0.053441361682841117 0.16922921584159559 0 -0.045513089216113363 0.1481501368583191 0 -0.053440893212920608 0.15280063427064891 0 -0.053441361682841117 0.16922921584159559 0 -0.045513089216113363 0.1481501368583191 0 -0.053441361682841117 0.16922921584159559 0 -0.05728206763319247 0.1508674035846734 0 -0.053441361682841117 0.16922921584159559 0 -0.06725389334219653 0.15771987894696021 0 -0.05728206763319247 0.1508674035846734 0 -0.062031688412593149 0.16441565219234799 0 -0.062031688412593149 0.16441565219234799 0 -0.053441361682841117 0.16922921584159559 0 -0.062041409668937363 0.1723934095439342 0 -0.053441361682841117 0.16922921584159559 0 -0.047633738945979477 0.17108968717192211 0 -0.039963318838929777 0.1583549670989208 0 -0.052991971448818453 0.17137768000779441 0 -0.053441361682841117 0.16922921584159559 0 -0.047633738945979477 0.17108968717192211 0 -0.052991971448818453 0.17137768000779441 0 -0.053441361682841117 0.16922921584159559 0 -0.054948738746262903 0.1897910154656581 0 -0.052419079168185397 0.17351746689540021 0 -0.046888846475854867 0.17837904804597579 0 -0.062951628171730722 0.19451437844324071 0 -0.054948738746262903 0.1897910154656581 0 -0.052419079168185397 0.17351746689540021 0 -0.062951628171730722 0.19451437844324071 0 -0.052991971448818453 0.17137768000779441 0 -0.052419079168185397 0.17351746689540021 0 -0.064604308801312821 0.18244611143699499 0 -0.062951628171730722 0.19451437844324071 0 -0.053441361682841117 0.16922921584159559 0 -0.062951628171730722 0.19451437844324071 0 -0.052991971448818453 0.17137768000779441 0 -0.053441361682841117 0.16922921584159559 0 -0.054948738746262903 0.1897910154656581 0 -0.052419079168185397 0.17351746689540021 0 -0.062951628171730722 0.19451437844324071 0 -0.053441361682841117 0.16922921584159559 0 -0.064604308801312821 0.18244611143699499 0 -0.053441361682841117 0.16922921584159559 0 -0.062041409668937363 0.1723934095439342 0 -0.052991971448818453 0.17137768000779441 0 -0.047633738945979477 0.17108968717192211 0 -0.052419079168185397 0.17351746689540021 0 -0.047633738945979477 0.17108968717192211 0 -0.052419079168185397 0.17351746689540021 0 -0.046888846475854867 0.17837904804597579 0 -0.054948738746262903 0.1897910154656581 0 -0.046888846475854867 0.17837904804597579 0 -0.039999697082172873 0.18418677263352329 0 -0.031637039445344017 0.19767931081015269 0 -0.039999697082172873 0.18418677263352329 0 -0.024775833668462071 0.17590936267321361 0 -0.046888846475854867 0.17837904804597579 0 -0.039999697082172873 0.18418677263352329 0 -0.039442978436673673 0.17331029806337539 0 -0.047633738945979477 0.17108968717192211 0 -0.046888846475854867 0.17837904804597579 0 -0.039442978436673673 0.17331029806337539 0 -0.039442978436673673 0.17331029806337539 0 -0.032139483942643897 0.16694135859911591 0 -0.024775833668462071 0.17590936267321361 0 -0.039999697082172873 0.18418677263352329 0 -0.039442978436673673 0.17331029806337539 0 -0.024775833668462071 0.17590936267321361 0 -0.045513089216113363 0.1481501368583191 0 -0.053441361682841117 0.16922921584159559 0 -0.039963318838929777 0.1583549670989208 0 -0.039963318838929777 0.1583549670989208 0 -0.032139483942643897 0.16694135859911591 0 -0.02343924065842673 0.15869802647678349 0 -0.047633738945979477 0.17108968717192211 0 -0.039442978436673673 0.17331029806337539 0 -0.039963318838929777 0.1583549670989208 0 -0.039442978436673673 0.17331029806337539 0 -0.039963318838929777 0.1583549670989208 0 -0.032139483942643897 0.16694135859911591 0 -0.032139483942643897 0.16694135859911591 0 -0.02343924065842673 0.15869802647678349 0 -0.024775833668462071 0.17590936267321361 0 -0.02343924065842673 0.15869802647678349 0 -0.024775833668462071 0.17590936267321361 0 -0.0048034666842798916 0.1614245706846468 0 -0.0057956805663459468 0.1892940575843915 0 -0.024775833668462071 0.17590936267321361 0 -0.0048034666842798916 0.1614245706846468 0 -0.0048034666842798916 0.1614245706846468 0 -0.01090464080839405 0.14353955890474629 0 0.011098566836083609 0.13484946890849181 0 -0.02343924065842673 0.15869802647678349 0 -0.0048034666842798916 0.1614245706846468 0 -0.01090464080839405 0.14353955890474629 0 -0.039963318838929777 0.1583549670989208 0 -0.02343924065842673 0.15869802647678349 0 -0.028048700007850699 0.14601834090005769 0 -0.02343924065842673 0.15869802647678349 0 -0.01090464080839405 0.14353955890474629 0 -0.028048700007850699 0.14601834090005769 0 -0.037584816749385713 0.12707105787504261 0 -0.0187932077553963 0.1304023687453105 0 -0.02482114599867602 0.1199028763409456 0 -0.01090464080839405 0.14353955890474629 0 -0.028048700007850699 0.14601834090005769 0 -0.0187932077553963 0.1304023687453105 0 -0.037584816749385713 0.12707105787504261 0 -0.028048700007850699 0.14601834090005769 0 -0.0187932077553963 0.1304023687453105 0 -0.0064436606074630637 0.13109611639504981 0 -0.007175360702145514 0.1155930690216506 0 0.011098566836083609 0.13484946890849181 0 -0.01090464080839405 0.14353955890474629 0 -0.0064436606074630637 0.13109611639504981 0 0.011098566836083609 0.13484946890849181 0 -0.0187932077553963 0.1304023687453105 0 -0.0064436606074630637 0.13109611639504981 0 -0.007175360702145514 0.1155930690216506 0 -0.01090464080839405 0.14353955890474629 0 -0.0187932077553963 0.1304023687453105 0 -0.0064436606074630637 0.13109611639504981 0 -0.007175360702145514 0.1155930690216506 0 -0.0040088977147468936 0.097024336429998151 0 -0.013655752966245171 0.094180689311720855 0 -0.007175360702145514 0.1155930690216506 0 -0.0040088977147468936 0.097024336429998151 0 0.0025937760044158291 0.1064596481343341 0 -0.007175360702145514 0.1155930690216506 0 -0.013655752966245171 0.094180689311720855 0 -0.02544928824037461 0.096336669134809427 0 -0.029459919491476121 0.1011230655410132 0 -0.021580178673492881 0.1105609364200745 0 -0.037915498494119543 0.10215930426450601 0 -0.007175360702145514 0.1155930690216506 0 -0.02544928824037461 0.096336669134809427 0 -0.007175360702145514 0.1155930690216506 0 -0.02544928824037461 0.096336669134809427 0 -0.0241566231860777 0.1021061234229471 0 -0.02544928824037461 0.096336669134809427 0 -0.029459919491476121 0.1011230655410132 0 -0.035034026511796899 0.0954599165668297 0 -0.02544928824037461 0.096336669134809427 0 -0.029459919491476121 0.1011230655410132 0 -0.0241566231860777 0.1021061234229471 0 -0.02544928824037461 0.096336669134809427 0 -0.0241566231860777 0.1021061234229471 0 -0.029459919491476121 0.1011230655410132 0 -0.0241566231860777 0.1021061234229471 0 -0.021580178673492881 0.1105609364200745 0 -0.02482114599867602 0.1199028763409456 0 -0.021580178673492881 0.1105609364200745 0 -0.032585978911933711 0.11378053360982859 0 -0.007175360702145514 0.1155930690216506 0 -0.0241566231860777 0.1021061234229471 0 -0.021580178673492881 0.1105609364200745 0 -0.0187932077553963 0.1304023687453105 0 -0.007175360702145514 0.1155930690216506 0 -0.02482114599867602 0.1199028763409456 0 -0.007175360702145514 0.1155930690216506 0 -0.02482114599867602 0.1199028763409456 0 -0.021580178673492881 0.1105609364200745 0 -0.01109578586274463 0.07592966442077155 0 -0.01963881101933795 0.057650575484614511 0 -0.0089029190745683329 0.062319161291970238 0 -0.0031702267477386531 0.067180855403790804 0 -0.01109578586274463 0.07592966442077155 0 0.0065236609159091173 0.071671444604676282 0 -0.0031702267477386531 0.067180855403790804 0 -0.0089029190745683329 0.062319161291970238 0 0.00079413703044923156 0.058803151297745167 0 -0.0031702267477386531 0.067180855403790804 0 -0.01109578586274463 0.07592966442077155 0 -0.0089029190745683329 0.062319161291970238 0 -0.0040088977147468936 0.097024336429998151 0 -0.01109578586274463 0.07592966442077155 0 0.011643404763696401 0.092949868607662828 0 -0.0040088977147468936 0.097024336429998151 0 -0.013655752966245171 0.094180689311720855 0 -0.01109578586274463 0.07592966442077155 0 -0.013655752966245171 0.094180689311720855 0 -0.01109578586274463 0.07592966442077155 0 -0.02054943231121421 0.086019707551374502 0 -0.02544928824037461 0.096336669134809427 0 -0.02054943231121421 0.086019707551374502 0 -0.029642132364781061 0.077623064684345475 0 -0.02544928824037461 0.096336669134809427 0 -0.029642132364781061 0.077623064684345475 0 -0.036673455980692451 0.084509049595857907 0 -0.01109578586274463 0.07592966442077155 0 -0.02054943231121421 0.086019707551374502 0 -0.029642132364781061 0.077623064684345475 0 -0.02544928824037461 0.096336669134809427 0 -0.029642132364781061 0.077623064684345475 0 -0.013655752966245171 0.094180689311720855 0 -0.02544928824037461 0.096336669134809427 0 -0.02054943231121421 0.086019707551374502 0 -0.02544928824037461 0.096336669134809427 0 -0.036673455980692451 0.084509049595857907 0 -0.01109578586274463 0.07592966442077155 0 -0.033834976489186493 0.058909460233881362 0 -0.01109578586274463 0.07592966442077155 0 -0.029642132364781061 0.077623064684345475 0 -0.033834976489186493 0.058909460233881362 0 -0.01109578586274463 0.07592966442077155 0 -0.033834976489186493 0.058909460233881362 0 -0.01963881101933795 0.057650575484614511 0 -0.029642132364781061 0.077623064684345475 0 -0.033834976489186493 0.058909460233881362 0 -0.029642132364781061 0.077623064684345475 0 -0.036732086871232597 0.066761861307427367 0 -0.033834976489186493 0.058909460233881362 0 -0.042969512877196837 0.063698159366550891 0 -0.036732086871232597 0.066761861307427367 0 -0.038306240480512441 0.072768089837317376 0 -0.042969512877196837 0.063698159366550891 0 -0.038306240480512441 0.072768089837317376 0 -0.046136221960229658 0.070392563092827029 0 -0.042969512877196837 0.063698159366550891 0 -0.036732086871232597 0.066761861307427367 0 -0.038907572144486188 0.060810532415041758 0 -0.029642132364781061 0.077623064684345475 0 -0.036732086871232597 0.066761861307427367 0 -0.038306240480512441 0.072768089837317376 0 -0.038306240480512441 0.072768089837317376 0 -0.046136221960229658 0.070392563092827029 0 -0.043586306971417507 0.077534071189344175 0 -0.038306240480512441 0.072768089837317376 0 -0.043586306971417507 0.077534071189344175 0 -0.036673455980692451 0.084509049595857907 0 -0.043586306971417507 0.077534071189344175 0 -0.036673455980692451 0.084509049595857907 0 -0.046978765451358998 0.084182386091036676 0 -0.029642132364781061 0.077623064684345475 0 -0.038306240480512441 0.072768089837317376 0 -0.036673455980692451 0.084509049595857907 0 -0.02544928824037461 0.096336669134809427 0 -0.036673455980692451 0.084509049595857907 0 -0.035034026511796899 0.0954599165668297 0 -0.036673455980692451 0.084509049595857907 0 -0.044089979176562301 0.093675305350012283 0 -0.035034026511796899 0.0954599165668297 0 -0.036673455980692451 0.084509049595857907 0 -0.044089979176562301 0.093675305350012283 0 -0.046978765451358998 0.084182386091036676 0 -0.044089979176562301 0.093675305350012283 0 -0.057144835734191893 0.088207312209507505 0 -0.046978765451358998 0.084182386091036676 0 -0.057144835734191893 0.088207312209507505 0 -0.046978765451358998 0.084182386091036676 0 -0.053399249393930842 0.076986192110461482 0 -0.043586306971417507 0.077534071189344175 0 -0.046978765451358998 0.084182386091036676 0 -0.053399249393930842 0.076986192110461482 0 -0.053399249393930842 0.076986192110461482 0 -0.070406408885084593 0.061857930521202607 0 -0.059815066152941319 0.061788281472960463 0 -0.057144835734191893 0.088207312209507505 0 -0.053399249393930842 0.076986192110461482 0 -0.070406408885084593 0.061857930521202607 0 -0.046136221960229658 0.070392563092827029 0 -0.043586306971417507 0.077534071189344175 0 -0.053399249393930842 0.076986192110461482 0 -0.046136221960229658 0.070392563092827029 0 -0.053399249393930842 0.076986192110461482 0 -0.05257832837313995 0.068950164376806455 0 -0.053399249393930842 0.076986192110461482 0 -0.05257832837313995 0.068950164376806455 0 -0.059815066152941319 0.061788281472960463 0 -0.05257832837313995 0.068950164376806455 0 -0.052166049838275927 0.062310195238599278 0 -0.059815066152941319 0.061788281472960463 0 -0.046136221960229658 0.070392563092827029 0 -0.05257832837313995 0.068950164376806455 0 -0.052166049838275927 0.062310195238599278 0 -0.042969512877196837 0.063698159366550891 0 -0.046136221960229658 0.070392563092827029 0 -0.052166049838275927 0.062310195238599278 0 -0.021580178673492881 0.1105609364200745 0 -0.043883262583300407 0.11455669389781301 0 -0.021580178673492881 0.1105609364200745 0 -0.043883262583300407 0.11455669389781301 0 -0.032585978911933711 0.11378053360982859 0 -0.037584816749385713 0.12707105787504261 0 -0.051208231868337763 0.1260313133231428 0 -0.043883262583300407 0.11455669389781301 0 -0.037584816749385713 0.12707105787504261 0 -0.043883262583300407 0.11455669389781301 0 -0.037584816749385713 0.12707105787504261 0 -0.032585978911933711 0.11378053360982859 0 -0.037584816749385713 0.12707105787504261 0 -0.043883262583300407 0.11455669389781301 0 -0.032585978911933711 0.11378053360982859 0 -0.037584816749385713 0.12707105787504261 0 -0.02482114599867602 0.1199028763409456 0 -0.032585978911933711 0.11378053360982859 0 -0.021580178673492881 0.1105609364200745 0 -0.043883262583300407 0.11455669389781301 0 -0.037915498494119543 0.10215930426450601 0 -0.044089979176562301 0.093675305350012283 0 -0.043883262583300407 0.11455669389781301 0 -0.037915498494119543 0.10215930426450601 0 -0.044089979176562301 0.093675305350012283 0 -0.037915498494119543 0.10215930426450601 0 -0.035034026511796899 0.0954599165668297 0 -0.029459919491476121 0.1011230655410132 0 -0.037915498494119543 0.10215930426450601 0 -0.035034026511796899 0.0954599165668297 0 -0.044089979176562301 0.093675305350012283 0 -0.057144835734191893 0.088207312209507505 0 -0.043883262583300407 0.11455669389781301 0 -0.057144835734191893 0.088207312209507505 0 -0.043883262583300407 0.11455669389781301 0 -0.057144835734191893 0.088207312209507505 0 -0.043883262583300407 0.11455669389781301 0 -0.056175626513735713 0.104231459755559 0 -0.056175626513735713 0.104231459755559 0 -0.061770267295803899 0.1005995653590098 0 -0.06411880478631618 0.11818203644688791 0 -0.057144835734191893 0.088207312209507505 0 -0.056175626513735713 0.104231459755559 0 -0.061770267295803899 0.1005995653590098 0 -0.043883262583300407 0.11455669389781301 0 -0.06411880478631618 0.11818203644688791 0 -0.051208231868337763 0.1260313133231428 0 -0.043883262583300407 0.11455669389781301 0 -0.06411880478631618 0.11818203644688791 0 -0.043883262583300407 0.11455669389781301 0 -0.056175626513735713 0.104231459755559 0 -0.06411880478631618 0.11818203644688791 0 -0.071786582042575819 0.1280585334591178 0 -0.06411880478631618 0.11818203644688791 0 -0.08034823769671974 0.121089655777625 0 -0.06411880478631618 0.11818203644688791 0 -0.08034823769671974 0.121089655777625 0 -0.075381325115152609 0.106019298300689 0 -0.06411880478631618 0.11818203644688791 0 -0.08034823769671974 0.121089655777625 0 -0.08034823769671974 0.121089655777625 0 -0.096577670607123245 0.1239972751083621 0 -0.08034823769671974 0.121089655777625 0 -0.092569001324263961 0.1124699312803344 0 -0.096577670607123245 0.1239972751083621 0 -0.08034823769671974 0.121089655777625 0 -0.083967771981719092 0.1102844810624737 0 -0.092569001324263961 0.1124699312803344 0 -0.08034823769671974 0.121089655777625 0 -0.083967771981719092 0.1102844810624737 0 -0.075381325115152609 0.106019298300689 0 -0.087572523790740042 0.10155903889124659 0 -0.082071947835387321 0.094412947715560025 0 -0.09233625647768956 0.091651488650119919 0 -0.083967771981719092 0.1102844810624737 0 -0.092569001324263961 0.1124699312803344 0 -0.087572523790740042 0.10155903889124659 0 -0.083967771981719092 0.1102844810624737 0 -0.087572523790740042 0.10155903889124659 0 -0.075381325115152609 0.106019298300689 0 -0.087572523790740042 0.10155903889124659 0 -0.082071947835387321 0.094412947715560025 0 -0.075381325115152609 0.106019298300689 0 -0.06411880478631618 0.11818203644688791 0 -0.06964180214897181 0.091777453024084701 0 -0.082071947835387321 0.094412947715560025 0 -0.075381325115152609 0.106019298300689 0 -0.06964180214897181 0.091777453024084701 0 -0.06411880478631618 0.11818203644688791 0 -0.075381325115152609 0.106019298300689 0 -0.06964180214897181 0.091777453024084701 0 -0.061770267295803899 0.1005995653590098 0 -0.06411880478631618 0.11818203644688791 0 -0.06964180214897181 0.091777453024084701 0 -0.057144835734191893 0.088207312209507505 0 -0.061770267295803899 0.1005995653590098 0 -0.06964180214897181 0.091777453024084701 0 -0.06964180214897181 0.091777453024084701 0 -0.075164799511626648 0.065372869601281192 0 -0.057144835734191893 0.088207312209507505 0 -0.06964180214897181 0.091777453024084701 0 -0.068089461569968729 0.076803891339018993 0 -0.06964180214897181 0.091777453024084701 0 -0.068089461569968729 0.076803891339018993 0 -0.075164799511626648 0.065372869601281192 0 -0.057144835734191893 0.088207312209507505 0 -0.068089461569968729 0.076803891339018993 0 -0.070406408885084593 0.061857930521202607 0 -0.06964180214897181 0.091777453024084701 0 -0.075164799511626648 0.065372869601281192 0 -0.08073347634316104 0.073575546631144614 0 -0.057144835734191893 0.088207312209507505 0 -0.070406408885084593 0.061857930521202607 0 -0.068089461569968729 0.076803891339018993 0 -0.075164799511626648 0.065372869601281192 0 -0.070406408885084593 0.061857930521202607 0 -0.089923560922876636 0.068178037636278263 0 -0.08578586832533959 0.082170087930996366 0 -0.103675070998617 0.083967309240415983 0 -0.08073347634316104 0.073575546631144614 0 -0.089923560922876636 0.068178037636278263 0 -0.083186879645449088 0.059889597987781727 0 -0.075164799511626648 0.065372869601281192 0 -0.08073347634316104 0.073575546631144614 0 -0.083186879645449088 0.059889597987781727 0 -0.08073347634316104 0.073575546631144614 0 -0.089923560922876636 0.068178037636278263 0 -0.08578586832533959 0.082170087930996366 0 -0.06964180214897181 0.091777453024084701 0 -0.08073347634316104 0.073575546631144614 0 -0.08578586832533959 0.082170087930996366 0 -0.082071947835387321 0.094412947715560025 0 -0.06964180214897181 0.091777453024084701 0 -0.08578586832533959 0.082170087930996366 0 -0.082071947835387321 0.094412947715560025 0 -0.08578586832533959 0.082170087930996366 0 -0.09233625647768956 0.091651488650119919 0 -0.09233625647768956 0.091651488650119919 0 -0.103675070998617 0.083967309240415983 0 -0.10429444750695741 0.1014886749251958 0 -0.08578586832533959 0.082170087930996366 0 -0.09233625647768956 0.091651488650119919 0 -0.103675070998617 0.083967309240415983 0 -0.103675070998617 0.083967309240415983 0 -0.1198812247159142 0.095002477965890675 0 -0.10429444750695741 0.1014886749251958 0 -0.089923560922876636 0.068178037636278263 0 -0.103675070998617 0.083967309240415983 0 -0.10785209906359081 0.065371441260914459 0 -0.12533951967512769 0.078274991835817334 0 -0.103675070998617 0.083967309240415983 0 -0.10785209906359081 0.065371441260914459 0 -0.12533951967512769 0.078274991835817334 0 -0.10785209906359081 0.065371441260914459 0 -0.1248745965026067 0.059896082918310993 0 -0.12533951967512769 0.078274991835817334 0 -0.103675070998617 0.083967309240415983 0 -0.1198812247159142 0.095002477965890675 0 -0.13137241316615089 0.11357835761918721 0 -0.1198812247159142 0.095002477965890675 0 -0.10429444750695741 0.1014886749251958 0 -0.13137241316615089 0.11357835761918721 0 -0.12687331202938101 0.13192737382428379 0 -0.10667563132183119 0.1260080396076822 0 -0.13137241316615089 0.11357835761918721 0 -0.10667563132183119 0.1260080396076822 0 -0.1062978327852654 0.11550845570815239 0 -0.13137241316615089 0.11357835761918721 0 -0.1062978327852654 0.11550845570815239 0 -0.10429444750695741 0.1014886749251958 0 -0.13137241316615089 0.11357835761918721 0 -0.10667563132183119 0.1260080396076822 0 -0.10667563132183119 0.1260080396076822 0 -0.1062978327852654 0.11550845570815239 0 -0.096577670607123245 0.1239972751083621 0 -0.092569001324263961 0.1124699312803344 0 -0.1062978327852654 0.11550845570815239 0 -0.096577670607123245 0.1239972751083621 0 -0.092569001324263961 0.1124699312803344 0 -0.1062978327852654 0.11550845570815239 0 -0.10429444750695741 0.1014886749251958 0 -0.092569001324263961 0.1124699312803344 0 -0.087572523790740042 0.10155903889124659 0 -0.10429444750695741 0.1014886749251958 0 -0.087572523790740042 0.10155903889124659 0 -0.09233625647768956 0.091651488650119919 0 -0.10429444750695741 0.1014886749251958 0 -0.10370969952600501 0.019997694726909911 0 -0.098524362227562057 0.035744340183224317 0 -0.08645931971955316 0.02325136753113614 0 -0.10370969952600501 0.019997694726909911 0 -0.08645931971955316 0.02325136753113614 0 -0.091682611010439896 0.0063963380850077774 0 -0.10370969952600501 0.019997694726909911 0 -0.1180188049733784 0.030804183747700629 0 -0.098524362227562057 0.035744340183224317 0 -0.10370969952600501 0.019997694726909911 0 -0.10877227824827949 0.0075748546359299482 0 -0.091682611010439896 0.0063963380850077774 0 -0.1029392013539359 -0.0085751277431150782 0 -0.10877227824827949 0.0075748546359299482 0 -0.091682611010439896 0.0063963380850077774 0 -0.10370969952600501 0.019997694726909911 0 -0.10877227824827949 0.0075748546359299482 0 -0.11835839359799651 0.016938700943610479 0 -0.1029392013539359 -0.0085751277431150782 0 -0.12735709500343681 0.004015926865657337 0 -0.10877227824827949 0.0075748546359299482 0 -0.12735709500343681 0.004015926865657337 0 -0.10877227824827949 0.0075748546359299482 0 -0.11835839359799651 0.016938700943610479 0 -0.1339340902388827 0.022300844741854581 0 -0.11835839359799651 0.016938700943610479 0 -0.1180188049733784 0.030804183747700629 0 -0.10370969952600501 0.019997694726909911 0 -0.11835839359799651 0.016938700943610479 0 -0.1180188049733784 0.030804183747700629 0 -0.1180188049733784 0.030804183747700629 0 -0.1128457876968547 0.048091259023394652 0 -0.098524362227562057 0.035744340183224317 0 -0.13626681081840961 0.042829268155062397 0 -0.1128457876968547 0.048091259023394652 0 -0.13626681081840961 0.042829268155062397 0 -0.1180188049733784 0.030804183747700629 0 -0.1128457876968547 0.048091259023394652 0 -0.13626681081840961 0.042829268155062397 0 -0.1128457876968547 0.048091259023394652 0 -0.1248745965026067 0.059896082918310993 0 -0.10785209906359081 0.065371441260914459 0 -0.1128457876968547 0.048091259023394652 0 -0.1248745965026067 0.059896082918310993 0 -0.1128457876968547 0.048091259023394652 0 -0.089424764575299687 0.053353249891726941 0 -0.089923560922876636 0.068178037636278263 0 -0.10785209906359081 0.065371441260914459 0 -0.089424764575299687 0.053353249891726941 0 -0.10785209906359081 0.065371441260914459 0 -0.1128457876968547 0.048091259023394652 0 -0.089424764575299687 0.053353249891726941 0 -0.1128457876968547 0.048091259023394652 0 -0.098524362227562057 0.035744340183224317 0 -0.089424764575299687 0.053353249891726941 0 -0.098524362227562057 0.035744340183224317 0 -0.080687796874281473 0.038968286178477703 0 -0.08645931971955316 0.02325136753113614 0 -0.098524362227562057 0.035744340183224317 0 -0.080687796874281473 0.038968286178477703 0 -0.089424764575299687 0.053353249891726941 0 -0.080687796874281473 0.038968286178477703 0 -0.089424764575299687 0.053353249891726941 0 -0.083186879645449088 0.059889597987781727 0 -0.075164799511626648 0.065372869601281192 0 -0.080687796874281473 0.038968286178477703 0 -0.083186879645449088 0.059889597987781727 0 -0.089923560922876636 0.068178037636278263 0 -0.089424764575299687 0.053353249891726941 0 -0.083186879645449088 0.059889597987781727 0 -0.075164799511626648 0.065372869601281192 0 -0.080687796874281473 0.038968286178477703 0 -0.071303082845968715 0.053347503409362687 0 -0.075164799511626648 0.065372869601281192 0 -0.080687796874281473 0.038968286178477703 0 -0.075164799511626648 0.065372869601281192 0 -0.070406408885084593 0.061857930521202607 0 -0.071303082845968715 0.053347503409362687 0 -0.071303082845968715 0.053347503409362687 0 -0.064856269609628314 0.055117702274744398 0 -0.065400139349222536 0.045420728471107522 0 -0.070406408885084593 0.061857930521202607 0 -0.071303082845968715 0.053347503409362687 0 -0.064856269609628314 0.055117702274744398 0 -0.070406408885084593 0.061857930521202607 0 -0.064856269609628314 0.055117702274744398 0 -0.059815066152941319 0.061788281472960463 0 -0.080687796874281473 0.038968286178477703 0 -0.065400139349222536 0.045420728471107522 0 -0.063264057366842208 0.031259222641012697 0 -0.080687796874281473 0.038968286178477703 0 -0.063264057366842208 0.031259222641012697 0 -0.073460039823911166 0.024685388153665749 0 -0.080687796874281473 0.038968286178477703 0 -0.071303082845968715 0.053347503409362687 0 -0.065400139349222536 0.045420728471107522 0 -0.063264057366842208 0.031259222641012697 0 -0.073460039823911166 0.024685388153665749 0 -0.061440697951084179 0.017621877449499421 0 -0.073460039823911166 0.024685388153665749 0 -0.076769634387976737 0.01135693610240161 0 -0.061440697951084179 0.017621877449499421 0 -0.080687796874281473 0.038968286178477703 0 -0.073460039823911166 0.024685388153665749 0 -0.08645931971955316 0.02325136753113614 0 -0.073460039823911166 0.024685388153665749 0 -0.08645931971955316 0.02325136753113614 0 -0.076769634387976737 0.01135693610240161 0 -0.08645931971955316 0.02325136753113614 0 -0.091682611010439896 0.0063963380850077774 0 -0.076769634387976737 0.01135693610240161 0 -0.091682611010439896 0.0063963380850077774 0 -0.078933949510919491 0.00072378658541613432 0 -0.076769634387976737 0.01135693610240161 0 -0.086097875964997059 -0.0058870606910941042 0 -0.091682611010439896 0.0063963380850077774 0 -0.078933949510919491 0.00072378658541613432 0 -0.078933949510919491 0.00072378658541613432 0 -0.076769634387976737 0.01135693610240161 0 -0.068462160169621672 0.0025537029525893409 0 -0.068462160169621672 0.0025537029525893409 0 -0.057836245250817257 0.0062936453779614283 0 -0.061440697951084179 0.017621877449499421 0 -0.076769634387976737 0.01135693610240161 0 -0.068462160169621672 0.0025537029525893409 0 -0.061440697951084179 0.017621877449499421 0 -0.057836245250817257 0.0062936453779614283 0 -0.061440697951084179 0.017621877449499421 0 -0.042678209040760022 0.019440128409622049 0 -0.057836245250817257 0.0062936453779614283 0 -0.042678209040760022 0.019440128409622049 0 -0.044352522143416888 0.0050416822031405977 0 -0.063264057366842208 0.031259222641012697 0 -0.042678209040760022 0.019440128409622049 0 -0.05195897498334151 0.039592758420259042 0 -0.063264057366842208 0.031259222641012697 0 -0.061440697951084179 0.017621877449499421 0 -0.042678209040760022 0.019440128409622049 0 -0.042678209040760022 0.019440128409622049 0 -0.038256592764973757 0.039174794321751791 0 -0.042678209040760022 0.019440128409622049 0 -0.038256592764973757 0.039174794321751791 0 -0.027511467414372541 0.03001296694831072 0 -0.042678209040760022 0.019440128409622049 0 -0.028180513839983729 0.018098474401369 0 -0.027511467414372541 0.03001296694831072 0 -0.042678209040760022 0.019440128409622049 0 -0.032770024037711037 0.0084985419153508525 0 -0.028180513839983729 0.018098474401369 0 -0.032770024037711037 0.0084985419153508525 0 -0.03614709390981162 0.0015378833132510439 0 -0.044352522143416888 0.0050416822031405977 0 -0.029539197120254941 -0.00051038393964639519 0 -0.032770024037711037 0.0084985419153508525 0 -0.03614709390981162 0.0015378833132510439 0 -0.042678209040760022 0.019440128409622049 0 -0.032770024037711037 0.0084985419153508525 0 -0.044352522143416888 0.0050416822031405977 0 -0.042969512877196837 0.063698159366550891 0 -0.047980875447113908 0.056604040506729722 0 -0.052166049838275927 0.062310195238599278 0 -0.047980875447113908 0.056604040506729722 0 -0.052166049838275927 0.062310195238599278 0 -0.055804220694704088 0.051985500715961808 0 -0.064856269609628314 0.055117702274744398 0 -0.059815066152941319 0.061788281472960463 0 -0.055804220694704088 0.051985500715961808 0 -0.052166049838275927 0.062310195238599278 0 -0.059815066152941319 0.061788281472960463 0 -0.055804220694704088 0.051985500715961808 0 -0.064856269609628314 0.055117702274744398 0 -0.065400139349222536 0.045420728471107522 0 -0.055804220694704088 0.051985500715961808 0 -0.047980875447113908 0.056604040506729722 0 -0.055804220694704088 0.051985500715961808 0 -0.046350630683546529 0.050276175962098407 0 -0.055804220694704088 0.051985500715961808 0 -0.05195897498334151 0.039592758420259042 0 -0.046350630683546529 0.050276175962098407 0 -0.065400139349222536 0.045420728471107522 0 -0.055804220694704088 0.051985500715961808 0 -0.05195897498334151 0.039592758420259042 0 -0.065400139349222536 0.045420728471107522 0 -0.063264057366842208 0.031259222641012697 0 -0.05195897498334151 0.039592758420259042 0 -0.042678209040760022 0.019440128409622049 0 -0.05195897498334151 0.039592758420259042 0 -0.038256592764973757 0.039174794321751791 0 -0.05195897498334151 0.039592758420259042 0 -0.038256592764973757 0.039174794321751791 0 -0.046350630683546529 0.050276175962098407 0 -0.038256592764973757 0.039174794321751791 0 -0.033834976489186493 0.058909460233881362 0 -0.038256592764973757 0.039174794321751791 0 -0.038513274033404883 0.055407770980391423 0 -0.033834976489186493 0.058909460233881362 0 -0.038256592764973757 0.039174794321751791 0 -0.046350630683546529 0.050276175962098407 0 -0.038513274033404883 0.055407770980391423 0 -0.038256592764973757 0.039174794321751791 0 -0.033834976489186493 0.058909460233881362 0 -0.02879531395286377 0.050132256585483953 0 -0.046350630683546529 0.050276175962098407 0 -0.038513274033404883 0.055407770980391423 0 -0.042914570065583427 0.057802329486214707 0 -0.036732086871232597 0.066761861307427367 0 -0.033834976489186493 0.058909460233881362 0 -0.038907572144486188 0.060810532415041758 0 -0.038513274033404883 0.055407770980391423 0 -0.033834976489186493 0.058909460233881362 0 -0.038513274033404883 0.055407770980391423 0 -0.033834976489186493 0.058909460233881362 0 -0.038907572144486188 0.060810532415041758 0 -0.042969512877196837 0.063698159366550891 0 -0.038907572144486188 0.060810532415041758 0 -0.042914570065583427 0.057802329486214707 0 -0.038513274033404883 0.055407770980391423 0 -0.038907572144486188 0.060810532415041758 0 -0.042914570065583427 0.057802329486214707 0 -0.047980875447113908 0.056604040506729722 0 -0.046350630683546529 0.050276175962098407 0 -0.042914570065583427 0.057802329486214707 0 -0.042969512877196837 0.063698159366550891 0 -0.047980875447113908 0.056604040506729722 0 -0.042914570065583427 0.057802329486214707 0 -0.033834976489186493 0.058909460233881362 0 -0.01963881101933795 0.057650575484614511 0 -0.02879531395286377 0.050132256585483953 0 -0.01963881101933795 0.057650575484614511 0 -0.02879531395286377 0.050132256585483953 0 -0.02345087553795689 0.044794196301688183 0 -0.01963881101933795 0.057650575484614511 0 -0.02345087553795689 0.044794196301688183 0 -0.012175026131353321 0.050402421608982242 0 -0.02345087553795689 0.044794196301688183 0 -0.014695186475719159 0.0359408453649432 0 -0.012175026131353321 0.050402421608982242 0 -0.038256592764973757 0.039174794321751791 0 -0.02879531395286377 0.050132256585483953 0 -0.02345087553795689 0.044794196301688183 0 -0.038256592764973757 0.039174794321751791 0 -0.02345087553795689 0.044794196301688183 0 -0.027511467414372541 0.03001296694831072 0 -0.02345087553795689 0.044794196301688183 0 -0.014695186475719159 0.0359408453649432 0 -0.027511467414372541 0.03001296694831072 0 -0.014695186475719159 0.0359408453649432 0 -0.0023331541944977092 0.045311556235899067 0 0.00074240361007229996 0.028778475488121531 0 -0.014695186475719159 0.0359408453649432 0 -0.0023331541944977092 0.045311556235899067 0 -0.012175026131353321 0.050402421608982242 0 -0.0023331541944977092 0.045311556235899067 0 -0.012175026131353321 0.050402421608982242 0 0.00079413703044923156 0.058803151297745167 0 -0.012175026131353321 0.050402421608982242 0 -0.0089029190745683329 0.062319161291970238 0 0.00079413703044923156 0.058803151297745167 0 -0.01963881101933795 0.057650575484614511 0 -0.012175026131353321 0.050402421608982242 0 -0.0089029190745683329 0.062319161291970238 0 -0.021996997598287969 0.010981086364913869 0 -0.02112675760807068 0.0030512678310729521 0 -0.0083058662928979787 0.012079608812324741 0 -0.021996997598287969 0.010981086364913869 0 -0.01661374249992489 0.02103319015209278 0 -0.0083058662928979787 0.012079608812324741 0 -0.021996997598287969 0.010981086364913869 0 -0.02112675760807068 0.0030512678310729521 0 -0.02631380729169577 0.0053104208567875946 0 -0.029539197120254941 -0.00051038393964639519 0 -0.02112675760807068 0.0030512678310729521 0 -0.02631380729169577 0.0053104208567875946 0 -0.029539197120254941 -0.00051038393964639519 0 -0.032770024037711037 0.0084985419153508525 0 -0.02631380729169577 0.0053104208567875946 0 -0.032770024037711037 0.0084985419153508525 0 -0.021996997598287969 0.010981086364913869 0 -0.02631380729169577 0.0053104208567875946 0 -0.032770024037711037 0.0084985419153508525 0 -0.021996997598287969 0.010981086364913869 0 -0.028180513839983729 0.018098474401369 0 -0.028180513839983729 0.018098474401369 0 -0.027511467414372541 0.03001296694831072 0 -0.01661374249992489 0.02103319015209278 0 -0.014695186475719159 0.0359408453649432 0 -0.027511467414372541 0.03001296694831072 0 -0.01661374249992489 0.02103319015209278 0 -0.021996997598287969 0.010981086364913869 0 -0.028180513839983729 0.018098474401369 0 -0.01661374249992489 0.02103319015209278 0 -0.01661374249992489 0.02103319015209278 0 0.00074240361007229996 0.028778475488121531 0 -0.0083058662928979787 0.012079608812324741 0 0.0060294939382754481 0.01286563290641534 0 0.00074240361007229996 0.028778475488121531 0 -0.014695186475719159 0.0359408453649432 0 -0.01661374249992489 0.02103319015209278 0 0.00074240361007229996 0.028778475488121531 0 -0.0083058662928979787 0.012079608812324741 0 0.00074240361007229996 0.028778475488121531 0 -0.01661374249992489 0.02103319015209278 0 -0.0083058662928979787 0.012079608812324741 0 0.00074240361007229996 0.028778475488121531 0 -0.0072764121498596901 -0.0036325873431357339 0 -0.0083058662928979787 0.012079608812324741 0 0.0012074066645448821 -0.00065723147797176382 0 -0.0072764121498596901 -0.0036325873431357339 0 -0.013607688627124061 -0.00178224205395049 0 -0.0083058662928979787 0.012079608812324741 0 -0.017354136195868258 -0.0046192578634720229 0 -0.0083058662928979787 0.012079608812324741 0 -0.017354136195868258 -0.0046192578634720229 0 -0.013607688627124061 -0.00178224205395049 0 -0.0083058662928979787 0.012079608812324741 0 -0.0083058662928979787 0.012079608812324741 0 0.0060294939382754481 0.01286563290641534 0 0.0012074066645448821 -0.00065723147797176382 0 -0.017354136195868258 -0.0046192578634720229 0 -0.02112675760807068 0.0030512678310729521 0 -0.0083058662928979787 0.012079608812324741 0 0.0060294939382754481 0.01286563290641534 0 0.0012074066645448821 -0.00065723147797176382 0 0.01265631079038235 -0.01012693536007268 0 0.0060294939382754481 0.01286563290641534 0 0.020311547060899309 0.014329649790385431 0 0.01265631079038235 -0.01012693536007268 0 0.00074240361007229996 0.028778475488121531 0 0.015746539320639769 0.024046632949657649 0 0.022626785018342459 0.038544513255683338 0 0.0060294939382754481 0.01286563290641534 0 0.00074240361007229996 0.028778475488121531 0 0.015746539320639769 0.024046632949657649 0 0.0060294939382754481 0.01286563290641534 0 0.015746539320639769 0.024046632949657649 0 0.020311547060899309 0.014329649790385431 0 0.015746539320639769 0.024046632949657649 0 0.029022466975609298 0.02571489330768258 0 0.020311547060899309 0.014329649790385431 0 0.015746539320639769 0.024046632949657649 0 0.029022466975609298 0.02571489330768258 0 0.022626785018342459 0.038544513255683338 0 0.020311547060899309 0.014329649790385431 0 0.034885408484197772 0.0062912350017927032 0 0.01265631079038235 -0.01012693536007268 0 0.029022466975609298 0.02571489330768258 0 0.020311547060899309 0.014329649790385431 0 0.034885408484197772 0.0062912350017927032 0 0.00079413703044923156 0.058803151297745167 0 0.01366790099406239 0.052632887419703241 0 0.0065236609159091173 0.071671444604676282 0 -0.0023331541944977092 0.045311556235899067 0 0.00079413703044923156 0.058803151297745167 0 0.01366790099406239 0.052632887419703241 0 0.00074240361007229996 0.028778475488121531 0 0.01366790099406239 0.052632887419703241 0 0.022626785018342459 0.038544513255683338 0 0.00074240361007229996 0.028778475488121531 0 0.022626785018342459 0.038544513255683338 0 -0.0023331541944977092 0.045311556235899067 0 0.00074240361007229996 0.028778475488121531 0 0.01366790099406239 0.052632887419703241 0 0.00074240361007229996 0.028778475488121531 0 0.01366790099406239 0.052632887419703241 0 0.029022466975609298 0.02571489330768258 0 0.022626785018342459 0.038544513255683338 0 0.037630953216902623 0.033668105561091018 0 0.01366790099406239 0.052632887419703241 0 0.022626785018342459 0.038544513255683338 0 0.025434983742737761 0.055249644843112657 0 0.022626785018342459 0.038544513255683338 0 0.025434983742737761 0.055249644843112657 0 0.034616451435572633 0.051242168749322393 0 0.025434983742737761 0.055249644843112657 0 0.034062632092931817 0.061255223706808547 0 0.02703491536905472 0.067401080742933134 0 0.01366790099406239 0.052632887419703241 0 0.025434983742737761 0.055249644843112657 0 0.02703491536905472 0.067401080742933134 0 0.034616451435572633 0.051242168749322393 0 0.044511166426612833 0.04831055102324476 0 0.060132464308973767 0.062986029428160187 0 0.034616451435572633 0.051242168749322393 0 0.060132464308973767 0.062986029428160187 0 0.044258496001147778 0.063884183083345675 0 0.034062632092931817 0.061255223706808547 0 0.034616451435572633 0.051242168749322393 0 0.044258496001147778 0.063884183083345675 0 0.025434983742737761 0.055249644843112657 0 0.034062632092931817 0.061255223706808547 0 0.034616451435572633 0.051242168749322393 0 0.022626785018342459 0.038544513255683338 0 0.044511166426612833 0.04831055102324476 0 0.022626785018342459 0.038544513255683338 0 0.034616451435572633 0.051242168749322393 0 0.044511166426612833 0.04831055102324476 0 0.022626785018342459 0.038544513255683338 0 0.044511166426612833 0.04831055102324476 0 0.037630953216902623 0.033668105561091018 0 0.044511166426612833 0.04831055102324476 0 0.037630953216902623 0.033668105561091018 0 0.0484135161167236 0.034205204957136963 0 0.0484135161167236 0.034205204957136963 0 0.060669767880595721 0.038134724015348051 0 0.0518117103670514 0.042737821036878322 0 0.0484135161167236 0.034205204957136963 0 0.060669767880595721 0.038134724015348051 0 0.057623658326613529 0.02352368721002385 0 0.060669767880595721 0.038134724015348051 0 0.0518117103670514 0.042737821036878322 0 0.059559274975242667 0.047504887075434543 0 0.044511166426612833 0.04831055102324476 0 0.0518117103670514 0.042737821036878322 0 0.059559274975242667 0.047504887075434543 0 0.044511166426612833 0.04831055102324476 0 0.0484135161167236 0.034205204957136963 0 0.0518117103670514 0.042737821036878322 0 0.044511166426612833 0.04831055102324476 0 0.066395547834883203 0.05807658879080619 0 0.060132464308973767 0.062986029428160187 0 0.034616451435572633 0.051242168749322393 0 0.060132464308973767 0.062986029428160187 0 0.044511166426612833 0.04831055102324476 0 0.066395547834883203 0.05807658879080619 0 0.044511166426612833 0.04831055102324476 0 0.059559274975242667 0.047504887075434543 0 0.066395547834883203 0.05807658879080619 0 0.034885408484197772 0.0062912350017927032 0 0.052968053050369737 0.0090809173488315582 0 0.042517259973231587 -0.011683923625132649 0 0.034885408484197772 0.0062912350017927032 0 0.043580831547224863 0.021565365261707499 0 0.052968053050369737 0.0090809173488315582 0 0.029022466975609298 0.02571489330768258 0 0.034885408484197772 0.0062912350017927032 0 0.043580831547224863 0.021565365261707499 0 0.029022466975609298 0.02571489330768258 0 0.037630953216902623 0.033668105561091018 0 0.043580831547224863 0.021565365261707499 0 0.037630953216902623 0.033668105561091018 0 0.0484135161167236 0.034205204957136963 0 0.043580831547224863 0.021565365261707499 0 0.057623658326613529 0.02352368721002385 0 0.052968053050369737 0.0090809173488315582 0 0.071708216805815503 0.016768608491387289 0 0.043580831547224863 0.021565365261707499 0 0.057623658326613529 0.02352368721002385 0 0.052968053050369737 0.0090809173488315582 0 0.0484135161167236 0.034205204957136963 0 0.043580831547224863 0.021565365261707499 0 0.057623658326613529 0.02352368721002385 0 0.052968053050369737 0.0090809173488315582 0 0.071708216805815503 0.016768608491387289 0 0.067492943165135169 -0.0019794682467893379 0 0.083930998993742512 0.0059737405228527038 0 0.071708216805815503 0.016768608491387289 0 0.067492943165135169 -0.0019794682467893379 0 0.083930998993742512 0.0059737405228527038 0 0.098495163759696414 0.0029673617968291321 0 0.094917995650245529 0.021722354499223519 0 0.083930998993742512 0.0059737405228527038 0 0.071708216805815503 0.016768608491387289 0 0.094917995650245529 0.021722354499223519 0 0.071708216805815503 0.016768608491387289 0 0.07449934060461412 0.03258063005354956 0 0.094917995650245529 0.021722354499223519 0 0.07449934060461412 0.03258063005354956 0 0.087237150257314613 0.037926204838731957 0 0.094917995650245529 0.021722354499223519 0 0.057623658326613529 0.02352368721002385 0 0.071708216805815503 0.016768608491387289 0 0.07449934060461412 0.03258063005354956 0 0.060669767880595721 0.038134724015348051 0 0.057623658326613529 0.02352368721002385 0 0.07449934060461412 0.03258063005354956 0 0.060669767880595721 0.038134724015348051 0 0.069155187538762042 0.045022305850501279 0 0.07449934060461412 0.03258063005354956 0 0.060669767880595721 0.038134724015348051 0 0.059559274975242667 0.047504887075434543 0 0.069155187538762042 0.045022305850501279 0 0.069155187538762042 0.045022305850501279 0 0.07449934060461412 0.03258063005354956 0 0.079692196512252927 0.044953406994506007 0 0.059559274975242667 0.047504887075434543 0 0.069155187538762042 0.045022305850501279 0 0.067326156772233525 0.050603546620565112 0 0.059559274975242667 0.047504887075434543 0 0.066395547834883203 0.05807658879080619 0 0.067326156772233525 0.050603546620565112 0 0.066395547834883203 0.05807658879080619 0 0.067326156772233525 0.050603546620565112 0 0.074194616740046182 0.051810404765518438 0 0.069155187538762042 0.045022305850501279 0 0.067326156772233525 0.050603546620565112 0 0.074194616740046182 0.051810404765518438 0 0.069155187538762042 0.045022305850501279 0 0.074194616740046182 0.051810404765518438 0 0.079692196512252927 0.044953406994506007 0 0.066395547834883203 0.05807658879080619 0 0.074194616740046182 0.051810404765518438 0 0.080343143758095259 0.058335218209008277 0 0.066395547834883203 0.05807658879080619 0 0.080343143758095259 0.058335218209008277 0 0.08827992924315356 0.067842626558367619 0 0.080343143758095259 0.058335218209008277 0 0.083306510346727383 0.05351440315152866 0 0.090416084875221875 0.058235299142909973 0 0.074194616740046182 0.051810404765518438 0 0.083306510346727383 0.05351440315152866 0 0.079692196512252927 0.044953406994506007 0 0.083306510346727383 0.05351440315152866 0 0.089760373586053266 0.048866493307206167 0 0.079692196512252927 0.044953406994506007 0 0.074194616740046182 0.051810404765518438 0 0.080343143758095259 0.058335218209008277 0 0.083306510346727383 0.05351440315152866 0 0.083306510346727383 0.05351440315152866 0 0.089760373586053266 0.048866493307206167 0 0.090416084875221875 0.058235299142909973 0 0.089760373586053266 0.048866493307206167 0 0.090416084875221875 0.058235299142909973 0 0.099395501669828634 0.055681054702382278 0 0.080343143758095259 0.058335218209008277 0 0.090416084875221875 0.058235299142909973 0 0.08827992924315356 0.067842626558367619 0 0.087237150257314613 0.037926204838731957 0 0.098930039005792711 0.04227996871225087 0 0.094917995650245529 0.021722354499223519 0 0.07449934060461412 0.03258063005354956 0 0.079692196512252927 0.044953406994506007 0 0.087237150257314613 0.037926204838731957 0 0.089760373586053266 0.048866493307206167 0 0.079692196512252927 0.044953406994506007 0 0.087237150257314613 0.037926204838731957 0 0.089760373586053266 0.048866493307206167 0 0.087237150257314613 0.037926204838731957 0 0.098930039005792711 0.04227996871225087 0 0.10894092886672049 0.033503019923715648 0 0.098930039005792711 0.04227996871225087 0 0.11550376979223601 0.054551475820320147 0 0.10894092886672049 0.033503019923715648 0 0.098930039005792711 0.04227996871225087 0 0.094917995650245529 0.021722354499223519 0 0.098930039005792711 0.04227996871225087 0 0.099395501669828634 0.055681054702382278 0 0.11550376979223601 0.054551475820320147 0 0.099395501669828634 0.055681054702382278 0 0.11550376979223601 0.054551475820320147 0 0.10561354398445311 0.069921878226714862 0 0.090416084875221875 0.058235299142909973 0 0.099395501669828634 0.055681054702382278 0 0.095618088847860577 0.065038419849084594 0 0.089760373586053266 0.048866493307206167 0 0.098930039005792711 0.04227996871225087 0 0.099395501669828634 0.055681054702382278 0 0.10894092886672049 0.033503019923715648 0 0.11961069471150609 0.02296590295220987 0 0.12977361784467401 0.039215218793308727 0 0.10894092886672049 0.033503019923715648 0 0.11550376979223601 0.054551475820320147 0 0.12977361784467401 0.039215218793308727 0 0.11961069471150609 0.02296590295220987 0 0.1158546052028349 0.0064685721448778594 0 0.094917995650245529 0.021722354499223519 0 0.11961069471150609 0.02296590295220987 0 0.1158546052028349 0.0064685721448778594 0 0.13894824890776639 0.02136224913872127 0 0.1158546052028349 0.0064685721448778594 0 0.098495163759696414 0.0029673617968291321 0 0.094917995650245529 0.021722354499223519 0 0.10894092886672049 0.033503019923715648 0 0.11961069471150609 0.02296590295220987 0 0.094917995650245529 0.021722354499223519 0 0.097728221435088053 0.099184528615223033 0 0.110275064223293 0.10236359857942121 0 0.11116449005577619 0.086473750785835857 0 0.099894961061174667 0.1104201015940532 0 0.11150799601301251 0.1117412241471519 0 0.110275064223293 0.10236359857942121 0 0.097728221435088053 0.099184528615223033 0 0.099894961061174667 0.1104201015940532 0 0.110275064223293 0.10236359857942121 0 0.097728221435088053 0.099184528615223033 0 0.099894961061174667 0.1104201015940532 0 0.084925795867796111 0.1103515185161017 0 0.099894961061174667 0.1104201015940532 0 0.096984900528893664 0.1212489081817222 0 0.084925795867796111 0.1103515185161017 0 0.099894961061174667 0.1104201015940532 0 0.096984900528893664 0.1212489081817222 0 0.10712684862241641 0.1210429748963526 0 0.096984900528893664 0.1212489081817222 0 0.10712684862241641 0.1210429748963526 0 0.10589272808503949 0.13156516273042271 0 0.099894961061174667 0.1104201015940532 0 0.10712684862241641 0.1210429748963526 0 0.11150799601301251 0.1117412241471519 0 0.10712684862241641 0.1210429748963526 0 0.11150799601301251 0.1117412241471519 0 0.1187293914863337 0.1182846474287873 0 0.11150799601301251 0.1117412241471519 0 0.1187293914863337 0.1182846474287873 0 0.1197878353292403 0.1092484053650479 0 0.10712684862241641 0.1210429748963526 0 0.1187293914863337 0.1182846474287873 0 0.114987521205969 0.1268010028982309 0 0.1187293914863337 0.1182846474287873 0 0.12813823657366311 0.12049833089676459 0 0.12624189261331301 0.1140678077034443 0 0.1187293914863337 0.1182846474287873 0 0.12212988809696081 0.1249307776834532 0 0.12813823657366311 0.12049833089676459 0 0.1187293914863337 0.1182846474287873 0 0.12212988809696081 0.1249307776834532 0 0.114987521205969 0.1268010028982309 0 0.1187293914863337 0.1182846474287873 0 0.1197878353292403 0.1092484053650479 0 0.12624189261331301 0.1140678077034443 0 0.1216961693062274 0.1020981758197984 0 0.110275064223293 0.10236359857942121 0 0.11116449005577619 0.086473750785835857 0 0.1197878353292403 0.1092484053650479 0 0.1216961693062274 0.1020981758197984 0 0.1302764983332621 0.10693497851168419 0 0.1216961693062274 0.1020981758197984 0 0.11116449005577619 0.086473750785835857 0 0.13668050292917741 0.098217611464673699 0 0.1197878353292403 0.1092484053650479 0 0.1216961693062274 0.1020981758197984 0 0.110275064223293 0.10236359857942121 0 0.11150799601301251 0.1117412241471519 0 0.1197878353292403 0.1092484053650479 0 0.110275064223293 0.10236359857942121 0 0.11116449005577619 0.086473750785835857 0 0.1207366242219714 0.074251990558816788 0 0.1300820653953097 0.084166932106396392 0 0.11116449005577619 0.086473750785835857 0 0.13668050292917741 0.098217611464673699 0 0.11116449005577619 0.086473750785835857 0 0.1207366242219714 0.074251990558816788 0 0.10561354398445311 0.069921878226714862 0 0.11550376979223601 0.054551475820320147 0 0.1207366242219714 0.074251990558816788 0 0.13255022158949201 0.068763676371196639 0 0.11550376979223601 0.054551475820320147 0 0.1207366242219714 0.074251990558816788 0 0.10561354398445311 0.069921878226714862 0 0.11116449005577619 0.086473750785835857 0 0.10561354398445311 0.069921878226714862 0 0.085648477182374977 0.074729890106998029 0 0.10561354398445311 0.069921878226714862 0 0.095618088847860577 0.065038419849084594 0 0.085648477182374977 0.074729890106998029 0 0.099395501669828634 0.055681054702382278 0 0.10561354398445311 0.069921878226714862 0 0.095618088847860577 0.065038419849084594 0 0.11116449005577619 0.086473750785835857 0 0.085648477182374977 0.074729890106998029 0 0.11116449005577619 0.086473750785835857 0 0.090808031879269946 0.087622927320568048 0 0.085648477182374977 0.074729890106998029 0 0.097728221435088053 0.099184528615223033 0 0.11116449005577619 0.086473750785835857 0 0.090808031879269946 0.087622927320568048 0 0.097728221435088053 0.099184528615223033 0 0.090808031879269946 0.087622927320568048 0 0.080235742217082393 0.093435287859391092 0 0.090808031879269946 0.087622927320568048 0 0.078675001300488379 0.083882301042573534 0 0.085648477182374977 0.074729890106998029 0 0.090808031879269946 0.087622927320568048 0 0.078675001300488379 0.083882301042573534 0 0.080235742217082393 0.093435287859391092 0 0.066395547834883203 0.05807658879080619 0 0.08827992924315356 0.067842626558367619 0 0.085648477182374977 0.074729890106998029 0 0.095618088847860577 0.065038419849084594 0 0.08827992924315356 0.067842626558367619 0 0.085648477182374977 0.074729890106998029 0 0.090416084875221875 0.058235299142909973 0 0.095618088847860577 0.065038419849084594 0 0.08827992924315356 0.067842626558367619 0 0.066395547834883203 0.05807658879080619 0 0.085648477182374977 0.074729890106998029 0 0.060132464308973767 0.062986029428160187 0 0.066395547834883203 0.05807658879080619 0 0.08827992924315356 0.067842626558367619 0 0.085648477182374977 0.074729890106998029 0 0.068637102026180674 0.07792917868559901 0 0.060132464308973767 0.062986029428160187 0 0.085648477182374977 0.074729890106998029 0 0.060132464308973767 0.062986029428160187 0 0.078675001300488379 0.083882301042573534 0 0.085648477182374977 0.074729890106998029 0 0.068637102026180674 0.07792917868559901 0 0.080235742217082393 0.093435287859391092 0 0.069503799956795384 0.087722797055870286 0 0.068523875558259784 0.095111972458496966 0 0.078675001300488379 0.083882301042573534 0 0.080235742217082393 0.093435287859391092 0 0.069503799956795384 0.087722797055870286 0 0.078675001300488379 0.083882301042573534 0 0.068637102026180674 0.07792917868559901 0 0.069503799956795384 0.087722797055870286 0 0.068637102026180674 0.07792917868559901 0 0.069503799956795384 0.087722797055870286 0 0.060111091978902922 0.083782113849914977 0 0.069503799956795384 0.087722797055870286 0 0.06135777996986308 0.093915161513068182 0 0.060111091978902922 0.083782113849914977 0 0.069503799956795384 0.087722797055870286 0 0.068523875558259784 0.095111972458496966 0 0.06135777996986308 0.093915161513068182 0 0.068523875558259784 0.095111972458496966 0 0.071520258741129425 0.10189571548122769 0 0.062413973273008162 0.1018934272394761 0 0.068523875558259784 0.095111972458496966 0 0.062413973273008162 0.1018934272394761 0 0.06135777996986308 0.093915161513068182 0 0.071520258741129425 0.10189571548122769 0 0.072821304814728441 0.1108529925529516 0 0.063718101814298073 0.11016590081819259 0 0.071520258741129425 0.10189571548122769 0 0.063718101814298073 0.11016590081819259 0 0.062413973273008162 0.1018934272394761 0 0.071520258741129425 0.10189571548122769 0 0.084925795867796111 0.1103515185161017 0 0.072821304814728441 0.1108529925529516 0 0.080235742217082393 0.093435287859391092 0 0.068523875558259784 0.095111972458496966 0 0.071520258741129425 0.10189571548122769 0 0.097728221435088053 0.099184528615223033 0 0.080235742217082393 0.093435287859391092 0 0.084925795867796111 0.1103515185161017 0 0.080235742217082393 0.093435287859391092 0 0.071520258741129425 0.10189571548122769 0 0.084925795867796111 0.1103515185161017 0 0.084925795867796111 0.1103515185161017 0 0.074154959480044275 0.1204842858357125 0 0.087075880893963842 0.12621803440601359 0 0.096984900528893664 0.1212489081817222 0 0.084925795867796111 0.1103515185161017 0 0.087075880893963842 0.12621803440601359 0 0.084925795867796111 0.1103515185161017 0 0.074154959480044275 0.1204842858357125 0 0.072821304814728441 0.1108529925529516 0 0.074154959480044275 0.1204842858357125 0 0.072821304814728441 0.1108529925529516 0 0.063718101814298073 0.11016590081819259 0 0.074154959480044275 0.1204842858357125 0 0.063718101814298073 0.11016590081819259 0 0.060124536552058239 0.11864948812996751 0 0.074154959480044275 0.1204842858357125 0 0.060124536552058239 0.11864948812996751 0 0.061109117960118017 0.12720913792676911 0 0.060124536552058239 0.11864948812996751 0 0.052595679859244633 0.1236025024456274 0 0.054913207086597561 0.11271600588853189 0 0.060124536552058239 0.11864948812996751 0 0.052595679859244633 0.1236025024456274 0 0.061109117960118017 0.12720913792676911 0 0.052595679859244633 0.1236025024456274 0 0.054913207086597561 0.11271600588853189 0 0.046771683079868627 0.1089772416004138 0 0.063718101814298073 0.11016590081819259 0 0.060124536552058239 0.11864948812996751 0 0.054913207086597561 0.11271600588853189 0 0.063718101814298073 0.11016590081819259 0 0.062413973273008162 0.1018934272394761 0 0.053620768430252298 0.1031656988462608 0 0.063718101814298073 0.11016590081819259 0 0.054913207086597561 0.11271600588853189 0 0.053620768430252298 0.1031656988462608 0 0.06135777996986308 0.093915161513068182 0 0.053620768430252298 0.1031656988462608 0 0.051535176025136201 0.090416251810209708 0 0.062413973273008162 0.1018934272394761 0 0.06135777996986308 0.093915161513068182 0 0.053620768430252298 0.1031656988462608 0 0.053620768430252298 0.1031656988462608 0 0.042875633238578528 0.09739353282270094 0 0.051535176025136201 0.090416251810209708 0 0.053620768430252298 0.1031656988462608 0 0.046771683079868627 0.1089772416004138 0 0.042875633238578528 0.09739353282270094 0 0.054913207086597561 0.11271600588853189 0 0.053620768430252298 0.1031656988462608 0 0.046771683079868627 0.1089772416004138 0 0.046771683079868627 0.1089772416004138 0 0.042875633238578528 0.09739353282270094 0 0.034382595390138257 0.1099700727945534 0 0.042875633238578528 0.09739353282270094 0 0.034382595390138257 0.1099700727945534 0 0.030708755379597181 0.088685576768743155 0 0.034382595390138257 0.1099700727945534 0 0.030708755379597181 0.088685576768743155 0 0.052595679859244633 0.1236025024456274 0 0.046771683079868627 0.1089772416004138 0 0.034382595390138257 0.1099700727945534 0 0.034382595390138257 0.1099700727945534 0 0.02520709702204247 0.1232263280856261 0 0.037354296692750887 0.12718670835402709 0 0.052595679859244633 0.1236025024456274 0 0.034382595390138257 0.1099700727945534 0 0.037354296692750887 0.12718670835402709 0 0.034382595390138257 0.1099700727945534 0 0.037354296692750887 0.12718670835402709 0 0.052595679859244633 0.1236025024456274 0 0.034382595390138257 0.1099700727945534 0 0.060132464308973767 0.062986029428160187 0 0.051537231586459821 0.0703604747810012 0 0.044258496001147778 0.063884183083345675 0 0.051537231586459821 0.0703604747810012 0 0.045053238281461433 0.071665999821029613 0 0.044258496001147778 0.063884183083345675 0 0.060132464308973767 0.062986029428160187 0 0.058160070023191839 0.074213970699792686 0 0.051537231586459821 0.0703604747810012 0 0.068637102026180674 0.07792917868559901 0 0.060132464308973767 0.062986029428160187 0 0.058160070023191839 0.074213970699792686 0 0.051537231586459821 0.0703604747810012 0 0.049495561811348857 0.078896267932753172 0 0.045053238281461433 0.071665999821029613 0 0.058160070023191839 0.074213970699792686 0 0.051537231586459821 0.0703604747810012 0 0.049495561811348857 0.078896267932753172 0 0.049495561811348857 0.078896267932753172 0 0.051535176025136201 0.090416251810209708 0 0.041750220721871581 0.085344735896560275 0 0.049495561811348857 0.078896267932753172 0 0.060111091978902922 0.083782113849914977 0 0.051535176025136201 0.090416251810209708 0 0.068637102026180674 0.07792917868559901 0 0.058160070023191839 0.074213970699792686 0 0.060111091978902922 0.083782113849914977 0 0.058160070023191839 0.074213970699792686 0 0.049495561811348857 0.078896267932753172 0 0.060111091978902922 0.083782113849914977 0 0.06135777996986308 0.093915161513068182 0 0.060111091978902922 0.083782113849914977 0 0.051535176025136201 0.090416251810209708 0 0.042875633238578528 0.09739353282270094 0 0.051535176025136201 0.090416251810209708 0 0.041750220721871581 0.085344735896560275 0 0.042875633238578528 0.09739353282270094 0 0.041750220721871581 0.085344735896560275 0 0.030708755379597181 0.088685576768743155 0 0.041750220721871581 0.085344735896560275 0 0.037489048909448763 0.07466528487264068 0 0.030708755379597181 0.088685576768743155 0 0.049495561811348857 0.078896267932753172 0 0.041750220721871581 0.085344735896560275 0 0.037489048909448763 0.07466528487264068 0 0.037489048909448763 0.07466528487264068 0 0.02703491536905472 0.067401080742933134 0 0.030708755379597181 0.088685576768743155 0 0.049495561811348857 0.078896267932753172 0 0.045053238281461433 0.071665999821029613 0 0.037489048909448763 0.07466528487264068 0 0.045053238281461433 0.071665999821029613 0 0.037489048909448763 0.07466528487264068 0 0.037579666130808903 0.067774354445351542 0 0.034062632092931817 0.061255223706808547 0 0.037579666130808903 0.067774354445351542 0 0.02703491536905472 0.067401080742933134 0 0.037489048909448763 0.07466528487264068 0 0.037579666130808903 0.067774354445351542 0 0.02703491536905472 0.067401080742933134 0 0.034062632092931817 0.061255223706808547 0 0.037579666130808903 0.067774354445351542 0 0.044258496001147778 0.063884183083345675 0 0.045053238281461433 0.071665999821029613 0 0.037579666130808903 0.067774354445351542 0 0.044258496001147778 0.063884183083345675 0 0.02703491536905472 0.067401080742933134 0 0.030708755379597181 0.088685576768743155 0 0.01366790099406239 0.052632887419703241 0 0.026593398378051959 0.076487299351285121 0 0.01366790099406239 0.052632887419703241 0 0.02703491536905472 0.067401080742933134 0 0.026593398378051959 0.076487299351285121 0 0.02703491536905472 0.067401080742933134 0 0.026593398378051959 0.076487299351285121 0 0.030708755379597181 0.088685576768743155 0 0.01366790099406239 0.052632887419703241 0 0.026593398378051959 0.076487299351285121 0 0.01611389888654503 0.070322973248010373 0 0.026593398378051959 0.076487299351285121 0 0.01611389888654503 0.070322973248010373 0 0.01767063525815666 0.080500261616376856 0 0.01767063525815666 0.080500261616376856 0 0.030708755379597181 0.088685576768743155 0 0.011643404763696401 0.092949868607662828 0 0.026593398378051959 0.076487299351285121 0 0.01767063525815666 0.080500261616376856 0 0.030708755379597181 0.088685576768743155 0 0.01767063525815666 0.080500261616376856 0 0.011643404763696401 0.092949868607662828 0 0.0065236609159091173 0.071671444604676282 0 -0.01109578586274463 0.07592966442077155 0 0.011643404763696401 0.092949868607662828 0 0.0065236609159091173 0.071671444604676282 0 -0.01109578586274463 0.07592966442077155 0 0.011643404763696401 0.092949868607662828 0 0.01366790099406239 0.052632887419703241 0 0.01611389888654503 0.070322973248010373 0 0.0065236609159091173 0.071671444604676282 0 0.01611389888654503 0.070322973248010373 0 0.01767063525815666 0.080500261616376856 0 0.0065236609159091173 0.071671444604676282 0 -0.0031702267477386531 0.067180855403790804 0 0.00079413703044923156 0.058803151297745167 0 0.0065236609159091173 0.071671444604676282 0 0.034382595390138257 0.1099700727945534 0 0.02520709702204247 0.1232263280856261 0 0.01356063639681436 0.11371506303709419 0 0.02520709702204247 0.1232263280856261 0 0.01356063639681436 0.11371506303709419 0 0.011098566836083609 0.13484946890849181 0 0.034382595390138257 0.1099700727945534 0 0.011643404763696401 0.092949868607662828 0 0.01356063639681436 0.11371506303709419 0 0.034382595390138257 0.1099700727945534 0 0.011643404763696401 0.092949868607662828 0 0.034382595390138257 0.1099700727945534 0 0.030708755379597181 0.088685576768743155 0 0.011643404763696401 0.092949868607662828 0 -0.0040088977147468936 0.097024336429998151 0 0.011643404763696401 0.092949868607662828 0 0.0025937760044158291 0.1064596481343341 0 0.011643404763696401 0.092949868607662828 0 0.0025937760044158291 0.1064596481343341 0 0.01356063639681436 0.11371506303709419 0 -0.007175360702145514 0.1155930690216506 0 0.0025937760044158291 0.1064596481343341 0 0.01356063639681436 0.11371506303709419 0 -0.007175360702145514 0.1155930690216506 0 0.01356063639681436 0.11371506303709419 0 0.011098566836083609 0.13484946890849181 0 -0.007175360702145514 0.1155930690216506 0 0.011098566836083609 0.13484946890849181 0 0.02520709702204247 0.1232263280856261 0 0.011098566836083609 0.13484946890849181 0 0.028759663239593541 0.13617761485890201 0 0.02520709702204247 0.1232263280856261 0 0.028759663239593541 0.13617761485890201 0 0.037354296692750887 0.12718670835402709 0 0.011098566836083609 0.13484946890849181 0 0.029372494374312729 0.15410586879533311 0 0.013538337341477229 0.1636201682865295 0 0.011098566836083609 0.13484946890849181 0 0.028759663239593541 0.13617761485890201 0 0.029372494374312729 0.15410586879533311 0 0.011098566836083609 0.13484946890849181 0 0.029372494374312729 0.15410586879533311 0 -0.0048034666842798916 0.1614245706846468 0 0.011098566836083609 0.13484946890849181 0 0.013538337341477229 0.1636201682865295 0 -0.0057956805663459468 0.1892940575843915 0 -0.0048034666842798916 0.1614245706846468 0 0.013538337341477229 0.1636201682865295 0 -0.0057956805663459468 0.1892940575843915 0 0.013538337341477229 0.1636201682865295 0 0.020045678312652242 0.18090880435863019 0 -0.0057956805663459468 0.1892940575843915 0 0.020045678312652242 0.18090880435863019 0 0.029372494374312729 0.15410586879533311 0 0.013538337341477229 0.1636201682865295 0 0.020045678312652242 0.18090880435863019 0 0.029372494374312729 0.15410586879533311 0 0.045887037191650451 0.17252355113286891 0 0.04813315871709322 0.1541455757588851 0 0.029372494374312729 0.15410586879533311 0 0.020045678312652242 0.18090880435863019 0 0.045887037191650451 0.17252355113286891 0 0.020045678312652242 0.18090880435863019 0 0.045887037191650451 0.17252355113286891 0 0.020045678312652242 0.18090880435863019 0 0.045887037191650451 0.17252355113286891 0 0.041991232206495782 0.1919910870650737 0 0.045887037191650451 0.17252355113286891 0 0.060802696405823108 0.1787365445376432 0 0.041991232206495782 0.1919910870650737 0 0.045887037191650451 0.17252355113286891 0 0.071728396070648653 0.1641382979071076 0 0.045887037191650451 0.17252355113286891 0 0.060802696405823108 0.1787365445376432 0 0.071728396070648653 0.1641382979071076 0 0.045887037191650451 0.17252355113286891 0 0.059657673584757237 0.15824269734654939 0 0.04813315871709322 0.1541455757588851 0 0.045887037191650451 0.17252355113286891 0 0.059657673584757237 0.15824269734654939 0 0.071728396070648653 0.1641382979071076 0 0.059657673584757237 0.15824269734654939 0 0.04813315871709322 0.1541455757588851 0 0.060329678829100349 0.1474246815113264 0 0.04813315871709322 0.1541455757588851 0 0.050215372913412007 0.1458935282758238 0 0.060329678829100349 0.1474246815113264 0 0.050215372913412007 0.1458935282758238 0 0.060329678829100349 0.1474246815113264 0 0.052072656112092337 0.13760051191958289 0 0.050215372913412007 0.1458935282758238 0 0.052072656112092337 0.13760051191958289 0 0.040325997995362128 0.14440334391350099 0 0.060329678829100349 0.1474246815113264 0 0.062159468211553673 0.13737243366585769 0 0.052072656112092337 0.13760051191958289 0 0.062159468211553673 0.13737243366585769 0 0.054733357378362921 0.13083888414419281 0 0.052072656112092337 0.13760051191958289 0 0.052595679859244633 0.1236025024456274 0 0.054733357378362921 0.13083888414419281 0 0.061109117960118017 0.12720913792676911 0 0.062159468211553673 0.13737243366585769 0 0.054733357378362921 0.13083888414419281 0 0.061109117960118017 0.12720913792676911 0 0.052595679859244633 0.1236025024456274 0 0.054733357378362921 0.13083888414419281 0 0.046346625143134958 0.1312929959830558 0 0.054733357378362921 0.13083888414419281 0 0.052072656112092337 0.13760051191958289 0 0.046346625143134958 0.1312929959830558 0 0.037354296692750887 0.12718670835402709 0 0.040325997995362128 0.14440334391350099 0 0.046346625143134958 0.1312929959830558 0 0.037354296692750887 0.12718670835402709 0 0.040325997995362128 0.14440334391350099 0 0.028759663239593541 0.13617761485890201 0 0.037354296692750887 0.12718670835402709 0 0.040325997995362128 0.14440334391350099 0 0.052072656112092337 0.13760051191958289 0 0.046346625143134958 0.1312929959830558 0 0.040325997995362128 0.14440334391350099 0 0.052595679859244633 0.1236025024456274 0 0.046346625143134958 0.1312929959830558 0 0.037354296692750887 0.12718670835402709 0 0.028759663239593541 0.13617761485890201 0 0.029372494374312729 0.15410586879533311 0 0.040325997995362128 0.14440334391350099 0 0.029372494374312729 0.15410586879533311 0 0.04813315871709322 0.1541455757588851 0 0.040325997995362128 0.14440334391350099 0 0.04813315871709322 0.1541455757588851 0 0.050215372913412007 0.1458935282758238 0 0.040325997995362128 0.14440334391350099 0 0.025149977659741599 0.24684982625080901 0 0.00014186162909880781 0.2338185852574263 0 0.02177620002751179 0.22559840920251981 0 0.025149977659741599 0.24684982625080901 0 0.00014186162909880781 0.2338185852574263 0 0.025149977659741599 0.24684982625080901 0 0.00014186162909880781 0.2338185852574263 0 0.0073806355134042019 0.25529449578482938 0 0.00014186162909880781 0.2338185852574263 0 0.02177620002751179 0.22559840920251981 0 0.0090806704795409685 0.20996839310177981 0 0.025149977659741599 0.24684982625080901 0 0.02177620002751179 0.22559840920251981 0 0.039960986899899173 0.22780444499479169 0 0.02177620002751179 0.22559840920251981 0 0.0090806704795409685 0.20996839310177981 0 0.034547503469278373 0.20955079640779209 0 0.0090806704795409685 0.20996839310177981 0 0.02162293693503077 0.1981024475624624 0 0.034547503469278373 0.20955079640779209 0 -0.0057956805663459468 0.1892940575843915 0 0.0090806704795409685 0.20996839310177981 0 0.02162293693503077 0.1981024475624624 0 -0.0057956805663459468 0.1892940575843915 0 0.020045678312652242 0.18090880435863019 0 0.02162293693503077 0.1981024475624624 0 0.020045678312652242 0.18090880435863019 0 0.02162293693503077 0.1981024475624624 0 0.041991232206495782 0.1919910870650737 0 0.02162293693503077 0.1981024475624624 0 0.041991232206495782 0.1919910870650737 0 0.034547503469278373 0.20955079640779209 0 0.041991232206495782 0.1919910870650737 0 0.05849467095877426 0.1965416733816682 0 0.050764695011206777 0.20916964222725651 0 0.060802696405823108 0.1787365445376432 0 0.041991232206495782 0.1919910870650737 0 0.05849467095877426 0.1965416733816682 0 0.050764695011206777 0.20916964222725651 0 0.066981886553135278 0.20878848804672309 0 0.05849467095877426 0.1965416733816682 0 0.050764695011206777 0.20916964222725651 0 0.066981886553135278 0.20878848804672309 0 0.050764695011206777 0.20916964222725651 0 0.061514006406540499 0.23071042489022231 0 0.066981886553135278 0.20878848804672309 0 0.050764695011206777 0.20916964222725651 0 0.034547503469278373 0.20955079640779209 0 0.039960986899899173 0.22780444499479169 0 0.050764695011206777 0.20916964222725651 0 0.034547503469278373 0.20955079640779209 0 0.041991232206495782 0.1919910870650737 0 0.050764695011206777 0.20916964222725651 0 0.034547503469278373 0.20955079640779209 0 0.02177620002751179 0.22559840920251981 0 0.034547503469278373 0.20955079640779209 0 0.039960986899899173 0.22780444499479169 0 0.039960986899899173 0.22780444499479169 0 0.061514006406540499 0.23071042489022231 0 0.045472231705318063 0.24424317023843681 0 0.050764695011206777 0.20916964222725651 0 0.039960986899899173 0.22780444499479169 0 0.061514006406540499 0.23071042489022231 0 0.061514006406540499 0.23071042489022231 0 0.056046126259945157 0.25263236173372139 0 0.061514006406540499 0.23071042489022231 0 0.056046126259945157 0.25263236173372139 0 0.067905867336300579 0.25358800162702 0 0.061514006406540499 0.23071042489022231 0 0.045472231705318063 0.24424317023843681 0 0.056046126259945157 0.25263236173372139 0 0.025149977659741599 0.24684982625080901 0 0.039960986899899173 0.22780444499479169 0 0.045472231705318063 0.24424317023843681 0 0.092857250133516089 0.24175825718487831 0 0.078525547080241467 0.2465942846531784 0 0.093798877441032588 0.2579700649065903 0 0.092857250133516089 0.24175825718487831 0 0.078525547080241467 0.2465942846531784 0 0.081986142109724491 0.22560265144644431 0 0.061514006406540499 0.23071042489022231 0 0.078525547080241467 0.2465942846531784 0 0.067905867336300579 0.25358800162702 0 0.061514006406540499 0.23071042489022231 0 0.078525547080241467 0.2465942846531784 0 0.081986142109724491 0.22560265144644431 0 0.061514006406540499 0.23071042489022231 0 0.081986142109724491 0.22560265144644431 0 0.066981886553135278 0.20878848804672309 0 0.061514006406540499 0.23071042489022231 0 0.066981886553135278 0.20878848804672309 0 0.081986142109724491 0.22560265144644431 0 0.09236794217301933 0.20819183719001669 0 0.066981886553135278 0.20878848804672309 0 0.09236794217301933 0.20819183719001669 0 0.066981886553135278 0.20878848804672309 0 0.09236794217301933 0.20819183719001669 0 0.066981886553135278 0.20878848804672309 0 0.071445073857882777 0.19089458628000441 0 0.060802696405823108 0.1787365445376432 0 0.05849467095877426 0.1965416733816682 0 0.071445073857882777 0.19089458628000441 0 0.066981886553135278 0.20878848804672309 0 0.071445073857882777 0.19089458628000441 0 0.05849467095877426 0.1965416733816682 0 0.066981886553135278 0.20878848804672309 0 0.071445073857882777 0.19089458628000441 0 0.09236794217301933 0.20819183719001669 0 0.071445073857882777 0.19089458628000441 0 0.086464584236575506 0.1862285865309723 0 0.09236794217301933 0.20819183719001669 0 0.086464584236575506 0.1862285865309723 0 0.1023855527362314 0.18749689463882899 0 0.09236794217301933 0.20819183719001669 0 0.11775399779290339 0.20759518633331239 0 0.1023855527362314 0.18749689463882899 0 0.11775399779290339 0.20759518633331239 0 0.1023855527362314 0.18749689463882899 0 0.12550986450034471 0.186594373040398 0 0.09236794217301933 0.20819183719001669 0 0.11775399779290339 0.20759518633331239 0 0.09236794217301933 0.20819183719001669 0 0.11775399779290339 0.20759518633331239 0 0.10906069526472741 0.22998953009969161 0 0.092857250133516089 0.24175825718487831 0 0.081986142109724491 0.22560265144644431 0 0.10906069526472741 0.22998953009969161 0 0.081986142109724491 0.22560265144644431 0 0.09236794217301933 0.20819183719001669 0 0.10906069526472741 0.22998953009969161 0 0.11775399779290339 0.20759518633331239 0 0.10906069526472741 0.22998953009969161 0 0.1382648444377183 0.22719855966067881 0 0.10906069526472741 0.22998953009969161 0 0.12787711237058769 0.24521089126939841 0 0.1100607559553454 0.25396994184181759 0 0.092857250133516089 0.24175825718487831 0 0.10906069526472741 0.22998953009969161 0 0.1100607559553454 0.25396994184181759 0 0.081151633673542972 0.15313158297098389 0 0.083920606388658545 0.14050817004821939 0 0.0975697549496468 0.15575304468134629 0 0.081151633673542972 0.15313158297098389 0 0.083920606388658545 0.14050817004821939 0 0.071387777285217918 0.15212681924726251 0 0.074154959480044275 0.1204842858357125 0 0.087075880893963842 0.12621803440601359 0 0.083920606388658545 0.14050817004821939 0 0.087075880893963842 0.12621803440601359 0 0.083920606388658545 0.14050817004821939 0 0.097906888154765004 0.1362305538396491 0 0.062159468211553673 0.13737243366585769 0 0.061109117960118017 0.12720913792676911 0 0.083920606388658545 0.14050817004821939 0 0.074154959480044275 0.1204842858357125 0 0.061109117960118017 0.12720913792676911 0 0.083920606388658545 0.14050817004821939 0 0.061109117960118017 0.12720913792676911 0 0.083920606388658545 0.14050817004821939 0 0.062159468211553673 0.13737243366585769 0 0.083920606388658545 0.14050817004821939 0 0.069449382678632612 0.1443580261181665 0 0.060329678829100349 0.1474246815113264 0 0.062159468211553673 0.13737243366585769 0 0.069449382678632612 0.1443580261181665 0 0.060329678829100349 0.1474246815113264 0 0.069449382678632612 0.1443580261181665 0 0.071387777285217918 0.15212681924726251 0 0.083920606388658545 0.14050817004821939 0 0.069449382678632612 0.1443580261181665 0 0.071387777285217918 0.15212681924726251 0 0.059657673584757237 0.15824269734654939 0 0.060329678829100349 0.1474246815113264 0 0.071387777285217918 0.15212681924726251 0 0.059657673584757237 0.15824269734654939 0 0.071387777285217918 0.15212681924726251 0 0.071728396070648653 0.1641382979071076 0 0.081151633673542972 0.15313158297098389 0 0.071387777285217918 0.15212681924726251 0 0.071728396070648653 0.1641382979071076 0 0.071445073857882777 0.19089458628000441 0 0.075908261162629706 0.17300068451328551 0 0.086464584236575506 0.1862285865309723 0 0.060802696405823108 0.1787365445376432 0 0.071445073857882777 0.19089458628000441 0 0.075908261162629706 0.17300068451328551 0 0.071445073857882777 0.19089458628000441 0 0.075908261162629706 0.17300068451328551 0 0.060802696405823108 0.1787365445376432 0 0.071728396070648653 0.1641382979071076 0 0.075908261162629706 0.17300068451328551 0 0.086464584236575506 0.1862285865309723 0 0.090216091253114361 0.17155893003272579 0 0.1023855527362314 0.18749689463882899 0 0.075908261162629706 0.17300068451328551 0 0.086464584236575506 0.1862285865309723 0 0.090216091253114361 0.17155893003272579 0 0.081151633673542972 0.15313158297098389 0 0.071728396070648653 0.1641382979071076 0 0.0975697549496468 0.15575304468134629 0 0.071728396070648653 0.1641382979071076 0 0.090216091253114361 0.17155893003272579 0 0.0975697549496468 0.15575304468134629 0 0.071728396070648653 0.1641382979071076 0 0.075908261162629706 0.17300068451328551 0 0.090216091253114361 0.17155893003272579 0 0.071728396070648653 0.1641382979071076 0 0.0975697549496468 0.15575304468134629 0 0.090216091253114361 0.17155893003272579 0 0.1064810698159025 0.16893633516972181 0 0.0975697549496468 0.15575304468134629 0 0.1064810698159025 0.16893633516972181 0 0.1067320948171991 0.1538072021696697 0 0.0975697549496468 0.15575304468134629 0 0.090216091253114361 0.17155893003272579 0 0.1064810698159025 0.16893633516972181 0 0.1023855527362314 0.18749689463882899 0 0.1064810698159025 0.16893633516972181 0 0.12954358324573961 0.16710623429112001 0 0.12550986450034471 0.186594373040398 0 0.1064810698159025 0.16893633516972181 0 0.1023855527362314 0.18749689463882899 0 0.12550986450034471 0.186594373040398 0 0.1064810698159025 0.16893633516972181 0 0.1067320948171991 0.1538072021696697 0 0.12954358324573961 0.16710623429112001 0 0.1067320948171991 0.1538072021696697 0 0.1262856736452258 0.1537478882528979 0 0.12954358324573961 0.16710623429112001 0 0.1067320948171991 0.1538072021696697 0 0.12954358324573961 0.16710623429112001 0 0.1148569119608701 0.14824987142416859 0 0.1067320948171991 0.1538072021696697 0 0.1262856736452258 0.1537478882528979 0 0.118317888191051 0.14254191757659121 0 0.1148569119608701 0.14824987142416859 0 0.1262856736452258 0.1537478882528979 0 0.118317888191051 0.14254191757659121 0 0.12756241452120801 0.13893694775055651 0 0.1262856736452258 0.1537478882528979 0 0.1148569119608701 0.14824987142416859 0 0.1067320948171991 0.1538072021696697 0 0.1080919911900045 0.14290247769751591 0 0.118317888191051 0.14254191757659121 0 0.1148569119608701 0.14824987142416859 0 0.1080919911900045 0.14290247769751591 0 0.083920606388658545 0.14050817004821939 0 0.1067320948171991 0.1538072021696697 0 0.1067320948171991 0.1538072021696697 0 0.1080919911900045 0.14290247769751591 0 0.097906888154765004 0.1362305538396491 0 0.083920606388658545 0.14050817004821939 0 0.1067320948171991 0.1538072021696697 0 0.097906888154765004 0.1362305538396491 0 0.083920606388658545 0.14050817004821939 0 0.1067320948171991 0.1538072021696697 0 0.0975697549496468 0.15575304468134629 0 0.096984900528893664 0.1212489081817222 0 0.097906888154765004 0.1362305538396491 0 0.10589272808503949 0.13156516273042271 0 0.096984900528893664 0.1212489081817222 0 0.087075880893963842 0.12621803440601359 0 0.097906888154765004 0.1362305538396491 0 0.1080919911900045 0.14290247769751591 0 0.097906888154765004 0.1362305538396491 0 0.10589272808503949 0.13156516273042271 0 0.1080919911900045 0.14290247769751591 0 0.10589272808503949 0.13156516273042271 0 0.11327312463209829 0.13597294690712769 0 0.10712684862241641 0.1210429748963526 0 0.10589272808503949 0.13156516273042271 0 0.114987521205969 0.1268010028982309 0 0.10589272808503949 0.13156516273042271 0 0.114987521205969 0.1268010028982309 0 0.11327312463209829 0.13597294690712769 0 0.114987521205969 0.1268010028982309 0 0.11327312463209829 0.13597294690712769 0 0.1203000125167645 0.13336293759413789 0 0.118317888191051 0.14254191757659121 0 0.1080919911900045 0.14290247769751591 0 0.11327312463209829 0.13597294690712769 0 0.118317888191051 0.14254191757659121 0 0.1203000125167645 0.13336293759413789 0 0.12756241452120801 0.13893694775055651 0 0.118317888191051 0.14254191757659121 0 0.11327312463209829 0.13597294690712769 0 0.1203000125167645 0.13336293759413789 0 0.12212988809696081 0.1249307776834532 0 0.114987521205969 0.1268010028982309 0 0.1203000125167645 0.13336293759413789 0 0.12212988809696081 0.1249307776834532 0 0.1203000125167645 0.13336293759413789 0 0.12788127083107459 0.1291064789800366 0 0.12788127083107459 0.1291064789800366 0 0.13409394305489639 0.1257339851238449 0 0.12813823657366311 0.12049833089676459 0 0.12788127083107459 0.1291064789800366 0 0.13410827310584911 0.13282331674432049 0 0.13409394305489639 0.1257339851238449 0 0.12788127083107459 0.1291064789800366 0 0.12756241452120801 0.13893694775055651 0 0.13410827310584911 0.13282331674432049 0 0.1203000125167645 0.13336293759413789 0 0.12788127083107459 0.1291064789800366 0 0.12756241452120801 0.13893694775055651 0 0.13410827310584911 0.13282331674432049 0 0.14295710802469111 0.12768772724150559 0 0.13848136883728299 0.14203914735535511 0 0.12756241452120801 0.13893694775055651 0 0.13410827310584911 0.13282331674432049 0 0.13848136883728299 0.14203914735535511 0 0.13410827310584911 0.13282331674432049 0 0.13409394305489639 0.1257339851238449 0 0.14295710802469111 0.12768772724150559 0 0.14295710802469111 0.12768772724150559 0 0.15698787762036359 0.14007723406829989 0 0.15364605026385231 0.1227496740475859 0 0.14295710802469111 0.12768772724150559 0 0.13848136883728299 0.14203914735535511 0 0.15698787762036359 0.14007723406829989 0 0.13848136883728299 0.14203914735535511 0 0.1441447949138806 0.1573716891147208 0 0.15698787762036359 0.14007723406829989 0 0.1441447949138806 0.1573716891147208 0 0.1598153361361678 0.15982657838785511 0 0.15698787762036359 0.14007723406829989 0 0.13848136883728299 0.14203914735535511 0 0.1262856736452258 0.1537478882528979 0 0.1441447949138806 0.1573716891147208 0 0.12756241452120801 0.13893694775055651 0 0.13848136883728299 0.14203914735535511 0 0.1262856736452258 0.1537478882528979 0 0.1262856736452258 0.1537478882528979 0 0.12954358324573961 0.16710623429112001 0 0.1441447949138806 0.1573716891147208 0 0.12954358324573961 0.16710623429112001 0 0.12550986450034471 0.186594373040398 0 0.15375492999850379 0.1814330523327968 0 0.12954358324573961 0.16710623429112001 0 0.15375492999850379 0.1814330523327968 0 0.1441447949138806 0.1573716891147208 0 0.15375492999850379 0.1814330523327968 0 0.1441447949138806 0.1573716891147208 0 0.1598153361361678 0.15982657838785511 0 0.1598153361361678 0.15982657838785511 0 0.17205847002769489 0.1711246398383999 0 0.17247097746626519 0.1464629757798975 0 0.15375492999850379 0.1814330523327968 0 0.1598153361361678 0.15982657838785511 0 0.17205847002769489 0.1711246398383999 0 0.15375492999850379 0.1814330523327968 0 0.17205847002769489 0.1711246398383999 0 0.18411838942066619 0.18828130780555291 0 0.17205847002769489 0.1711246398383999 0 0.18411838942066619 0.18828130780555291 0 0.19050902449260759 0.164433536692701 0 0.17205847002769489 0.1711246398383999 0 0.17247097746626519 0.1464629757798975 0 0.19050902449260759 0.164433536692701 0 0.17247097746626519 0.1464629757798975 0 0.1903693880120208 0.14015559280000461 0 0.19050902449260759 0.164433536692701 0 0.17247097746626519 0.1464629757798975 0 0.18002451345814399 0.12716596121819479 0 0.1903693880120208 0.14015559280000461 0 0.17247097746626519 0.1464629757798975 0 0.18002451345814399 0.12716596121819479 0 0.16417220099380411 0.12505127510387981 0 0.15698787762036359 0.14007723406829989 0 0.16417220099380411 0.12505127510387981 0 0.15364605026385231 0.1227496740475859 0 0.17247097746626519 0.1464629757798975 0 0.15698787762036359 0.14007723406829989 0 0.16417220099380411 0.12505127510387981 0 0.1598153361361678 0.15982657838785511 0 0.17247097746626519 0.1464629757798975 0 0.15698787762036359 0.14007723406829989 0 0.14702044576598061 0.2478904659134552 0 0.1382648444377183 0.22719855966067881 0 0.15828943790025421 0.22969507774947781 0 0.14702044576598061 0.2478904659134552 0 0.12787711237058769 0.24521089126939841 0 0.1382648444377183 0.22719855966067881 0 0.10906069526472741 0.22998953009969161 0 0.12787711237058769 0.24521089126939841 0 0.1382648444377183 0.22719855966067881 0 0.1382648444377183 0.22719855966067881 0 0.14314005341278749 0.20699853547660821 0 0.15828943790025421 0.22969507774947781 0 0.14314005341278749 0.20699853547660821 0 0.16852610903267151 0.206401884619904 0 0.11775399779290339 0.20759518633331239 0 0.1382648444377183 0.22719855966067881 0 0.14314005341278749 0.20699853547660821 0 0.11775399779290339 0.20759518633331239 0 0.14314005341278749 0.20699853547660821 0 0.11775399779290339 0.20759518633331239 0 0.12550986450034471 0.186594373040398 0 0.14314005341278749 0.20699853547660821 0 0.15375492999850379 0.1814330523327968 0 0.14314005341278749 0.20699853547660821 0 0.16852610903267151 0.206401884619904 0 0.12550986450034471 0.186594373040398 0 0.15375492999850379 0.1814330523327968 0 0.14314005341278749 0.20699853547660821 0 0.15375492999850379 0.1814330523327968 0 0.18411838942066619 0.18828130780555291 0 0.16852610903267151 0.206401884619904 0 0.18411838942066619 0.18828130780555291 0 0.16852610903267151 0.206401884619904 0 0.1878214256448299 0.20672411698152671 0 0.16852610903267151 0.206401884619904 0 0.17766068788986381 0.23020170431202469 0 0.1878214256448299 0.20672411698152671 0 0.14314005341278749 0.20699853547660821 0 0.16852610903267151 0.206401884619904 0 0.15828943790025421 0.22969507774947781 0 0.16852610903267151 0.206401884619904 0 0.15828943790025421 0.22969507774947781 0 0.17766068788986381 0.23020170431202469 0 0.17766068788986381 0.23020170431202469 0 0.19353513124668931 0.22246748781277501 0 0.1878214256448299 0.20672411698152671 0 0.17766068788986381 0.23020170431202469 0 0.18692125413578081 0.24552837502103991 0 0.19379669244916639 0.23440003217329089 0 0.17766068788986381 0.23020170431202469 0 0.18692125413578081 0.24552837502103991 0 0.16774616909827719 0.2460930353984315 0 0.15828943790025421 0.22969507774947781 0 0.17766068788986381 0.23020170431202469 0 0.16774616909827719 0.2460930353984315 0 0.14702044576598061 0.2478904659134552 0 0.15828943790025421 0.22969507774947781 0 0.16774616909827719 0.2460930353984315 0 0.21557305570370441 0.24515722135805329 0 0.2029257889591993 0.24295866219667439 0 0.23007231546290949 0.2334513308517342 0 0.2029257889591993 0.24295866219667439 0 0.23007231546290949 0.2334513308517342 0 0.21557305570370441 0.24515722135805329 0 0.2029257889591993 0.24295866219667439 0 0.20107379594449931 0.25686311186437227 0 0.18692125413578081 0.24552837502103991 0 0.2029257889591993 0.24295866219667439 0 0.20107379594449931 0.25686311186437227 0 0.18692125413578081 0.24552837502103991 0 0.19379669244916639 0.23440003217329089 0 0.2029257889591993 0.24295866219667439 0 0.17766068788986381 0.23020170431202469 0 0.19379669244916639 0.23440003217329089 0 0.19353513124668931 0.22246748781277501 0 0.19379669244916639 0.23440003217329089 0 0.2029257889591993 0.24295866219667439 0 0.20920449219815451 0.22515354045629349 0 0.19379669244916639 0.23440003217329089 0 0.19353513124668931 0.22246748781277501 0 0.20920449219815451 0.22515354045629349 0 0.2029257889591993 0.24295866219667439 0 0.20920449219815451 0.22515354045629349 0 0.23007231546290949 0.2334513308517342 0 0.19353513124668931 0.22246748781277501 0 0.20920449219815451 0.22515354045629349 0 0.20732414099141369 0.20672295990195361 0 0.20920449219815451 0.22515354045629349 0 0.20732414099141369 0.20672295990195361 0 0.22783619495118521 0.20973527166224001 0 0.19353513124668931 0.22246748781277501 0 0.20732414099141369 0.20672295990195361 0 0.1878214256448299 0.20672411698152671 0 0.18411838942066619 0.18828130780555291 0 0.1878214256448299 0.20672411698152671 0 0.20343121377691101 0.18825927067945539 0 0.20732414099141369 0.20672295990195361 0 0.1878214256448299 0.20672411698152671 0 0.20343121377691101 0.18825927067945539 0 0.20732414099141369 0.20672295990195361 0 0.20343121377691101 0.18825927067945539 0 0.2219787971027708 0.18678942035429349 0 0.20732414099141369 0.20672295990195361 0 0.22783619495118521 0.20973527166224001 0 0.2219787971027708 0.18678942035429349 0 0.24528107816237801 0.1907036486386274 0 0.22783619495118521 0.20973527166224001 0 0.2219787971027708 0.18678942035429349 0 0.24528107816237801 0.1907036486386274 0 0.25242827713160498 0.21540237912569379 0 0.24528107816237801 0.1907036486386274 0 0.22783619495118521 0.20973527166224001 0 0.25242827713160498 0.21540237912569379 0 0.20920449219815451 0.22515354045629349 0 0.22783619495118521 0.20973527166224001 0 0.23007231546290949 0.2334513308517342 0 0.23007231546290949 0.2334513308517342 0 0.25242827713160498 0.21540237912569379 0 0.23007231546290949 0.2334513308517342 0 0.25511338863332461 0.22468137717712711 0 0.25242827713160498 0.21540237912569379 0 0.23007231546290949 0.2334513308517342 0 0.25511338863332461 0.22468137717712711 0 0.23007231546290949 0.2334513308517342 0 0.2457442494512444 0.24022391879071339 0 0.25511338863332461 0.22468137717712711 0 0.22783619495118521 0.20973527166224001 0 0.23007231546290949 0.2334513308517342 0 0.25242827713160498 0.21540237912569379 0 0.2457442494512444 0.24022391879071339 0 0.23628031136540401 0.25597328662156199 0 0.26221447651104962 0.2479993693513689 0 0.23007231546290949 0.2334513308517342 0 0.2457442494512444 0.24022391879071339 0 0.23628031136540401 0.25597328662156199 0 0.21557305570370441 0.24515722135805329 0 0.23007231546290949 0.2334513308517342 0 0.23628031136540401 0.25597328662156199 0 0.21557305570370441 0.24515722135805329 0 0.23007231546290949 0.2334513308517342 0 0.21023583046185859 0.14706018503428281 0 0.22521494488481819 0.12557893006429149 0 0.2001236667938262 0.1180422718546187 0 0.18002451345814399 0.12716596121819479 0 0.1903693880120208 0.14015559280000461 0 0.2001236667938262 0.1180422718546187 0 0.21023583046185859 0.14706018503428281 0 0.1903693880120208 0.14015559280000461 0 0.2001236667938262 0.1180422718546187 0 0.21023583046185859 0.14706018503428281 0 0.1903693880120208 0.14015559280000461 0 0.19050902449260759 0.164433536692701 0 0.18411838942066619 0.18828130780555291 0 0.20343121377691101 0.18825927067945539 0 0.19050902449260759 0.164433536692701 0 0.20343121377691101 0.18825927067945539 0 0.19050902449260759 0.164433536692701 0 0.20962662881846919 0.1707346457134423 0 0.20343121377691101 0.18825927067945539 0 0.20962662881846919 0.1707346457134423 0 0.2219787971027708 0.18678942035429349 0 0.21023583046185859 0.14706018503428281 0 0.20962662881846919 0.1707346457134423 0 0.2254160648188453 0.164078398330023 0 0.21023583046185859 0.14706018503428281 0 0.19050902449260759 0.164433536692701 0 0.20962662881846919 0.1707346457134423 0 0.20962662881846919 0.1707346457134423 0 0.2254160648188453 0.164078398330023 0 0.2219787971027708 0.18678942035429349 0 0.2254160648188453 0.164078398330023 0 0.2219787971027708 0.18678942035429349 0 0.23714843650665229 0.1758398884969993 0 0.24528107816237801 0.1907036486386274 0 0.2219787971027708 0.18678942035429349 0 0.23714843650665229 0.1758398884969993 0 0.24528107816237801 0.1907036486386274 0 0.23714843650665229 0.1758398884969993 0 0.25292738168467233 0.17649485219682931 0 0.2254160648188453 0.164078398330023 0 0.24653130607993951 0.16237692388552691 0 0.23688534306575301 0.1458043597726891 0 0.23714843650665229 0.1758398884969993 0 0.24653130607993951 0.16237692388552691 0 0.25292738168467233 0.17649485219682931 0 0.2254160648188453 0.164078398330023 0 0.23714843650665229 0.1758398884969993 0 0.24653130607993951 0.16237692388552691 0 0.24653130607993951 0.16237692388552691 0 0.2496536413094039 0.15044712256699261 0 0.23688534306575301 0.1458043597726891 0 0.2496536413094039 0.15044712256699261 0 0.23688534306575301 0.1458043597726891 0 0.25004344172447263 0.14019424959050239 0 0.21023583046185859 0.14706018503428281 0 0.2254160648188453 0.164078398330023 0 0.23688534306575301 0.1458043597726891 0 0.21023583046185859 0.14706018503428281 0 0.23688534306575301 0.1458043597726891 0 0.22521494488481819 0.12557893006429149 0 0.22521494488481819 0.12557893006429149 0 0.25030622297580962 0.13311558827396619 0 0.23688534306575301 0.1458043597726891 0 0.22521494488481819 0.12557893006429149 0 0.25030622297580962 0.13311558827396619 0 0.23688534306575301 0.1458043597726891 0 0.25004344172447263 0.14019424959050239 0 0.25030622297580962 0.13311558827396619 0 0.22521494488481819 0.12557893006429149 0 0.2369469616243938 0.1144798656387125 0 0.25030622297580962 0.13311558827396619 0 0.2369469616243938 0.1144798656387125 0 0.25094552198087999 0.11589449234768209 0 0.25030622297580962 0.13311558827396619 0 0.2369469616243938 0.1144798656387125 0 0.25158482098595109 0.098673396421397969 0 0.25094552198087999 0.11589449234768209 0 0.2369469616243938 0.1144798656387125 0 0.2308580048349978 0.09939168424622695 0 0.25158482098595109 0.098673396421397969 0 0.2308580048349978 0.09939168424622695 0 0.2177667053289645 0.10879872465146249 0 0.21723881235993189 0.092441087960636145 0 0.2369469616243938 0.1144798656387125 0 0.2308580048349978 0.09939168424622695 0 0.2177667053289645 0.10879872465146249 0 0.22521494488481819 0.12557893006429149 0 0.2369469616243938 0.1144798656387125 0 0.2177667053289645 0.10879872465146249 0 0.2177667053289645 0.10879872465146249 0 0.1970849337058638 0.1019164286603922 0 0.2001236667938262 0.1180422718546187 0 0.22521494488481819 0.12557893006429149 0 0.2177667053289645 0.10879872465146249 0 0.2001236667938262 0.1180422718546187 0 0.22521494488481819 0.12557893006429149 0 0.2001236667938262 0.1180422718546187 0 0.1970849337058638 0.1019164286603922 0 0.20420713705815571 0.090978010823124941 0 0.21723881235993189 0.092441087960636145 0 0.1970849337058638 0.1019164286603922 0 0.21723881235993189 0.092441087960636145 0 0.2177667053289645 0.10879872465146249 0 0.1970849337058638 0.1019164286603922 0 0.21723881235993189 0.092441087960636145 0 0.1970849337058638 0.1019164286603922 0 0.1916307843626972 0.08827444688259839 0 0.17503238870283441 0.11050561364494491 0 0.2001236667938262 0.1180422718546187 0 0.17503238870283441 0.11050561364494491 0 0.1970849337058638 0.1019164286603922 0 0.2001236667938262 0.1180422718546187 0 0.17503238870283441 0.11050561364494491 0 0.1916307843626972 0.08827444688259839 0 0.2082291800225603 0.066043280120252124 0 0.19067723801237901 0.065525043857756982 0 0.1916307843626972 0.08827444688259839 0 0.2082291800225603 0.066043280120252124 0 0.1916307843626972 0.08827444688259839 0 0.21087401780412959 0.081280079788873041 0 0.20420713705815571 0.090978010823124941 0 0.1970849337058638 0.1019164286603922 0 0.1916307843626972 0.08827444688259839 0 0.20420713705815571 0.090978010823124941 0 0.1916307843626972 0.08827444688259839 0 0.21087401780412959 0.081280079788873041 0 0.2082291800225603 0.066043280120252124 0 0.21087401780412959 0.081280079788873041 0 0.20420713705815571 0.090978010823124941 0 0.21723881235993189 0.092441087960636145 0 0.21087401780412959 0.081280079788873041 0 0.21723881235993189 0.092441087960636145 0 0.22613356481757629 0.0775902723280468 0 0.21087401780412959 0.081280079788873041 0 0.2082291800225603 0.066043280120252124 0 0.22613356481757629 0.0775902723280468 0 0.2082291800225603 0.066043280120252124 0 0.22613356481757629 0.0775902723280468 0 0.2082291800225603 0.066043280120252124 0 0.2259496113806885 0.070300708218039992 0 0.21450653174737461 0.057635669175196122 0 0.2259496113806885 0.070300708218039992 0 0.21450653174737461 0.057635669175196122 0 0.2082291800225603 0.066043280120252124 0 0.2259496113806885 0.070300708218039992 0 0.22613356481757629 0.0775902723280468 0 0.2259496113806885 0.070300708218039992 0 0.2248665156508784 0.061611733455129589 0 0.21450653174737461 0.057635669175196122 0 0.2259496113806885 0.070300708218039992 0 0.22613356481757629 0.0775902723280468 0 0.23739269101400209 0.082965747260884265 0 0.2259496113806885 0.070300708218039992 0 0.23739269101400209 0.082965747260884265 0 0.237967452106535 0.070105640596903412 0 0.2259496113806885 0.070300708218039992 0 0.23739269101400209 0.082965747260884265 0 0.2259496113806885 0.070300708218039992 0 0.2330718446673557 0.064441819436705627 0 0.2248665156508784 0.061611733455129589 0 0.2259496113806885 0.070300708218039992 0 0.2330718446673557 0.064441819436705627 0 0.237967452106535 0.070105640596903412 0 0.2308580048349978 0.09939168424622695 0 0.21723881235993189 0.092441087960636145 0 0.23739269101400209 0.082965747260884265 0 0.21723881235993189 0.092441087960636145 0 0.22613356481757629 0.0775902723280468 0 0.23739269101400209 0.082965747260884265 0 0.21723881235993189 0.092441087960636145 0 0.23739269101400209 0.082965747260884265 0 0.23739269101400209 0.082965747260884265 0 0.25158482098595109 0.098673396421397969 0 0.23739269101400209 0.082965747260884265 0 0.25243039498113262 0.075895774732197205 0 0.25158482098595109 0.098673396421397969 0 0.2308580048349978 0.09939168424622695 0 0.23739269101400209 0.082965747260884265 0 0.25158482098595109 0.098673396421397969 0 0.23739269101400209 0.082965747260884265 0 0.25243039498113262 0.075895774732197205 0 0.23934469018649959 0.064583282500140851 0 0.237967452106535 0.070105640596903412 0 0.24496427956833819 0.066036472520138348 0 0.2330718446673557 0.064441819436705627 0 0.23934469018649959 0.064583282500140851 0 0.2376257901407148 0.059976102198904507 0 0.2330718446673557 0.064441819436705627 0 0.23934469018649959 0.064583282500140851 0 0.237967452106535 0.070105640596903412 0 0.23739269101400209 0.082965747260884265 0 0.237967452106535 0.070105640596903412 0 0.24429048066179679 0.072622021298478806 0 0.24429048066179679 0.072622021298478806 0 0.24842415088314279 0.069033451464499671 0 0.25243039498113262 0.075895774732197205 0 0.23739269101400209 0.082965747260884265 0 0.24429048066179679 0.072622021298478806 0 0.25243039498113262 0.075895774732197205 0 0.24842415088314279 0.069033451464499671 0 0.24853219730195361 0.063845178725116872 0 0.25274476311700622 0.067427493409812952 0 0.237967452106535 0.070105640596903412 0 0.24429048066179679 0.072622021298478806 0 0.24496427956833819 0.066036472520138348 0 0.24429048066179679 0.072622021298478806 0 0.24842415088314279 0.069033451464499671 0 0.24496427956833819 0.066036472520138348 0 0.23934469018649959 0.064583282500140851 0 0.24496427956833819 0.066036472520138348 0 0.24309408444955441 0.062356377748052388 0 0.24496427956833819 0.066036472520138348 0 0.24602681454492631 0.062964227281045088 0 0.24309408444955441 0.062356377748052388 0 0.24496427956833819 0.066036472520138348 0 0.24602681454492631 0.062964227281045088 0 0.24853219730195361 0.063845178725116872 0 0.24842415088314279 0.069033451464499671 0 0.24496427956833819 0.066036472520138348 0 0.24853219730195361 0.063845178725116872 0 0.24751669685985911 0.059618880130872708 0 0.24309408444955441 0.062356377748052388 0 0.2376257901407148 0.059976102198904507 0 0.24751669685985911 0.059618880130872708 0 0.24426241142214139 0.049994713685017962 0 0.2310385276818335 0.053106641608170198 0 0.24751669685985911 0.059618880130872708 0 0.2376257901407148 0.059976102198904507 0 0.2310385276818335 0.053106641608170198 0 0.24751669685985911 0.059618880130872708 0 0.2310385276818335 0.053106641608170198 0 0.24853219730195361 0.063845178725116872 0 0.24751669685985911 0.059618880130872708 0 0.2530174900015254 0.0600809219264858 0 0.24602681454492631 0.062964227281045088 0 0.24853219730195361 0.063845178725116872 0 0.24751669685985911 0.059618880130872708 0 0.24602681454492631 0.062964227281045088 0 0.24751669685985911 0.059618880130872708 0 0.24309408444955441 0.062356377748052388 0 0.23934469018649959 0.064583282500140851 0 0.24309408444955441 0.062356377748052388 0 0.2376257901407148 0.059976102198904507 0 0.24426241142214139 0.049994713685017962 0 0.23928634064401511 0.040096757013566242 0 0.2310385276818335 0.053106641608170198 0 0.24751669685985911 0.059618880130872708 0 0.24426241142214139 0.049994713685017962 0 0.25102243244437311 0.053297338652025752 0 0.24426241142214139 0.049994713685017962 0 0.25174039047255609 0.044464402284776217 0 0.25102243244437311 0.053297338652025752 0 0.23928634064401511 0.040096757013566242 0 0.2320502206633881 0.021165953515508481 0 0.25044211127373811 0.032849993626191502 0 0.23928634064401511 0.040096757013566242 0 0.25044211127373811 0.032849993626191502 0 0.25174039047255609 0.044464402284776217 0 0.24426241142214139 0.049994713685017962 0 0.23928634064401511 0.040096757013566242 0 0.25174039047255609 0.044464402284776217 0 0.22618438235043381 0.038998837361733103 0 0.2320502206633881 0.021165953515508481 0 0.20963369093729961 0.03941564640516447 0 0.23928634064401511 0.040096757013566242 0 0.22618438235043381 0.038998837361733103 0 0.2320502206633881 0.021165953515508481 0 0.22618438235043381 0.038998837361733103 0 0.2310385276818335 0.053106641608170198 0 0.21456035850380811 0.046594403085467223 0 0.23928634064401511 0.040096757013566242 0 0.22618438235043381 0.038998837361733103 0 0.2310385276818335 0.053106641608170198 0 0.2310385276818335 0.053106641608170198 0 0.21456035850380811 0.046594403085467223 0 0.2248665156508784 0.061611733455129589 0 0.2310385276818335 0.053106641608170198 0 0.21456035850380811 0.046594403085467223 0 0.2248665156508784 0.061611733455129589 0 0.21456035850380811 0.046594403085467223 0 0.2330718446673557 0.064441819436705627 0 0.2248665156508784 0.061611733455129589 0 0.23150027442910881 0.059501590197602497 0 0.2248665156508784 0.061611733455129589 0 0.23150027442910881 0.059501590197602497 0 0.2310385276818335 0.053106641608170198 0 0.2330718446673557 0.064441819436705627 0 0.2376257901407148 0.059976102198904507 0 0.23150027442910881 0.059501590197602497 0 0.2376257901407148 0.059976102198904507 0 0.23150027442910881 0.059501590197602497 0 0.2310385276818335 0.053106641608170198 0 0.2320502206633881 0.021165953515508481 0 0.22999165343287109 0.0038227322559807589 0 0.25446675038947358 0.0029162606258486688 0 0.2320502206633881 0.021165953515508481 0 0.2600935707136679 0.019574361616358959 0 0.25446675038947358 0.0029162606258486688 0 0.22999165343287109 0.0038227322559807589 0 0.25446675038947358 0.0029162606258486688 0 0.24138147174972829 -0.0061427828714447699 0 0.2320502206633881 0.021165953515508481 0 0.25446675038947358 0.0029162606258486688 0 0.2320502206633881 0.021165953515508481 0 0.2600935707136679 0.019574361616358959 0 0.25044211127373811 0.032849993626191502 0 0.2320502206633881 0.021165953515508481 0 0.20963369093729961 0.03941564640516447 0 0.22999165343287109 0.0038227322559807589 0 0.21340461703840111 0.0096506044731711187 0 0.21351355446813719 -0.0021103410187178909 0 0.2320502206633881 0.021165953515508481 0 0.22999165343287109 0.0038227322559807589 0 0.21340461703840111 0.0096506044731711187 0 0.21340461703840111 0.0096506044731711187 0 0.1998105265397013 0.00335350757378736 0 0.21351355446813719 -0.0021103410187178909 0 0.21340461703840111 0.0096506044731711187 0 0.20371525389429951 0.01279949030761077 0 0.2082588668535221 0.02245160931237615 0 0.21340461703840111 0.0096506044731711187 0 0.20371525389429951 0.01279949030761077 0 0.1998105265397013 0.00335350757378736 0 0.2320502206633881 0.021165953515508481 0 0.2082588668535221 0.02245160931237615 0 0.20963369093729961 0.03941564640516447 0 0.2320502206633881 0.021165953515508481 0 0.21340461703840111 0.0096506044731711187 0 0.2082588668535221 0.02245160931237615 0 0.2082588668535221 0.02245160931237615 0 0.19338700514557339 0.015742239871108451 0 0.20963369093729961 0.03941564640516447 0 0.19338700514557339 0.015742239871108451 0 0.1989601287501698 0.040429129743079398 0 0.18048502430789731 0.01998114488410483 0 0.1989601287501698 0.040429129743079398 0 0.18048502430789731 0.01998114488410483 0 0.19338700514557339 0.015742239871108451 0 0.20963369093729961 0.03941564640516447 0 0.20371525389429951 0.01279949030761077 0 0.2082588668535221 0.02245160931237615 0 0.19338700514557339 0.015742239871108451 0 0.19338700514557339 0.015742239871108451 0 0.1998105265397013 0.00335350757378736 0 0.17714031935384769 -0.0079311666629475405 0 0.20371525389429951 0.01279949030761077 0 0.19338700514557339 0.015742239871108451 0 0.1998105265397013 0.00335350757378736 0 0.21450653174737461 0.057635669175196122 0 0.2029561920580818 0.044851916216142339 0 0.21450653174737461 0.057635669175196122 0 0.2029561920580818 0.044851916216142339 0 0.2021088015620611 0.053433964061651712 0 0.21450653174737461 0.057635669175196122 0 0.21456035850380811 0.046594403085467223 0 0.2029561920580818 0.044851916216142339 0 0.2082291800225603 0.066043280120252124 0 0.21450653174737461 0.057635669175196122 0 0.2021088015620611 0.053433964061651712 0 0.2248665156508784 0.061611733455129589 0 0.21450653174737461 0.057635669175196122 0 0.21456035850380811 0.046594403085467223 0 0.2082291800225603 0.066043280120252124 0 0.21450653174737461 0.057635669175196122 0 0.22618438235043381 0.038998837361733103 0 0.21456035850380811 0.046594403085467223 0 0.20963369093729961 0.03941564640516447 0 0.21456035850380811 0.046594403085467223 0 0.20963369093729961 0.03941564640516447 0 0.21456035850380811 0.046594403085467223 0 0.20530753189452691 0.042937648913457381 0 0.2029561920580818 0.044851916216142339 0 0.20963369093729961 0.03941564640516447 0 0.20530753189452691 0.042937648913457381 0 0.1989601287501698 0.040429129743079398 0 0.21456035850380811 0.046594403085467223 0 0.20530753189452691 0.042937648913457381 0 0.21456035850380811 0.046594403085467223 0 0.20963369093729961 0.03941564640516447 0 0.20530753189452691 0.042937648913457381 0 0.20963369093729961 0.03941564640516447 0 0.20530753189452691 0.042937648913457381 0 0.20530753189452691 0.042937648913457381 0 0.2029561920580818 0.044851916216142339 0 0.1989601287501698 0.040429129743079398 0 0.1774654858828027 0.031934360706524292 0 0.2029561920580818 0.044851916216142339 0 0.1989601287501698 0.040429129743079398 0 0.19971656766465989 0.047489351670260083 0 0.1989601287501698 0.040429129743079398 0 0.19133087755196571 0.045131483978966998 0 0.19971656766465989 0.047489351670260083 0 0.2029561920580818 0.044851916216142339 0 0.19971656766465989 0.047489351670260083 0 0.19338700514557339 0.015742239871108451 0 0.20963369093729961 0.03941564640516447 0 0.1989601287501698 0.040429129743079398 0 0.1989601287501698 0.040429129743079398 0 0.19133087755196571 0.045131483978966998 0 0.18298678422305309 0.040980100737508622 0 0.20530753189452691 0.042937648913457381 0 0.2029561920580818 0.044851916216142339 0 0.1989601287501698 0.040429129743079398 0 0.20530753189452691 0.042937648913457381 0 0.1989601287501698 0.040429129743079398 0 0.2029561920580818 0.044851916216142339 0 0.1989601287501698 0.040429129743079398 0 0.2082291800225603 0.066043280120252124 0 0.18513553631762919 0.051149603126408108 0 0.2021088015620611 0.053433964061651712 0 0.19971656766465989 0.047489351670260083 0 0.18513553631762919 0.051149603126408108 0 0.2082291800225603 0.066043280120252124 0 0.2021088015620611 0.053433964061651712 0 0.18513553631762919 0.051149603126408108 0 0.19067723801237901 0.065525043857756982 0 0.2082291800225603 0.066043280120252124 0 0.18513553631762919 0.051149603126408108 0 0.19133087755196571 0.045131483978966998 0 0.19971656766465989 0.047489351670260083 0 0.18513553631762919 0.051149603126408108 0 0.2029561920580818 0.044851916216142339 0 0.2021088015620611 0.053433964061651712 0 0.19971656766465989 0.047489351670260083 0 0.17734631865053521 0.060730067185729229 0 0.18513553631762919 0.051149603126408108 0 0.16725106424272049 0.052894846580172288 0 0.19067723801237901 0.065525043857756982 0 0.17734631865053521 0.060730067185729229 0 0.18513553631762919 0.051149603126408108 0 0.18298678422305309 0.040980100737508622 0 0.1774654858828027 0.031934360706524292 0 0.1620418926126978 0.036255926132564682 0 0.19133087755196571 0.045131483978966998 0 0.18513553631762919 0.051149603126408108 0 0.18298678422305309 0.040980100737508622 0 0.18513553631762919 0.051149603126408108 0 0.18298678422305309 0.040980100737508622 0 0.1620418926126978 0.036255926132564682 0 0.1989601287501698 0.040429129743079398 0 0.18298678422305309 0.040980100737508622 0 0.1774654858828027 0.031934360706524292 0 0.18513553631762919 0.051149603126408108 0 0.1620418926126978 0.036255926132564682 0 0.1620418926126978 0.036255926132564682 0 0.16725106424272049 0.052894846580172288 0 0.15541952745182569 0.04677658384696623 0 0.18513553631762919 0.051149603126408108 0 0.1620418926126978 0.036255926132564682 0 0.16725106424272049 0.052894846580172288 0 0.16725106424272049 0.052894846580172288 0 0.15507694825043991 0.057889849327421902 0 0.15541952745182569 0.04677658384696623 0 0.16725106424272049 0.052894846580172288 0 0.15507694825043991 0.057889849327421902 0 0.1653937448538241 0.067538194789913991 0 0.17734631865053521 0.060730067185729229 0 0.16725106424272049 0.052894846580172288 0 0.1653937448538241 0.067538194789913991 0 0.18048502430789731 0.01998114488410483 0 0.1657030786406338 0.0084270166623369204 0 0.17714031935384769 -0.0079311666629475405 0 0.19338700514557339 0.015742239871108451 0 0.17714031935384769 -0.0079311666629475405 0 0.19338700514557339 0.015742239871108451 0 0.18048502430789731 0.01998114488410483 0 0.17714031935384769 -0.0079311666629475405 0 0.1989601287501698 0.040429129743079398 0 0.1774654858828027 0.031934360706524292 0 0.18048502430789731 0.01998114488410483 0 0.1774654858828027 0.031934360706524292 0 0.18048502430789731 0.01998114488410483 0 0.16935520337559401 0.020657770454092759 0 0.1774654858828027 0.031934360706524292 0 0.15597084301543529 0.02343959166996953 0 0.1774654858828027 0.031934360706524292 0 0.1620418926126978 0.036255926132564682 0 0.15597084301543529 0.02343959166996953 0 0.1774654858828027 0.031934360706524292 0 0.16935520337559401 0.020657770454092759 0 0.15597084301543529 0.02343959166996953 0 0.16935520337559401 0.020657770454092759 0 0.1657030786406338 0.0084270166623369204 0 0.15597084301543529 0.02343959166996953 0 0.18048502430789731 0.01998114488410483 0 0.16935520337559401 0.020657770454092759 0 0.1657030786406338 0.0084270166623369204 0 0.1657030786406338 0.0084270166623369204 0 0.14883794818754281 0.01110572894874149 0 0.15480995508657039 -0.001084596553268768 0 0.1657030786406338 0.0084270166623369204 0 0.14883794818754281 0.01110572894874149 0 0.15597084301543529 0.02343959166996953 0 0.14883794818754281 0.01110572894874149 0 0.13464870039648349 0.00080453217212592717 0 0.15480995508657039 -0.001084596553268768 0 0.14883794818754281 0.01110572894874149 0 0.13894824890776639 0.02136224913872127 0 0.13464870039648349 0.00080453217212592717 0 0.1620418926126978 0.036255926132564682 0 0.13894824890776639 0.02136224913872127 0 0.14883794818754281 0.01110572894874149 0 0.15597084301543529 0.02343959166996953 0 0.13894824890776639 0.02136224913872127 0 0.1620418926126978 0.036255926132564682 0 0.15597084301543529 0.02343959166996953 0 0.13894824890776639 0.02136224913872127 0 0.11961069471150609 0.02296590295220987 0 0.13894824890776639 0.02136224913872127 0 0.12977361784467401 0.039215218793308727 0 0.1158546052028349 0.0064685721448778594 0 0.13894824890776639 0.02136224913872127 0 0.1158546052028349 0.0064685721448778594 0 0.13894824890776639 0.02136224913872127 0 0.13464870039648349 0.00080453217212592717 0 0.14278372382386809 0.048416123664777412 0 0.1428601767931531 0.062084067640591357 0 0.15507694825043991 0.057889849327421902 0 0.14278372382386809 0.048416123664777412 0 0.15507694825043991 0.057889849327421902 0 0.15541952745182569 0.04677658384696623 0 0.1620418926126978 0.036255926132564682 0 0.13894824890776639 0.02136224913872127 0 0.14579340212816641 0.038405220315267663 0 0.1620418926126978 0.036255926132564682 0 0.15541952745182569 0.04677658384696623 0 0.14579340212816641 0.038405220315267663 0 0.14278372382386809 0.048416123664777412 0 0.15541952745182569 0.04677658384696623 0 0.14579340212816641 0.038405220315267663 0 0.14278372382386809 0.048416123664777412 0 0.14579340212816641 0.038405220315267663 0 0.12977361784467401 0.039215218793308727 0 0.13894824890776639 0.02136224913872127 0 0.14579340212816641 0.038405220315267663 0 0.12977361784467401 0.039215218793308727 0 0.11550376979223601 0.054551475820320147 0 0.12977361784467401 0.039215218793308727 0 0.1326943019686847 0.054606112458038862 0 0.11550376979223601 0.054551475820320147 0 0.1326943019686847 0.054606112458038862 0 0.13255022158949201 0.068763676371196639 0 0.14278372382386809 0.048416123664777412 0 0.12977361784467401 0.039215218793308727 0 0.1326943019686847 0.054606112458038862 0 0.14278372382386809 0.048416123664777412 0 0.1428601767931531 0.062084067640591357 0 0.1326943019686847 0.054606112458038862 0 0.1428601767931531 0.062084067640591357 0 0.1326943019686847 0.054606112458038862 0 0.13255022158949201 0.068763676371196639 0 0.1207366242219714 0.074251990558816788 0 0.13255022158949201 0.068763676371196639 0 0.13578085374332971 0.077614708003019631 0 0.13255022158949201 0.068763676371196639 0 0.13578085374332971 0.077614708003019631 0 0.1430759120552613 0.073085192731263071 0 0.1428601767931531 0.062084067640591357 0 0.13255022158949201 0.068763676371196639 0 0.1430759120552613 0.073085192731263071 0 0.1428601767931531 0.062084067640591357 0 0.1430759120552613 0.073085192731263071 0 0.15260580868734391 0.069203578475014266 0 0.1430759120552613 0.073085192731263071 0 0.14969883640752091 0.076610515579137797 0 0.14563192422462459 0.083183778073064013 0 0.13578085374332971 0.077614708003019631 0 0.1430759120552613 0.073085192731263071 0 0.14563192422462459 0.083183778073064013 0 0.1430759120552613 0.073085192731263071 0 0.14969883640752091 0.076610515579137797 0 0.15260580868734391 0.069203578475014266 0 0.14969883640752091 0.076610515579137797 0 0.15260580868734391 0.069203578475014266 0 0.15677919641446331 0.080277826610221981 0 0.1428601767931531 0.062084067640591357 0 0.15507694825043991 0.057889849327421902 0 0.15260580868734391 0.069203578475014266 0 0.1506819444987289 0.088437751930635633 0 0.14868901735932749 0.09586058707093438 0 0.157853861938485 0.092527754269896317 0 0.1506819444987289 0.088437751930635633 0 0.15677919641446331 0.080277826610221981 0 0.157853861938485 0.092527754269896317 0 0.14969883640752091 0.076610515579137797 0 0.14563192422462459 0.083183778073064013 0 0.15677919641446331 0.080277826610221981 0 0.1506819444987289 0.088437751930635633 0 0.14563192422462459 0.083183778073064013 0 0.15677919641446331 0.080277826610221981 0 0.14563192422462459 0.083183778073064013 0 0.1444557225567443 0.090338813629061501 0 0.13888671887288589 0.088270852986767859 0 0.1506819444987289 0.088437751930635633 0 0.14563192422462459 0.083183778073064013 0 0.1444557225567443 0.090338813629061501 0 0.1444557225567443 0.090338813629061501 0 0.14209274384079601 0.094639397504520467 0 0.14868901735932749 0.09586058707093438 0 0.1506819444987289 0.088437751930635633 0 0.1444557225567443 0.090338813629061501 0 0.14868901735932749 0.09586058707093438 0 0.1444557225567443 0.090338813629061501 0 0.13888671887288589 0.088270852986767859 0 0.14209274384079601 0.094639397504520467 0 0.13888671887288589 0.088270852986767859 0 0.13668050292917741 0.098217611464673699 0 0.14209274384079601 0.094639397504520467 0 0.13888671887288589 0.088270852986767859 0 0.1300820653953097 0.084166932106396392 0 0.13668050292917741 0.098217611464673699 0 0.11116449005577619 0.086473750785835857 0 0.1300820653953097 0.084166932106396392 0 0.13668050292917741 0.098217611464673699 0 0.13578085374332971 0.077614708003019631 0 0.13888671887288589 0.088270852986767859 0 0.1300820653953097 0.084166932106396392 0 0.13578085374332971 0.077614708003019631 0 0.14563192422462459 0.083183778073064013 0 0.13888671887288589 0.088270852986767859 0 0.1207366242219714 0.074251990558816788 0 0.13578085374332971 0.077614708003019631 0 0.1300820653953097 0.084166932106396392 0 0.1216961693062274 0.1020981758197984 0 0.1302764983332621 0.10693497851168419 0 0.13668050292917741 0.098217611464673699 0 0.1302764983332621 0.10693497851168419 0 0.13758713408363871 0.1043360441680015 0 0.13668050292917741 0.098217611464673699 0 0.1302764983332621 0.10693497851168419 0 0.1360833458267342 0.1084620534226548 0 0.13758713408363871 0.1043360441680015 0 0.1360833458267342 0.1084620534226548 0 0.13758713408363871 0.1043360441680015 0 0.14314356584317489 0.10755645506983 0 0.13758713408363871 0.1043360441680015 0 0.13668050292917741 0.098217611464673699 0 0.14175175748584509 0.1005091223711649 0 0.13668050292917741 0.098217611464673699 0 0.14209274384079601 0.094639397504520467 0 0.14175175748584509 0.1005091223711649 0 0.12813823657366311 0.12049833089676459 0 0.13246275659848361 0.1130811342378658 0 0.13708322035591489 0.118794437000363 0 0.12212988809696081 0.1249307776834532 0 0.12788127083107459 0.1291064789800366 0 0.12813823657366311 0.12049833089676459 0 0.1197878353292403 0.1092484053650479 0 0.1302764983332621 0.10693497851168419 0 0.12624189261331301 0.1140678077034443 0 0.12813823657366311 0.12049833089676459 0 0.12624189261331301 0.1140678077034443 0 0.13246275659848361 0.1130811342378658 0 0.1302764983332621 0.10693497851168419 0 0.12624189261331301 0.1140678077034443 0 0.13246275659848361 0.1130811342378658 0 0.138866780176991 0.11235807520418389 0 0.13708322035591489 0.118794437000363 0 0.14572099158606311 0.1154247658161887 0 0.1360833458267342 0.1084620534226548 0 0.13246275659848361 0.1130811342378658 0 0.138866780176991 0.11235807520418389 0 0.1302764983332621 0.10693497851168419 0 0.1360833458267342 0.1084620534226548 0 0.13246275659848361 0.1130811342378658 0 0.1360833458267342 0.1084620534226548 0 0.138866780176991 0.11235807520418389 0 0.14314356584317489 0.10755645506983 0 0.13246275659848361 0.1130811342378658 0 0.138866780176991 0.11235807520418389 0 0.13708322035591489 0.118794437000363 0 0.13409394305489639 0.1257339851238449 0 0.14295710802469111 0.12768772724150559 0 0.13708322035591489 0.118794437000363 0 0.13409394305489639 0.1257339851238449 0 0.12813823657366311 0.12049833089676459 0 0.13708322035591489 0.118794437000363 0 0.14572099158606311 0.1154247658161887 0 0.15364605026385231 0.1227496740475859 0 0.15839207309433961 0.10550736800805539 0 0.14295710802469111 0.12768772724150559 0 0.13708322035591489 0.118794437000363 0 0.14572099158606311 0.1154247658161887 0 0.14295710802469111 0.12768772724150559 0 0.14572099158606311 0.1154247658161887 0 0.15364605026385231 0.1227496740475859 0 0.138866780176991 0.11235807520418389 0 0.14572099158606311 0.1154247658161887 0 0.14314356584317489 0.10755645506983 0 0.14572099158606311 0.1154247658161887 0 0.14314356584317489 0.10755645506983 0 0.15839207309433961 0.10550736800805539 0 0.14175175748584509 0.1005091223711649 0 0.15839207309433961 0.10550736800805539 0 0.14175175748584509 0.1005091223711649 0 0.14314356584317489 0.10755645506983 0 0.15839207309433961 0.10550736800805539 0 0.14175175748584509 0.1005091223711649 0 0.14868901735932749 0.09586058707093438 0 0.15839207309433961 0.10550736800805539 0 0.14209274384079601 0.094639397504520467 0 0.14175175748584509 0.1005091223711649 0 0.14868901735932749 0.09586058707093438 0 0.13758713408363871 0.1043360441680015 0 0.14175175748584509 0.1005091223711649 0 0.14314356584317489 0.10755645506983 0 0.14868901735932749 0.09586058707093438 0 0.15839207309433961 0.10550736800805539 0 0.157853861938485 0.092527754269896317 0 0.15839207309433961 0.10550736800805539 0 0.17503238870283441 0.11050561364494491 0 0.15839207309433961 0.10550736800805539 0 0.1705578526620479 0.095927182961129481 0 0.157853861938485 0.092527754269896317 0 0.15839207309433961 0.10550736800805539 0 0.1705578526620479 0.095927182961129481 0 0.17503238870283441 0.11050561364494491 0 0.16417220099380411 0.12505127510387981 0 0.15839207309433961 0.10550736800805539 0 0.17503238870283441 0.11050561364494491 0 0.16417220099380411 0.12505127510387981 0 0.15364605026385231 0.1227496740475859 0 0.15839207309433961 0.10550736800805539 0 0.16417220099380411 0.12505127510387981 0 0.17503238870283441 0.11050561364494491 0 0.18002451345814399 0.12716596121819479 0 0.16417220099380411 0.12505127510387981 0 0.17503238870283441 0.11050561364494491 0 0.18002451345814399 0.12716596121819479 0 0.2001236667938262 0.1180422718546187 0 0.17503238870283441 0.11050561364494491 0 0.1916307843626972 0.08827444688259839 0 0.1705578526620479 0.095927182961129481 0 0.17503238870283441 0.11050561364494491 0 0.1916307843626972 0.08827444688259839 0 0.17503238870283441 0.11050561364494491 0 0.1916307843626972 0.08827444688259839 0 0.17935943521264269 0.07135827912697662 0 0.16988015521188329 0.08282073200015258 0 0.1916307843626972 0.08827444688259839 0 0.1705578526620479 0.095927182961129481 0 0.16988015521188329 0.08282073200015258 0 0.19067723801237901 0.065525043857756982 0 0.1916307843626972 0.08827444688259839 0 0.17935943521264269 0.07135827912697662 0 0.19067723801237901 0.065525043857756982 0 0.17734631865053521 0.060730067185729229 0 0.17935943521264269 0.07135827912697662 0 0.17734631865053521 0.060730067185729229 0 0.17935943521264269 0.07135827912697662 0 0.1653937448538241 0.067538194789913991 0 0.17935943521264269 0.07135827912697662 0 0.1653937448538241 0.067538194789913991 0 0.16988015521188329 0.08282073200015258 0 0.15507694825043991 0.057889849327421902 0 0.15260580868734391 0.069203578475014266 0 0.1653937448538241 0.067538194789913991 0 0.15260580868734391 0.069203578475014266 0 0.1653937448538241 0.067538194789913991 0 0.15677919641446331 0.080277826610221981 0 0.1653937448538241 0.067538194789913991 0 0.15677919641446331 0.080277826610221981 0 0.16988015521188329 0.08282073200015258 0 0.15677919641446331 0.080277826610221981 0 0.157853861938485 0.092527754269896317 0 0.16988015521188329 0.08282073200015258 0 0.1705578526620479 0.095927182961129481 0 0.157853861938485 0.092527754269896317 0 0.16988015521188329 0.08282073200015258 0 0.099456207782380623 0.4822659283708195 0 0.1141892196830592 0.48396198267476093 0 0.11304725129434449 0.46767028325629811 0 0.099456207782380623 0.4822659283708195 0 0.11304725129434449 0.46767028325629811 0 0.096803680563272876 0.46646214520586099 0 0.099456207782380623 0.4822659283708195 0 0.10782601469385079 0.5 0 0.078267650747156567 0.50000000000000133 0 0.099456207782380623 0.4822659283708195 0 0.10782601469385079 0.5 0 0.1141892196830592 0.48396198267476093 0 0.10782601469385079 0.5 0 0.1249193769550877 0.49369376296818718 0 0.1141892196830592 0.48396198267476093 0 0.1249193769550877 0.49369376296818718 0 0.1141892196830592 0.48396198267476093 0 0.12569724768963239 0.47617993877849962 0 0.10782601469385079 0.5 0 0.1249193769550877 0.49369376296818718 0 0.13738437864054501 0.5 0 0.1141892196830592 0.48396198267476093 0 0.11304725129434449 0.46767028325629811 0 0.12569724768963239 0.47617993877849962 0 0.11304725129434449 0.46767028325629811 0 0.1267882431275838 0.46370707134437261 0 0.12569724768963239 0.47617993877849962 0 0.11304725129434449 0.46767028325629811 0 0.1221607865463437 0.4507156547582637 0 0.1004821270038239 0.44949914822431608 0 0.11304725129434449 0.46767028325629811 0 0.1221607865463437 0.4507156547582637 0 0.1267882431275838 0.46370707134437261 0 0.1221607865463437 0.4507156547582637 0 0.1004821270038239 0.44949914822431608 0 0.12259086230274099 0.42947812748907283 0 0.1004821270038239 0.44949914822431608 0 0.096803680563272876 0.46646214520586099 0 0.084307548883437972 0.45862843933572522 0 0.11304725129434449 0.46767028325629811 0 0.1004821270038239 0.44949914822431608 0 0.096803680563272876 0.46646214520586099 0 0.084307548883437972 0.45862843933572522 0 0.070120974899159305 0.46867166915081548 0 0.08254081050968877 0.47642281665818748 0 0.096803680563272876 0.46646214520586099 0 0.084307548883437972 0.45862843933572522 0 0.08254081050968877 0.47642281665818748 0 0.084307548883437972 0.45862843933572522 0 0.083205653112744402 0.44008551456546158 0 0.070599818540594342 0.45171728711773013 0 0.1004821270038239 0.44949914822431608 0 0.084307548883437972 0.45862843933572522 0 0.083205653112744402 0.44008551456546158 0 0.1004821270038239 0.44949914822431608 0 0.083205653112744402 0.44008551456546158 0 0.095892719888732866 0.42453745382262881 0 0.070599818540594342 0.45171728711773013 0 0.057347956450285731 0.44480695268810438 0 0.068330088192809502 0.43602814955066621 0 0.083205653112744402 0.44008551456546158 0 0.070599818540594342 0.45171728711773013 0 0.068330088192809502 0.43602814955066621 0 0.070599818540594342 0.45171728711773013 0 0.070120974899159305 0.46867166915081548 0 0.05832870883015126 0.45973880463956351 0 0.084307548883437972 0.45862843933572522 0 0.070599818540594342 0.45171728711773013 0 0.070120974899159305 0.46867166915081548 0 0.070120974899159305 0.46867166915081548 0 0.08254081050968877 0.47642281665818748 0 0.061557047466102868 0.48310025102256282 0 0.070120974899159305 0.46867166915081548 0 0.061557047466102868 0.48310025102256282 0 0.05832870883015126 0.45973880463956351 0 0.099456207782380623 0.4822659283708195 0 0.096803680563272876 0.46646214520586099 0 0.08254081050968877 0.47642281665818748 0 0.099456207782380623 0.4822659283708195 0 0.08254081050968877 0.47642281665818748 0 0.078267650747156567 0.50000000000000133 0 0.078267650747156567 0.50000000000000133 0 0.049166882519808157 0.5 0 0.061557047466102868 0.48310025102256282 0 0.08254081050968877 0.47642281665818748 0 0.078267650747156567 0.50000000000000133 0 0.061557047466102868 0.48310025102256282 0 0.078267650747156567 0.50000000000000133 0 0.061557047466102868 0.48310025102256282 0 0.049166882519808157 0.5 0 0.061557047466102868 0.48310025102256282 0 0.038208171894904559 0.48286056860770488 0 0.061557047466102868 0.48310025102256282 0 0.044846444185049857 0.46620050204512359 0 0.05832870883015126 0.45973880463956351 0 0.061557047466102868 0.48310025102256282 0 0.044846444185049857 0.46620050204512359 0 0.061557047466102868 0.48310025102256282 0 0.038208171894904559 0.48286056860770488 0 0.044846444185049857 0.46620050204512359 0 0.038208171894904559 0.48286056860770488 0 0.029572045059576241 0.469060477695939 0 0.044846444185049857 0.46620050204512359 0 0.049166882519808157 0.5 0 0.038208171894904559 0.48286056860770488 0 0.020066114292459799 0.5 0 0.038208171894904559 0.48286056860770488 0 0.020066114292459799 0.5 0 0.021055159894441029 0.48095839664786189 0 0.038208171894904559 0.48286056860770488 0 0.029572045059576241 0.469060477695939 0 0.021055159894441029 0.48095839664786189 0 0.029572045059576241 0.469060477695939 0 0.021055159894441029 0.48095839664786189 0 0.01561460841948897 0.46598216811131982 0 0.021055159894441029 0.48095839664786189 0 0.0030933759349822849 0.48266358315495572 0 0.01561460841948897 0.46598216811131982 0 0.0030933759349822849 0.48266358315495572 0 0.01561460841948897 0.46598216811131982 0 0.0036787250480955699 0.47408322248379448 0 0.0030933759349822849 0.48266358315495572 0 0.01561460841948897 0.46598216811131982 0 -0.0016340076521478781 0.48633642657919801 0 0.0036787250480955699 0.47408322248379448 0 0.0030933759349822849 0.48266358315495572 0 0.020066114292459799 0.5 0 0.021055159894441029 0.48095839664786189 0 0.0030933759349822849 0.48266358315495572 0 -0.0090346539348886701 0.5 0 -0.0016340076521478781 0.48633642657919801 0 0.020066114292459799 0.5 0 -0.0016340076521478781 0.48633642657919801 0 0.020066114292459799 0.5 0 0.0030933759349822849 0.48266358315495572 0 -0.0030841453677343121 0.43636499760021141 0 -0.002359076509941094 0.46135071208970457 0 0.010470448459028871 0.45111158928184719 0 -0.0030841453677343121 0.43636499760021141 0 0.010470448459028871 0.45111158928184719 0 0.017893296784651399 0.43894227458572882 0 -0.002359076509941094 0.46135071208970457 0 0.010470448459028871 0.45111158928184719 0 0.01561460841948897 0.46598216811131982 0 -0.002359076509941094 0.46135071208970457 0 0.0036787250480955699 0.47408322248379448 0 0.01561460841948897 0.46598216811131982 0 0.010470448459028871 0.45111158928184719 0 0.01561460841948897 0.46598216811131982 0 0.0281358409039968 0.44930075306768458 0 0.029572045059576241 0.469060477695939 0 0.01561460841948897 0.46598216811131982 0 0.0281358409039968 0.44930075306768458 0 0.01561460841948897 0.46598216811131982 0 0.0281358409039968 0.44930075306768458 0 0.010470448459028871 0.45111158928184719 0 0.0281358409039968 0.44930075306768458 0 0.017893296784651399 0.43894227458572882 0 0.0281358409039968 0.44930075306768458 0 0.017893296784651399 0.43894227458572882 0 0.03800042812263172 0.43615865433005307 0 0.0281358409039968 0.44930075306768458 0 0.017893296784651399 0.43894227458572882 0 0.0281358409039968 0.44930075306768458 0 0.04587361322417214 0.448769157871174 0 0.03800042812263172 0.43615865433005307 0 0.0281358409039968 0.44930075306768458 0 0.03800042812263172 0.43615865433005307 0 0.04587361322417214 0.448769157871174 0 0.049411209704934803 0.43621283219101809 0 0.03800042812263172 0.43615865433005307 0 0.029572045059576241 0.469060477695939 0 0.0281358409039968 0.44930075306768458 0 0.044846444185049857 0.46620050204512359 0 0.0281358409039968 0.44930075306768458 0 0.04587361322417214 0.448769157871174 0 0.044846444185049857 0.46620050204512359 0 0.0281358409039968 0.44930075306768458 0 0.044846444185049857 0.46620050204512359 0 0.04587361322417214 0.448769157871174 0 0.044846444185049857 0.46620050204512359 0 0.05832870883015126 0.45973880463956351 0 0.04587361322417214 0.448769157871174 0 0.057347956450285731 0.44480695268810438 0 0.049411209704934803 0.43621283219101809 0 0.04587361322417214 0.448769157871174 0 0.05832870883015126 0.45973880463956351 0 0.057347956450285731 0.44480695268810438 0 0.070599818540594342 0.45171728711773013 0 0.05832870883015126 0.45973880463956351 0 0.057347956450285731 0.44480695268810438 0 0.057347956450285731 0.44480695268810438 0 0.058238482531349368 0.43512174465279091 0 0.068330088192809502 0.43602814955066621 0 0.057347956450285731 0.44480695268810438 0 0.058238482531349368 0.43512174465279091 0 0.049411209704934803 0.43621283219101809 0 0.058238482531349368 0.43512174465279091 0 0.05412352915042095 0.42739076434297479 0 0.063786863135573219 0.4234822836218442 0 0.05412352915042095 0.42739076434297479 0 0.047865015341267358 0.42301655559242213 0 0.049411209704934803 0.43621283219101809 0 0.05412352915042095 0.42739076434297479 0 0.047865015341267358 0.42301655559242213 0 0.058238482531349368 0.43512174465279091 0 0.05412352915042095 0.42739076434297479 0 0.049411209704934803 0.43621283219101809 0 0.047865015341267358 0.42301655559242213 0 0.055388731832649349 0.41299308245440008 0 0.044385004541519633 0.40583709082877739 0 0.055388731832649349 0.41299308245440008 0 0.057103340742871267 0.4006394318358022 0 0.0691327228978319 0.40699071288372829 0 0.05412352915042095 0.42739076434297479 0 0.055388731832649349 0.41299308245440008 0 0.063786863135573219 0.4234822836218442 0 0.047865015341267358 0.42301655559242213 0 0.055388731832649349 0.41299308245440008 0 0.05412352915042095 0.42739076434297479 0 0.047865015341267358 0.42301655559242213 0 0.055388731832649349 0.41299308245440008 0 0.055388731832649349 0.41299308245440008 0 0.044385004541519633 0.40583709082877739 0 0.057103340742871267 0.4006394318358022 0 0.047865015341267358 0.42301655559242213 0 0.030398582533070099 0.41080889326869052 0 0.044385004541519633 0.40583709082877739 0 0.047865015341267358 0.42301655559242213 0 0.035686717363660143 0.42423985257235269 0 0.030398582533070099 0.41080889326869052 0 0.047865015341267358 0.42301655559242213 0 0.030398582533070099 0.41080889326869052 0 0.047865015341267358 0.42301655559242213 0 0.049411209704934803 0.43621283219101809 0 0.03800042812263172 0.43615865433005307 0 0.047865015341267358 0.42301655559242213 0 0.03800042812263172 0.43615865433005307 0 0.047865015341267358 0.42301655559242213 0 0.035686717363660143 0.42423985257235269 0 0.03800042812263172 0.43615865433005307 0 0.035686717363660143 0.42423985257235269 0 0.03800042812263172 0.43615865433005307 0 0.0264828434576714 0.42697530709824522 0 0.017893296784651399 0.43894227458572882 0 0.0264828434576714 0.42697530709824522 0 0.013451351612083251 0.42022136891186163 0 0.017893296784651399 0.43894227458572882 0 0.03800042812263172 0.43615865433005307 0 0.0264828434576714 0.42697530709824522 0 0.030398582533070099 0.41080889326869052 0 0.013451351612083251 0.42022136891186163 0 0.012932149724872831 0.39860123094495892 0 0.0264828434576714 0.42697530709824522 0 0.030398582533070099 0.41080889326869052 0 0.013451351612083251 0.42022136891186163 0 0.035686717363660143 0.42423985257235269 0 0.0264828434576714 0.42697530709824522 0 0.030398582533070099 0.41080889326869052 0 -0.0038092142255275289 0.41137928311071797 0 0.013451351612083251 0.42022136891186163 0 0.012932149724872831 0.39860123094495892 0 -0.0030841453677343121 0.43636499760021141 0 0.017893296784651399 0.43894227458572882 0 0.013451351612083251 0.42022136891186163 0 -0.0030841453677343121 0.43636499760021141 0 -0.0038092142255275289 0.41137928311071797 0 0.013451351612083251 0.42022136891186163 0 -0.0045342830833226501 0.3863935686212247 0 0.012932149724872831 0.39860123094495892 0 0.0079023355216259559 0.37348921158265391 0 0.012932149724872831 0.39860123094495892 0 0.025375843575522711 0.38021681034322929 0 0.0079023355216259559 0.37348921158265391 0 -0.0045342830833226501 0.3863935686212247 0 0.012932149724872831 0.39860123094495892 0 -0.0045342830833226501 0.3863935686212247 0 -0.0038092142255275289 0.41137928311071797 0 0.012932149724872831 0.39860123094495892 0 0.030398582533070099 0.41080889326869052 0 0.012932149724872831 0.39860123094495892 0 0.030398582533070099 0.41080889326869052 0 0.012932149724872831 0.39860123094495892 0 0.030218872497922818 0.39559608178221078 0 0.012932149724872831 0.39860123094495892 0 0.030218872497922818 0.39559608178221078 0 0.025375843575522711 0.38021681034322929 0 0.025375843575522711 0.38021681034322929 0 0.045236422390978262 0.39339421550307069 0 0.045418656597819553 0.37354288132317159 0 0.030218872497922818 0.39559608178221078 0 0.025375843575522711 0.38021681034322929 0 0.045236422390978262 0.39339421550307069 0 0.030398582533070099 0.41080889326869052 0 0.030218872497922818 0.39559608178221078 0 0.044385004541519633 0.40583709082877739 0 0.030218872497922818 0.39559608178221078 0 0.045236422390978262 0.39339421550307069 0 0.044385004541519633 0.40583709082877739 0 0.045236422390978262 0.39339421550307069 0 0.057103340742871267 0.4006394318358022 0 0.06607043693335328 0.38973814947632979 0 0.045236422390978262 0.39339421550307069 0 0.044385004541519633 0.40583709082877739 0 0.057103340742871267 0.4006394318358022 0 0.045236422390978262 0.39339421550307069 0 0.06607043693335328 0.38973814947632979 0 0.045418656597819553 0.37354288132317159 0 0.06607043693335328 0.38973814947632979 0 0.066778362586220691 0.36264744131756171 0 0.045418656597819553 0.37354288132317159 0 0.06607043693335328 0.38973814947632979 0 0.086713905658550791 0.37461406501925459 0 0.066778362586220691 0.36264744131756171 0 0.091303312773641829 0.3995757594209417 0 0.1025776524751303 0.38486691706586951 0 0.086713905658550791 0.37461406501925459 0 0.06607043693335328 0.38973814947632979 0 0.091303312773641829 0.3995757594209417 0 0.086713905658550791 0.37461406501925459 0 0.091303312773641829 0.3995757594209417 0 0.086713905658550791 0.37461406501925459 0 0.06607043693335328 0.38973814947632979 0 0.091303312773641829 0.3995757594209417 0 0.0691327228978319 0.40699071288372829 0 0.057103340742871267 0.4006394318358022 0 0.06607043693335328 0.38973814947632979 0 0.0691327228978319 0.40699071288372829 0 0.055388731832649349 0.41299308245440008 0 0.0691327228978319 0.40699071288372829 0 0.063786863135573219 0.4234822836218442 0 0.0691327228978319 0.40699071288372829 0 0.077714875811277062 0.4214876261871765 0 0.063786863135573219 0.4234822836218442 0 0.083205653112744402 0.44008551456546158 0 0.077714875811277062 0.4214876261871765 0 0.068330088192809502 0.43602814955066621 0 0.058238482531349368 0.43512174465279091 0 0.068330088192809502 0.43602814955066621 0 0.063786863135573219 0.4234822836218442 0 0.077714875811277062 0.4214876261871765 0 0.068330088192809502 0.43602814955066621 0 0.063786863135573219 0.4234822836218442 0 0.083205653112744402 0.44008551456546158 0 0.077714875811277062 0.4214876261871765 0 0.095892719888732866 0.42453745382262881 0 0.091303312773641829 0.3995757594209417 0 0.0691327228978319 0.40699071288372829 0 0.077714875811277062 0.4214876261871765 0 0.091303312773641829 0.3995757594209417 0 0.095892719888732866 0.42453745382262881 0 0.091303312773641829 0.3995757594209417 0 0.077714875811277062 0.4214876261871765 0 0.095892719888732866 0.42453745382262881 0 0.091303312773641829 0.3995757594209417 0 0.095892719888732866 0.42453745382262881 0 0.115428724103706 0.40267530492779557 0 0.1004821270038239 0.44949914822431608 0 0.095892719888732866 0.42453745382262881 0 0.12259086230274099 0.42947812748907283 0 0.1004821270038239 0.44949914822431608 0 0.095892719888732866 0.42453745382262881 0 0.095892719888732866 0.42453745382262881 0 0.12259086230274099 0.42947812748907283 0 0.115428724103706 0.40267530492779557 0 0.115428724103706 0.40267530492779557 0 0.119448870245615 0.38256434187866972 0 0.13692284990477191 0.38930777957628943 0 0.119448870245615 0.38256434187866972 0 0.1025776524751303 0.38486691706586951 0 0.1087205780393706 0.3656269003386084 0 0.115428724103706 0.40267530492779557 0 0.119448870245615 0.38256434187866972 0 0.1025776524751303 0.38486691706586951 0 0.1025776524751303 0.38486691706586951 0 0.1087205780393706 0.3656269003386084 0 0.086713905658550791 0.37461406501925459 0 0.091303312773641829 0.3995757594209417 0 0.115428724103706 0.40267530492779557 0 0.1025776524751303 0.38486691706586951 0 0.1087205780393706 0.3656269003386084 0 0.1202868522871179 0.34060046584014031 0 0.0915497208986496 0.34709204532757532 0 0.1087205780393706 0.3656269003386084 0 0.0915497208986496 0.34709204532757532 0 0.086713905658550791 0.37461406501925459 0 0.119448870245615 0.38256434187866972 0 0.1087205780393706 0.3656269003386084 0 0.13274728415341139 0.36410634055334368 0 0.1087205780393706 0.3656269003386084 0 0.1202868522871179 0.34060046584014031 0 0.13274728415341139 0.36410634055334368 0 0.1202868522871179 0.34060046584014031 0 0.1104734498024164 0.31171603628350752 0 0.14183880654046921 0.32250528078568202 0 0.1202868522871179 0.34060046584014031 0 0.1016552612267161 0.33013161519950079 0 0.1104734498024164 0.31171603628350752 0 0.1016552612267161 0.33013161519950079 0 0.081254576285268804 0.3210829637434266 0 0.1104734498024164 0.31171603628350752 0 0.1202868522871179 0.34060046584014031 0 0.1016552612267161 0.33013161519950079 0 0.0915497208986496 0.34709204532757532 0 0.081254576285268804 0.3210829637434266 0 0.072654821413094289 0.33942743407960763 0 0.0915497208986496 0.34709204532757532 0 0.1016552612267161 0.33013161519950079 0 0.081254576285268804 0.3210829637434266 0 0.0915497208986496 0.34709204532757532 0 0.081254576285268804 0.3210829637434266 0 0.06358813508901956 0.32234581427363851 0 0.071244474661197085 0.3036312559279935 0 0.081254576285268804 0.3210829637434266 0 0.06358813508901956 0.32234581427363851 0 0.072654821413094289 0.33942743407960763 0 0.06358813508901956 0.32234581427363851 0 0.072654821413094289 0.33942743407960763 0 0.055199983679349987 0.34246375673151652 0 0.072654821413094289 0.33942743407960763 0 0.066778362586220691 0.36264744131756171 0 0.055199983679349987 0.34246375673151652 0 0.072654821413094289 0.33942743407960763 0 0.0915497208986496 0.34709204532757532 0 0.066778362586220691 0.36264744131756171 0 0.0915497208986496 0.34709204532757532 0 0.086713905658550791 0.37461406501925459 0 0.066778362586220691 0.36264744131756171 0 0.066778362586220691 0.36264744131756171 0 0.044951457965310811 0.3555124197003488 0 0.045418656597819553 0.37354288132317159 0 0.066778362586220691 0.36264744131756171 0 0.044951457965310811 0.3555124197003488 0 0.055199983679349987 0.34246375673151652 0 0.044951457965310811 0.3555124197003488 0 0.021903196078839001 0.35746348141110651 0 0.035457090884324839 0.34144453771838768 0 0.044951457965310811 0.3555124197003488 0 0.035457090884324839 0.34144453771838768 0 0.055199983679349987 0.34246375673151652 0 0.044951457965310811 0.3555124197003488 0 0.045418656597819553 0.37354288132317159 0 0.021903196078839001 0.35746348141110651 0 0.025375843575522711 0.38021681034322929 0 0.021903196078839001 0.35746348141110651 0 0.0079023355216259559 0.37348921158265391 0 0.025375843575522711 0.38021681034322929 0 0.045418656597819553 0.37354288132317159 0 0.021903196078839001 0.35746348141110651 0 0.021903196078839001 0.35746348141110651 0 0.017151683724365509 0.3376665205351736 0 0.035457090884324839 0.34144453771838768 0 0.021903196078839001 0.35746348141110651 0 0.0095650341834115256 0.34490192427506011 0 0.017151683724365509 0.3376665205351736 0 0.021903196078839001 0.35746348141110651 0 0.0095650341834115256 0.34490192427506011 0 0.0061318462344260851 0.35417601161121459 0 -0.0050552824635438226 0.34569829691311771 0 0.0095650341834115256 0.34490192427506011 0 0.0061318462344260851 0.35417601161121459 0 0.021903196078839001 0.35746348141110651 0 0.0061318462344260851 0.35417601161121459 0 0.0079023355216259559 0.37348921158265391 0 -0.0052616759920083916 0.36132776784546622 0 0.0061318462344260851 0.35417601161121459 0 0.0079023355216259559 0.37348921158265391 0 0.0087281755863181168 0.33049580891976171 0 0.020410497070949891 0.30832150289807031 0 0.0056044744337335906 0.31412092038659428 0 0.0087281755863181168 0.33049580891976171 0 0.020410497070949891 0.30832150289807031 0 -0.003280447873963227 0.32161399115684158 0 0.0056044744337335906 0.31412092038659428 0 0.0087281755863181168 0.33049580891976171 0 0.0064742168078369342 0.3347740657525386 0 0.0087281755863181168 0.33049580891976171 0 -0.0050552824635438226 0.34569829691311771 0 0.0095650341834115256 0.34490192427506011 0 0.0064742168078369342 0.3347740657525386 0 0.0095650341834115256 0.34490192427506011 0 0.0064742168078369342 0.3347740657525386 0 0.017151683724365509 0.3376665205351736 0 0.0064742168078369342 0.3347740657525386 0 0.0087281755863181168 0.33049580891976171 0 0.017151683724365509 0.3376665205351736 0 0.0087281755863181168 0.33049580891976171 0 0.025353163704189718 0.33024288796319817 0 0.017151683724365509 0.3376665205351736 0 0.0087281755863181168 0.33049580891976171 0 0.025353163704189718 0.33024288796319817 0 0.025353163704189718 0.33024288796319817 0 0.017151683724365509 0.3376665205351736 0 0.035457090884324839 0.34144453771838768 0 0.0087281755863181168 0.33049580891976171 0 0.025353163704189718 0.33024288796319817 0 0.020410497070949891 0.30832150289807031 0 0.025353163704189718 0.33024288796319817 0 0.038017806832533571 0.30672300381527179 0 0.020410497070949891 0.30832150289807031 0 0.025353163704189718 0.33024288796319817 0 0.045812945845809312 0.32351293560108041 0 0.038017806832533571 0.30672300381527179 0 0.025353163704189718 0.33024288796319817 0 0.045812945845809312 0.32351293560108041 0 0.035457090884324839 0.34144453771838768 0 0.045812945845809312 0.32351293560108041 0 0.035457090884324839 0.34144453771838768 0 0.055199983679349987 0.34246375673151652 0 0.06358813508901956 0.32234581427363851 0 0.045812945845809312 0.32351293560108041 0 0.055199983679349987 0.34246375673151652 0 0.06358813508901956 0.32234581427363851 0 0.045812945845809312 0.32351293560108041 0 0.055148108477292443 0.3057593846019967 0 0.055148108477292443 0.3057593846019967 0 0.047586914097201803 0.29032131063477928 0 0.038017806832533571 0.30672300381527179 0 0.055148108477292443 0.3057593846019967 0 0.047586914097201803 0.29032131063477928 0 0.066935962560195753 0.28615893812798288 0 0.047586914097201803 0.29032131063477928 0 0.050578246113349837 0.27455429857722041 0 0.066935962560195753 0.28615893812798288 0 0.047586914097201803 0.29032131063477928 0 0.032092818555581597 0.28614719687637868 0 0.038017806832533571 0.30672300381527179 0 0.047586914097201803 0.29032131063477928 0 0.032092818555581597 0.28614719687637868 0 0.050578246113349837 0.27455429857722041 0 0.045812945845809312 0.32351293560108041 0 0.055148108477292443 0.3057593846019967 0 0.038017806832533571 0.30672300381527179 0 0.032092818555581597 0.28614719687637868 0 0.038017806832533571 0.30672300381527179 0 0.020410497070949891 0.30832150289807031 0 0.032092818555581597 0.28614719687637868 0 0.020410497070949891 0.30832150289807031 0 0.032092818555581597 0.28614719687637868 0 0.020410497070949891 0.30832150289807031 0 0.0083336089875100904 0.29343585490586271 0 0.032092818555581597 0.28614719687637868 0 0.0083336089875100904 0.29343585490586271 0 0.021382191810826279 0.2686960609189637 0 -0.0088759444352828343 0.31092800175718183 0 0.0056044744337335906 0.31412092038659428 0 0.0083336089875100904 0.29343585490586271 0 0.0056044744337335906 0.31412092038659428 0 0.020410497070949891 0.30832150289807031 0 0.0083336089875100904 0.29343585490586271 0 0.0073806355134042019 0.25529449578482938 0 3.3590645499582607e-05 0.27236849017123349 0 0.021382191810826279 0.2686960609189637 0 0.0083336089875100904 0.29343585490586271 0 3.3590645499582607e-05 0.27236849017123349 0 0.021382191810826279 0.2686960609189637 0 0.025149977659741599 0.24684982625080901 0 0.0073806355134042019 0.25529449578482938 0 0.021382191810826279 0.2686960609189637 0 0.025149977659741599 0.24684982625080901 0 0.021382191810826279 0.2686960609189637 0 0.043775140040213267 0.26397289085468728 0 0.025149977659741599 0.24684982625080901 0 0.045472231705318063 0.24424317023843681 0 0.050158093690384618 0.2598810672441918 0 0.025149977659741599 0.24684982625080901 0 0.050158093690384618 0.2598810672441918 0 0.025149977659741599 0.24684982625080901 0 0.043775140040213267 0.26397289085468728 0 0.050158093690384618 0.2598810672441918 0 0.032092818555581597 0.28614719687637868 0 0.043775140040213267 0.26397289085468728 0 0.032092818555581597 0.28614719687637868 0 0.021382191810826279 0.2686960609189637 0 0.043775140040213267 0.26397289085468728 0 0.032092818555581597 0.28614719687637868 0 0.043775140040213267 0.26397289085468728 0 0.050578246113349837 0.27455429857722041 0 0.050578246113349837 0.27455429857722041 0 0.063875668081316214 0.2678607518654692 0 0.066935962560195753 0.28615893812798288 0 0.043775140040213267 0.26397289085468728 0 0.050578246113349837 0.27455429857722041 0 0.050158093690384618 0.2598810672441918 0 0.050578246113349837 0.27455429857722041 0 0.056046126259945157 0.25263236173372139 0 0.063875668081316214 0.2678607518654692 0 0.050578246113349837 0.27455429857722041 0 0.050158093690384618 0.2598810672441918 0 0.056046126259945157 0.25263236173372139 0 0.045472231705318063 0.24424317023843681 0 0.050158093690384618 0.2598810672441918 0 0.056046126259945157 0.25263236173372139 0 0.050578246113349837 0.27455429857722041 0 0.056046126259945157 0.25263236173372139 0 0.078525547080241467 0.2465942846531784 0 0.067905867336300579 0.25358800162702 0 0.079567988853459573 0.27014218499250892 0 0.067905867336300579 0.25358800162702 0 0.079567988853459573 0.27014218499250892 0 0.063875668081316214 0.2678607518654692 0 0.056046126259945157 0.25263236173372139 0 0.067905867336300579 0.25358800162702 0 0.063875668081316214 0.2678607518654692 0 0.078525547080241467 0.2465942846531784 0 0.079567988853459573 0.27014218499250892 0 0.093798877441032588 0.2579700649065903 0 0.079567988853459573 0.27014218499250892 0 0.063875668081316214 0.2678607518654692 0 0.066935962560195753 0.28615893812798288 0 0.079567988853459573 0.27014218499250892 0 0.066935962560195753 0.28615893812798288 0 0.087430381393448858 0.29852998767476718 0 0.066935962560195753 0.28615893812798288 0 0.071244474661197085 0.3036312559279935 0 0.087430381393448858 0.29852998767476718 0 0.055148108477292443 0.3057593846019967 0 0.066935962560195753 0.28615893812798288 0 0.071244474661197085 0.3036312559279935 0 0.06358813508901956 0.32234581427363851 0 0.055148108477292443 0.3057593846019967 0 0.071244474661197085 0.3036312559279935 0 0.081254576285268804 0.3210829637434266 0 0.087430381393448858 0.29852998767476718 0 0.1104734498024164 0.31171603628350752 0 0.081254576285268804 0.3210829637434266 0 0.071244474661197085 0.3036312559279935 0 0.087430381393448858 0.29852998767476718 0 0.079567988853459573 0.27014218499250892 0 0.087430381393448858 0.29852998767476718 0 0.1079828451826004 0.27738565586056829 0 0.087430381393448858 0.29852998767476718 0 0.1104734498024164 0.31171603628350752 0 0.1079828451826004 0.27738565586056829 0 0.1104734498024164 0.31171603628350752 0 0.1079828451826004 0.27738565586056829 0 0.13401849175413849 0.29214957311260448 0 0.1079828451826004 0.27738565586056829 0 0.13401849175413849 0.29214957311260448 0 0.1100607559553454 0.25396994184181759 0 0.1079828451826004 0.27738565586056829 0 0.13366986361514199 0.26692500362740812 0 0.12787711237058769 0.24521089126939841 0 0.1100607559553454 0.25396994184181759 0 0.13366986361514199 0.26692500362740812 0 0.092857250133516089 0.24175825718487831 0 0.1100607559553454 0.25396994184181759 0 0.093798877441032588 0.2579700649065903 0 0.1100607559553454 0.25396994184181759 0 0.093798877441032588 0.2579700649065903 0 0.1079828451826004 0.27738565586056829 0 0.079567988853459573 0.27014218499250892 0 0.093798877441032588 0.2579700649065903 0 0.1079828451826004 0.27738565586056829 0 0.13366986361514199 0.26692500362740812 0 0.1558685034792309 0.28595093384994291 0 0.15959452244756481 0.26367036214955358 0 0.14702044576598061 0.2478904659134552 0 0.13366986361514199 0.26692500362740812 0 0.15959452244756481 0.26367036214955358 0 0.14702044576598061 0.2478904659134552 0 0.12787711237058769 0.24521089126939841 0 0.13366986361514199 0.26692500362740812 0 0.1079828451826004 0.27738565586056829 0 0.13366986361514199 0.26692500362740812 0 0.13401849175413849 0.29214957311260448 0 0.1104734498024164 0.31171603628350752 0 0.13401849175413849 0.29214957311260448 0 0.14183880654046921 0.32250528078568202 0 0.13401849175413849 0.29214957311260448 0 0.16005413832567669 0.30691349036464077 0 0.14183880654046921 0.32250528078568202 0 0.13401849175413849 0.29214957311260448 0 0.16005413832567669 0.30691349036464077 0 0.13401849175413849 0.29214957311260448 0 0.1558685034792309 0.28595093384994291 0 0.16005413832567669 0.30691349036464077 0 0.13366986361514199 0.26692500362740812 0 0.13401849175413849 0.29214957311260448 0 0.1558685034792309 0.28595093384994291 0 0.1558685034792309 0.28595093384994291 0 0.1700220001876428 0.28782965529906401 0 0.16005413832567669 0.30691349036464077 0 0.1558685034792309 0.28595093384994291 0 0.1700220001876428 0.28782965529906401 0 0.17370236977615991 0.27502287964280692 0 0.1700220001876428 0.28782965529906401 0 0.16005413832567669 0.30691349036464077 0 0.1764196225356903 0.29880027385689728 0 0.16005413832567669 0.30691349036464077 0 0.1764196225356903 0.29880027385689728 0 0.18686192329242929 0.31378732528256248 0 0.1764196225356903 0.29880027385689728 0 0.18674031124236579 0.30201460306836742 0 0.19086383386244751 0.2907864273273883 0 0.1764196225356903 0.29880027385689728 0 0.18674031124236579 0.30201460306836742 0 0.18686192329242929 0.31378732528256248 0 0.1700220001876428 0.28782965529906401 0 0.18013512871176271 0.28566990799825959 0 0.17370236977615991 0.27502287964280692 0 0.1700220001876428 0.28782965529906401 0 0.1764196225356903 0.29880027385689728 0 0.18013512871176271 0.28566990799825959 0 0.1764196225356903 0.29880027385689728 0 0.18013512871176271 0.28566990799825959 0 0.19086383386244751 0.2907864273273883 0 0.18013512871176271 0.28566990799825959 0 0.1896678171968729 0.27591030386514148 0 0.19086383386244751 0.2907864273273883 0 0.18251379545819379 0.26835647973838378 0 0.17370236977615991 0.27502287964280692 0 0.1896678171968729 0.27591030386514148 0 0.18013512871176271 0.28566990799825959 0 0.17370236977615991 0.27502287964280692 0 0.1896678171968729 0.27591030386514148 0 0.18251379545819379 0.26835647973838378 0 0.17370236977615991 0.27502287964280692 0 0.17699066645021869 0.2595722272450377 0 0.17370236977615991 0.27502287964280692 0 0.15959452244756481 0.26367036214955358 0 0.17699066645021869 0.2595722272450377 0 0.1558685034792309 0.28595093384994291 0 0.17370236977615991 0.27502287964280692 0 0.15959452244756481 0.26367036214955358 0 0.16774616909827719 0.2460930353984315 0 0.15959452244756481 0.26367036214955358 0 0.17699066645021869 0.2595722272450377 0 0.14702044576598061 0.2478904659134552 0 0.16774616909827719 0.2460930353984315 0 0.15959452244756481 0.26367036214955358 0 0.18692125413578081 0.24552837502103991 0 0.16774616909827719 0.2460930353984315 0 0.17699066645021869 0.2595722272450377 0 0.18692125413578081 0.24552837502103991 0 0.17699066645021869 0.2595722272450377 0 0.19242781921148469 0.26384338938458129 0 0.18251379545819379 0.26835647973838378 0 0.17699066645021869 0.2595722272450377 0 0.19242781921148469 0.26384338938458129 0 0.18692125413578081 0.24552837502103991 0 0.19242781921148469 0.26384338938458129 0 0.20107379594449931 0.25686311186437227 0 0.18692125413578081 0.24552837502103991 0 0.20107379594449931 0.25686311186437227 0 0.19242781921148469 0.26384338938458129 0 0.20107379594449931 0.25686311186437227 0 0.2008998280478862 0.26959186196165702 0 0.19242781921148469 0.26384338938458129 0 0.20107379594449931 0.25686311186437227 0 0.19242781921148469 0.26384338938458129 0 0.1896678171968729 0.27591030386514148 0 0.2008998280478862 0.26959186196165702 0 0.18251379545819379 0.26835647973838378 0 0.19242781921148469 0.26384338938458129 0 0.1896678171968729 0.27591030386514148 0 0.1896678171968729 0.27591030386514148 0 0.2008998280478862 0.26959186196165702 0 0.20354188417430641 0.281093168015905 0 0.2008998280478862 0.26959186196165702 0 0.2177878237122676 0.27024933667828532 0 0.20354188417430641 0.281093168015905 0 0.2177878237122676 0.27024933667828532 0 0.20354188417430641 0.281093168015905 0 0.2166033006779626 0.28924568688104418 0 0.21557305570370441 0.24515722135805329 0 0.20107379594449931 0.25686311186437227 0 0.2177878237122676 0.27024933667828532 0 0.20107379594449931 0.25686311186437227 0 0.2177878237122676 0.27024933667828532 0 0.20107379594449931 0.25686311186437227 0 0.2008998280478862 0.26959186196165702 0 0.2177878237122676 0.27024933667828532 0 0.21557305570370441 0.24515722135805329 0 0.20107379594449931 0.25686311186437227 0 0.21557305570370441 0.24515722135805329 0 0.2177878237122676 0.27024933667828532 0 0.23628031136540401 0.25597328662156199 0 0.2177878237122676 0.27024933667828532 0 0.23628031136540401 0.25597328662156199 0 0.23450185148003599 0.28363556149219821 0 0.2177878237122676 0.27024933667828532 0 0.23450185148003599 0.28363556149219821 0 0.2166033006779626 0.28924568688104418 0 0.2177878237122676 0.27024933667828532 0 0.23450185148003599 0.28363556149219821 0 0.23628031136540401 0.25597328662156199 0 0.23450185148003599 0.28363556149219821 0 0.25102838231212438 0.26850893423506528 0 0.23450185148003599 0.28363556149219821 0 0.25953152444998728 0.28294166139542631 0 0.25102838231212438 0.26850893423506528 0 0.23628031136540401 0.25597328662156199 0 0.25102838231212438 0.26850893423506528 0 0.26221447651104962 0.2479993693513689 0 0.2297645605960125 0.30261029929826411 0 0.25121587924780342 0.29702178630611242 0 0.2484846271056145 0.31037308609574782 0 0.2297645605960125 0.30261029929826411 0 0.23798581837376781 0.31938142953188831 0 0.2484846271056145 0.31037308609574782 0 0.2297645605960125 0.30261029929826411 0 0.25121587924780342 0.29702178630611242 0 0.23450185148003599 0.28363556149219821 0 0.2297645605960125 0.30261029929826411 0 0.25121587924780342 0.29702178630611242 0 0.23450185148003599 0.28363556149219821 0 0.25121587924780342 0.29702178630611242 0 0.23450185148003599 0.28363556149219821 0 0.25953152444998728 0.28294166139542631 0 0.25121587924780342 0.29702178630611242 0 0.23450185148003599 0.28363556149219821 0 0.2297645605960125 0.30261029929826411 0 0.2166033006779626 0.28924568688104418 0 0.2297645605960125 0.30261029929826411 0 0.20831324194422091 0.30819881229041318 0 0.2297645605960125 0.30261029929826411 0 0.20831324194422091 0.30819881229041318 0 0.21977364325038071 0.31928170538083578 0 0.20831324194422091 0.30819881229041318 0 0.2166033006779626 0.28924568688104418 0 0.20288664267638859 0.29424953150154581 0 0.2297645605960125 0.30261029929826411 0 0.20831324194422091 0.30819881229041318 0 0.2166033006779626 0.28924568688104418 0 0.20354188417430641 0.281093168015905 0 0.2166033006779626 0.28924568688104418 0 0.20288664267638859 0.29424953150154581 0 0.20354188417430641 0.281093168015905 0 0.20288664267638859 0.29424953150154581 0 0.19086383386244751 0.2907864273273883 0 0.20288664267638859 0.29424953150154581 0 0.19086383386244751 0.2907864273273883 0 0.19511095272300569 0.3019235629929784 0 0.1896678171968729 0.27591030386514148 0 0.20354188417430641 0.281093168015905 0 0.19086383386244751 0.2907864273273883 0 0.20831324194422091 0.30819881229041318 0 0.18686192329242929 0.31378732528256248 0 0.20831324194422091 0.30819881229041318 0 0.19511095272300569 0.3019235629929784 0 0.18686192329242929 0.31378732528256248 0 0.20831324194422091 0.30819881229041318 0 0.20288664267638859 0.29424953150154581 0 0.19511095272300569 0.3019235629929784 0 0.18674031124236579 0.30201460306836742 0 0.19086383386244751 0.2907864273273883 0 0.19511095272300569 0.3019235629929784 0 0.18674031124236579 0.30201460306836742 0 0.19511095272300569 0.3019235629929784 0 0.18686192329242929 0.31378732528256248 0 0.20141288137377081 0.31920030670374799 0 0.18686192329242929 0.31378732528256248 0 0.18608978489721489 0.32167740761667712 0 0.20831324194422091 0.30819881229041318 0 0.20141288137377081 0.31920030670374799 0 0.18686192329242929 0.31378732528256248 0 0.20141288137377081 0.31920030670374799 0 0.21212543146875301 0.33644132486871342 0 0.18608978489721489 0.32167740761667712 0 0.21212543146875301 0.33644132486871342 0 0.18608978489721489 0.32167740761667712 0 0.19231113454718349 0.34165597013868199 0 0.21212543146875301 0.33644132486871342 0 0.18608978489721489 0.32167740761667712 0 0.20831324194422091 0.30819881229041318 0 0.20141288137377081 0.31920030670374799 0 0.21977364325038071 0.31928170538083578 0 0.20141288137377081 0.31920030670374799 0 0.21212543146875301 0.33644132486871342 0 0.21977364325038071 0.31928170538083578 0 0.21977364325038071 0.31928170538083578 0 0.2290399257457596 0.32985805959198788 0 0.23798581837376781 0.31938142953188831 0 0.2297645605960125 0.30261029929826411 0 0.21977364325038071 0.31928170538083578 0 0.23798581837376781 0.31938142953188831 0 0.21212543146875301 0.33644132486871342 0 0.21977364325038071 0.31928170538083578 0 0.2290399257457596 0.32985805959198788 0 0.21212543146875301 0.33644132486871342 0 0.23060518033342339 0.33807106122714048 0 0.2290399257457596 0.32985805959198788 0 0.21212543146875301 0.33644132486871342 0 0.23060518033342339 0.33807106122714048 0 0.23816107804029091 0.35120524212074949 0 0.23060518033342339 0.33807106122714048 0 0.2290399257457596 0.32985805959198788 0 0.2430942860788903 0.33477961832711151 0 0.23060518033342339 0.33807106122714048 0 0.2430942860788903 0.33477961832711151 0 0.23816107804029091 0.35120524212074949 0 0.2484846271056145 0.31037308609574782 0 0.23798581837376781 0.31938142953188831 0 0.25508783524565293 0.32209220201309929 0 0.2430942860788903 0.33477961832711151 0 0.23798581837376781 0.31938142953188831 0 0.25508783524565293 0.32209220201309929 0 0.2290399257457596 0.32985805959198788 0 0.2430942860788903 0.33477961832711151 0 0.23798581837376781 0.31938142953188831 0 0.23439037865920059 0.35560025357312369 0 0.2386764282036242 0.37725286527910618 0 0.24311907173897271 0.36013203008567057 0 0.23439037865920059 0.35560025357312369 0 0.2386764282036242 0.37725286527910618 0 0.2492643002430574 0.365916522193315 0 0.24311907173897271 0.36013203008567057 0 0.2386764282036242 0.37725286527910618 0 0.2492643002430574 0.365916522193315 0 0.2386764282036242 0.37725286527910618 0 0.25383912625151372 0.37755129754335942 0 0.24311907173897271 0.36013203008567057 0 0.23816107804029091 0.35120524212074949 0 0.2641967246118288 0.36596915937278562 0 0.2430942860788903 0.33477961832711151 0 0.23816107804029091 0.35120524212074949 0 0.26173146881309822 0.35734024057335978 0 0.24311907173897271 0.36013203008567057 0 0.23816107804029091 0.35120524212074949 0 0.23439037865920059 0.35560025357312369 0 0.21212543146875301 0.33644132486871342 0 0.23816107804029091 0.35120524212074949 0 0.21848510057545151 0.35453686872473111 0 0.23816107804029091 0.35120524212074949 0 0.23439037865920059 0.35560025357312369 0 0.21848510057545151 0.35453686872473111 0 0.21212543146875301 0.33644132486871342 0 0.23816107804029091 0.35120524212074949 0 0.23439037865920059 0.35560025357312369 0 0.22513916990612379 0.36868200325308897 0 0.2386764282036242 0.37725286527910618 0 0.23439037865920059 0.35560025357312369 0 0.22513916990612379 0.36868200325308897 0 0.21848510057545151 0.35453686872473111 0 0.22513916990612379 0.36868200325308897 0 0.20931495008602691 0.36890180222237801 0 0.21961872799640589 0.38146559318592133 0 0.22513916990612379 0.36868200325308897 0 0.20931495008602691 0.36890180222237801 0 0.21848510057545151 0.35453686872473111 0 0.20931495008602691 0.36890180222237801 0 0.21848510057545151 0.35453686872473111 0 0.2018014651714847 0.35413555731190122 0 0.21212543146875301 0.33644132486871342 0 0.21848510057545151 0.35453686872473111 0 0.2018014651714847 0.35413555731190122 0 0.19231113454718349 0.34165597013868199 0 0.2018014651714847 0.35413555731190122 0 0.1832131523033072 0.3569188224833833 0 0.19231113454718349 0.34165597013868199 0 0.21212543146875301 0.33644132486871342 0 0.2018014651714847 0.35413555731190122 0 0.20931495008602691 0.36890180222237801 0 0.2018014651714847 0.35413555731190122 0 0.19217836357317111 0.36996972767433872 0 0.20931495008602691 0.36890180222237801 0 0.19217836357317111 0.36996972767433872 0 0.20289108470775991 0.38370682355227331 0 0.2018014651714847 0.35413555731190122 0 0.19217836357317111 0.36996972767433872 0 0.1832131523033072 0.3569188224833833 0 0.19217836357317111 0.36996972767433872 0 0.17197644233242751 0.37002706837148541 0 0.1832131523033072 0.3569188224833833 0 0.17197644233242751 0.37002706837148541 0 0.16866852787741549 0.35230522619665788 0 0.1832131523033072 0.3569188224833833 0 0.17197644233242751 0.37002706837148541 0 0.16866852787741549 0.35230522619665788 0 0.15186920095361911 0.35620033980905319 0 0.17197644233242751 0.37002706837148541 0 0.15186920095361911 0.35620033980905319 0 0.15185568245476189 0.37707061606136422 0 0.16866852787741549 0.35230522619665788 0 0.1579580049025659 0.33927316190663209 0 0.15186920095361911 0.35620033980905319 0 0.16866852787741549 0.35230522619665788 0 0.1832131523033072 0.3569188224833833 0 0.17832583889515771 0.33910673841273542 0 0.19231113454718349 0.34165597013868199 0 0.1832131523033072 0.3569188224833833 0 0.17832583889515771 0.33910673841273542 0 0.17832583889515771 0.33910673841273542 0 0.18608978489721489 0.32167740761667712 0 0.16647560889869609 0.32578562508456149 0 0.19231113454718349 0.34165597013868199 0 0.17832583889515771 0.33910673841273542 0 0.18608978489721489 0.32167740761667712 0 0.16005413832567669 0.30691349036464077 0 0.18608978489721489 0.32167740761667712 0 0.16005413832567669 0.30691349036464077 0 0.18686192329242929 0.31378732528256248 0 0.18608978489721489 0.32167740761667712 0 0.16005413832567669 0.30691349036464077 0 0.18608978489721489 0.32167740761667712 0 0.16647560889869609 0.32578562508456149 0 0.17832583889515771 0.33910673841273542 0 0.16647560889869609 0.32578562508456149 0 0.1579580049025659 0.33927316190663209 0 0.16866852787741549 0.35230522619665788 0 0.17832583889515771 0.33910673841273542 0 0.1579580049025659 0.33927316190663209 0 0.16647560889869609 0.32578562508456149 0 0.1579580049025659 0.33927316190663209 0 0.14183880654046921 0.32250528078568202 0 0.1579580049025659 0.33927316190663209 0 0.14183880654046921 0.32250528078568202 0 0.14054269679001921 0.34363296691054102 0 0.16005413832567669 0.30691349036464077 0 0.16647560889869609 0.32578562508456149 0 0.14183880654046921 0.32250528078568202 0 0.1202868522871179 0.34060046584014031 0 0.14183880654046921 0.32250528078568202 0 0.14054269679001921 0.34363296691054102 0 0.1202868522871179 0.34060046584014031 0 0.14054269679001921 0.34363296691054102 0 0.13274728415341139 0.36410634055334368 0 0.13274728415341139 0.36410634055334368 0 0.15186920095361911 0.35620033980905319 0 0.15185568245476189 0.37707061606136422 0 0.14054269679001921 0.34363296691054102 0 0.13274728415341139 0.36410634055334368 0 0.15186920095361911 0.35620033980905319 0 0.1579580049025659 0.33927316190663209 0 0.14054269679001921 0.34363296691054102 0 0.15186920095361911 0.35620033980905319 0 0.15352992747694119 0.40026604784697911 0 0.13692284990477191 0.38930777957628943 0 0.1397509022148696 0.40843688002483958 0 0.15352992747694119 0.40026604784697911 0 0.15185568245476189 0.37707061606136422 0 0.13692284990477191 0.38930777957628943 0 0.13274728415341139 0.36410634055334368 0 0.15185568245476189 0.37707061606136422 0 0.13692284990477191 0.38930777957628943 0 0.119448870245615 0.38256434187866972 0 0.13274728415341139 0.36410634055334368 0 0.13692284990477191 0.38930777957628943 0 0.115428724103706 0.40267530492779557 0 0.13692284990477191 0.38930777957628943 0 0.1397509022148696 0.40843688002483958 0 0.12259086230274099 0.42947812748907283 0 0.1397509022148696 0.40843688002483958 0 0.14363603346764281 0.42707530835579988 0 0.12259086230274099 0.42947812748907283 0 0.115428724103706 0.40267530492779557 0 0.1397509022148696 0.40843688002483958 0 0.12259086230274099 0.42947812748907283 0 0.14363603346764281 0.42707530835579988 0 0.13510526379757609 0.44116740875256688 0 0.14363603346764281 0.42707530835579988 0 0.16526304614212209 0.42908608809292892 0 0.1507341445198021 0.44370602134863157 0 0.14363603346764281 0.42707530835579988 0 0.15527295380072001 0.4153931176925994 0 0.16526304614212209 0.42908608809292892 0 0.14363603346764281 0.42707530835579988 0 0.1507341445198021 0.44370602134863157 0 0.13510526379757609 0.44116740875256688 0 0.1397509022148696 0.40843688002483958 0 0.14363603346764281 0.42707530835579988 0 0.15527295380072001 0.4153931176925994 0 0.15352992747694119 0.40026604784697911 0 0.1397509022148696 0.40843688002483958 0 0.15527295380072001 0.4153931176925994 0 0.15527295380072001 0.4153931176925994 0 0.1711416470664554 0.41062619466687539 0 0.16526304614212209 0.42908608809292892 0 0.15352992747694119 0.40026604784697911 0 0.15527295380072001 0.4153931176925994 0 0.1711416470664554 0.41062619466687539 0 0.16526304614212209 0.42908608809292892 0 0.1809560021812836 0.43814832633623357 0 0.16598328874466911 0.44273574664910909 0 0.16526304614212209 0.42908608809292892 0 0.18469425222239219 0.42125941149134333 0 0.1809560021812836 0.43814832633623357 0 0.1711416470664554 0.41062619466687539 0 0.16526304614212209 0.42908608809292892 0 0.18469425222239219 0.42125941149134333 0 0.1711416470664554 0.41062619466687539 0 0.18469425222239219 0.42125941149134333 0 0.1843100454414533 0.40126956181167389 0 0.1711416470664554 0.41062619466687539 0 0.1843100454414533 0.40126956181167389 0 0.16952276405911931 0.3912061138884545 0 0.1843100454414533 0.40126956181167389 0 0.16952276405911931 0.3912061138884545 0 0.18589276442329861 0.38606835492789338 0 0.15352992747694119 0.40026604784697911 0 0.1711416470664554 0.41062619466687539 0 0.16952276405911931 0.3912061138884545 0 0.15352992747694119 0.40026604784697911 0 0.15185568245476189 0.37707061606136422 0 0.16952276405911931 0.3912061138884545 0 0.17197644233242751 0.37002706837148541 0 0.15185568245476189 0.37707061606136422 0 0.16952276405911931 0.3912061138884545 0 0.17197644233242751 0.37002706837148541 0 0.16952276405911931 0.3912061138884545 0 0.18589276442329861 0.38606835492789338 0 0.19217836357317111 0.36996972767433872 0 0.17197644233242751 0.37002706837148541 0 0.18589276442329861 0.38606835492789338 0 0.18589276442329861 0.38606835492789338 0 0.20289108470775991 0.38370682355227331 0 0.19700705340585539 0.39579078134538831 0 0.19217836357317111 0.36996972767433872 0 0.18589276442329861 0.38606835492789338 0 0.20289108470775991 0.38370682355227331 0 0.19700705340585539 0.39579078134538831 0 0.21316338490038089 0.39704202397260657 0 0.19877798755638451 0.41086714246249401 0 0.1843100454414533 0.40126956181167389 0 0.19700705340585539 0.39579078134538831 0 0.19877798755638451 0.41086714246249401 0 0.1843100454414533 0.40126956181167389 0 0.18589276442329861 0.38606835492789338 0 0.19700705340585539 0.39579078134538831 0 0.20289108470775991 0.38370682355227331 0 0.19700705340585539 0.39579078134538831 0 0.21316338490038089 0.39704202397260657 0 0.20931495008602691 0.36890180222237801 0 0.20289108470775991 0.38370682355227331 0 0.21961872799640589 0.38146559318592133 0 0.20289108470775991 0.38370682355227331 0 0.21316338490038089 0.39704202397260657 0 0.21961872799640589 0.38146559318592133 0 0.22513916990612379 0.36868200325308897 0 0.21961872799640589 0.38146559318592133 0 0.2386764282036242 0.37725286527910618 0 0.21961872799640589 0.38146559318592133 0 0.22852735017452019 0.39320804083607441 0 0.2386764282036242 0.37725286527910618 0 0.21316338490038089 0.39704202397260657 0 0.21961872799640589 0.38146559318592133 0 0.22852735017452019 0.39320804083607441 0 0.21316338490038089 0.39704202397260657 0 0.22852735017452019 0.39320804083607441 0 0.22983145469658259 0.40925978250573319 0 0.21316338490038089 0.39704202397260657 0 0.22983145469658259 0.40925978250573319 0 0.22852735017452019 0.39320804083607441 0 0.2429624777480478 0.39890547698508871 0 0.22983145469658259 0.40925978250573319 0 0.2429624777480478 0.39890547698508871 0 0.2386764282036242 0.37725286527910618 0 0.22852735017452019 0.39320804083607441 0 0.2429624777480478 0.39890547698508871 0 0.2386764282036242 0.37725286527910618 0 0.2429624777480478 0.39890547698508871 0 0.2386764282036242 0.37725286527910618 0 0.25341304662754638 0.38974012394171498 0 0.2386764282036242 0.37725286527910618 0 0.25383912625151372 0.37755129754335942 0 0.25341304662754638 0.38974012394171498 0 0.24649952449278431 0.42147754103885982 0 0.22996656543308741 0.44177288309861867 0 0.24946733303660301 0.43176723098649622 0 0.24649952449278431 0.42147754103885982 0 0.22996656543308741 0.44177288309861867 0 0.24649952449278431 0.42147754103885982 0 0.22738899126970491 0.42458926785457718 0 0.22996656543308741 0.44177288309861867 0 0.24946733303660301 0.43176723098649622 0 0.24649952449278431 0.42147754103885982 0 0.2429624777480478 0.39890547698508871 0 0.24649952449278431 0.42147754103885982 0 0.24649952449278431 0.42147754103885982 0 0.22983145469658259 0.40925978250573319 0 0.22738899126970491 0.42458926785457718 0 0.24649952449278431 0.42147754103885982 0 0.22983145469658259 0.40925978250573319 0 0.2429624777480478 0.39890547698508871 0 0.24649952449278431 0.42147754103885982 0 0.22983145469658259 0.40925978250573319 0 0.21316338490038089 0.39704202397260657 0 0.22983145469658259 0.40925978250573319 0 0.21370806227123909 0.41789950377956148 0 0.22983145469658259 0.40925978250573319 0 0.22738899126970491 0.42458926785457718 0 0.21370806227123909 0.41789950377956148 0 0.22738899126970491 0.42458926785457718 0 0.21739304288862979 0.43200563017257382 0 0.22996656543308741 0.44177288309861867 0 0.22738899126970491 0.42458926785457718 0 0.21739304288862979 0.43200563017257382 0 0.21370806227123909 0.41789950377956148 0 0.21739304288862979 0.43200563017257382 0 0.1999317510848099 0.43097584272053618 0 0.2111195299095035 0.44359306409302351 0 0.21739304288862979 0.43200563017257382 0 0.21370806227123909 0.41789950377956148 0 0.1999317510848099 0.43097584272053618 0 0.21370806227123909 0.41789950377956148 0 0.19877798755638451 0.41086714246249401 0 0.1999317510848099 0.43097584272053618 0 0.21316338490038089 0.39704202397260657 0 0.21370806227123909 0.41789950377956148 0 0.19877798755638451 0.41086714246249401 0 0.18469425222239219 0.42125941149134333 0 0.19877798755638451 0.41086714246249401 0 0.1999317510848099 0.43097584272053618 0 0.18469425222239219 0.42125941149134333 0 0.1843100454414533 0.40126956181167389 0 0.19877798755638451 0.41086714246249401 0 0.18469425222239219 0.42125941149134333 0 0.1999317510848099 0.43097584272053618 0 0.1809560021812836 0.43814832633623357 0 0.1999317510848099 0.43097584272053618 0 0.19479511809318301 0.4526549487178691 0 0.2111195299095035 0.44359306409302351 0 0.1999317510848099 0.43097584272053618 0 0.19479511809318301 0.4526549487178691 0 0.1809560021812836 0.43814832633623357 0 0.19479511809318301 0.4526549487178691 0 0.213169792932182 0.46047172596691099 0 0.19211155850092579 0.47790980627879082 0 0.19479511809318301 0.4526549487178691 0 0.19211155850092579 0.47790980627879082 0 0.18348770279874721 0.46143911161818069 0 0.213169792932182 0.46047172596691099 0 0.2111195299095035 0.44359306409302351 0 0.22996656543308741 0.44177288309861867 0 0.19479511809318301 0.4526549487178691 0 0.213169792932182 0.46047172596691099 0 0.2111195299095035 0.44359306409302351 0 0.21739304288862979 0.43200563017257382 0 0.2111195299095035 0.44359306409302351 0 0.22996656543308741 0.44177288309861867 0 0.22996656543308741 0.44177288309861867 0 0.22854105436186559 0.46372788353366717 0 0.24141841662185301 0.45603819576859073 0 0.213169792932182 0.46047172596691099 0 0.22854105436186559 0.46372788353366717 0 0.221321310837439 0.47674074212904899 0 0.213169792932182 0.46047172596691099 0 0.22996656543308741 0.44177288309861867 0 0.22854105436186559 0.46372788353366717 0 0.24141841662185301 0.45603819576859073 0 0.23645949407781469 0.47608243786178739 0 0.25047151807745072 0.47036873115219768 0 0.22854105436186559 0.46372788353366717 0 0.24141841662185301 0.45603819576859073 0 0.23645949407781469 0.47608243786178739 0 0.24141841662185301 0.45603819576859073 0 0.25047151807745072 0.47036873115219768 0 0.25477099823403621 0.45804476415031298 0 0.24141841662185301 0.45603819576859073 0 0.25282491994113748 0.44831200937164878 0 0.25477099823403621 0.45804476415031298 0 0.22996656543308741 0.44177288309861867 0 0.24141841662185301 0.45603819576859073 0 0.24583280085865111 0.44361242472787987 0 0.24946733303660301 0.43176723098649622 0 0.22996656543308741 0.44177288309861867 0 0.24583280085865111 0.44361242472787987 0 0.24141841662185301 0.45603819576859073 0 0.24583280085865111 0.44361242472787987 0 0.25282491994113748 0.44831200937164878 0 0.24904418528453851 0.48634810883828161 0 0.23645949407781469 0.47608243786178739 0 0.23352830384551029 0.49999999999999978 0 0.24904418528453851 0.48634810883828161 0 0.23352830384551029 0.49999999999999978 0 0.25181722630913472 0.5 0 0.24904418528453851 0.48634810883828161 0 0.23645949407781469 0.47608243786178739 0 0.25047151807745072 0.47036873115219768 0 0.23645949407781469 0.47608243786178739 0 0.221321310837439 0.47674074212904899 0 0.23352830384551029 0.49999999999999978 0 0.22854105436186559 0.46372788353366717 0 0.23645949407781469 0.47608243786178739 0 0.221321310837439 0.47674074212904899 0 0.23352830384551029 0.49999999999999978 0 0.2128199311732181 0.48895490313939532 0 0.21702906166474581 0.5 0 0.23352830384551029 0.49999999999999978 0 0.2128199311732181 0.48895490313939532 0 0.221321310837439 0.47674074212904899 0 0.23352830384551029 0.49999999999999978 0 0.2128199311732181 0.48895490313939532 0 0.2128199311732181 0.48895490313939532 0 0.21702906166474581 0.5 0 0.20052981948398141 0.49999999999999989 0 0.213169792932182 0.46047172596691099 0 0.221321310837439 0.47674074212904899 0 0.19211155850092579 0.47790980627879082 0 0.221321310837439 0.47674074212904899 0 0.2128199311732181 0.48895490313939532 0 0.19211155850092579 0.47790980627879082 0 0.2128199311732181 0.48895490313939532 0 0.19211155850092579 0.47790980627879082 0 0.2128199311732181 0.48895490313939532 0 0.20052981948398141 0.49999999999999989 0 0.19295831529489699 0.4905304616351287 0 0.2128199311732181 0.48895490313939532 0 0.19211155850092579 0.47790980627879082 0 0.19295831529489699 0.4905304616351287 0 0.20052981948398141 0.49999999999999989 0 0.1839227339461352 0.49861489743603538 0 0.20052981948398141 0.49999999999999989 0 0.19295831529489699 0.4905304616351287 0 0.1839227339461352 0.49861489743603538 0 0.19211155850092579 0.47790980627879082 0 0.19295831529489699 0.4905304616351287 0 0.1809625144841838 0.48570342190566712 0 0.1839227339461352 0.49861489743603538 0 0.1809625144841838 0.48570342190566712 0 0.16731564840828889 0.49722979487207219 0 0.1839227339461352 0.49861489743603538 0 0.16731564840828889 0.49722979487207219 0 0.1839227339461352 0.49861489743603538 0 0.1669427425872391 0.49999999999999922 0 0.16731564840828889 0.49722979487207219 0 0.19295831529489699 0.4905304616351287 0 0.1839227339461352 0.49861489743603538 0 0.1809625144841838 0.48570342190566712 0 0.1809625144841838 0.48570342190566712 0 0.16731564840828889 0.49722979487207219 0 0.16935941711846161 0.48204725214512889 0 0.16731564840828889 0.49722979487207219 0 0.157708884996551 0.48584061526662409 0 0.14611751268168829 0.49546177892012921 0 0.16731564840828889 0.49722979487207219 0 0.14611751268168829 0.49546177892012921 0 0.1669427425872391 0.49999999999999922 0 0.16731564840828889 0.49722979487207219 0 0.14611751268168829 0.49546177892012921 0 0.1669427425872391 0.49999999999999922 0 0.16731564840828889 0.49722979487207219 0 0.16731564840828889 0.49722979487207219 0 0.16935941711846161 0.48204725214512889 0 0.16731564840828889 0.49722979487207219 0 0.157708884996551 0.48584061526662409 0 0.16935941711846161 0.48204725214512889 0 0.16382575626869561 0.4735735187060508 0 0.15802571703479451 0.46684670821381258 0 0.1531189490294651 0.47544631339495541 0 0.157708884996551 0.48584061526662409 0 0.16382575626869561 0.4735735187060508 0 0.1531189490294651 0.47544631339495541 0 0.157708884996551 0.48584061526662409 0 0.16382575626869561 0.4735735187060508 0 0.16935941711846161 0.48204725214512889 0 0.16935941711846161 0.48204725214512889 0 0.17140318582863401 0.46686470941818559 0 0.16382575626869561 0.4735735187060508 0 0.16935941711846161 0.48204725214512889 0 0.17140318582863401 0.46686470941818559 0 0.1809625144841838 0.48570342190566712 0 0.16935941711846161 0.48204725214512889 0 0.17140318582863401 0.46686470941818559 0 0.19211155850092579 0.47790980627879082 0 0.1809625144841838 0.48570342190566712 0 0.17140318582863401 0.46686470941818559 0 0.19211155850092579 0.47790980627879082 0 0.17140318582863401 0.46686470941818559 0 0.19479511809318301 0.4526549487178691 0 0.18348770279874721 0.46143911161818069 0 0.17341546959919829 0.45191605883299152 0 0.19211155850092579 0.47790980627879082 0 0.18348770279874721 0.46143911161818069 0 0.17140318582863401 0.46686470941818559 0 0.18348770279874721 0.46143911161818069 0 0.17341546959919829 0.45191605883299152 0 0.17140318582863401 0.46686470941818559 0 0.17341546959919829 0.45191605883299152 0 0.17140318582863401 0.46686470941818559 0 0.19479511809318301 0.4526549487178691 0 0.1809560021812836 0.43814832633623357 0 0.17341546959919829 0.45191605883299152 0 0.1809560021812836 0.43814832633623357 0 0.17341546959919829 0.45191605883299152 0 0.16598328874466911 0.44273574664910909 0 0.17341546959919829 0.45191605883299152 0 0.16598328874466911 0.44273574664910909 0 0.15954778128093949 0.4508222386347599 0 0.16598328874466911 0.44273574664910909 0 0.15954778128093949 0.4508222386347599 0 0.1507341445198021 0.44370602134863157 0 0.16526304614212209 0.42908608809292892 0 0.16598328874466911 0.44273574664910909 0 0.1507341445198021 0.44370602134863157 0 0.16382575626869561 0.4735735187060508 0 0.1651762257979181 0.46354347419730452 0 0.17140318582863401 0.46686470941818559 0 0.1651762257979181 0.46354347419730452 0 0.17140318582863401 0.46686470941818559 0 0.17341546959919829 0.45191605883299152 0 0.1651762257979181 0.46354347419730452 0 0.17140318582863401 0.46686470941818559 0 0.17341546959919829 0.45191605883299152 0 0.15954778128093949 0.4508222386347599 0 0.1651762257979181 0.46354347419730452 0 0.15954778128093949 0.4508222386347599 0 0.1651762257979181 0.46354347419730452 0 0.1582471669695637 0.45974252444074731 0 0.16382575626869561 0.4735735187060508 0 0.1651762257979181 0.46354347419730452 0 0.15802571703479451 0.46684670821381258 0 0.1651762257979181 0.46354347419730452 0 0.1582471669695637 0.45974252444074731 0 0.15802571703479451 0.46684670821381258 0 0.14976048710833001 0.46192771033000529 0 0.1507341445198021 0.44370602134863157 0 0.136404492151351 0.45486193181106682 0 0.1582471669695637 0.45974252444074731 0 0.15802571703479451 0.46684670821381258 0 0.14976048710833001 0.46192771033000529 0 0.15802571703479451 0.46684670821381258 0 0.14976048710833001 0.46192771033000529 0 0.1531189490294651 0.47544631339495541 0 0.15954778128093949 0.4508222386347599 0 0.1582471669695637 0.45974252444074731 0 0.14976048710833001 0.46192771033000529 0 0.14976048710833001 0.46192771033000529 0 0.136404492151351 0.45486193181106682 0 0.13663143795624749 0.46910754811773492 0 0.15954778128093949 0.4508222386347599 0 0.14976048710833001 0.46192771033000529 0 0.1507341445198021 0.44370602134863157 0 0.1507341445198021 0.44370602134863157 0 0.13510526379757609 0.44116740875256688 0 0.136404492151351 0.45486193181106682 0 0.1221607865463437 0.4507156547582637 0 0.12259086230274099 0.42947812748907283 0 0.13510526379757609 0.44116740875256688 0 0.1221607865463437 0.4507156547582637 0 0.13510526379757609 0.44116740875256688 0 0.136404492151351 0.45486193181106682 0 0.136404492151351 0.45486193181106682 0 0.1267882431275838 0.46370707134437261 0 0.13663143795624749 0.46910754811773492 0 0.1221607865463437 0.4507156547582637 0 0.136404492151351 0.45486193181106682 0 0.1267882431275838 0.46370707134437261 0 0.1267882431275838 0.46370707134437261 0 0.12569724768963239 0.47617993877849962 0 0.13663143795624749 0.46910754811773492 0 0.12569724768963239 0.47617993877849962 0 0.13663143795624749 0.46910754811773492 0 0.1364132019148096 0.48384982340983701 0 0.13663143795624749 0.46910754811773492 0 0.1364132019148096 0.48384982340983701 0 0.14361111091913481 0.47574478002545789 0 0.1249193769550877 0.49369376296818718 0 0.1364132019148096 0.48384982340983701 0 0.14611751268168829 0.49546177892012921 0 0.1249193769550877 0.49369376296818718 0 0.14611751268168829 0.49546177892012921 0 0.1249193769550877 0.49369376296818718 0 0.12569724768963239 0.47617993877849962 0 0.1364132019148096 0.48384982340983701 0 0.1249193769550877 0.49369376296818718 0 0.13738437864054501 0.5 0 0.14611751268168829 0.49546177892012921 0 0.1364132019148096 0.48384982340983701 0 0.14611751268168829 0.49546177892012921 0 0.14718343377546941 0.48347361591025501 0 0.1669427425872391 0.49999999999999922 0 0.13738437864054501 0.5 0 0.14611751268168829 0.49546177892012921 0 0.157708884996551 0.48584061526662409 0 0.14611751268168829 0.49546177892012921 0 0.14718343377546941 0.48347361591025501 0 0.157708884996551 0.48584061526662409 0 0.1531189490294651 0.47544631339495541 0 0.14718343377546941 0.48347361591025501 0 0.14976048710833001 0.46192771033000529 0 0.1531189490294651 0.47544631339495541 0 0.14361111091913481 0.47574478002545789 0 0.14976048710833001 0.46192771033000529 0 0.13663143795624749 0.46910754811773492 0 0.14361111091913481 0.47574478002545789 0 0.1364132019148096 0.48384982340983701 0 0.14361111091913481 0.47574478002545789 0 0.14718343377546941 0.48347361591025501 0 0.1531189490294651 0.47544631339495541 0 0.14361111091913481 0.47574478002545789 0 0.14718343377546941 0.48347361591025501 0 0.35832214194920592 0.47929915408112939 0 0.34611268429232461 0.46591887339206078 0 0.3375369348076922 0.4829399206954248 0 0.35832214194920592 0.47929915408112939 0 0.35850557312216419 0.5 0 0.3375369348076922 0.4829399206954248 0 0.35850557312216419 0.5 0 0.37801407526051067 0.48065415083330842 0 0.38797204790529932 0.5 0 0.35832214194920592 0.47929915408112939 0 0.35850557312216419 0.5 0 0.37801407526051067 0.48065415083330842 0 0.35832214194920592 0.47929915408112939 0 0.36980735363827261 0.46050290225189661 0 0.37801407526051067 0.48065415083330842 0 0.36980735363827261 0.46050290225189661 0 0.34502769605759259 0.44546544446971242 0 0.36959298495063608 0.43610817863788948 0 0.35832214194920592 0.47929915408112939 0 0.36980735363827261 0.46050290225189661 0 0.34611268429232461 0.46591887339206078 0 0.36980735363827261 0.46050290225189661 0 0.34502769605759259 0.44546544446971242 0 0.34611268429232461 0.46591887339206078 0 0.36980735363827261 0.46050290225189661 0 0.34611268429232461 0.46591887339206078 0 0.34611268429232461 0.46591887339206078 0 0.3317687487832644 0.45597005559148451 0 0.32241801494637662 0.47133484453222518 0 0.34502769605759259 0.44546544446971242 0 0.34611268429232461 0.46591887339206078 0 0.3317687487832644 0.45597005559148451 0 0.34611268429232461 0.46591887339206078 0 0.32241801494637662 0.47133484453222518 0 0.34502769605759259 0.44546544446971242 0 0.3317687487832644 0.45597005559148451 0 0.32480939915707069 0.44218818576869201 0 0.34502769605759259 0.44546544446971242 0 0.32480939915707069 0.44218818576869201 0 0.33523501366627878 0.43221560569608392 0 0.3107318966111981 0.4514989769174147 0 0.3227404476219688 0.42624713816244092 0 0.3317687487832644 0.45597005559148451 0 0.32480939915707069 0.44218818576869201 0 0.3107318966111981 0.4514989769174147 0 0.32480939915707069 0.44218818576869201 0 0.3107318966111981 0.4514989769174147 0 0.3227404476219688 0.42624713816244092 0 0.3317687487832644 0.45597005559148451 0 0.32241801494637662 0.47133484453222518 0 0.3107318966111981 0.4514989769174147 0 0.32241801494637662 0.47133484453222518 0 0.3375369348076922 0.4829399206954248 0 0.31372501333874958 0.48784291822244708 0 0.34611268429232461 0.46591887339206078 0 0.32241801494637662 0.47133484453222518 0 0.3375369348076922 0.4829399206954248 0 0.35850557312216419 0.5 0 0.3375369348076922 0.4829399206954248 0 0.32903909833902928 0.5 0 0.32903909833902928 0.5 0 0.31372501333874958 0.48784291822244708 0 0.29957262355589431 0.5 0 0.3375369348076922 0.4829399206954248 0 0.32903909833902928 0.5 0 0.31372501333874958 0.48784291822244708 0 0.31372501333874958 0.48784291822244708 0 0.30130976803097798 0.48891801032572652 0 0.29957262355589431 0.5 0 0.31372501333874958 0.48784291822244708 0 0.30130976803097798 0.48891801032572652 0 0.29872334560042851 0.47675081567238892 0 0.30130976803097798 0.48891801032572652 0 0.29957262355589431 0.5 0 0.28978827390519868 0.49553967616935518 0 0.32241801494637662 0.47133484453222518 0 0.29872334560042851 0.47675081567238892 0 0.32241801494637662 0.47133484453222518 0 0.31372501333874958 0.48784291822244708 0 0.29872334560042851 0.47675081567238892 0 0.29872334560042851 0.47675081567238892 0 0.28397488520641462 0.48012192141307769 0 0.28978827390519868 0.49553967616935518 0 0.29872334560042851 0.47675081567238892 0 0.28929399795500932 0.47058792179259418 0 0.29703527816799058 0.46117092995693892 0 0.29872334560042851 0.47675081567238892 0 0.28929399795500932 0.47058792179259418 0 0.28397488520641462 0.48012192141307769 0 0.29872334560042851 0.47675081567238892 0 0.28397488520641462 0.48012192141307769 0 0.28929399795500932 0.47058792179259418 0 0.28397488520641462 0.48012192141307769 0 0.27920072977811172 0.47805830749059319 0 0.28397488520641462 0.48012192141307769 0 0.28978827390519868 0.49553967616935518 0 0.27010614877275918 0.50000000000000067 0 0.29957262355589431 0.5 0 0.28978827390519868 0.49553967616935518 0 0.27010614877275918 0.50000000000000067 0 0.30130976803097798 0.48891801032572652 0 0.29872334560042851 0.47675081567238892 0 0.28978827390519868 0.49553967616935518 0 0.29872334560042851 0.47675081567238892 0 0.28978827390519868 0.49553967616935518 0 0.28397488520641462 0.48012192141307769 0 0.27010614877275918 0.50000000000000067 0 0.27920072977811172 0.47805830749059319 0 0.27010614877275918 0.50000000000000067 0 0.26909437115437917 0.48384867389528768 0 0.26130641782501518 0.49139676135406141 0 0.27010614877275918 0.50000000000000067 0 0.27920072977811172 0.47805830749059319 0 0.26909437115437917 0.48384867389528768 0 0.27010614877275918 0.50000000000000067 0 0.27920072977811172 0.47805830749059319 0 0.27920072977811172 0.47805830749059319 0 0.27306774476234302 0.47644699960251641 0 0.26909437115437917 0.48384867389528768 0 0.27920072977811172 0.47805830749059319 0 0.27306774476234302 0.47644699960251641 0 0.27643472525740193 0.46726539210963169 0 0.26824582816420722 0.47348896141386071 0 0.27306774476234302 0.47644699960251641 0 0.27643472525740193 0.46726539210963169 0 0.26824582816420722 0.47348896141386071 0 0.26909437115437917 0.48384867389528768 0 0.25993240985832161 0.47939275616227872 0 0.26824582816420722 0.47348896141386071 0 0.27306774476234302 0.47644699960251641 0 0.26909437115437917 0.48384867389528768 0 0.24904418528453851 0.48634810883828161 0 0.25993240985832161 0.47939275616227872 0 0.25047151807745072 0.47036873115219768 0 0.26824582816420722 0.47348896141386071 0 0.25993240985832161 0.47939275616227872 0 0.26165523792153211 0.46576309323832682 0 0.25993240985832161 0.47939275616227872 0 0.25047151807745072 0.47036873115219768 0 0.26165523792153211 0.46576309323832682 0 0.27010614877275918 0.50000000000000067 0 0.25181722630913472 0.5 0 0.26130641782501518 0.49139676135406141 0 0.24904418528453851 0.48634810883828161 0 0.25993240985832161 0.47939275616227872 0 0.26130641782501518 0.49139676135406141 0 0.24904418528453851 0.48634810883828161 0 0.25181722630913472 0.5 0 0.26130641782501518 0.49139676135406141 0 0.26909437115437917 0.48384867389528768 0 0.25993240985832161 0.47939275616227872 0 0.26130641782501518 0.49139676135406141 0 0.26490489917960358 0.45079530358348557 0 0.25548676926057468 0.44017180441404491 0 0.26331147225899149 0.43380076267102891 0 0.24946733303660301 0.43176723098649622 0 0.24583280085865111 0.44361242472787987 0 0.25548676926057468 0.44017180441404491 0 0.24583280085865111 0.44361242472787987 0 0.25548676926057468 0.44017180441404491 0 0.25282491994113748 0.44831200937164878 0 0.26490489917960358 0.45079530358348557 0 0.25548676926057468 0.44017180441404491 0 0.25282491994113748 0.44831200937164878 0 0.26490489917960358 0.45079530358348557 0 0.25282491994113748 0.44831200937164878 0 0.25477099823403621 0.45804476415031298 0 0.25047151807745072 0.47036873115219768 0 0.25477099823403621 0.45804476415031298 0 0.26165523792153211 0.46576309323832682 0 0.26490489917960358 0.45079530358348557 0 0.25477099823403621 0.45804476415031298 0 0.26165523792153211 0.46576309323832682 0 0.26490489917960358 0.45079530358348557 0 0.27160577401557351 0.46248804296782559 0 0.27679169795675967 0.45600994403837303 0 0.26490489917960358 0.45079530358348557 0 0.26165523792153211 0.46576309323832682 0 0.27160577401557351 0.46248804296782559 0 0.26824582816420722 0.47348896141386071 0 0.27160577401557351 0.46248804296782559 0 0.27643472525740193 0.46726539210963169 0 0.26824582816420722 0.47348896141386071 0 0.26165523792153211 0.46576309323832682 0 0.27160577401557351 0.46248804296782559 0 0.27160577401557351 0.46248804296782559 0 0.27643472525740193 0.46726539210963169 0 0.27679169795675967 0.45600994403837303 0 0.27643472525740193 0.46726539210963169 0 0.27679169795675967 0.45600994403837303 0 0.28829531078346382 0.45611661498118572 0 0.27903440424894049 0.4453257315987294 0 0.26331147225899149 0.43380076267102891 0 0.26490489917960358 0.45079530358348557 0 0.27903440424894049 0.4453257315987294 0 0.26331147225899149 0.43380076267102891 0 0.26490489917960358 0.45079530358348557 0 0.27679169795675967 0.45600994403837303 0 0.27903440424894049 0.4453257315987294 0 0.27903440424894049 0.4453257315987294 0 0.2917470315179379 0.44281751567604499 0 0.28179675760275558 0.42932557237874241 0 0.27679169795675967 0.45600994403837303 0 0.27903440424894049 0.4453257315987294 0 0.28829531078346382 0.45611661498118572 0 0.27903440424894049 0.4453257315987294 0 0.2917470315179379 0.44281751567604499 0 0.28829531078346382 0.45611661498118572 0 0.2917470315179379 0.44281751567604499 0 0.28829531078346382 0.45611661498118572 0 0.29813183988985342 0.45090032042111128 0 0.27920072977811172 0.47805830749059319 0 0.27643472525740193 0.46726539210963169 0 0.28829531078346382 0.45611661498118572 0 0.28929399795500932 0.47058792179259418 0 0.27920072977811172 0.47805830749059319 0 0.28829531078346382 0.45611661498118572 0 0.27920072977811172 0.47805830749059319 0 0.28829531078346382 0.45611661498118572 0 0.28829531078346382 0.45611661498118572 0 0.29703527816799058 0.46117092995693892 0 0.29813183988985342 0.45090032042111128 0 0.28929399795500932 0.47058792179259418 0 0.28829531078346382 0.45611661498118572 0 0.29703527816799058 0.46117092995693892 0 0.29872334560042851 0.47675081567238892 0 0.29703527816799058 0.46117092995693892 0 0.3107318966111981 0.4514989769174147 0 0.29872334560042851 0.47675081567238892 0 0.3107318966111981 0.4514989769174147 0 0.32241801494637662 0.47133484453222518 0 0.29872334560042851 0.47675081567238892 0 0.3107318966111981 0.4514989769174147 0 0.29703527816799058 0.46117092995693892 0 0.29813183988985342 0.45090032042111128 0 0.3107318966111981 0.4514989769174147 0 0.30159082278473881 0.44219288247638061 0 0.3107318966111981 0.4514989769174147 0 0.30884109342504262 0.43428586920116352 0 0.2917470315179379 0.44281751567604499 0 0.30159082278473881 0.44219288247638061 0 0.29850225247966211 0.43146173016616862 0 0.2917470315179379 0.44281751567604499 0 0.30159082278473881 0.44219288247638061 0 0.29813183988985342 0.45090032042111128 0 0.30159082278473881 0.44219288247638061 0 0.29813183988985342 0.45090032042111128 0 0.3107318966111981 0.4514989769174147 0 0.30884109342504262 0.43428586920116352 0 0.29850225247966211 0.43146173016616862 0 0.30862162828234507 0.42004495563460759 0 0.29850225247966211 0.43146173016616862 0 0.30862162828234507 0.42004495563460759 0 0.29547148538100448 0.41817397575591742 0 0.30159082278473881 0.44219288247638061 0 0.30884109342504262 0.43428586920116352 0 0.29850225247966211 0.43146173016616862 0 0.30862162828234507 0.42004495563460759 0 0.30304430461131138 0.40735012112542651 0 0.3196782615082488 0.40265332564926309 0 0.30862162828234507 0.42004495563460759 0 0.30304430461131138 0.40735012112542651 0 0.29547148538100448 0.41817397575591742 0 0.30304430461131138 0.40735012112542651 0 0.29062365375375682 0.40708788978866228 0 0.29547148538100448 0.41817397575591742 0 0.29062365375375682 0.40708788978866228 0 0.29547148538100448 0.41817397575591742 0 0.28288479604298378 0.41446876034122271 0 0.29547148538100448 0.41817397575591742 0 0.28288479604298378 0.41446876034122271 0 0.28179675760275558 0.42932557237874241 0 0.29062365375375682 0.40708788978866228 0 0.28288479604298378 0.41446876034122271 0 0.28001120465417539 0.40182109974822727 0 0.29850225247966211 0.43146173016616862 0 0.29547148538100448 0.41817397575591742 0 0.28179675760275558 0.42932557237874241 0 0.2917470315179379 0.44281751567604499 0 0.29850225247966211 0.43146173016616862 0 0.28179675760275558 0.42932557237874241 0 0.28179675760275558 0.42932557237874241 0 0.27042562322166658 0.41684269204638819 0 0.26331147225899149 0.43380076267102891 0 0.27903440424894049 0.4453257315987294 0 0.28179675760275558 0.42932557237874241 0 0.26331147225899149 0.43380076267102891 0 0.27042562322166658 0.41684269204638819 0 0.26380858941988822 0.4002294757553399 0 0.28001120465417539 0.40182109974822727 0 0.28288479604298378 0.41446876034122271 0 0.28179675760275558 0.42932557237874241 0 0.27042562322166658 0.41684269204638819 0 0.28288479604298378 0.41446876034122271 0 0.27042562322166658 0.41684269204638819 0 0.28001120465417539 0.40182109974822727 0 0.24649952449278431 0.42147754103885982 0 0.25492995388566009 0.41993008507457552 0 0.26380858941988822 0.4002294757553399 0 0.27042562322166658 0.41684269204638819 0 0.25492995388566009 0.41993008507457552 0 0.26380858941988822 0.4002294757553399 0 0.24649952449278431 0.42147754103885982 0 0.26380858941988822 0.4002294757553399 0 0.2429624777480478 0.39890547698508871 0 0.24649952449278431 0.42147754103885982 0 0.26380858941988822 0.4002294757553399 0 0.24946733303660301 0.43176723098649622 0 0.24649952449278431 0.42147754103885982 0 0.26331147225899149 0.43380076267102891 0 0.24649952449278431 0.42147754103885982 0 0.25492995388566009 0.41993008507457552 0 0.26331147225899149 0.43380076267102891 0 0.24649952449278431 0.42147754103885982 0 0.26331147225899149 0.43380076267102891 0 0.27042562322166658 0.41684269204638819 0 0.25492995388566009 0.41993008507457552 0 0.26331147225899149 0.43380076267102891 0 0.24946733303660301 0.43176723098649622 0 0.25548676926057468 0.44017180441404491 0 0.26331147225899149 0.43380076267102891 0 0.26350653962281989 0.38010735630523079 0 0.25341304662754638 0.38974012394171498 0 0.26380858941988822 0.4002294757553399 0 0.26350653962281989 0.38010735630523079 0 0.25383912625151372 0.37755129754335942 0 0.25710864090743918 0.37145542319719338 0 0.26350653962281989 0.38010735630523079 0 0.25383912625151372 0.37755129754335942 0 0.25341304662754638 0.38974012394171498 0 0.2429624777480478 0.39890547698508871 0 0.25341304662754638 0.38974012394171498 0 0.26380858941988822 0.4002294757553399 0 0.26380858941988822 0.4002294757553399 0 0.28001120465417539 0.40182109974822727 0 0.28036865154730628 0.37990086281960789 0 0.26350653962281989 0.38010735630523079 0 0.28036865154730628 0.37990086281960789 0 0.2641967246118288 0.36596915937278562 0 0.26380858941988822 0.4002294757553399 0 0.28036865154730628 0.37990086281960789 0 0.26350653962281989 0.38010735630523079 0 0.26380858941988822 0.4002294757553399 0 0.28036865154730628 0.37990086281960789 0 0.28036865154730628 0.37990086281960789 0 0.29170647807930872 0.39362549197251728 0 0.2987730087010142 0.37934426936791982 0 0.28036865154730628 0.37990086281960789 0 0.29170647807930872 0.39362549197251728 0 0.28001120465417539 0.40182109974822727 0 0.28036865154730628 0.37990086281960789 0 0.29170647807930872 0.39362549197251728 0 0.29062365375375682 0.40708788978866228 0 0.28001120465417539 0.40182109974822727 0 0.29170647807930872 0.39362549197251728 0 0.30304430461131138 0.40735012112542651 0 0.29062365375375682 0.40708788978866228 0 0.29170647807930872 0.39362549197251728 0 0.30304430461131138 0.40735012112542651 0 0.30637452063024528 0.39219955594670219 0 0.3196782615082488 0.40265332564926309 0 0.30304430461131138 0.40735012112542651 0 0.29170647807930872 0.39362549197251728 0 0.30304430461131138 0.40735012112542651 0 0.29170647807930872 0.39362549197251728 0 0.30637452063024528 0.39219955594670219 0 0.30637452063024528 0.39219955594670219 0 0.2987730087010142 0.37934426936791982 0 0.31661607539452802 0.37905951313608538 0 0.29170647807930872 0.39362549197251728 0 0.30637452063024528 0.39219955594670219 0 0.2987730087010142 0.37934426936791982 0 0.31661607539452802 0.37905951313608538 0 0.32905198958534931 0.38831461949406398 0 0.3196782615082488 0.40265332564926309 0 0.31661607539452802 0.37905951313608538 0 0.32905198958534931 0.38831461949406398 0 0.33389487655237682 0.3658352592629312 0 0.32905198958534931 0.38831461949406398 0 0.34270248502322931 0.38427053755298168 0 0.33389487655237682 0.3658352592629312 0 0.32905198958534931 0.38831461949406398 0 0.34270248502322931 0.38427053755298168 0 0.33272146632259869 0.40525883785771122 0 0.34270248502322931 0.38427053755298168 0 0.33272146632259869 0.40525883785771122 0 0.34270248502322931 0.38427053755298168 0 0.33272146632259869 0.40525883785771122 0 0.34670895149724801 0.40816004440777182 0 0.31661607539452802 0.37905951313608538 0 0.3196782615082488 0.40265332564926309 0 0.32905198958534931 0.38831461949406398 0 0.33272146632259869 0.40525883785771122 0 0.3196782615082488 0.40265332564926309 0 0.30637452063024528 0.39219955594670219 0 0.31661607539452802 0.37905951313608538 0 0.3196782615082488 0.40265332564926309 0 0.3196782615082488 0.40265332564926309 0 0.3227404476219688 0.42624713816244092 0 0.30862162828234507 0.42004495563460759 0 0.3196782615082488 0.40265332564926309 0 0.3227404476219688 0.42624713816244092 0 0.33272146632259869 0.40525883785771122 0 0.3196782615082488 0.40265332564926309 0 0.3227404476219688 0.42624713816244092 0 0.33272146632259869 0.40525883785771122 0 0.3227404476219688 0.42624713816244092 0 0.32480939915707069 0.44218818576869201 0 0.3227404476219688 0.42624713816244092 0 0.3107318966111981 0.4514989769174147 0 0.30884109342504262 0.43428586920116352 0 0.3227404476219688 0.42624713816244092 0 0.32480939915707069 0.44218818576869201 0 0.3227404476219688 0.42624713816244092 0 0.33523501366627878 0.43221560569608392 0 0.30884109342504262 0.43428586920116352 0 0.30862162828234507 0.42004495563460759 0 0.3227404476219688 0.42624713816244092 0 0.34502769605759259 0.44546544446971242 0 0.33523501366627878 0.43221560569608392 0 0.34795858503051302 0.425881111768525 0 0.3227404476219688 0.42624713816244092 0 0.33523501366627878 0.43221560569608392 0 0.33659904832278342 0.4201421825902541 0 0.33523501366627878 0.43221560569608392 0 0.33659904832278342 0.4201421825902541 0 0.34795858503051302 0.425881111768525 0 0.33272146632259869 0.40525883785771122 0 0.3227404476219688 0.42624713816244092 0 0.33659904832278342 0.4201421825902541 0 0.33272146632259869 0.40525883785771122 0 0.33659904832278342 0.4201421825902541 0 0.34670895149724801 0.40816004440777182 0 0.33659904832278342 0.4201421825902541 0 0.34670895149724801 0.40816004440777182 0 0.34795858503051302 0.425881111768525 0 0.34670895149724801 0.40816004440777182 0 0.34795858503051302 0.425881111768525 0 0.36336601300371613 0.41450991002864218 0 0.34670895149724801 0.40816004440777182 0 0.36336601300371613 0.41450991002864218 0 0.35690611128064731 0.3988976866485166 0 0.34502769605759259 0.44546544446971242 0 0.34795858503051302 0.425881111768525 0 0.36959298495063608 0.43610817863788948 0 0.34795858503051302 0.425881111768525 0 0.36959298495063608 0.43610817863788948 0 0.36336601300371613 0.41450991002864218 0 0.36959298495063608 0.43610817863788948 0 0.36336601300371613 0.41450991002864218 0 0.38530342098431941 0.41064856824057122 0 0.36336601300371613 0.41450991002864218 0 0.3736470799201031 0.39378130610698531 0 0.38530342098431941 0.41064856824057122 0 0.3736470799201031 0.39378130610698531 0 0.3601059063978746 0.38125551426405008 0 0.35690611128064731 0.3988976866485166 0 0.36336601300371613 0.41450991002864218 0 0.3736470799201031 0.39378130610698531 0 0.35690611128064731 0.3988976866485166 0 0.3736470799201031 0.39378130610698531 0 0.3601059063978746 0.38125551426405008 0 0.37414389550204002 0.36898578533419818 0 0.34270248502322931 0.38427053755298168 0 0.3601059063978746 0.38125551426405008 0 0.35690611128064731 0.3988976866485166 0 0.34270248502322931 0.38427053755298168 0 0.3601059063978746 0.38125551426405008 0 0.35268350372385993 0.36328223724825232 0 0.34270248502322931 0.38427053755298168 0 0.34670895149724801 0.40816004440777182 0 0.35690611128064731 0.3988976866485166 0 0.35268350372385993 0.36328223724825232 0 0.36266452242448938 0.34229393694352239 0 0.35030182712711511 0.35130594720886232 0 0.35268350372385993 0.36328223724825232 0 0.36266452242448938 0.34229393694352239 0 0.35030182712711511 0.35130594720886232 0 0.35146565257524442 0.34420791440797271 0 0.36266452242448938 0.34229393694352239 0 0.35030182712711511 0.35130594720886232 0 0.35146565257524442 0.34420791440797271 0 0.34269927497721508 0.34493512072036142 0 0.35030182712711511 0.35130594720886232 0 0.35268350372385993 0.36328223724825232 0 0.33389487655237682 0.3658352592629312 0 0.34270248502322931 0.38427053755298168 0 0.35268350372385993 0.36328223724825232 0 0.3601059063978746 0.38125551426405008 0 0.35268350372385993 0.36328223724825232 0 0.37414389550204002 0.36898578533419818 0 0.35268350372385993 0.36328223724825232 0 0.37414389550204002 0.36898578533419818 0 0.36300645299402812 0.35604351837507042 0 0.37414389550204002 0.36898578533419818 0 0.37228166628853332 0.35471301169251829 0 0.36300645299402812 0.35604351837507042 0 0.35268350372385993 0.36328223724825232 0 0.36300645299402812 0.35604351837507042 0 0.36266452242448938 0.34229393694352239 0 0.37228166628853332 0.35471301169251829 0 0.36300645299402812 0.35604351837507042 0 0.36840829020790361 0.34668560051738673 0 0.36300645299402812 0.35604351837507042 0 0.36840829020790361 0.34668560051738673 0 0.36266452242448938 0.34229393694352239 0 0.36840829020790361 0.34668560051738673 0 0.36266452242448938 0.34229393694352239 0 0.36587418437400321 0.34278907974668538 0 0.37228166628853332 0.35471301169251829 0 0.36840829020790361 0.34668560051738673 0 0.37486749369974542 0.34694596905823039 0 0.37486749369974542 0.34694596905823039 0 0.37256750073976291 0.34304532959464751 0 0.37670219357667811 0.34177383067972761 0 0.36840829020790361 0.34668560051738673 0 0.37486749369974542 0.34694596905823039 0 0.37256750073976291 0.34304532959464751 0 0.36124897776362869 0.33531944770056321 0 0.36266452242448938 0.34229393694352239 0 0.36411885078159001 0.32644375487552563 0 0.37256750073976291 0.34304532959464751 0 0.36916640720496519 0.34145859007673351 0 0.37369311900952262 0.33836265764115908 0 0.37256750073976291 0.34304532959464751 0 0.37369311900952262 0.33836265764115908 0 0.37670219357667811 0.34177383067972761 0 0.36266452242448938 0.34229393694352239 0 0.37014896644917339 0.316543878568457 0 0.36770298492566261 0.33637877995368609 0 0.36266452242448938 0.34229393694352239 0 0.37368960646642962 0.31911015363466272 0 0.36770298492566261 0.33637877995368609 0 0.36985494237623989 0.33311962493185521 0 0.37368960646642962 0.31911015363466272 0 0.36266452242448938 0.34229393694352239 0 0.37368960646642962 0.31911015363466272 0 0.36266452242448938 0.34229393694352239 0 0.37014896644917339 0.316543878568457 0 0.36411885078159001 0.32644375487552563 0 0.36840829020790361 0.34668560051738673 0 0.36916640720496519 0.34145859007673351 0 0.36587418437400321 0.34278907974668538 0 0.36840829020790361 0.34668560051738673 0 0.37256750073976291 0.34304532959464751 0 0.36916640720496519 0.34145859007673351 0 0.36916640720496519 0.34145859007673351 0 0.36587418437400321 0.34278907974668538 0 0.36708394454210669 0.33994961910346172 0 0.36916640720496519 0.34145859007673351 0 0.37010024416019238 0.33739894816112592 0 0.36708394454210669 0.33994961910346172 0 0.36916640720496519 0.34145859007673351 0 0.37010024416019238 0.33739894816112592 0 0.37369311900952262 0.33836265764115908 0 0.36770298492566261 0.33637877995368609 0 0.37010024416019238 0.33739894816112592 0 0.36708394454210669 0.33994961910346172 0 0.37010024416019238 0.33739894816112592 0 0.37369311900952262 0.33836265764115908 0 0.3722735272100694 0.33425106354392481 0 0.3722735272100694 0.33425106354392481 0 0.37245621682226088 0.32924087979990557 0 0.375263113682131 0.33313320718557798 0 0.37369311900952262 0.33836265764115908 0 0.3722735272100694 0.33425106354392481 0 0.375263113682131 0.33313320718557798 0 0.3722735272100694 0.33425106354392481 0 0.37245621682226088 0.32924087979990557 0 0.36985494237623989 0.33311962493185521 0 0.37245621682226088 0.32924087979990557 0 0.37577016905582622 0.32787937856968757 0 0.375263113682131 0.33313320718557798 0 0.37010024416019238 0.33739894816112592 0 0.3722735272100694 0.33425106354392481 0 0.36985494237623989 0.33311962493185521 0 0.36770298492566261 0.33637877995368609 0 0.37010024416019238 0.33739894816112592 0 0.36985494237623989 0.33311962493185521 0 0.36128237795215928 0.33126347269122047 0 0.36124897776362869 0.33531944770056321 0 0.36411885078159001 0.32644375487552563 0 0.36150631125237548 0.32912422255951068 0 0.36128237795215928 0.33126347269122047 0 0.36411885078159001 0.32644375487552563 0 0.36150631125237548 0.32912422255951068 0 0.35994194411877378 0.32646204206530971 0 0.35835984371964152 0.33045614064968309 0 0.36128237795215928 0.33126347269122047 0 0.35899626180536931 0.33430086833413269 0 0.35835984371964152 0.33045614064968309 0 0.36150631125237548 0.32912422255951068 0 0.36128237795215928 0.33126347269122047 0 0.35835984371964152 0.33045614064968309 0 0.36128237795215928 0.33126347269122047 0 0.36124897776362869 0.33531944770056321 0 0.35899626180536931 0.33430086833413269 0 0.36124897776362869 0.33531944770056321 0 0.36001134864139028 0.33778823672905661 0 0.35899626180536931 0.33430086833413269 0 0.36124897776362869 0.33531944770056321 0 0.36001134864139028 0.33778823672905661 0 0.36266452242448938 0.34229393694352239 0 0.36001134864139028 0.33778823672905661 0 0.36266452242448938 0.34229393694352239 0 0.3582225103283424 0.33883319475427592 0 0.36266452242448938 0.34229393694352239 0 0.36587418437400321 0.34278907974668538 0 0.36708394454210669 0.33994961910346172 0 0.36770298492566261 0.33637877995368609 0 0.36266452242448938 0.34229393694352239 0 0.36708394454210669 0.33994961910346172 0 0.36266452242448938 0.34229393694352239 0 0.37368960646642962 0.31911015363466272 0 0.37014896644917339 0.316543878568457 0 0.37014896644917339 0.316543878568457 0 0.36604953812300478 0.31497278055865852 0 0.36630954626425261 0.31087512405144152 0 0.37499251130121058 0.31593455150060828 0 0.37014896644917339 0.316543878568457 0 0.37695808612291098 0.31120865645681561 0 0.37499251130121058 0.31593455150060828 0 0.37368960646642962 0.31911015363466272 0 0.37014896644917339 0.316543878568457 0 0.37014896644917339 0.316543878568457 0 0.36646072203027302 0.32009490443849897 0 0.3659238024377004 0.31770243144255911 0 0.37014896644917339 0.316543878568457 0 0.3659238024377004 0.31770243144255911 0 0.36604953812300478 0.31497278055865852 0 0.37245621682226088 0.32924087979990557 0 0.36985494237623989 0.33311962493185521 0 0.37368960646642962 0.31911015363466272 0 0.37245621682226088 0.32924087979990557 0 0.37368960646642962 0.31911015363466272 0 0.37506056064123422 0.32471797871916308 0 0.37245621682226088 0.32924087979990557 0 0.37577016905582622 0.32787937856968757 0 0.37506056064123422 0.32471797871916308 0 0.37014896644917339 0.316543878568457 0 0.36411885078159001 0.32644375487552563 0 0.36646072203027302 0.32009490443849897 0 0.36411885078159001 0.32644375487552563 0 0.35994194411877378 0.32646204206530971 0 0.36132202517978662 0.32303080634539388 0 0.36150631125237548 0.32912422255951068 0 0.36411885078159001 0.32644375487552563 0 0.35994194411877378 0.32646204206530971 0 0.36132202517978662 0.32303080634539388 0 0.36348301458407639 0.32047903077872458 0 0.35962675317161102 0.31893041505789499 0 0.36411885078159001 0.32644375487552563 0 0.36132202517978662 0.32303080634539388 0 0.36348301458407639 0.32047903077872458 0 0.36411885078159001 0.32644375487552563 0 0.36348301458407639 0.32047903077872458 0 0.36646072203027302 0.32009490443849897 0 0.36348301458407639 0.32047903077872458 0 0.36646072203027302 0.32009490443849897 0 0.3659238024377004 0.31770243144255911 0 0.3659238024377004 0.31770243144255911 0 0.36344593390349789 0.31667187251247519 0 0.36604953812300478 0.31497278055865852 0 0.36348301458407639 0.32047903077872458 0 0.3659238024377004 0.31770243144255911 0 0.36344593390349789 0.31667187251247519 0 0.36348301458407639 0.32047903077872458 0 0.36344593390349789 0.31667187251247519 0 0.35962675317161102 0.31893041505789499 0 0.36344593390349789 0.31667187251247519 0 0.35962675317161102 0.31893041505789499 0 0.35878641637012221 0.31305233625990619 0 0.36344593390349789 0.31667187251247519 0 0.36331333565659901 0.31283202127524651 0 0.35878641637012221 0.31305233625990619 0 0.36331333565659901 0.31283202127524651 0 0.36604953812300478 0.31497278055865852 0 0.36630954626425261 0.31087512405144152 0 0.36344593390349789 0.31667187251247519 0 0.36331333565659901 0.31283202127524651 0 0.36604953812300478 0.31497278055865852 0 0.35878641637012221 0.31305233625990619 0 0.35512602374864599 0.31718053618965047 0 0.35090510471213721 0.31152713165908658 0 0.35512602374864599 0.31718053618965047 0 0.34983435518440159 0.31943204998396652 0 0.35090510471213721 0.31152713165908658 0 0.35962675317161102 0.31893041505789499 0 0.35878641637012221 0.31305233625990619 0 0.35512602374864599 0.31718053618965047 0 0.35962675317161102 0.31893041505789499 0 0.35512602374864599 0.31718053618965047 0 0.35673455485560862 0.32229528426682241 0 0.35512602374864599 0.31718053618965047 0 0.35673455485560862 0.32229528426682241 0 0.34983435518440159 0.31943204998396652 0 0.35673455485560862 0.32229528426682241 0 0.35060422568955008 0.32587015674736058 0 0.34983435518440159 0.31943204998396652 0 0.35994194411877378 0.32646204206530971 0 0.36132202517978662 0.32303080634539388 0 0.35673455485560862 0.32229528426682241 0 0.36132202517978662 0.32303080634539388 0 0.35962675317161102 0.31893041505789499 0 0.35673455485560862 0.32229528426682241 0 0.35994194411877378 0.32646204206530971 0 0.35673455485560862 0.32229528426682241 0 0.35627338036128769 0.32705738058013539 0 0.35994194411877378 0.32646204206530971 0 0.35627338036128769 0.32705738058013539 0 0.35835984371964152 0.33045614064968309 0 0.35627338036128769 0.32705738058013539 0 0.35060422568955008 0.32587015674736058 0 0.35398721241228231 0.33095327650953749 0 0.35673455485560862 0.32229528426682241 0 0.35627338036128769 0.32705738058013539 0 0.35060422568955008 0.32587015674736058 0 0.35060422568955008 0.32587015674736058 0 0.34514221143703899 0.32919058107390442 0 0.34284551192874652 0.32364904383841531 0 0.35060422568955008 0.32587015674736058 0 0.34983435518440159 0.31943204998396652 0 0.34284551192874652 0.32364904383841531 0 0.34983435518440159 0.31943204998396652 0 0.34480088275632298 0.31606258733578418 0 0.35090510471213721 0.31152713165908658 0 0.34983435518440159 0.31943204998396652 0 0.34480088275632298 0.31606258733578418 0 0.34284551192874652 0.32364904383841531 0 0.35146565257524442 0.34420791440797271 0 0.36266452242448938 0.34229393694352239 0 0.35562031764263757 0.34031424282986023 0 0.35302683950207769 0.33602013814058929 0 0.35562031764263757 0.34031424282986023 0 0.35672120529774148 0.33684362974708199 0 0.35202203774268331 0.33965573310897551 0 0.35302683950207769 0.33602013814058929 0 0.35562031764263757 0.34031424282986023 0 0.35146565257524442 0.34420791440797271 0 0.35202203774268331 0.33965573310897551 0 0.35562031764263757 0.34031424282986023 0 0.36266452242448938 0.34229393694352239 0 0.35562031764263757 0.34031424282986023 0 0.3582225103283424 0.33883319475427592 0 0.35562031764263757 0.34031424282986023 0 0.3582225103283424 0.33883319475427592 0 0.35672120529774148 0.33684362974708199 0 0.36001134864139028 0.33778823672905661 0 0.3582225103283424 0.33883319475427592 0 0.35672120529774148 0.33684362974708199 0 0.36001134864139028 0.33778823672905661 0 0.35672120529774148 0.33684362974708199 0 0.35899626180536931 0.33430086833413269 0 0.35899626180536931 0.33430086833413269 0 0.35641212776078268 0.33381706902087938 0 0.35835984371964152 0.33045614064968309 0 0.35672120529774148 0.33684362974708199 0 0.35899626180536931 0.33430086833413269 0 0.35641212776078268 0.33381706902087938 0 0.35627338036128769 0.32705738058013539 0 0.35835984371964152 0.33045614064968309 0 0.35398721241228231 0.33095327650953749 0 0.35641212776078268 0.33381706902087938 0 0.35835984371964152 0.33045614064968309 0 0.35398721241228231 0.33095327650953749 0 0.35302683950207769 0.33602013814058929 0 0.35641212776078268 0.33381706902087938 0 0.35398721241228231 0.33095327650953749 0 0.35302683950207769 0.33602013814058929 0 0.35398721241228231 0.33095327650953749 0 0.34924685744035389 0.33249877391857741 0 0.35302683950207769 0.33602013814058929 0 0.35672120529774148 0.33684362974708199 0 0.35641212776078268 0.33381706902087938 0 0.35302683950207769 0.33602013814058929 0 0.34924685744035389 0.33249877391857741 0 0.34788509595764172 0.33882226599831611 0 0.35060422568955008 0.32587015674736058 0 0.34924685744035389 0.33249877391857741 0 0.34514221143703899 0.32919058107390442 0 0.35060422568955008 0.32587015674736058 0 0.35398721241228231 0.33095327650953749 0 0.34924685744035389 0.33249877391857741 0 0.34924685744035389 0.33249877391857741 0 0.34514221143703899 0.32919058107390442 0 0.34474234507332802 0.33433591834825649 0 0.34924685744035389 0.33249877391857741 0 0.34474234507332802 0.33433591834825649 0 0.34788509595764172 0.33882226599831611 0 0.34474234507332802 0.33433591834825649 0 0.34788509595764172 0.33882226599831611 0 0.34057592936449049 0.33809639891542392 0 0.35146565257524442 0.34420791440797271 0 0.34788509595764172 0.33882226599831611 0 0.34269927497721508 0.34493512072036142 0 0.35202203774268331 0.33965573310897551 0 0.35302683950207769 0.33602013814058929 0 0.34788509595764172 0.33882226599831611 0 0.35146565257524442 0.34420791440797271 0 0.35202203774268331 0.33965573310897551 0 0.34788509595764172 0.33882226599831611 0 0.34057592936449049 0.33809639891542392 0 0.33318390910610529 0.34358855052096038 0 0.34269927497721508 0.34493512072036142 0 0.34788509595764172 0.33882226599831611 0 0.34057592936449049 0.33809639891542392 0 0.34269927497721508 0.34493512072036142 0 0.34474234507332802 0.33433591834825649 0 0.34057592936449049 0.33809639891542392 0 0.33946855119551672 0.33096103471374028 0 0.34514221143703899 0.32919058107390442 0 0.34474234507332802 0.33433591834825649 0 0.33946855119551672 0.33096103471374028 0 0.34057592936449049 0.33809639891542392 0 0.33946855119551672 0.33096103471374028 0 0.33283637980140879 0.33469331179832718 0 0.33946855119551672 0.33096103471374028 0 0.33283637980140879 0.33469331179832718 0 0.33464693517381472 0.32630086361949601 0 0.33283637980140879 0.33469331179832718 0 0.33464693517381472 0.32630086361949601 0 0.3250964778074269 0.32978689602061512 0 0.34057592936449049 0.33809639891542392 0 0.33283637980140879 0.33469331179832718 0 0.33318390910610529 0.34358855052096038 0 0.33283637980140879 0.33469331179832718 0 0.33318390910610529 0.34358855052096038 0 0.32611481079287369 0.33974729713420021 0 0.34480088275632298 0.31606258733578418 0 0.33769186663180051 0.31814262317354819 0 0.34192449374142192 0.30753297203612773 0 0.34480088275632298 0.31606258733578418 0 0.33769186663180051 0.31814262317354819 0 0.34284551192874652 0.32364904383841531 0 0.33946855119551672 0.33096103471374028 0 0.34284551192874652 0.32364904383841531 0 0.33464693517381472 0.32630086361949601 0 0.33769186663180051 0.31814262317354819 0 0.34284551192874652 0.32364904383841531 0 0.33464693517381472 0.32630086361949601 0 0.34514221143703899 0.32919058107390442 0 0.33946855119551672 0.33096103471374028 0 0.34284551192874652 0.32364904383841531 0 0.33769186663180051 0.31814262317354819 0 0.33464693517381472 0.32630086361949601 0 0.32994282367798861 0.32057227217232959 0 0.33464693517381472 0.32630086361949601 0 0.32994282367798861 0.32057227217232959 0 0.3250964778074269 0.32978689602061512 0 0.33769186663180051 0.31814262317354819 0 0.32994282367798861 0.32057227217232959 0 0.32867162081685902 0.31028670060733149 0 0.32176892132522322 0.32006025561378759 0 0.31440941436971798 0.31242774502049953 0 0.32867162081685902 0.31028670060733149 0 0.32994282367798861 0.32057227217232959 0 0.32176892132522322 0.32006025561378759 0 0.32867162081685902 0.31028670060733149 0 0.32176892132522322 0.32006025561378759 0 0.31484893044661 0.32778579360563193 0 0.3250964778074269 0.32978689602061512 0 0.32994282367798861 0.32057227217232959 0 0.32176892132522322 0.32006025561378759 0 0.3250964778074269 0.32978689602061512 0 0.32176892132522322 0.32006025561378759 0 0.31484893044661 0.32778579360563193 0 0.31440941436971798 0.31242774502049953 0 0.32611481079287369 0.33974729713420021 0 0.3250964778074269 0.32978689602061512 0 0.31767498628904178 0.33862919533695518 0 0.32611481079287369 0.33974729713420021 0 0.31767498628904178 0.33862919533695518 0 0.32336406622478242 0.34852958887145069 0 0.33283637980140879 0.33469331179832718 0 0.32611481079287369 0.33974729713420021 0 0.3250964778074269 0.32978689602061512 0 0.31484893044661 0.32778579360563193 0 0.31767498628904178 0.33862919533695518 0 0.30654896287530792 0.34033791233229299 0 0.31484893044661 0.32778579360563193 0 0.3250964778074269 0.32978689602061512 0 0.31767498628904178 0.33862919533695518 0 0.31767498628904178 0.33862919533695518 0 0.31315570067328902 0.3464643712977632 0 0.32336406622478242 0.34852958887145069 0 0.31315570067328902 0.3464643712977632 0 0.31355388928080707 0.35546570062290778 0 0.32336406622478242 0.34852958887145069 0 0.32336406622478242 0.34852958887145069 0 0.33442175170730049 0.35218858713626039 0 0.32437013183195901 0.3602157298059272 0 0.31355388928080707 0.35546570062290778 0 0.32336406622478242 0.34852958887145069 0 0.32437013183195901 0.3602157298059272 0 0.33318390910610529 0.34358855052096038 0 0.32611481079287369 0.33974729713420021 0 0.32336406622478242 0.34852958887145069 0 0.35030182712711511 0.35130594720886232 0 0.33442175170730049 0.35218858713626039 0 0.33389487655237682 0.3658352592629312 0 0.33318390910610529 0.34358855052096038 0 0.32336406622478242 0.34852958887145069 0 0.33442175170730049 0.35218858713626039 0 0.35030182712711511 0.35130594720886232 0 0.33442175170730049 0.35218858713626039 0 0.34269927497721508 0.34493512072036142 0 0.33318390910610529 0.34358855052096038 0 0.33442175170730049 0.35218858713626039 0 0.34269927497721508 0.34493512072036142 0 0.34270248502322931 0.38427053755298168 0 0.35268350372385993 0.36328223724825232 0 0.33389487655237682 0.3658352592629312 0 0.33442175170730049 0.35218858713626039 0 0.33389487655237682 0.3658352592629312 0 0.32437013183195901 0.3602157298059272 0 0.31661607539452802 0.37905951313608538 0 0.33389487655237682 0.3658352592629312 0 0.32437013183195901 0.3602157298059272 0 0.31661607539452802 0.37905951313608538 0 0.31355388928080707 0.35546570062290778 0 0.32437013183195901 0.3602157298059272 0 0.31661607539452802 0.37905951313608538 0 0.31355388928080707 0.35546570062290778 0 0.31661607539452802 0.37905951313608538 0 0.31355388928080707 0.35546570062290778 0 0.30541822204374358 0.36584678197342768 0 0.2987730087010142 0.37934426936791982 0 0.31661607539452802 0.37905951313608538 0 0.30541822204374358 0.36584678197342768 0 0.30541822204374358 0.36584678197342768 0 0.30393955747459928 0.35096595789874813 0 0.29215410451095353 0.36543341035917859 0 0.2987730087010142 0.37934426936791982 0 0.30541822204374358 0.36584678197342768 0 0.29215410451095353 0.36543341035917859 0 0.31315570067328902 0.3464643712977632 0 0.30393955747459928 0.35096595789874813 0 0.30654896287530792 0.34033791233229299 0 0.31315570067328902 0.3464643712977632 0 0.31355388928080707 0.35546570062290778 0 0.30393955747459928 0.35096595789874813 0 0.31355388928080707 0.35546570062290778 0 0.30541822204374358 0.36584678197342768 0 0.30393955747459928 0.35096595789874813 0 0.30393955747459928 0.35096595789874813 0 0.29215410451095353 0.36543341035917859 0 0.30393955747459928 0.35096595789874813 0 0.29720735802849829 0.34424744790442102 0 0.29027641861796738 0.35164951467646482 0 0.30393955747459928 0.35096595789874813 0 0.29720735802849829 0.34424744790442102 0 0.30654896287530792 0.34033791233229299 0 0.29720735802849829 0.34424744790442102 0 0.29027641861796738 0.35164951467646482 0 0.28998304713239348 0.34105976447064218 0 0.30393955747459928 0.35096595789874813 0 0.29027641861796738 0.35164951467646482 0 0.29215410451095353 0.36543341035917859 0 0.29027641861796738 0.35164951467646482 0 0.29215410451095353 0.36543341035917859 0 0.27920137084664282 0.3573603676334649 0 0.29027641861796738 0.35164951467646482 0 0.27920137084664282 0.3573603676334649 0 0.28068773357058369 0.34198453751068081 0 0.29027641861796738 0.35164951467646482 0 0.28068773357058369 0.34198453751068081 0 0.28998304713239348 0.34105976447064218 0 0.28036865154730628 0.37990086281960789 0 0.29215410451095353 0.36543341035917859 0 0.27920137084664282 0.3573603676334649 0 0.28036865154730628 0.37990086281960789 0 0.2987730087010142 0.37934426936791982 0 0.29215410451095353 0.36543341035917859 0 0.28036865154730628 0.37990086281960789 0 0.29215410451095353 0.36543341035917859 0 0.28036865154730628 0.37990086281960789 0 0.27920137084664282 0.3573603676334649 0 0.26173146881309822 0.35734024057335978 0 0.28036865154730628 0.37990086281960789 0 0.26173146881309822 0.35734024057335978 0 0.28036865154730628 0.37990086281960789 0 0.26173146881309822 0.35734024057335978 0 0.2641967246118288 0.36596915937278562 0 0.27920137084664282 0.3573603676334649 0 0.27030047393074008 0.3474963096498429 0 0.26173146881309822 0.35734024057335978 0 0.27920137084664282 0.3573603676334649 0 0.27030047393074008 0.3474963096498429 0 0.28068773357058369 0.34198453751068081 0 0.2430942860788903 0.33477961832711151 0 0.26173146881309822 0.35734024057335978 0 0.27030047393074008 0.3474963096498429 0 0.26173146881309822 0.35734024057335978 0 0.26240083601839698 0.33727672217147331 0 0.23816107804029091 0.35120524212074949 0 0.26173146881309822 0.35734024057335978 0 0.2641967246118288 0.36596915937278562 0 0.23816107804029091 0.35120524212074949 0 0.2641967246118288 0.36596915937278562 0 0.2492643002430574 0.365916522193315 0 0.24311907173897271 0.36013203008567057 0 0.2641967246118288 0.36596915937278562 0 0.2492643002430574 0.365916522193315 0 0.25710864090743918 0.37145542319719338 0 0.2641967246118288 0.36596915937278562 0 0.2492643002430574 0.365916522193315 0 0.25383912625151372 0.37755129754335942 0 0.25710864090743918 0.37145542319719338 0 0.26350653962281989 0.38010735630523079 0 0.25710864090743918 0.37145542319719338 0 0.2641967246118288 0.36596915937278562 0 0.2484846271056145 0.31037308609574782 0 0.25508783524565293 0.32209220201309929 0 0.26836904206483531 0.31075971332937607 0 0.25508783524565293 0.32209220201309929 0 0.26240083601839698 0.33727672217147331 0 0.26677092012209491 0.32204036282613252 0 0.25508783524565293 0.32209220201309929 0 0.26677092012209491 0.32204036282613252 0 0.26836904206483531 0.31075971332937607 0 0.2430942860788903 0.33477961832711151 0 0.25508783524565293 0.32209220201309929 0 0.26240083601839698 0.33727672217147331 0 0.2430942860788903 0.33477961832711151 0 0.26173146881309822 0.35734024057335978 0 0.26240083601839698 0.33727672217147331 0 0.26240083601839698 0.33727672217147331 0 0.27184092000699639 0.33891315949469752 0 0.27388917516664008 0.32964775149744319 0 0.26240083601839698 0.33727672217147331 0 0.27388917516664008 0.32964775149744319 0 0.26677092012209491 0.32204036282613252 0 0.27030047393074008 0.3474963096498429 0 0.26240083601839698 0.33727672217147331 0 0.27184092000699639 0.33891315949469752 0 0.27030047393074008 0.3474963096498429 0 0.27184092000699639 0.33891315949469752 0 0.28068773357058369 0.34198453751068081 0 0.27184092000699639 0.33891315949469752 0 0.28068773357058369 0.34198453751068081 0 0.27388917516664008 0.32964775149744319 0 0.28068773357058369 0.34198453751068081 0 0.27388917516664008 0.32964775149744319 0 0.28570907475377572 0.33188311037056872 0 0.27388917516664008 0.32964775149744319 0 0.26677092012209491 0.32204036282613252 0 0.28178409254690689 0.31684790712797722 0 0.27388917516664008 0.32964775149744319 0 0.28178409254690689 0.31684790712797722 0 0.28570907475377572 0.33188311037056872 0 0.26677092012209491 0.32204036282613252 0 0.28178409254690689 0.31684790712797722 0 0.26836904206483531 0.31075971332937607 0 0.28178409254690689 0.31684790712797722 0 0.29262159606390598 0.32453461147271162 0 0.29660332646403359 0.30785121346786842 0 0.28178409254690689 0.31684790712797722 0 0.29262159606390598 0.32453461147271162 0 0.28570907475377572 0.33188311037056872 0 0.28068773357058369 0.34198453751068081 0 0.28570907475377572 0.33188311037056872 0 0.28998304713239348 0.34105976447064218 0 0.29262159606390598 0.32453461147271162 0 0.28570907475377572 0.33188311037056872 0 0.29603465069114282 0.33553421189107618 0 0.29720735802849829 0.34424744790442102 0 0.29603465069114282 0.33553421189107618 0 0.28998304713239348 0.34105976447064218 0 0.28570907475377572 0.33188311037056872 0 0.29603465069114282 0.33553421189107618 0 0.28998304713239348 0.34105976447064218 0 0.29720735802849829 0.34424744790442102 0 0.29603465069114282 0.33553421189107618 0 0.30654896287530792 0.34033791233229299 0 0.29603465069114282 0.33553421189107618 0 0.30654896287530792 0.34033791233229299 0 0.30445412428221041 0.32558903425911379 0 0.29262159606390598 0.32453461147271162 0 0.29603465069114282 0.33553421189107618 0 0.30445412428221041 0.32558903425911379 0 0.31484893044661 0.32778579360563193 0 0.30654896287530792 0.34033791233229299 0 0.30445412428221041 0.32558903425911379 0 0.31767498628904178 0.33862919533695518 0 0.31315570067328902 0.3464643712977632 0 0.30654896287530792 0.34033791233229299 0 0.30445412428221041 0.32558903425911379 0 0.29660332646403359 0.30785121346786842 0 0.31440941436971798 0.31242774502049953 0 0.29262159606390598 0.32453461147271162 0 0.30445412428221041 0.32558903425911379 0 0.29660332646403359 0.30785121346786842 0 0.31484893044661 0.32778579360563193 0 0.30445412428221041 0.32558903425911379 0 0.31440941436971798 0.31242774502049953 0 0.30822946874662033 0.29998271616579031 0 0.29660332646403359 0.30785121346786842 0 0.31440941436971798 0.31242774502049953 0 0.30822946874662033 0.29998271616579031 0 0.30055108247350393 0.28416894361273021 0 0.29660332646403359 0.30785121346786842 0 0.30822946874662033 0.29998271616579031 0 0.30055108247350393 0.28416894361273021 0 0.32109763140443309 0.29547610107375327 0 0.30055108247350393 0.28416894361273021 0 0.29660332646403359 0.30785121346786842 0 0.27430616976337108 0.29100628718303567 0 0.30055108247350393 0.28416894361273021 0 0.27430616976337108 0.29100628718303567 0 0.28443506245096839 0.27205148705280008 0 0.30055108247350393 0.28416894361273021 0 0.27430616976337108 0.29100628718303567 0 0.28178409254690689 0.31684790712797722 0 0.29660332646403359 0.30785121346786842 0 0.27430616976337108 0.29100628718303567 0 0.28178409254690689 0.31684790712797722 0 0.26836904206483531 0.31075971332937607 0 0.27430616976337108 0.29100628718303567 0 0.28178409254690689 0.31684790712797722 0 0.27430616976337108 0.29100628718303567 0 0.27430616976337108 0.29100628718303567 0 0.25121587924780342 0.29702178630611242 0 0.27430616976337108 0.29100628718303567 0 0.25953152444998728 0.28294166139542631 0 0.25121587924780342 0.29702178630611242 0 0.26836904206483531 0.31075971332937607 0 0.27430616976337108 0.29100628718303567 0 0.25121587924780342 0.29702178630611242 0 0.26836904206483531 0.31075971332937607 0 0.25121587924780342 0.29702178630611242 0 0.2484846271056145 0.31037308609574782 0 0.26836904206483531 0.31075971332937607 0 0.25121587924780342 0.29702178630611242 0 0.25102838231212438 0.26850893423506528 0 0.26790857605335527 0.26889798384773289 0 0.26221447651104962 0.2479993693513689 0 0.26790857605335527 0.26889798384773289 0 0.26221447651104962 0.2479993693513689 0 0.25953152444998728 0.28294166139542631 0 0.25102838231212438 0.26850893423506528 0 0.26790857605335527 0.26889798384773289 0 0.27430616976337108 0.29100628718303567 0 0.26790857605335527 0.26889798384773289 0 0.28443506245096839 0.27205148705280008 0 0.27430616976337108 0.29100628718303567 0 0.25953152444998728 0.28294166139542631 0 0.26790857605335527 0.26889798384773289 0 0.27430616976337108 0.29100628718303567 0 0.26790857605335527 0.26889798384773289 0 0.26790857605335527 0.26889798384773289 0 0.28119448123381058 0.25405304303149878 0 0.26221447651104962 0.2479993693513689 0 0.26790857605335527 0.26889798384773289 0 0.28119448123381058 0.25405304303149878 0 0.28443506245096839 0.27205148705280008 0 0.28119448123381058 0.25405304303149878 0 0.28443506245096839 0.27205148705280008 0 0.2982150027308012 0.26213117758900317 0 0.28119448123381058 0.25405304303149878 0 0.2982150027308012 0.26213117758900317 0 0.30328699804120918 0.24394477185791469 0 0.30055108247350393 0.28416894361273021 0 0.28443506245096839 0.27205148705280008 0 0.2982150027308012 0.26213117758900317 0 0.30055108247350393 0.28416894361273021 0 0.2982150027308012 0.26213117758900317 0 0.31879452400631653 0.25919465198291952 0 0.2982150027308012 0.26213117758900317 0 0.31879452400631653 0.25919465198291952 0 0.30328699804120918 0.24394477185791469 0 0.31879452400631653 0.25919465198291952 0 0.33092809789354199 0.24744869965648561 0 0.31845456220733243 0.24449663650262579 0 0.31879452400631653 0.25919465198291952 0 0.33565265393095528 0.25675142138279861 0 0.33982225619875311 0.26765994074234428 0 0.31879452400631653 0.25919465198291952 0 0.33982225619875311 0.26765994074234428 0 0.31879452400631653 0.25919465198291952 0 0.33565265393095528 0.25675142138279861 0 0.33092809789354199 0.24744869965648561 0 0.33565265393095528 0.25675142138279861 0 0.33982225619875311 0.26765994074234428 0 0.34536281311255052 0.25941060478944128 0 0.33565265393095528 0.25675142138279861 0 0.3433555784436142 0.25004320974280247 0 0.33092809789354199 0.24744869965648561 0 0.33565265393095528 0.25675142138279861 0 0.3433555784436142 0.25004320974280247 0 0.34536281311255052 0.25941060478944128 0 0.31879452400631653 0.25919465198291952 0 0.33982225619875311 0.26765994074234428 0 0.32679599518363661 0.27733160004242491 0 0.33982225619875311 0.26765994074234428 0 0.32679599518363661 0.27733160004242491 0 0.34056182851336592 0.28206143899133118 0 0.30055108247350393 0.28416894361273021 0 0.32679599518363661 0.27733160004242491 0 0.30055108247350393 0.28416894361273021 0 0.31879452400631653 0.25919465198291952 0 0.32679599518363661 0.27733160004242491 0 0.32679599518363661 0.27733160004242491 0 0.32109763140443309 0.29547610107375327 0 0.33248404658197278 0.28876668272462419 0 0.30055108247350393 0.28416894361273021 0 0.32679599518363661 0.27733160004242491 0 0.32109763140443309 0.29547610107375327 0 0.32109763140443309 0.29547610107375327 0 0.31440941436971798 0.31242774502049953 0 0.32867162081685902 0.31028670060733149 0 0.30822946874662033 0.29998271616579031 0 0.32109763140443309 0.29547610107375327 0 0.31440941436971798 0.31242774502049953 0 0.32867162081685902 0.31028670060733149 0 0.33472549883669622 0.29791121211074773 0 0.34192449374142192 0.30753297203612773 0 0.32109763140443309 0.29547610107375327 0 0.32867162081685902 0.31028670060733149 0 0.33472549883669622 0.29791121211074773 0 0.33472549883669622 0.29791121211074773 0 0.34281583705185747 0.29966479619329672 0 0.34192449374142192 0.30753297203612773 0 0.33769186663180051 0.31814262317354819 0 0.32867162081685902 0.31028670060733149 0 0.34192449374142192 0.30753297203612773 0 0.32679599518363661 0.27733160004242491 0 0.33248404658197278 0.28876668272462419 0 0.34056182851336592 0.28206143899133118 0 0.32109763140443309 0.29547610107375327 0 0.33472549883669622 0.29791121211074773 0 0.33248404658197278 0.28876668272462419 0 0.33472549883669622 0.29791121211074773 0 0.33248404658197278 0.28876668272462419 0 0.34417327957572558 0.29277050597204329 0 0.33472549883669622 0.29791121211074773 0 0.34281583705185747 0.29966479619329672 0 0.34417327957572558 0.29277050597204329 0 0.33248404658197278 0.28876668272462419 0 0.34056182851336592 0.28206143899133118 0 0.34417327957572558 0.29277050597204329 0 0.34056182851336592 0.28206143899133118 0 0.34979868535227071 0.28728326233729501 0 0.34417327957572558 0.29277050597204329 0 0.34056182851336592 0.28206143899133118 0 0.34979868535227071 0.28728326233729501 0 0.35183199075491411 0.27966461044832719 0 0.34417327957572558 0.29277050597204329 0 0.35334053836337709 0.29410458558147129 0 0.34972900846361488 0.30172704795696642 0 0.34979868535227071 0.28728326233729501 0 0.34417327957572558 0.29277050597204329 0 0.35334053836337709 0.29410458558147129 0 0.34979868535227071 0.28728326233729501 0 0.35334053836337709 0.29410458558147129 0 0.35722235408413222 0.28831366276426512 0 0.35334053836337709 0.29410458558147129 0 0.35826071325737319 0.3003277240158499 0 0.36091512844171192 0.29433704443458902 0 0.35334053836337709 0.29410458558147129 0 0.35722235408413222 0.28831366276426512 0 0.36091512844171192 0.29433704443458902 0 0.34979868535227071 0.28728326233729501 0 0.35722235408413222 0.28831366276426512 0 0.35183199075491411 0.27966461044832719 0 0.35722235408413222 0.28831366276426512 0 0.36152496379752869 0.28359539021876212 0 0.35183199075491411 0.27966461044832719 0 0.34480088275632298 0.31606258733578418 0 0.34192449374142192 0.30753297203612773 0 0.35090510471213721 0.31152713165908658 0 0.34192449374142192 0.30753297203612773 0 0.35090510471213721 0.31152713165908658 0 0.34972900846361488 0.30172704795696642 0 0.34281583705185747 0.29966479619329672 0 0.34417327957572558 0.29277050597204329 0 0.34972900846361488 0.30172704795696642 0 0.34281583705185747 0.29966479619329672 0 0.34192449374142192 0.30753297203612773 0 0.34972900846361488 0.30172704795696642 0 0.34972900846361488 0.30172704795696642 0 0.35826071325737319 0.3003277240158499 0 0.35721607615581658 0.30656573559573969 0 0.35334053836337709 0.29410458558147129 0 0.34972900846361488 0.30172704795696642 0 0.35826071325737319 0.3003277240158499 0 0.35090510471213721 0.31152713165908658 0 0.34972900846361488 0.30172704795696642 0 0.35721607615581658 0.30656573559573969 0 0.35878641637012221 0.31305233625990619 0 0.35090510471213721 0.31152713165908658 0 0.35721607615581658 0.30656573559573969 0 0.37014896644917339 0.316543878568457 0 0.37763341047385651 0.29079382019339128 0 0.37014896644917339 0.316543878568457 0 0.37108481648816682 0.30013899891886681 0 0.36845835323010317 0.30596496181531441 0 0.37014896644917339 0.316543878568457 0 0.37763341047385651 0.29079382019339128 0 0.37695808612291098 0.31120865645681561 0 0.37014896644917339 0.316543878568457 0 0.37108481648816682 0.30013899891886681 0 0.37763341047385651 0.29079382019339128 0 0.36630954626425261 0.31087512405144152 0 0.36228941999803421 0.30896529616435242 0 0.36543096483439103 0.3064802843427199 0 0.36331333565659901 0.31283202127524651 0 0.36630954626425261 0.31087512405144152 0 0.36228941999803421 0.30896529616435242 0 0.36331333565659901 0.31283202127524651 0 0.35878641637012221 0.31305233625990619 0 0.36228941999803421 0.30896529616435242 0 0.35878641637012221 0.31305233625990619 0 0.35721607615581658 0.30656573559573969 0 0.36228941999803421 0.30896529616435242 0 0.35721607615581658 0.30656573559573969 0 0.36228941999803421 0.30896529616435242 0 0.36268018070702418 0.30398627546106088 0 0.36630954626425261 0.31087512405144152 0 0.36543096483439103 0.3064802843427199 0 0.36845835323010317 0.30596496181531441 0 0.36228941999803421 0.30896529616435242 0 0.36543096483439103 0.3064802843427199 0 0.36268018070702418 0.30398627546106088 0 0.36543096483439103 0.3064802843427199 0 0.36607900901995372 0.30349396637540749 0 0.36845835323010317 0.30596496181531441 0 0.36607900901995372 0.30349396637540749 0 0.36268018070702418 0.30398627546106088 0 0.36558719123160882 0.29969948119116269 0 0.36607900901995372 0.30349396637540749 0 0.36558719123160882 0.29969948119116269 0 0.36823835509664099 0.30133882906677939 0 0.36543096483439103 0.3064802843427199 0 0.36607900901995372 0.30349396637540749 0 0.36268018070702418 0.30398627546106088 0 0.35826071325737319 0.3003277240158499 0 0.35721607615581658 0.30656573559573969 0 0.36268018070702418 0.30398627546106088 0 0.35826071325737319 0.3003277240158499 0 0.36268018070702418 0.30398627546106088 0 0.36558719123160882 0.29969948119116269 0 0.35826071325737319 0.3003277240158499 0 0.36558719123160882 0.29969948119116269 0 0.36091512844171192 0.29433704443458902 0 0.36871223371641282 0.29817542324200702 0 0.37108481648816682 0.30013899891886681 0 0.37014933742706652 0.29575476169949788 0 0.36558719123160882 0.29969948119116269 0 0.36871223371641282 0.29817542324200702 0 0.36734652779664789 0.29411680932906442 0 0.36558719123160882 0.29969948119116269 0 0.36871223371641282 0.29817542324200702 0 0.36823835509664099 0.30133882906677939 0 0.36871223371641282 0.29817542324200702 0 0.37108481648816682 0.30013899891886681 0 0.36823835509664099 0.30133882906677939 0 0.37108481648816682 0.30013899891886681 0 0.36823835509664099 0.30133882906677939 0 0.36845835323010317 0.30596496181531441 0 0.36607900901995372 0.30349396637540749 0 0.36823835509664099 0.30133882906677939 0 0.36845835323010317 0.30596496181531441 0 0.37014896644917339 0.316543878568457 0 0.36630954626425261 0.31087512405144152 0 0.36845835323010317 0.30596496181531441 0 0.36812955944888692 0.28419813691800921 0 0.36084998839118931 0.2761252295017701 0 0.37969218042614078 0.28371066929036243 0 0.36152496379752869 0.28359539021876212 0 0.36812955944888692 0.28419813691800921 0 0.36084998839118931 0.2761252295017701 0 0.36414496955441777 0.28941104037434479 0 0.36911771796651938 0.28986917351547109 0 0.36812955944888692 0.28419813691800921 0 0.36152496379752869 0.28359539021876212 0 0.36414496955441777 0.28941104037434479 0 0.36812955944888692 0.28419813691800921 0 0.35722235408413222 0.28831366276426512 0 0.36152496379752869 0.28359539021876212 0 0.36414496955441777 0.28941104037434479 0 0.35722235408413222 0.28831366276426512 0 0.36091512844171192 0.29433704443458902 0 0.36414496955441777 0.28941104037434479 0 0.36558719123160882 0.29969948119116269 0 0.36091512844171192 0.29433704443458902 0 0.36734652779664789 0.29411680932906442 0 0.36091512844171192 0.29433704443458902 0 0.36414496955441777 0.28941104037434479 0 0.36734652779664789 0.29411680932906442 0 0.36414496955441777 0.28941104037434479 0 0.36911771796651938 0.28986917351547109 0 0.36734652779664789 0.29411680932906442 0 0.36911771796651938 0.28986917351547109 0 0.37026464520563152 0.29279186409727531 0 0.36734652779664789 0.29411680932906442 0 0.37108481648816682 0.30013899891886681 0 0.37306860395079622 0.29341917559567809 0 0.37763341047385651 0.29079382019339128 0 0.36911771796651938 0.28986917351547109 0 0.37026464520563152 0.29279186409727531 0 0.37237913536365119 0.29056320862162688 0 0.36871223371641282 0.29817542324200702 0 0.36734652779664789 0.29411680932906442 0 0.37014933742706652 0.29575476169949788 0 0.37026464520563152 0.29279186409727531 0 0.36734652779664789 0.29411680932906442 0 0.37014933742706652 0.29575476169949788 0 0.37108481648816682 0.30013899891886681 0 0.37014933742706652 0.29575476169949788 0 0.37306860395079622 0.29341917559567809 0 0.37026464520563152 0.29279186409727531 0 0.37014933742706652 0.29575476169949788 0 0.37306860395079622 0.29341917559567809 0 0.36911771796651938 0.28986917351547109 0 0.37237913536365119 0.29056320862162688 0 0.37333201972158658 0.2878654242033048 0 0.37306860395079622 0.29341917559567809 0 0.37237913536365119 0.29056320862162688 0 0.37763341047385651 0.29079382019339128 0 0.37237913536365119 0.29056320862162688 0 0.37333201972158658 0.2878654242033048 0 0.37763341047385651 0.29079382019339128 0 0.37026464520563152 0.29279186409727531 0 0.37306860395079622 0.29341917559567809 0 0.37237913536365119 0.29056320862162688 0 0.37333201972158658 0.2878654242033048 0 0.36812955944888692 0.28419813691800921 0 0.37969218042614078 0.28371066929036243 0 0.36911771796651938 0.28986917351547109 0 0.37333201972158658 0.2878654242033048 0 0.36812955944888692 0.28419813691800921 0 0.36084998839118931 0.2761252295017701 0 0.37969218042614078 0.28371066929036243 0 0.36084998839118931 0.2761252295017701 0 0.37017340450925651 0.266060206293324 0 0.3539366042426153 0.26554047293381039 0 0.36084998839118931 0.2761252295017701 0 0.38460708535355081 0.26680105137204091 0 0.36084998839118931 0.2761252295017701 0 0.37017340450925651 0.266060206293324 0 0.38460708535355081 0.26680105137204091 0 0.3539366042426153 0.26554047293381039 0 0.38129994004966872 0.25577407136566988 0 0.37169426656027921 0.24972740256563611 0 0.37017340450925651 0.266060206293324 0 0.3539366042426153 0.26554047293381039 0 0.38129994004966872 0.25577407136566988 0 0.3539366042426153 0.26554047293381039 0 0.37169426656027921 0.24972740256563611 0 0.36205361842742478 0.24882498742118489 0 0.3539366042426153 0.26554047293381039 0 0.38129994004966872 0.25577407136566988 0 0.3539366042426153 0.26554047293381039 0 0.35175757775775729 0.2532797976346674 0 0.36205361842742478 0.24882498742118489 0 0.3433555784436142 0.25004320974280247 0 0.35175757775775729 0.2532797976346674 0 0.34536281311255052 0.25941060478944128 0 0.33982225619875311 0.26765994074234428 0 0.3539366042426153 0.26554047293381039 0 0.34536281311255052 0.25941060478944128 0 0.3539366042426153 0.26554047293381039 0 0.35175757775775729 0.2532797976346674 0 0.34536281311255052 0.25941060478944128 0 0.33982225619875311 0.26765994074234428 0 0.36084998839118931 0.2761252295017701 0 0.33982225619875311 0.26765994074234428 0 0.36084998839118931 0.2761252295017701 0 0.3539366042426153 0.26554047293381039 0 0.33982225619875311 0.26765994074234428 0 0.36084998839118931 0.2761252295017701 0 0.35183199075491411 0.27966461044832719 0 0.33982225619875311 0.26765994074234428 0 0.34056182851336592 0.28206143899133118 0 0.35183199075491411 0.27966461044832719 0 0.36152496379752869 0.28359539021876212 0 0.36084998839118931 0.2761252295017701 0 0.35183199075491411 0.27966461044832719 0 0.36084998839118931 0.2761252295017701 0 0.35183199075491411 0.27966461044832719 0 0.39945440726228237 0.27350419034528239 0 0.38460708535355081 0.26680105137204091 0 0.40768566828284042 0.25774317622192677 0 0.39945440726228237 0.27350419034528239 0 0.4092682188351508 0.26816031590002881 0 0.40768566828284042 0.25774317622192677 0 0.39945440726228237 0.27350419034528239 0 0.38460708535355081 0.26680105137204091 0 0.3904751567012596 0.27530993325585928 0 0.39945440726228237 0.27350419034528239 0 0.3904751567012596 0.27530993325585928 0 0.39488150240831521 0.28173053148540511 0 0.39945440726228237 0.27350419034528239 0 0.40366985246608472 0.28285995447659418 0 0.40929088926209078 0.279020096056181 0 0.39945440726228237 0.27350419034528239 0 0.4092682188351508 0.26816031590002881 0 0.40929088926209078 0.279020096056181 0 0.39945440726228237 0.27350419034528239 0 0.39488150240831521 0.28173053148540511 0 0.40366985246608472 0.28285995447659418 0 0.38783836144724232 0.2556839199238965 0 0.38129994004966872 0.25577407136566988 0 0.40866327585672191 0.24600766979752939 0 0.38460708535355081 0.26680105137204091 0 0.40768566828284042 0.25774317622192677 0 0.38783836144724232 0.2556839199238965 0 0.40768566828284042 0.25774317622192677 0 0.40866327585672191 0.24600766979752939 0 0.38783836144724232 0.2556839199238965 0 0.38460708535355081 0.26680105137204091 0 0.40768566828284042 0.25774317622192677 0 0.38129994004966872 0.25577407136566988 0 0.40866327585672191 0.24600766979752939 0 0.38783836144724232 0.2556839199238965 0 0.38129994004966872 0.25577407136566988 0 0.38460708535355081 0.26680105137204091 0 0.38783836144724232 0.2556839199238965 0 0.38460708535355081 0.26680105137204091 0 0.38129994004966872 0.25577407136566988 0 0.37169426656027921 0.24972740256563611 0 0.38106847269238292 0.24536179082341181 0 0.37017340450925651 0.266060206293324 0 0.38129994004966872 0.25577407136566988 0 0.38460708535355081 0.26680105137204091 0 0.36084998839118931 0.2761252295017701 0 0.38460708535355081 0.26680105137204091 0 0.37969218042614078 0.28371066929036243 0 0.38460708535355081 0.26680105137204091 0 0.3904751567012596 0.27530993325585928 0 0.37969218042614078 0.28371066929036243 0 0.38460708535355081 0.26680105137204091 0 0.37969218042614078 0.28371066929036243 0 0.3904751567012596 0.27530993325585928 0 0.37969218042614078 0.28371066929036243 0 0.39488150240831521 0.28173053148540511 0 0.37969218042614078 0.28371066929036243 0 0.37763341047385651 0.29079382019339128 0 0.40259214502479168 0.29292967641552992 0 0.37763341047385651 0.29079382019339128 0 0.4027243230010164 0.30147339632314252 0 0.37969218042614078 0.28371066929036243 0 0.37763341047385651 0.29079382019339128 0 0.37333201972158658 0.2878654242033048 0 0.37969218042614078 0.28371066929036243 0 0.37763341047385651 0.29079382019339128 0 0.37763341047385651 0.29079382019339128 0 0.37695808612291098 0.31120865645681561 0 0.38599374742651271 0.30414296713942529 0 0.37763341047385651 0.29079382019339128 0 0.38599374742651271 0.30414296713942529 0 0.4027243230010164 0.30147339632314252 0 0.37695808612291098 0.31120865645681561 0 0.38599374742651271 0.30414296713942529 0 0.38754735899376969 0.31282171123814728 0 0.38599374742651271 0.30414296713942529 0 0.4027243230010164 0.30147339632314252 0 0.38754735899376969 0.31282171123814728 0 0.4027243230010164 0.30147339632314252 0 0.3956366020903157 0.32248231082130752 0 0.38754735899376969 0.31282171123814728 0 0.37969218042614078 0.28371066929036243 0 0.40259214502479168 0.29292967641552992 0 0.37969218042614078 0.28371066929036243 0 0.39488150240831521 0.28173053148540511 0 0.40259214502479168 0.29292967641552992 0 0.37763341047385651 0.29079382019339128 0 0.4027243230010164 0.30147339632314252 0 0.40259214502479168 0.29292967641552992 0 0.4027243230010164 0.30147339632314252 0 0.40259214502479168 0.29292967641552992 0 0.41139710839419091 0.29189735433941028 0 0.40259214502479168 0.29292967641552992 0 0.40366985246608472 0.28285995447659418 0 0.41139710839419091 0.29189735433941028 0 0.39488150240831521 0.28173053148540511 0 0.40259214502479168 0.29292967641552992 0 0.40366985246608472 0.28285995447659418 0 0.40366985246608472 0.28285995447659418 0 0.41139710839419091 0.29189735433941028 0 0.40929088926209078 0.279020096056181 0 0.41139710839419091 0.29189735433941028 0 0.42781523552817591 0.31215297245289481 0 0.42226183937510081 0.28327127115801121 0 0.41139710839419091 0.29189735433941028 0 0.42226183937510081 0.28327127115801121 0 0.40929088926209078 0.279020096056181 0 0.4027243230010164 0.30147339632314252 0 0.41139710839419091 0.29189735433941028 0 0.42781523552817591 0.31215297245289481 0 0.4027243230010164 0.30147339632314252 0 0.42781523552817591 0.31215297245289481 0 0.41357021602424721 0.32279281759874212 0 0.4027243230010164 0.30147339632314252 0 0.42781523552817591 0.31215297245289481 0 0.42781523552817591 0.31215297245289481 0 0.42226183937510081 0.28327127115801121 0 0.42781523552817591 0.31215297245289481 0 0.42226183937510081 0.28327127115801121 0 0.44120727567718632 0.28746005308771089 0 0.42226183937510081 0.28327127115801121 0 0.43023391716603732 0.27040224467912161 0 0.44120727567718632 0.28746005308771089 0 0.42226183937510081 0.28327127115801121 0 0.43023391716603732 0.27040224467912161 0 0.41664462513020523 0.25422696758609492 0 0.43023391716603732 0.27040224467912161 0 0.43692075095235122 0.26433370861442979 0 0.44373838257505849 0.27050131303512348 0 0.42226183937510081 0.28327127115801121 0 0.4092682188351508 0.26816031590002881 0 0.41664462513020523 0.25422696758609492 0 0.42226183937510081 0.28327127115801121 0 0.41664462513020523 0.25422696758609492 0 0.42226183937510081 0.28327127115801121 0 0.4092682188351508 0.26816031590002881 0 0.40929088926209078 0.279020096056181 0 0.40768566828284042 0.25774317622192677 0 0.41664462513020523 0.25422696758609492 0 0.40866327585672191 0.24600766979752939 0 0.40768566828284042 0.25774317622192677 0 0.41664462513020523 0.25422696758609492 0 0.4092682188351508 0.26816031590002881 0 0.40768566828284042 0.25774317622192677 0 0.41664462513020523 0.25422696758609492 0 0.42749544465446981 0.25699566217507153 0 0.45166362976964691 0.25106894999712381 0 0.43076425121212841 0.2486853010718087 0 0.41664462513020523 0.25422696758609492 0 0.42749544465446981 0.25699566217507153 0 0.43076425121212841 0.2486853010718087 0 0.43023391716603732 0.27040224467912161 0 0.41664462513020523 0.25422696758609492 0 0.42749544465446981 0.25699566217507153 0 0.41664462513020523 0.25422696758609492 0 0.43076425121212841 0.2486853010718087 0 0.42749544465446981 0.25699566217507153 0 0.43692075095235122 0.26433370861442979 0 0.44456450099631911 0.26043047377218492 0 0.43023391716603732 0.27040224467912161 0 0.42749544465446981 0.25699566217507153 0 0.43692075095235122 0.26433370861442979 0 0.42749544465446981 0.25699566217507153 0 0.45166362976964691 0.25106894999712381 0 0.42749544465446981 0.25699566217507153 0 0.44456450099631911 0.26043047377218492 0 0.45166362976964691 0.25106894999712381 0 0.43692075095235122 0.26433370861442979 0 0.44456450099631911 0.26043047377218492 0 0.44373838257505849 0.27050131303512348 0 0.44456450099631911 0.26043047377218492 0 0.44373838257505849 0.27050131303512348 0 0.45508065662597141 0.26402805921732958 0 0.44456450099631911 0.26043047377218492 0 0.45166362976964691 0.25106894999712381 0 0.45508065662597141 0.26402805921732958 0 0.44373838257505849 0.27050131303512348 0 0.45472874274978531 0.27586911806656422 0 0.44120727567718632 0.28746005308771089 0 0.43023391716603732 0.27040224467912161 0 0.44373838257505849 0.27050131303512348 0 0.44120727567718632 0.28746005308771089 0 0.44373838257505849 0.27050131303512348 0 0.45472874274978531 0.27586911806656422 0 0.45508065662597141 0.26402805921732958 0 0.45472874274978531 0.27586911806656422 0 0.46665275363318931 0.27127710252775639 0 0.46192346945889701 0.28817835066990299 0 0.45472874274978531 0.27586911806656422 0 0.46665275363318931 0.27127710252775639 0 0.45508065662597141 0.26402805921732958 0 0.45166362976964691 0.25106894999712381 0 0.46652816171208539 0.25830808769848879 0 0.47583181488482379 0.2451422378191761 0 0.45166362976964691 0.25106894999712381 0 0.45508065662597141 0.26402805921732958 0 0.46652816171208539 0.25830808769848879 0 0.46665275363318931 0.27127710252775639 0 0.45508065662597141 0.26402805921732958 0 0.46652816171208539 0.25830808769848879 0 0.46665275363318931 0.27127710252775639 0 0.46652816171208539 0.25830808769848879 0 0.48341195364679568 0.26002408893105827 0 0.46652816171208539 0.25830808769848879 0 0.48341195364679568 0.26002408893105827 0 0.47583181488482379 0.2451422378191761 0 0.46665275363318931 0.27127710252775639 0 0.48341195364679568 0.26002408893105827 0 0.48138518434246891 0.28130646820503019 0 0.46665275363318931 0.27127710252775639 0 0.48138518434246891 0.28130646820503019 0 0.46192346945889701 0.28817835066990299 0 0.5 0.26671351767664991 0 0.5 0.29421150971207138 0 0.48138518434246891 0.28130646820503019 0 0.48341195364679568 0.26002408893105827 0 0.5 0.26671351767664991 0 0.48138518434246891 0.28130646820503019 0 0.48341195364679568 0.26002408893105827 0 0.5 0.26671351767664991 0 0.50000000000000067 0.2392155256412283 0 0.5 0.29421150971207138 0 0.47556093647901088 0.30733800586058863 0 0.5 0.32170950174749302 0 0.5 0.29421150971207138 0 0.48138518434246891 0.28130646820503019 0 0.47556093647901088 0.30733800586058863 0 0.48138518434246891 0.28130646820503019 0 0.47556093647901088 0.30733800586058863 0 0.46192346945889701 0.28817835066990299 0 0.47556093647901088 0.30733800586058863 0 0.45214514511688908 0.30370412902975941 0 0.45421880844117613 0.32339126307769928 0 0.47556093647901088 0.30733800586058863 0 0.46192346945889701 0.28817835066990299 0 0.45214514511688908 0.30370412902975941 0 0.46192346945889701 0.28817835066990299 0 0.44120727567718632 0.28746005308771089 0 0.45214514511688908 0.30370412902975941 0 0.45472874274978531 0.27586911806656422 0 0.46192346945889701 0.28817835066990299 0 0.44120727567718632 0.28746005308771089 0 0.42781523552817591 0.31215297245289481 0 0.44120727567718632 0.28746005308771089 0 0.45214514511688908 0.30370412902975941 0 0.42781523552817591 0.31215297245289481 0 0.45421880844117613 0.32339126307769928 0 0.43298436918619881 0.33903622913929549 0 0.42781523552817591 0.31215297245289481 0 0.45214514511688908 0.30370412902975941 0 0.45421880844117613 0.32339126307769928 0 0.42781523552817591 0.31215297245289481 0 0.45421880844117613 0.32339126307769928 0 0.45421880844117613 0.32339126307769928 0 0.45970761232660212 0.34692044601787542 0 0.43298436918619881 0.33903622913929549 0 0.45421880844117613 0.32339126307769928 0 0.48062238135417568 0.33462955370250519 0 0.45421880844117613 0.32339126307769928 0 0.48062238135417568 0.33462955370250519 0 0.45970761232660212 0.34692044601787542 0 0.47556093647901088 0.30733800586058863 0 0.45421880844117613 0.32339126307769928 0 0.48062238135417568 0.33462955370250519 0 0.48062238135417568 0.33462955370250519 0 0.5 0.32170950174749302 0 0.5 0.34920749378291471 0 0.47556093647901088 0.30733800586058863 0 0.48062238135417568 0.33462955370250519 0 0.5 0.32170950174749302 0 0.5 0.34920749378291471 0 0.48254603458521478 0.3522402998402685 0 0.5 0.37670548581833618 0 0.48062238135417568 0.33462955370250519 0 0.5 0.34920749378291471 0 0.48254603458521478 0.3522402998402685 0 0.48254603458521478 0.3522402998402685 0 0.46972057754862501 0.36630584452178799 0 0.45970761232660212 0.34692044601787542 0 0.48062238135417568 0.33462955370250519 0 0.48254603458521478 0.3522402998402685 0 0.45970761232660212 0.34692044601787542 0 0.48254603458521478 0.3522402998402685 0 0.46972057754862501 0.36630584452178799 0 0.5 0.37670548581833618 0 0.46972057754862501 0.36630584452178799 0 0.43815350284422228 0.36591948582569622 0 0.45848938469160699 0.38276388730883248 0 0.46972057754862501 0.36630584452178799 0 0.45970761232660212 0.34692044601787542 0 0.43815350284422228 0.36591948582569622 0 0.45970761232660212 0.34692044601787542 0 0.43815350284422228 0.36591948582569622 0 0.43298436918619881 0.33903622913929549 0 0.43815350284422228 0.36591948582569622 0 0.4167242930516859 0.35972934744593471 0 0.42344095457037051 0.38268701701273461 0 0.4167242930516859 0.35972934744593471 0 0.40101385701800268 0.38518895784325291 0 0.4167242930516859 0.35972934744593471 0 0.40181680918128981 0.35947395412181382 0 0.40101385701800268 0.38518895784325291 0 0.4167242930516859 0.35972934744593471 0 0.40869055031553031 0.33881917925707022 0 0.40181680918128981 0.35947395412181382 0 0.4167242930516859 0.35972934744593471 0 0.43298436918619881 0.33903622913929549 0 0.40869055031553031 0.33881917925707022 0 0.43815350284422228 0.36591948582569622 0 0.4167242930516859 0.35972934744593471 0 0.43298436918619881 0.33903622913929549 0 0.43815350284422228 0.36591948582569622 0 0.43298436918619881 0.33903622913929549 0 0.42781523552817591 0.31215297245289481 0 0.43298436918619881 0.33903622913929549 0 0.42781523552817591 0.31215297245289481 0 0.43298436918619881 0.33903622913929549 0 0.41357021602424721 0.32279281759874212 0 0.43298436918619881 0.33903622913929549 0 0.41357021602424721 0.32279281759874212 0 0.40869055031553031 0.33881917925707022 0 0.40869055031553031 0.33881917925707022 0 0.39369601167170543 0.33564153172070438 0 0.39209274976778918 0.34814598654190299 0 0.40869055031553031 0.33881917925707022 0 0.39369601167170543 0.33564153172070438 0 0.3956366020903157 0.32248231082130752 0 0.39369601167170543 0.33564153172070438 0 0.3956366020903157 0.32248231082130752 0 0.38362385659697051 0.32926172455430031 0 0.39369601167170543 0.33564153172070438 0 0.38635485741833753 0.33883185827426582 0 0.39209274976778918 0.34814598654190299 0 0.41357021602424721 0.32279281759874212 0 0.40869055031553031 0.33881917925707022 0 0.3956366020903157 0.32248231082130752 0 0.4027243230010164 0.30147339632314252 0 0.41357021602424721 0.32279281759874212 0 0.3956366020903157 0.32248231082130752 0 0.3956366020903157 0.32248231082130752 0 0.38754735899376969 0.31282171123814728 0 0.38479800915553353 0.32074741934569512 0 0.38754735899376969 0.31282171123814728 0 0.38479800915553353 0.32074741934569512 0 0.37917338616632867 0.3168755173424983 0 0.3956366020903157 0.32248231082130752 0 0.38479800915553353 0.32074741934569512 0 0.38362385659697051 0.32926172455430031 0 0.38479800915553353 0.32074741934569512 0 0.37832625022041982 0.32264150287239662 0 0.38362385659697051 0.32926172455430031 0 0.37577016905582622 0.32787937856968757 0 0.37832625022041982 0.32264150287239662 0 0.38362385659697051 0.32926172455430031 0 0.37577016905582622 0.32787937856968757 0 0.37506056064123422 0.32471797871916308 0 0.37832625022041982 0.32264150287239662 0 0.37368960646642962 0.31911015363466272 0 0.37506056064123422 0.32471797871916308 0 0.37832625022041982 0.32264150287239662 0 0.37695808612291098 0.31120865645681561 0 0.38754735899376969 0.31282171123814728 0 0.37917338616632867 0.3168755173424983 0 0.38479800915553353 0.32074741934569512 0 0.37832625022041982 0.32264150287239662 0 0.37917338616632867 0.3168755173424983 0 0.37368960646642962 0.31911015363466272 0 0.37832625022041982 0.32264150287239662 0 0.37917338616632867 0.3168755173424983 0 0.37499251130121058 0.31593455150060828 0 0.37368960646642962 0.31911015363466272 0 0.37917338616632867 0.3168755173424983 0 0.37499251130121058 0.31593455150060828 0 0.37695808612291098 0.31120865645681561 0 0.37917338616632867 0.3168755173424983 0 0.38635485741833753 0.33883185827426582 0 0.3795813787571668 0.3363772241379393 0 0.38278029029805521 0.34473282441648212 0 0.39369601167170543 0.33564153172070438 0 0.38635485741833753 0.33883185827426582 0 0.38362385659697051 0.32926172455430031 0 0.38635485741833753 0.33883185827426582 0 0.38362385659697051 0.32926172455430031 0 0.3795813787571668 0.3363772241379393 0 0.37577016905582622 0.32787937856968757 0 0.38362385659697051 0.32926172455430031 0 0.37868435463470768 0.3315773541462857 0 0.38362385659697051 0.32926172455430031 0 0.37868435463470768 0.3315773541462857 0 0.3795813787571668 0.3363772241379393 0 0.37577016905582622 0.32787937856968757 0 0.37868435463470768 0.3315773541462857 0 0.375263113682131 0.33313320718557798 0 0.37868435463470768 0.3315773541462857 0 0.375263113682131 0.33313320718557798 0 0.3795813787571668 0.3363772241379393 0 0.37369311900952262 0.33836265764115908 0 0.3795813787571668 0.3363772241379393 0 0.37670219357667811 0.34177383067972761 0 0.3795813787571668 0.3363772241379393 0 0.37670219357667811 0.34177383067972761 0 0.38278029029805521 0.34473282441648212 0 0.37369311900952262 0.33836265764115908 0 0.375263113682131 0.33313320718557798 0 0.3795813787571668 0.3363772241379393 0 0.3809821990389497 0.35490418517770578 0 0.39056259575344082 0.36548629952090861 0 0.39209274976778918 0.34814598654190299 0 0.37486749369974542 0.34694596905823039 0 0.37670219357667811 0.34177383067972761 0 0.38278029029805521 0.34473282441648212 0 0.37486749369974542 0.34694596905823039 0 0.38278029029805521 0.34473282441648212 0 0.3809821990389497 0.35490418517770578 0 0.38278029029805521 0.34473282441648212 0 0.3809821990389497 0.35490418517770578 0 0.39209274976778918 0.34814598654190299 0 0.38635485741833753 0.33883185827426582 0 0.38278029029805521 0.34473282441648212 0 0.39209274976778918 0.34814598654190299 0 0.37228166628853332 0.35471301169251829 0 0.37486749369974542 0.34694596905823039 0 0.3809821990389497 0.35490418517770578 0 0.37414389550204002 0.36898578533419818 0 0.3809821990389497 0.35490418517770578 0 0.39056259575344082 0.36548629952090861 0 0.37414389550204002 0.36898578533419818 0 0.39056259575344082 0.36548629952090861 0 0.40101385701800268 0.38518895784325291 0 0.37414389550204002 0.36898578533419818 0 0.37228166628853332 0.35471301169251829 0 0.3809821990389497 0.35490418517770578 0 0.39056259575344082 0.36548629952090861 0 0.40181680918128981 0.35947395412181382 0 0.40101385701800268 0.38518895784325291 0 0.39056259575344082 0.36548629952090861 0 0.40181680918128981 0.35947395412181382 0 0.39209274976778918 0.34814598654190299 0 0.40869055031553031 0.33881917925707022 0 0.40181680918128981 0.35947395412181382 0 0.39209274976778918 0.34814598654190299 0 0.40101385701800268 0.38518895784325291 0 0.38530342098431941 0.41064856824057122 0 0.40101385701800268 0.38518895784325291 0 0.38530342098431941 0.41064856824057122 0 0.41521715527738928 0.40390661881175682 0 0.3736470799201031 0.39378130610698531 0 0.37414389550204002 0.36898578533419818 0 0.40101385701800268 0.38518895784325291 0 0.3736470799201031 0.39378130610698531 0 0.40101385701800268 0.38518895784325291 0 0.38530342098431941 0.41064856824057122 0 0.36959298495063608 0.43610817863788948 0 0.38530342098431941 0.41064856824057122 0 0.36959298495063608 0.43610817863788948 0 0.38530342098431941 0.41064856824057122 0 0.3889231515195431 0.43141286456833011 0 0.3889231515195431 0.43141286456833011 0 0.40362265567455102 0.42304679086704539 0 0.39942544658573009 0.43872588670818857 0 0.40362265567455102 0.42304679086704539 0 0.41248490446316177 0.43293377153942381 0 0.39942544658573009 0.43872588670818857 0 0.38530342098431941 0.41064856824057122 0 0.3889231515195431 0.43141286456833011 0 0.40362265567455102 0.42304679086704539 0 0.38530342098431941 0.41064856824057122 0 0.40362265567455102 0.42304679086704539 0 0.41521715527738928 0.40390661881175682 0 0.40362265567455102 0.42304679086704539 0 0.42233359500988371 0.42307221464191669 0 0.41521715527738928 0.40390661881175682 0 0.40362265567455102 0.42304679086704539 0 0.41248490446316177 0.43293377153942381 0 0.42233359500988371 0.42307221464191669 0 0.41248490446316177 0.43293377153942381 0 0.42233359500988371 0.42307221464191669 0 0.42326813014219627 0.43909650749986368 0 0.42233359500988371 0.42307221464191669 0 0.43681876433844857 0.43497208046478802 0 0.42326813014219627 0.43909650749986368 0 0.42233359500988371 0.42307221464191669 0 0.43681876433844857 0.43497208046478802 0 0.43655617137350622 0.42038510460191503 0 0.42233359500988371 0.42307221464191669 0 0.42830887421762198 0.41018013153495869 0 0.41521715527738928 0.40390661881175682 0 0.42233359500988371 0.42307221464191669 0 0.42830887421762198 0.41018013153495869 0 0.43655617137350622 0.42038510460191503 0 0.42830887421762198 0.41018013153495869 0 0.43655617137350622 0.42038510460191503 0 0.439625884597032 0.40642404903869822 0 0.42978568865087441 0.39901034440009059 0 0.42344095457037051 0.38268701701273461 0 0.4433226365022459 0.39280274251209668 0 0.42978568865087441 0.39901034440009059 0 0.41521715527738928 0.40390661881175682 0 0.42344095457037051 0.38268701701273461 0 0.42830887421762198 0.41018013153495869 0 0.42978568865087441 0.39901034440009059 0 0.439625884597032 0.40642404903869822 0 0.42830887421762198 0.41018013153495869 0 0.42978568865087441 0.39901034440009059 0 0.41521715527738928 0.40390661881175682 0 0.4167242930516859 0.35972934744593471 0 0.40101385701800268 0.38518895784325291 0 0.42344095457037051 0.38268701701273461 0 0.40101385701800268 0.38518895784325291 0 0.41521715527738928 0.40390661881175682 0 0.42344095457037051 0.38268701701273461 0 0.43815350284422228 0.36591948582569622 0 0.42344095457037051 0.38268701701273461 0 0.4433226365022459 0.39280274251209668 0 0.43815350284422228 0.36591948582569622 0 0.4433226365022459 0.39280274251209668 0 0.43815350284422228 0.36591948582569622 0 0.4433226365022459 0.39280274251209668 0 0.45848938469160699 0.38276388730883248 0 0.4433226365022459 0.39280274251209668 0 0.4587292321942566 0.40377894109977869 0 0.44849177016026981 0.41968599919849731 0 0.4433226365022459 0.39280274251209668 0 0.44849177016026981 0.41968599919849731 0 0.42978568865087441 0.39901034440009059 0 0.4433226365022459 0.39280274251209668 0 0.439625884597032 0.40642404903869822 0 0.4433226365022459 0.39280274251209668 0 0.4587292321942566 0.40377894109977869 0 0.45848938469160699 0.38276388730883248 0 0.4587292321942566 0.40377894109977869 0 0.45848938469160699 0.38276388730883248 0 0.47720201034463561 0.39055994944820821 0 0.46972057754862501 0.36630584452178799 0 0.45848938469160699 0.38276388730883248 0 0.47720201034463561 0.39055994944820821 0 0.46972057754862501 0.36630584452178799 0 0.47720201034463561 0.39055994944820821 0 0.5 0.37670548581833618 0 0.47720201034463561 0.39055994944820821 0 0.5 0.40420347785375749 0 0.47329291580914951 0.41490179660840648 0 0.4587292321942566 0.40377894109977869 0 0.47720201034463561 0.39055994944820821 0 0.47329291580914951 0.41490179660840648 0 0.47720201034463561 0.39055994944820821 0 0.5 0.40420347785375749 0 0.5 0.37670548581833618 0 0.48546521128148462 0.42572005307568972 0 0.49999999999999828 0.43170146988917901 0 0.48502495584706629 0.44181750450007778 0 0.49999999999999828 0.43170146988917901 0 0.48502495584706629 0.44181750450007778 0 0.5 0.40420347785375749 0 0.48546521128148462 0.42572005307568972 0 0.47329291580914951 0.41490179660840648 0 0.5 0.40420347785375749 0 0.48546521128148462 0.42572005307568972 0 0.49999999999999828 0.43170146988917901 0 0.48546521128148462 0.42572005307568972 0 0.47462076711180717 0.43403653248997731 0 0.48502495584706629 0.44181750450007778 0 0.47329291580914951 0.41490179660840648 0 0.47462076711180717 0.43403653248997731 0 0.45927084092720188 0.43580976915473651 0 0.48546521128148462 0.42572005307568972 0 0.47329291580914951 0.41490179660840648 0 0.47462076711180717 0.43403653248997731 0 0.45927084092720188 0.43580976915473651 0 0.44849177016026981 0.41968599919849731 0 0.47329291580914951 0.41490179660840648 0 0.45927084092720188 0.43580976915473651 0 0.44849177016026981 0.41968599919849731 0 0.45927084092720188 0.43580976915473651 0 0.44849177016026981 0.41968599919849731 0 0.45165089640657707 0.43611575462809582 0 0.4587292321942566 0.40377894109977869 0 0.47329291580914951 0.41490179660840648 0 0.44849177016026981 0.41968599919849731 0 0.4433226365022459 0.39280274251209668 0 0.44849177016026981 0.41968599919849731 0 0.439625884597032 0.40642404903869822 0 0.43655617137350622 0.42038510460191503 0 0.44849177016026981 0.41968599919849731 0 0.439625884597032 0.40642404903869822 0 0.44849177016026981 0.41968599919849731 0 0.439625884597032 0.40642404903869822 0 0.44849177016026981 0.41968599919849731 0 0.45165089640657707 0.43611575462809582 0 0.44386952542921521 0.4295111469185629 0 0.44849177016026981 0.41968599919849731 0 0.45165089640657707 0.43611575462809582 0 0.45165089640657707 0.43611575462809582 0 0.44386952542921521 0.4295111469185629 0 0.44519082659473158 0.43782150968735878 0 0.43655617137350622 0.42038510460191503 0 0.44849177016026981 0.41968599919849731 0 0.44386952542921521 0.4295111469185629 0 0.43681876433844857 0.43497208046478802 0 0.43655617137350622 0.42038510460191503 0 0.44386952542921521 0.4295111469185629 0 0.43681876433844857 0.43497208046478802 0 0.44386952542921521 0.4295111469185629 0 0.44519082659473158 0.43782150968735878 0 0.43681876433844857 0.43497208046478802 0 0.44519082659473158 0.43782150968735878 0 0.44362096681603608 0.44566090358066651 0 0.43681876433844857 0.43497208046478802 0 0.44362096681603608 0.44566090358066651 0 0.43343701099378978 0.44857281610427868 0 0.44362096681603608 0.44566090358066651 0 0.44110505044236059 0.45564825146568327 0 0.43343701099378978 0.44857281610427868 0 0.44362096681603608 0.44566090358066651 0 0.45255374853073171 0.45216262504332899 0 0.45221828903371142 0.44335246171580328 0 0.44362096681603608 0.44566090358066651 0 0.45255374853073171 0.45216262504332899 0 0.44110505044236059 0.45564825146568327 0 0.44519082659473158 0.43782150968735878 0 0.44362096681603608 0.44566090358066651 0 0.45221828903371142 0.44335246171580328 0 0.45165089640657707 0.43611575462809582 0 0.44519082659473158 0.43782150968735878 0 0.45221828903371142 0.44335246171580328 0 0.45255374853073171 0.45216262504332899 0 0.44518446721829791 0.46873079822848901 0 0.44110505044236059 0.45564825146568327 0 0.44518446721829791 0.46873079822848901 0 0.44110505044236059 0.45564825146568327 0 0.43072905865294731 0.46311411437165317 0 0.47284597636140308 0.45611600571247141 0 0.46302896313844299 0.47272331085799019 0 0.45255374853073171 0.45216262504332899 0 0.44518446721829791 0.46873079822848901 0 0.47004991169413368 0.45193353911097589 0 0.47004991169413368 0.45193353911097589 0 0.47284597636140308 0.45611600571247141 0 0.46302896313844299 0.47272331085799019 0 0.44518446721829791 0.46873079822848901 0 0.47004991169413368 0.45193353911097589 0 0.46302896313844299 0.47272331085799019 0 0.44518446721829791 0.46873079822848901 0 0.47004991169413368 0.45193353911097589 0 0.45927084092720188 0.43580976915473651 0 0.47004991169413368 0.45193353911097589 0 0.45927084092720188 0.43580976915473651 0 0.45930684530103161 0.44617181272829648 0 0.47004991169413368 0.45193353911097589 0 0.47462076711180717 0.43403653248997731 0 0.45927084092720188 0.43580976915473651 0 0.47004991169413368 0.45193353911097589 0 0.45255374853073171 0.45216262504332899 0 0.45930684530103161 0.44617181272829648 0 0.47004991169413368 0.45193353911097589 0 0.45927084092720188 0.43580976915473651 0 0.45221828903371142 0.44335246171580328 0 0.45930684530103161 0.44617181272829648 0 0.45927084092720188 0.43580976915473651 0 0.45165089640657707 0.43611575462809582 0 0.45221828903371142 0.44335246171580328 0 0.45255374853073171 0.45216262504332899 0 0.45221828903371142 0.44335246171580328 0 0.45930684530103161 0.44617181272829648 0 0.47462076711180717 0.43403653248997731 0 0.47004991169413368 0.45193353911097589 0 0.48502495584706629 0.44181750450007778 0 0.48189680466807888 0.45106209462173341 0 0.47450081081676521 0.45331654521044668 0 0.48502495584706629 0.44181750450007778 0 0.47004991169413368 0.45193353911097589 0 0.48502495584706629 0.44181750450007778 0 0.47004991169413368 0.45193353911097589 0 0.47450081081676521 0.45331654521044668 0 0.48502495584706629 0.44181750450007778 0 0.47284597636140308 0.45611600571247141 0 0.48050552008400071 0.46757346096286262 0 0.46302896313844299 0.47272331085799019 0 0.47004991169413368 0.45193353911097589 0 0.47284597636140308 0.45611600571247141 0 0.47004991169413368 0.45193353911097589 0 0.47450081081676521 0.45331654521044668 0 0.47284597636140308 0.45611600571247141 0 0.47450081081676521 0.45331654521044668 0 0.47284597636140308 0.45611600571247141 0 0.47951191807974908 0.45654698881850991 0 0.47450081081676521 0.45331654521044668 0 0.47284597636140308 0.45611600571247141 0 0.47284597636140308 0.45611600571247141 0 0.48050552008400071 0.46757346096286262 0 0.47284597636140308 0.45611600571247141 0 0.48050552008400071 0.46757346096286262 0 0.47951191807974908 0.45654698881850991 0 0.48189680466807888 0.45106209462173341 0 0.47951191807974908 0.45654698881850991 0 0.4878104784684959 0.4546668375850359 0 0.48050552008400071 0.46757346096286262 0 0.47951191807974908 0.45654698881850991 0 0.4878104784684959 0.4546668375850359 0 0.48189680466807888 0.45106209462173341 0 0.47450081081676521 0.45331654521044668 0 0.47951191807974908 0.45654698881850991 0 0.48050552008400071 0.46757346096286262 0 0.4878104784684959 0.4546668375850359 0 0.49999999999999928 0.46182898591187349 0 0.48050552008400071 0.46757346096286262 0 0.49999999999999928 0.46182898591187349 0 0.49999999999999828 0.43170146988917901 0 0.4878104784684959 0.4546668375850359 0 0.49999999999999928 0.46182898591187349 0 0.49999999999999828 0.43170146988917901 0 0.4878104784684959 0.4546668375850359 0 0.48502495584706629 0.44181750450007778 0 0.48189680466807888 0.45106209462173341 0 0.4878104784684959 0.4546668375850359 0 0.48502495584706629 0.44181750450007778 0 0.49999999999999928 0.46182898591187349 0 0.5 0.5 0 0.49753071700976492 0.4930404390193398 0 0.5 0.5 0 0.47501141284236448 0.48698608464618232 0 0.44690499747156931 0.4999999999999995 0 0.5 0.5 0 0.49753071700976492 0.4930404390193398 0 0.47501141284236448 0.48698608464618232 0 0.49753071700976492 0.4930404390193398 0 0.48901811854688337 0.4803069499911008 0 0.47501141284236448 0.48698608464618232 0 0.49753071700976492 0.4930404390193398 0 0.48901811854688337 0.4803069499911008 0 0.48050552008400071 0.46757346096286262 0 0.49999999999999928 0.46182898591187349 0 0.48901811854688337 0.4803069499911008 0 0.49999999999999928 0.46182898591187349 0 0.49753071700976492 0.4930404390193398 0 0.48901811854688337 0.4803069499911008 0 0.48050552008400071 0.46757346096286262 0 0.48901811854688337 0.4803069499911008 0 0.48050552008400071 0.46757346096286262 0 0.46302896313844299 0.47272331085799019 0 0.48901811854688337 0.4803069499911008 0 0.47689100365292297 0.47689745161453417 0 0.47501141284236448 0.48698608464618232 0 0.48050552008400071 0.46757346096286262 0 0.47689100365292297 0.47689745161453417 0 0.46302896313844299 0.47272331085799019 0 0.48050552008400071 0.46757346096286262 0 0.48901811854688337 0.4803069499911008 0 0.47689100365292297 0.47689745161453417 0 0.47689100365292297 0.47689745161453417 0 0.47501141284236448 0.48698608464618232 0 0.46302896313844299 0.47272331085799019 0 0.47501141284236448 0.48698608464618232 0 0.45496698030500621 0.48636165542899479 0 0.44690499747156931 0.4999999999999995 0 0.47501141284236448 0.48698608464618232 0 0.45496698030500621 0.48636165542899479 0 0.46302896313844299 0.47272331085799019 0 0.45496698030500621 0.48636165542899479 0 0.46302896313844299 0.47272331085799019 0 0.46302896313844299 0.47272331085799019 0 0.43620850627812668 0.48062654530969717 0 0.44518446721829791 0.46873079822848901 0 0.46302896313844299 0.47272331085799019 0 0.43620850627812668 0.48062654530969717 0 0.45496698030500621 0.48636165542899479 0 0.46302896313844299 0.47272331085799019 0 0.43620850627812668 0.48062654530969717 0 0.45496698030500621 0.48636165542899479 0 0.44690499747156931 0.4999999999999995 0 0.43620850627812668 0.48062654530969717 0 0.45496698030500621 0.48636165542899479 0 0.44690499747156931 0.4999999999999995 0 0.42031902274246069 0.48552805734600057 0 0.41743852268843429 0.5 0 0.43620850627812668 0.48062654530969717 0 0.44690499747156931 0.4999999999999995 0 0.41743852268843429 0.5 0 0.43620850627812668 0.48062654530969717 0 0.42031902274246069 0.48552805734600057 0 0.41743852268843429 0.5 0 0.40134209412993838 0.48520307466421098 0 0.42031902274246069 0.48552805734600057 0 0.40973563488985532 0.47579104778557152 0 0.40134209412993838 0.48520307466421098 0 0.42031902274246069 0.48552805734600057 0 0.40973563488985532 0.47579104778557152 0 0.41789473538963601 0.46705380048502582 0 0.44518446721829791 0.46873079822848901 0 0.42031902274246069 0.48552805734600057 0 0.43072905865294731 0.46311411437165317 0 0.44518446721829791 0.46873079822848901 0 0.42031902274246069 0.48552805734600057 0 0.43620850627812668 0.48062654530969717 0 0.44518446721829791 0.46873079822848901 0 0.42031902274246069 0.48552805734600057 0 0.42031902274246069 0.48552805734600057 0 0.43072905865294731 0.46311411437165317 0 0.41789473538963601 0.46705380048502582 0 0.44110505044236059 0.45564825146568327 0 0.43072905865294731 0.46311411437165317 0 0.43343701099378978 0.44857281610427868 0 0.43072905865294731 0.46311411437165317 0 0.43343701099378978 0.44857281610427868 0 0.42053980660522761 0.45341513910658388 0 0.43072905865294731 0.46311411437165317 0 0.41789473538963601 0.46705380048502582 0 0.42053980660522761 0.45341513910658388 0 0.43681876433844857 0.43497208046478802 0 0.43343701099378978 0.44857281610427868 0 0.42326813014219627 0.43909650749986368 0 0.43343701099378978 0.44857281610427868 0 0.42326813014219627 0.43909650749986368 0 0.42053980660522761 0.45341513910658388 0 0.41248490446316177 0.43293377153942381 0 0.42326813014219627 0.43909650749986368 0 0.41215324011006321 0.44426916471351768 0 0.42326813014219627 0.43909650749986368 0 0.41215324011006321 0.44426916471351768 0 0.42053980660522761 0.45341513910658388 0 0.41215324011006321 0.44426916471351768 0 0.42053980660522761 0.45341513910658388 0 0.40575666434273311 0.45838443146516472 0 0.41248490446316177 0.43293377153942381 0 0.41215324011006321 0.44426916471351768 0 0.39942544658573009 0.43872588670818857 0 0.40973563488985532 0.47579104778557152 0 0.41789473538963601 0.46705380048502582 0 0.40575666434273311 0.45838443146516472 0 0.41789473538963601 0.46705380048502582 0 0.42053980660522761 0.45341513910658388 0 0.40575666434273311 0.45838443146516472 0 0.40973563488985532 0.47579104778557152 0 0.40575666434273311 0.45838443146516472 0 0.39457326129307041 0.46924519202038539 0 0.40575666434273311 0.45838443146516472 0 0.38748492612950952 0.44892285829301931 0 0.39457326129307041 0.46924519202038539 0 0.40575666434273311 0.45838443146516472 0 0.39942544658573009 0.43872588670818857 0 0.38748492612950952 0.44892285829301931 0 0.3889231515195431 0.43141286456833011 0 0.39942544658573009 0.43872588670818857 0 0.38748492612950952 0.44892285829301931 0 0.41215324011006321 0.44426916471351768 0 0.40575666434273311 0.45838443146516472 0 0.39942544658573009 0.43872588670818857 0 0.36980735363827261 0.46050290225189661 0 0.36959298495063608 0.43610817863788948 0 0.38748492612950952 0.44892285829301931 0 0.36959298495063608 0.43610817863788948 0 0.3889231515195431 0.43141286456833011 0 0.38748492612950952 0.44892285829301931 0 0.36980735363827261 0.46050290225189661 0 0.38748492612950952 0.44892285829301931 0 0.39457326129307041 0.46924519202038539 0 0.36980735363827261 0.46050290225189661 0 0.37801407526051067 0.48065415083330842 0 0.39457326129307041 0.46924519202038539 0 0.37801407526051067 0.48065415083330842 0 0.38797204790529932 0.5 0 0.40134209412993838 0.48520307466421098 0 0.41743852268843429 0.5 0 0.38797204790529932 0.5 0 0.40134209412993838 0.48520307466421098 0 0.40973563488985532 0.47579104778557152 0 0.40134209412993838 0.48520307466421098 0 0.39457326129307041 0.46924519202038539 0 0.37801407526051067 0.48065415083330842 0 0.40134209412993838 0.48520307466421098 0 0.39457326129307041 0.46924519202038539 0 0.33471388977496319 0.083869725553476451 0 0.32003772732572838 0.080925826065863432 0 0.34163206045391592 0.099703108374672819 0 0.32003772732572838 0.080925826065863432 0 0.34163206045391592 0.099703108374672819 0 0.33471388977496319 0.083869725553476451 0 0.34163206045391592 0.099703108374672819 0 0.35085433501378249 0.086695181415402722 0 0.33471388977496319 0.083869725553476451 0 0.34209731100959018 0.06531632876058778 0 0.3490795063897344 0.076610282135673974 0 0.33471388977496319 0.083869725553476451 0 0.34209731100959018 0.06531632876058778 0 0.32721969837032222 0.069259436753723466 0 0.33471388977496319 0.083869725553476451 0 0.32721969837032222 0.069259436753723466 0 0.32003772732572838 0.080925826065863432 0 0.31518448171420999 0.065085558788002928 0 0.32721969837032222 0.069259436753723466 0 0.32003772732572838 0.080925826065863432 0 0.32003772732572838 0.080925826065863432 0 0.31657863646219547 0.093324099257994786 0 0.34163206045391592 0.099703108374672819 0 0.32003772732572838 0.080925826065863432 0 0.31657863646219547 0.093324099257994786 0 0.30227411453462139 0.089652133027170247 0 0.33471388977496319 0.083869725553476451 0 0.32003772732572838 0.080925826065863432 0 0.31657863646219547 0.093324099257994786 0 0.32025759602694659 0.1047776340902011 0 0.34163206045391592 0.099703108374672819 0 0.31657863646219547 0.093324099257994786 0 0.32025759602694659 0.1047776340902011 0 0.30640852481201453 0.1024735992044304 0 0.32025759602694659 0.1047776340902011 0 0.31114536757858358 0.11742006929579971 0 0.30640852481201453 0.1024735992044304 0 0.32606950933900308 0.1158177097477945 0 0.31114536757858358 0.11742006929579971 0 0.3195478300457561 0.1332621056988223 0 0.32025759602694659 0.1047776340902011 0 0.32606950933900308 0.1158177097477945 0 0.31114536757858358 0.11742006929579971 0 0.33761965874988609 0.1186889285033586 0 0.34163206045391592 0.099703108374672819 0 0.34956654336434939 0.1234914401014125 0 0.32606950933900308 0.1158177097477945 0 0.33761965874988609 0.1186889285033586 0 0.34163206045391592 0.099703108374672819 0 0.32606950933900308 0.1158177097477945 0 0.33761965874988609 0.1186889285033586 0 0.33436770153514289 0.13112975471366969 0 0.33761965874988609 0.1186889285033586 0 0.34956654336434939 0.1234914401014125 0 0.33436770153514289 0.13112975471366969 0 0.32025759602694659 0.1047776340902011 0 0.32606950933900308 0.1158177097477945 0 0.34163206045391592 0.099703108374672819 0 0.34163206045391592 0.099703108374672819 0 0.35755874922647762 0.098360434014750309 0 0.36322639358210312 0.11848039068348271 0 0.34163206045391592 0.099703108374672819 0 0.36322639358210312 0.11848039068348271 0 0.34163206045391592 0.099703108374672819 0 0.35755874922647762 0.098360434014750309 0 0.35085433501378249 0.086695181415402722 0 0.34163206045391592 0.099703108374672819 0 0.34956654336434939 0.1234914401014125 0 0.36322639358210312 0.11848039068348271 0 0.36322639358210312 0.11848039068348271 0 0.37045299287494049 0.09679375479102828 0 0.38005682511468147 0.12140739343396729 0 0.35755874922647762 0.098360434014750309 0 0.36322639358210312 0.11848039068348271 0 0.37045299287494049 0.09679375479102828 0 0.35755874922647762 0.098360434014750309 0 0.37045299287494049 0.09679375479102828 0 0.35979627253246887 0.087956112087811941 0 0.37045299287494049 0.09679375479102828 0 0.36986657419494789 0.075759843690150083 0 0.37682589963749002 0.081332762740894418 0 0.37045299287494049 0.09679375479102828 0 0.35979627253246887 0.087956112087811941 0 0.36084916063519962 0.072180116148089279 0 0.37045299287494049 0.09679375479102828 0 0.36084916063519962 0.072180116148089279 0 0.36986657419494789 0.075759843690150083 0 0.37045299287494049 0.09679375479102828 0 0.36084916063519962 0.072180116148089279 0 0.35755874922647762 0.098360434014750309 0 0.35979627253246887 0.087956112087811941 0 0.35085433501378249 0.086695181415402722 0 0.35979627253246887 0.087956112087811941 0 0.35560274156159061 0.081403828627082772 0 0.36084916063519962 0.072180116148089279 0 0.33471388977496319 0.083869725553476451 0 0.35085433501378249 0.086695181415402722 0 0.3490795063897344 0.076610282135673974 0 0.35979627253246887 0.087956112087811941 0 0.35560274156159061 0.081403828627082772 0 0.35085433501378249 0.086695181415402722 0 0.35560274156159061 0.081403828627082772 0 0.35085433501378249 0.086695181415402722 0 0.3490795063897344 0.076610282135673974 0 0.34209731100959018 0.06531632876058778 0 0.3490795063897344 0.076610282135673974 0 0.36084916063519962 0.072180116148089279 0 0.36448270712015302 0.068442951443566186 0 0.36084916063519962 0.072180116148089279 0 0.35124532839545858 0.047566477505150237 0 0.35560274156159061 0.081403828627082772 0 0.3490795063897344 0.076610282135673974 0 0.36084916063519962 0.072180116148089279 0 0.36448270712015302 0.068442951443566186 0 0.36084916063519962 0.072180116148089279 0 0.36986657419494789 0.075759843690150083 0 0.36986657419494789 0.075759843690150083 0 0.37596532967213542 0.069868995675824025 0 0.37682589963749002 0.081332762740894418 0 0.36448270712015302 0.068442951443566186 0 0.36986657419494789 0.075759843690150083 0 0.37084641292541748 0.06878424193773866 0 0.36986657419494789 0.075759843690150083 0 0.37084641292541748 0.06878424193773866 0 0.37596532967213542 0.069868995675824025 0 0.36448270712015302 0.068442951443566186 0 0.37084641292541748 0.06878424193773866 0 0.37307104071443398 0.061065176941414383 0 0.37084641292541748 0.06878424193773866 0 0.37307104071443398 0.061065176941414383 0 0.37596532967213542 0.069868995675824025 0 0.36448270712015302 0.068442951443566186 0 0.37307104071443398 0.061065176941414383 0 0.37146335928247548 0.04052602251159599 0 0.36448270712015302 0.068442951443566186 0 0.37146335928247548 0.04052602251159599 0 0.35124532839545858 0.047566477505150237 0 0.36448270712015302 0.068442951443566186 0 0.37146335928247548 0.04052602251159599 0 0.37146335928247548 0.04052602251159599 0 0.35572529983931911 0.032753521421585163 0 0.36312657459820519 0.022962182453169309 0 0.37146335928247548 0.04052602251159599 0 0.35572529983931911 0.032753521421585163 0 0.35124532839545858 0.047566477505150237 0 0.35572529983931911 0.032753521421585163 0 0.35124532839545858 0.047566477505150237 0 0.3321968515854315 0.028027004478648001 0 0.36084916063519962 0.072180116148089279 0 0.35124532839545858 0.047566477505150237 0 0.34209731100959018 0.06531632876058778 0 0.36084916063519962 0.072180116148089279 0 0.35124532839545858 0.047566477505150237 0 0.36312657459820519 0.022962182453169309 0 0.35936362748920009 0.0091271431172253586 0 0.37844401144479839 0.012609093579625891 0 0.35936362748920009 0.0091271431172253586 0 0.37844401144479839 0.012609093579625891 0 0.36665723294200347 -0.001883505129568449 0 0.35936362748920009 0.0091271431172253586 0 0.36665723294200347 -0.001883505129568449 0 0.35531676971978082 -0.0033532784323768001 0 0.37146335928247548 0.04052602251159599 0 0.36312657459820519 0.022962182453169309 0 0.37844401144479839 0.012609093579625891 0 0.37146335928247548 0.04052602251159599 0 0.37844401144479839 0.012609093579625891 0 0.35572529983931911 0.032753521421585163 0 0.35063657493523293 0.0197951316358141 0 0.3321968515854315 0.028027004478648001 0 0.35572529983931911 0.032753521421585163 0 0.36312657459820519 0.022962182453169309 0 0.35063657493523293 0.0197951316358141 0 0.36312657459820519 0.022962182453169309 0 0.35063657493523293 0.0197951316358141 0 0.35936362748920009 0.0091271431172253586 0 0.35936362748920009 0.0091271431172253586 0 0.33689267375143878 0.0039255003288513873 0 0.35531676971978082 -0.0033532784323768001 0 0.35063657493523293 0.0197951316358141 0 0.35936362748920009 0.0091271431172253586 0 0.33689267375143878 0.0039255003288513873 0 0.33689267375143878 0.0039255003288513873 0 0.3321968515854315 0.028027004478648001 0 0.30352242257352219 0.0039185454548519476 0 0.35063657493523293 0.0197951316358141 0 0.33689267375143878 0.0039255003288513873 0 0.3321968515854315 0.028027004478648001 0 0.3321968515854315 0.028027004478648001 0 0.32406508202711942 0.05109974460068676 0 0.30086563814790429 0.035038583275740692 0 0.34209731100959018 0.06531632876058778 0 0.32721969837032222 0.069259436753723466 0 0.32406508202711942 0.05109974460068676 0 0.34209731100959018 0.06531632876058778 0 0.35124532839545858 0.047566477505150237 0 0.32406508202711942 0.05109974460068676 0 0.35124532839545858 0.047566477505150237 0 0.3321968515854315 0.028027004478648001 0 0.32406508202711942 0.05109974460068676 0 0.31518448171420999 0.065085558788002928 0 0.32721969837032222 0.069259436753723466 0 0.32406508202711942 0.05109974460068676 0 0.31518448171420999 0.065085558788002928 0 0.32406508202711942 0.05109974460068676 0 0.29882370077581188 0.062479238108283437 0 0.32406508202711942 0.05109974460068676 0 0.29882370077581188 0.062479238108283437 0 0.30086563814790429 0.035038583275740692 0 0.32406508202711942 0.05109974460068676 0 0.30086563814790429 0.035038583275740692 0 0.30086563814790429 0.035038583275740692 0 0.28350496565293731 0.043820562147367653 0 0.27766619426868899 0.018977421950794569 0 0.29882370077581188 0.062479238108283437 0 0.30086563814790429 0.035038583275740692 0 0.28350496565293731 0.043820562147367653 0 0.29882370077581188 0.062479238108283437 0 0.28350496565293731 0.043820562147367653 0 0.28339325744793759 0.061338593161917712 0 0.3321968515854315 0.028027004478648001 0 0.30086563814790429 0.035038583275740692 0 0.30352242257352219 0.0039185454548519476 0 0.30086563814790429 0.035038583275740692 0 0.27766619426868899 0.018977421950794569 0 0.30086563814790429 0.035038583275740692 0 0.30352242257352219 0.0039185454548519476 0 0.27766619426868899 0.018977421950794569 0 0.30352242257352219 0.0039185454548519476 0 0.27766619426868899 0.018977421950794569 0 0.27708695819087842 -0.0025378708656911609 0 0.27766619426868899 0.018977421950794569 0 0.25446675038947358 0.0029162606258486688 0 0.27766619426868899 0.018977421950794569 0 0.26047117107291767 -0.0019720443344692288 0 0.27708695819087842 -0.0025378708656911609 0 0.27766619426868899 0.018977421950794569 0 0.2600935707136679 0.019574361616358959 0 0.26464981823601458 0.038183209123269009 0 0.2600935707136679 0.019574361616358959 0 0.26464981823601458 0.038183209123269009 0 0.25044211127373811 0.032849993626191502 0 0.27766619426868899 0.018977421950794569 0 0.2600935707136679 0.019574361616358959 0 0.25446675038947358 0.0029162606258486688 0 0.27766619426868899 0.018977421950794569 0 0.25446675038947358 0.0029162606258486688 0 0.26047117107291767 -0.0019720443344692288 0 0.25446675038947358 0.0029162606258486688 0 0.26047117107291767 -0.0019720443344692288 0 0.28339325744793759 0.061338593161917712 0 0.2699795556074106 0.054659435659755229 0 0.26514968559830832 0.069915803624621298 0 0.28350496565293731 0.043820562147367653 0 0.28339325744793759 0.061338593161917712 0 0.2699795556074106 0.054659435659755229 0 0.28350496565293731 0.043820562147367653 0 0.27766619426868899 0.018977421950794569 0 0.26464981823601458 0.038183209123269009 0 0.28350496565293731 0.043820562147367653 0 0.2699795556074106 0.054659435659755229 0 0.26464981823601458 0.038183209123269009 0 0.26464981823601458 0.038183209123269009 0 0.25174039047255609 0.044464402284776217 0 0.2585751734657834 0.052327775232976027 0 0.26464981823601458 0.038183209123269009 0 0.25044211127373811 0.032849993626191502 0 0.25174039047255609 0.044464402284776217 0 0.25174039047255609 0.044464402284776217 0 0.25102243244437311 0.053297338652025752 0 0.2585751734657834 0.052327775232976027 0 0.2699795556074106 0.054659435659755229 0 0.26464981823601458 0.038183209123269009 0 0.2585751734657834 0.052327775232976027 0 0.2699795556074106 0.054659435659755229 0 0.2585751734657834 0.052327775232976027 0 0.26000268679747079 0.061003988239662958 0 0.2699795556074106 0.054659435659755229 0 0.26000268679747079 0.061003988239662958 0 0.26514968559830832 0.069915803624621298 0 0.2585751734657834 0.052327775232976027 0 0.26000268679747079 0.061003988239662958 0 0.2530174900015254 0.0600809219264858 0 0.25102243244437311 0.053297338652025752 0 0.2585751734657834 0.052327775232976027 0 0.2530174900015254 0.0600809219264858 0 0.24751669685985911 0.059618880130872708 0 0.25102243244437311 0.053297338652025752 0 0.2530174900015254 0.0600809219264858 0 0.24853219730195361 0.063845178725116872 0 0.2530174900015254 0.0600809219264858 0 0.25274476311700622 0.067427493409812952 0 0.2530174900015254 0.0600809219264858 0 0.25274476311700622 0.067427493409812952 0 0.26000268679747079 0.061003988239662958 0 0.2530174900015254 0.0600809219264858 0 0.25274476311700622 0.067427493409812952 0 0.25274476311700622 0.067427493409812952 0 0.25243039498113262 0.075895774732197205 0 0.24842415088314279 0.069033451464499671 0 0.25274476311700622 0.067427493409812952 0 0.25243039498113262 0.075895774732197205 0 0.25274476311700622 0.067427493409812952 0 0.25243039498113262 0.075895774732197205 0 0.26514968559830832 0.069915803624621298 0 0.25243039498113262 0.075895774732197205 0 0.26514968559830832 0.069915803624621298 0 0.26417250328098718 0.085299079350852347 0 0.25243039498113262 0.075895774732197205 0 0.26514968559830832 0.069915803624621298 0 0.26000268679747079 0.061003988239662958 0 0.25274476311700622 0.067427493409812952 0 0.26514968559830832 0.069915803624621298 0 0.25274476311700622 0.067427493409812952 0 0.26514968559830832 0.069915803624621298 0 0.25243039498113262 0.075895774732197205 0 0.26417250328098718 0.085299079350852347 0 0.25158482098595109 0.098673396421397969 0 0.25243039498113262 0.075895774732197205 0 0.25158482098595109 0.098673396421397969 0 0.26417250328098718 0.085299079350852347 0 0.27563544099652842 0.091217529053328833 0 0.26597619666038957 0.098681263799979324 0 0.26417250328098718 0.085299079350852347 0 0.27658940398852799 0.081360569412953818 0 0.27563544099652842 0.091217529053328833 0 0.26514968559830832 0.069915803624621298 0 0.26417250328098718 0.085299079350852347 0 0.27658940398852799 0.081360569412953818 0 0.27658940398852799 0.081360569412953818 0 0.27563544099652842 0.091217529053328833 0 0.28742128170162778 0.087331448045782731 0 0.28339325744793759 0.061338593161917712 0 0.26514968559830832 0.069915803624621298 0 0.29259370646201821 0.075420814845242989 0 0.26514968559830832 0.069915803624621298 0 0.27658940398852799 0.081360569412953818 0 0.29259370646201821 0.075420814845242989 0 0.28339325744793759 0.061338593161917712 0 0.26514968559830832 0.069915803624621298 0 0.26514968559830832 0.069915803624621298 0 0.29259370646201821 0.075420814845242989 0 0.29882370077581188 0.062479238108283437 0 0.28339325744793759 0.061338593161917712 0 0.29259370646201821 0.075420814845242989 0 0.27658940398852799 0.081360569412953818 0 0.29259370646201821 0.075420814845242989 0 0.28742128170162778 0.087331448045782731 0 0.27563544099652842 0.091217529053328833 0 0.28742128170162778 0.087331448045782731 0 0.29001374252644291 0.099006193890217781 0 0.28742128170162778 0.087331448045782731 0 0.30227411453462139 0.089652133027170247 0 0.29001374252644291 0.099006193890217781 0 0.29259370646201821 0.075420814845242989 0 0.28742128170162778 0.087331448045782731 0 0.30227411453462139 0.089652133027170247 0 0.32003772732572838 0.080925826065863432 0 0.29259370646201821 0.075420814845242989 0 0.30227411453462139 0.089652133027170247 0 0.32003772732572838 0.080925826065863432 0 0.29259370646201821 0.075420814845242989 0 0.32003772732572838 0.080925826065863432 0 0.29882370077581188 0.062479238108283437 0 0.29259370646201821 0.075420814845242989 0 0.32003772732572838 0.080925826065863432 0 0.29882370077581188 0.062479238108283437 0 0.31518448171420999 0.065085558788002928 0 0.32003772732572838 0.080925826065863432 0 0.29882370077581188 0.062479238108283437 0 0.29818169174329712 0.11066146566519899 0 0.31114536757858358 0.11742006929579971 0 0.294250496481684 0.12267566802032639 0 0.31114536757858358 0.11742006929579971 0 0.294250496481684 0.12267566802032639 0 0.30313841955192899 0.13260249050964579 0 0.29818169174329712 0.11066146566519899 0 0.31114536757858358 0.11742006929579971 0 0.30640852481201453 0.1024735992044304 0 0.30227411453462139 0.089652133027170247 0 0.30640852481201453 0.1024735992044304 0 0.29001374252644291 0.099006193890217781 0 0.29818169174329712 0.11066146566519899 0 0.30640852481201453 0.1024735992044304 0 0.29001374252644291 0.099006193890217781 0 0.31657863646219547 0.093324099257994786 0 0.30227411453462139 0.089652133027170247 0 0.30640852481201453 0.1024735992044304 0 0.29818169174329712 0.11066146566519899 0 0.29001374252644291 0.099006193890217781 0 0.28729541733308872 0.1128284558108848 0 0.29001374252644291 0.099006193890217781 0 0.28729541733308872 0.1128284558108848 0 0.27577858748266387 0.1072301355245756 0 0.29818169174329712 0.11066146566519899 0 0.28729541733308872 0.1128284558108848 0 0.294250496481684 0.12267566802032639 0 0.28729541733308872 0.1128284558108848 0 0.294250496481684 0.12267566802032639 0 0.28067449336876182 0.1220521091494646 0 0.28067449336876182 0.1220521091494646 0 0.26956705708048567 0.1198361090660386 0 0.27577858748266387 0.1072301355245756 0 0.28729541733308872 0.1128284558108848 0 0.28067449336876182 0.1220521091494646 0 0.27577858748266387 0.1072301355245756 0 0.26956705708048567 0.1198361090660386 0 0.27577858748266387 0.1072301355245756 0 0.26270963055581759 0.11098617864974181 0 0.27563544099652842 0.091217529053328833 0 0.27577858748266387 0.1072301355245756 0 0.26597619666038957 0.098681263799979324 0 0.27563544099652842 0.091217529053328833 0 0.29001374252644291 0.099006193890217781 0 0.27577858748266387 0.1072301355245756 0 0.27577858748266387 0.1072301355245756 0 0.26597619666038957 0.098681263799979324 0 0.26270963055581759 0.11098617864974181 0 0.25158482098595109 0.098673396421397969 0 0.25094552198087999 0.11589449234768209 0 0.25158482098595109 0.098673396421397969 0 0.26270963055581759 0.11098617864974181 0 0.25094552198087999 0.11589449234768209 0 0.26417250328098718 0.085299079350852347 0 0.26597619666038957 0.098681263799979324 0 0.25158482098595109 0.098673396421397969 0 0.26597619666038957 0.098681263799979324 0 0.25158482098595109 0.098673396421397969 0 0.26270963055581759 0.11098617864974181 0 0.25158482098595109 0.098673396421397969 0 0.26270963055581759 0.11098617864974181 0 0.25094552198087999 0.11589449234768209 0 0.25030622297580962 0.13311558827396619 0 0.26022612795132161 0.12333036834530881 0 0.25094552198087999 0.11589449234768209 0 0.25030622297580962 0.13311558827396619 0 0.26956705708048567 0.1198361090660386 0 0.26022612795132161 0.12333036834530881 0 0.26270963055581759 0.11098617864974181 0 0.26022612795132161 0.12333036834530881 0 0.26270963055581759 0.11098617864974181 0 0.25094552198087999 0.11589449234768209 0 0.26956705708048567 0.1198361090660386 0 0.26022612795132161 0.12333036834530881 0 0.26675796828336718 0.1380571931171293 0 0.26022612795132161 0.12333036834530881 0 0.25030622297580962 0.13311558827396619 0 0.26675796828336718 0.1380571931171293 0 0.25030622297580962 0.13311558827396619 0 0.26675796828336718 0.1380571931171293 0 0.25030622297580962 0.13311558827396619 0 0.26675796828336718 0.1380571931171293 0 0.25638724149227848 0.14295410589973731 0 0.25004344172447263 0.14019424959050239 0 0.25030622297580962 0.13311558827396619 0 0.25638724149227848 0.14295410589973731 0 0.25004344172447263 0.14019424959050239 0 0.25030622297580962 0.13311558827396619 0 0.26675796828336718 0.1380571931171293 0 0.28320971359092417 0.1429987979602943 0 0.26675796828336718 0.1380571931171293 0 0.28666270206708028 0.1324408374186071 0 0.28320971359092417 0.1429987979602943 0 0.28067449336876182 0.1220521091494646 0 0.26956705708048567 0.1198361090660386 0 0.26675796828336718 0.1380571931171293 0 0.28067449336876182 0.1220521091494646 0 0.26675796828336718 0.1380571931171293 0 0.28666270206708028 0.1324408374186071 0 0.26675796828336718 0.1380571931171293 0 0.27436529468354132 0.15433220537778311 0 0.26010861073109098 0.15248373785575309 0 0.26675796828336718 0.1380571931171293 0 0.27436529468354132 0.15433220537778311 0 0.28320971359092417 0.1429987979602943 0 0.26675796828336718 0.1380571931171293 0 0.26010861073109098 0.15248373785575309 0 0.25638724149227848 0.14295410589973731 0 0.2496536413094039 0.15044712256699261 0 0.25004344172447263 0.14019424959050239 0 0.25638724149227848 0.14295410589973731 0 0.24653130607993951 0.16237692388552691 0 0.2496536413094039 0.15044712256699261 0 0.26010861073109098 0.15248373785575309 0 0.2496536413094039 0.15044712256699261 0 0.26010861073109098 0.15248373785575309 0 0.25638724149227848 0.14295410589973731 0 0.24653130607993951 0.16237692388552691 0 0.25292738168467233 0.17649485219682931 0 0.26638423851283249 0.16867758561061549 0 0.24653130607993951 0.16237692388552691 0 0.26010861073109098 0.15248373785575309 0 0.26638423851283249 0.16867758561061549 0 0.24528107816237801 0.1907036486386274 0 0.25292738168467233 0.17649485219682931 0 0.26633433714882182 0.18577592949096661 0 0.25292738168467233 0.17649485219682931 0 0.26633433714882182 0.18577592949096661 0 0.26638423851283249 0.16867758561061549 0 0.27723266788850742 0.181048228772968 0 0.26638423851283249 0.16867758561061549 0 0.28391425324491287 0.17071999404263091 0 0.26633433714882182 0.18577592949096661 0 0.27723266788850742 0.181048228772968 0 0.26638423851283249 0.16867758561061549 0 0.27436529468354132 0.15433220537778311 0 0.26010861073109098 0.15248373785575309 0 0.26638423851283249 0.16867758561061549 0 0.27436529468354132 0.15433220537778311 0 0.26638423851283249 0.16867758561061549 0 0.28391425324491287 0.17071999404263091 0 0.27436529468354132 0.15433220537778311 0 0.28391425324491287 0.17071999404263091 0 0.29097703849613438 0.15773848939083679 0 0.28391425324491287 0.17071999404263091 0 0.2931647794093819 0.16879209887591959 0 0.29097703849613438 0.15773848939083679 0 0.2931647794093819 0.16879209887591959 0 0.29097703849613438 0.15773848939083679 0 0.30040947706207388 0.16512632217721829 0 0.28391425324491287 0.17071999404263091 0 0.28743664533084129 0.187357279865842 0 0.29743995151898561 0.17866098634217961 0 0.27723266788850742 0.181048228772968 0 0.28391425324491287 0.17071999404263091 0 0.28743664533084129 0.187357279865842 0 0.28391425324491287 0.17071999404263091 0 0.2931647794093819 0.16879209887591959 0 0.29743995151898561 0.17866098634217961 0 0.28743664533084129 0.187357279865842 0 0.29743995151898561 0.17866098634217961 0 0.29971043857951379 0.19298806906372529 0 0.29743995151898561 0.17866098634217961 0 0.30929675685570829 0.1858318568065235 0 0.29971043857951379 0.19298806906372529 0 0.29743995151898561 0.17866098634217961 0 0.3101655001798202 0.17563615506282959 0 0.30040947706207388 0.16512632217721829 0 0.29743995151898561 0.17866098634217961 0 0.3101655001798202 0.17563615506282959 0 0.30929675685570829 0.1858318568065235 0 0.30040947706207388 0.16512632217721829 0 0.30453528129870422 0.15487579661148021 0 0.32848741365188411 0.1727716232507491 0 0.29097703849613438 0.15773848939083679 0 0.30040947706207388 0.16512632217721829 0 0.30453528129870422 0.15487579661148021 0 0.2931647794093819 0.16879209887591959 0 0.29743995151898561 0.17866098634217961 0 0.30040947706207388 0.16512632217721829 0 0.29097703849613438 0.15773848939083679 0 0.30453528129870422 0.15487579661148021 0 0.29618567382365713 0.14404403195872001 0 0.30453528129870422 0.15487579661148021 0 0.30873747279203018 0.14281046260302349 0 0.29618567382365713 0.14404403195872001 0 0.30453528129870422 0.15487579661148021 0 0.30873747279203018 0.14281046260302349 0 0.32007589174333823 0.14676000458717811 0 0.30873747279203018 0.14281046260302349 0 0.30313841955192899 0.13260249050964579 0 0.3195478300457561 0.1332621056988223 0 0.31114536757858358 0.11742006929579971 0 0.30313841955192899 0.13260249050964579 0 0.3195478300457561 0.1332621056988223 0 0.30873747279203018 0.14281046260302349 0 0.30313841955192899 0.13260249050964579 0 0.29618567382365713 0.14404403195872001 0 0.294250496481684 0.12267566802032639 0 0.30313841955192899 0.13260249050964579 0 0.28666270206708028 0.1324408374186071 0 0.30313841955192899 0.13260249050964579 0 0.28666270206708028 0.1324408374186071 0 0.29618567382365713 0.14404403195872001 0 0.294250496481684 0.12267566802032639 0 0.28067449336876182 0.1220521091494646 0 0.28666270206708028 0.1324408374186071 0 0.28666270206708028 0.1324408374186071 0 0.28320971359092417 0.1429987979602943 0 0.29618567382365713 0.14404403195872001 0 0.27436529468354132 0.15433220537778311 0 0.29097703849613438 0.15773848939083679 0 0.28320971359092417 0.1429987979602943 0 0.29097703849613438 0.15773848939083679 0 0.28320971359092417 0.1429987979602943 0 0.29618567382365713 0.14404403195872001 0 0.28119448123381058 0.25405304303149878 0 0.26221447651104962 0.2479993693513689 0 0.28440499104296979 0.23439140090611099 0 0.26221447651104962 0.2479993693513689 0 0.26853130556434218 0.23400660741274959 0 0.28440499104296979 0.23439140090611099 0 0.26221447651104962 0.2479993693513689 0 0.28440499104296979 0.23439140090611099 0 0.2457442494512444 0.24022391879071339 0 0.26221447651104962 0.2479993693513689 0 0.25511338863332461 0.22468137717712711 0 0.26221447651104962 0.2479993693513689 0 0.25511338863332461 0.22468137717712711 0 0.26853130556434218 0.23400660741274959 0 0.26221447651104962 0.2479993693513689 0 0.25511338863332461 0.22468137717712711 0 0.25511338863332461 0.22468137717712711 0 0.25242827713160498 0.21540237912569379 0 0.25511338863332461 0.22468137717712711 0 0.2794126892910288 0.21617120911671081 0 0.25511338863332461 0.22468137717712711 0 0.26853130556434218 0.23400660741274959 0 0.2794126892910288 0.21617120911671081 0 0.26853130556434218 0.23400660741274959 0 0.2794126892910288 0.21617120911671081 0 0.28440499104296979 0.23439140090611099 0 0.25511338863332461 0.22468137717712711 0 0.2794126892910288 0.21617120911671081 0 0.26644318031571418 0.20408753099865831 0 0.2794126892910288 0.21617120911671081 0 0.26644318031571418 0.20408753099865831 0 0.27722953884408802 0.19656269719262509 0 0.24528107816237801 0.1907036486386274 0 0.26644318031571418 0.20408753099865831 0 0.25242827713160498 0.21540237912569379 0 0.25511338863332461 0.22468137717712711 0 0.26644318031571418 0.20408753099865831 0 0.25242827713160498 0.21540237912569379 0 0.26644318031571418 0.20408753099865831 0 0.25242827713160498 0.21540237912569379 0 0.24528107816237801 0.1907036486386274 0 0.26633433714882182 0.18577592949096661 0 0.26644318031571418 0.20408753099865831 0 0.26633433714882182 0.18577592949096661 0 0.26644318031571418 0.20408753099865831 0 0.27722953884408802 0.19656269719262509 0 0.27723266788850742 0.181048228772968 0 0.28743664533084129 0.187357279865842 0 0.27722953884408802 0.19656269719262509 0 0.26633433714882182 0.18577592949096661 0 0.27723266788850742 0.181048228772968 0 0.27722953884408802 0.19656269719262509 0 0.28743664533084129 0.187357279865842 0 0.27722953884408802 0.19656269719262509 0 0.28939512316467059 0.2005252056429343 0 0.28743664533084129 0.187357279865842 0 0.28939512316467059 0.2005252056429343 0 0.29971043857951379 0.19298806906372529 0 0.30929675685570829 0.1858318568065235 0 0.29971043857951379 0.19298806906372529 0 0.31162694501442678 0.19735313208654229 0 0.29971043857951379 0.19298806906372529 0 0.31162694501442678 0.19735313208654229 0 0.30371198994873311 0.20766104105629449 0 0.28939512316467059 0.2005252056429343 0 0.29971043857951379 0.19298806906372529 0 0.30371198994873311 0.20766104105629449 0 0.2794126892910288 0.21617120911671081 0 0.30371198994873311 0.20766104105629449 0 0.2794126892910288 0.21617120911671081 0 0.30371198994873311 0.20766104105629449 0 0.30659550557489001 0.220783432460853 0 0.2794126892910288 0.21617120911671081 0 0.27722953884408802 0.19656269719262509 0 0.28939512316467059 0.2005252056429343 0 0.2794126892910288 0.21617120911671081 0 0.28939512316467059 0.2005252056429343 0 0.30371198994873311 0.20766104105629449 0 0.30659550557489001 0.220783432460853 0 0.28440499104296979 0.23439140090611099 0 0.2794126892910288 0.21617120911671081 0 0.30659550557489001 0.220783432460853 0 0.28440499104296979 0.23439140090611099 0 0.30659550557489001 0.220783432460853 0 0.30328699804120918 0.24394477185791469 0 0.28440499104296979 0.23439140090611099 0 0.30659550557489001 0.220783432460853 0 0.30328699804120918 0.24394477185791469 0 0.31607427666693672 0.2331905299380852 0 0.28119448123381058 0.25405304303149878 0 0.30328699804120918 0.24394477185791469 0 0.28440499104296979 0.23439140090611099 0 0.3433555784436142 0.25004320974280247 0 0.34183468199228573 0.23727684870966961 0 0.33092809789354199 0.24744869965648561 0 0.34183468199228573 0.23727684870966961 0 0.3288410404878227 0.2348757256337824 0 0.33092809789354199 0.24744869965648561 0 0.3288410404878227 0.2348757256337824 0 0.33092809789354199 0.24744869965648561 0 0.31845456220733243 0.24449663650262579 0 0.31879452400631653 0.25919465198291952 0 0.30328699804120918 0.24394477185791469 0 0.31845456220733243 0.24449663650262579 0 0.30328699804120918 0.24394477185791469 0 0.31845456220733243 0.24449663650262579 0 0.31607427666693672 0.2331905299380852 0 0.3288410404878227 0.2348757256337824 0 0.31845456220733243 0.24449663650262579 0 0.31607427666693672 0.2331905299380852 0 0.3288410404878227 0.2348757256337824 0 0.31607427666693672 0.2331905299380852 0 0.32372534117020862 0.22390137225637691 0 0.30659550557489001 0.220783432460853 0 0.31607427666693672 0.2331905299380852 0 0.32372534117020862 0.22390137225637691 0 0.3288410404878227 0.2348757256337824 0 0.32372534117020862 0.22390137225637691 0 0.33832986301458301 0.22348170923356889 0 0.34183468199228573 0.23727684870966961 0 0.3288410404878227 0.2348757256337824 0 0.33832986301458301 0.22348170923356889 0 0.32372534117020862 0.22390137225637691 0 0.33832986301458301 0.22348170923356889 0 0.32878602010681029 0.20717546401559489 0 0.33832986301458301 0.22348170923356889 0 0.32878602010681029 0.20717546401559489 0 0.35089693608391498 0.21212819010674691 0 0.32878602010681029 0.20717546401559489 0 0.35097653463873058 0.19356749557033681 0 0.35089693608391498 0.21212819010674691 0 0.30659550557489001 0.220783432460853 0 0.32372534117020862 0.22390137225637691 0 0.32878602010681029 0.20717546401559489 0 0.31162694501442678 0.19735313208654229 0 0.30371198994873311 0.20766104105629449 0 0.32878602010681029 0.20717546401559489 0 0.30371198994873311 0.20766104105629449 0 0.30659550557489001 0.220783432460853 0 0.32878602010681029 0.20717546401559489 0 0.30659550557489001 0.220783432460853 0 0.32878602010681029 0.20717546401559489 0 0.32878602010681029 0.20717546401559489 0 0.31972446529152482 0.19052244909679969 0 0.3336272658304279 0.18895925974375941 0 0.31162694501442678 0.19735313208654229 0 0.32878602010681029 0.20717546401559489 0 0.31972446529152482 0.19052244909679969 0 0.30929675685570829 0.1858318568065235 0 0.31162694501442678 0.19735313208654229 0 0.31972446529152482 0.19052244909679969 0 0.32878602010681029 0.20717546401559489 0 0.3336272658304279 0.18895925974375941 0 0.35097653463873058 0.19356749557033681 0 0.32878602010681029 0.20717546401559489 0 0.35097653463873058 0.19356749557033681 0 0.3336272658304279 0.18895925974375941 0 0.35097653463873058 0.19356749557033681 0 0.35656535024169428 0.1804169243242798 0 0.35097653463873058 0.19356749557033681 0 0.35896651107905142 0.20360726904620211 0 0.35089693608391498 0.21212819010674691 0 0.35097653463873058 0.19356749557033681 0 0.36405518175537521 0.19484170215684679 0 0.35896651107905142 0.20360726904620211 0 0.35097653463873058 0.19356749557033681 0 0.36405518175537521 0.19484170215684679 0 0.35656535024169428 0.1804169243242798 0 0.36405518175537521 0.19484170215684679 0 0.35656535024169428 0.1804169243242798 0 0.38464328683150451 0.18806222539781059 0 0.36405518175537521 0.19484170215684679 0 0.36923798170140371 0.20928007436804161 0 0.38464328683150451 0.18806222539781059 0 0.36405518175537521 0.19484170215684679 0 0.36923798170140371 0.20928007436804161 0 0.35896651107905142 0.20360726904620211 0 0.36923798170140371 0.20928007436804161 0 0.36132702422268731 0.21787493872225441 0 0.35896651107905142 0.20360726904620211 0 0.36923798170140371 0.20928007436804161 0 0.36132702422268731 0.21787493872225441 0 0.37292139258550783 0.22672254500020811 0 0.36132702422268731 0.21787493872225441 0 0.35896651107905142 0.20360726904620211 0 0.35089693608391498 0.21212819010674691 0 0.34183468199228573 0.23727684870966961 0 0.33832986301458301 0.22348170923356889 0 0.35524969613090918 0.22837961108452459 0 0.36132702422268731 0.21787493872225441 0 0.35089693608391498 0.21212819010674691 0 0.35524969613090918 0.22837961108452459 0 0.33832986301458301 0.22348170923356889 0 0.35089693608391498 0.21212819010674691 0 0.35524969613090918 0.22837961108452459 0 0.36132702422268731 0.21787493872225441 0 0.35524969613090918 0.22837961108452459 0 0.37292139258550783 0.22672254500020811 0 0.35524969613090918 0.22837961108452459 0 0.37292139258550783 0.22672254500020811 0 0.36587213359177301 0.2378375665458646 0 0.37292139258550783 0.22672254500020811 0 0.36587213359177301 0.2378375665458646 0 0.3757768555661396 0.240133652284411 0 0.36587213359177301 0.2378375665458646 0 0.37169426656027921 0.24972740256563611 0 0.3757768555661396 0.240133652284411 0 0.36587213359177301 0.2378375665458646 0 0.37169426656027921 0.24972740256563611 0 0.36205361842742478 0.24882498742118489 0 0.36587213359177301 0.2378375665458646 0 0.36205361842742478 0.24882498742118489 0 0.35356337405553911 0.24205426642971811 0 0.35175757775775729 0.2532797976346674 0 0.36205361842742478 0.24882498742118489 0 0.35356337405553911 0.24205426642971811 0 0.35524969613090918 0.22837961108452459 0 0.36587213359177301 0.2378375665458646 0 0.35356337405553911 0.24205426642971811 0 0.34183468199228573 0.23727684870966961 0 0.35524969613090918 0.22837961108452459 0 0.35356337405553911 0.24205426642971811 0 0.3433555784436142 0.25004320974280247 0 0.34183468199228573 0.23727684870966961 0 0.35356337405553911 0.24205426642971811 0 0.3433555784436142 0.25004320974280247 0 0.35175757775775729 0.2532797976346674 0 0.35356337405553911 0.24205426642971811 0 0.33379856680907583 0.1437068241164389 0 0.32007589174333823 0.14676000458717811 0 0.33365817402274128 0.15789089208148979 0 0.33379856680907583 0.1437068241164389 0 0.33365817402274128 0.15789089208148979 0 0.34780073530519279 0.14835628742565241 0 0.33379856680907583 0.1437068241164389 0 0.34780073530519279 0.14835628742565241 0 0.34586764947947463 0.1362539899128139 0 0.33379856680907583 0.1437068241164389 0 0.33436770153514289 0.13112975471366969 0 0.34586764947947463 0.1362539899128139 0 0.34956654336434939 0.1234914401014125 0 0.33436770153514289 0.13112975471366969 0 0.34586764947947463 0.1362539899128139 0 0.33379856680907583 0.1437068241164389 0 0.33436770153514289 0.13112975471366969 0 0.3195478300457561 0.1332621056988223 0 0.32606950933900308 0.1158177097477945 0 0.33436770153514289 0.13112975471366969 0 0.3195478300457561 0.1332621056988223 0 0.30873747279203018 0.14281046260302349 0 0.3195478300457561 0.1332621056988223 0 0.32007589174333823 0.14676000458717811 0 0.30453528129870422 0.15487579661148021 0 0.32007589174333823 0.14676000458717811 0 0.33365817402274128 0.15789089208148979 0 0.33379856680907583 0.1437068241164389 0 0.3195478300457561 0.1332621056988223 0 0.32007589174333823 0.14676000458717811 0 0.30453528129870422 0.15487579661148021 0 0.33365817402274128 0.15789089208148979 0 0.30453528129870422 0.15487579661148021 0 0.32848741365188411 0.1727716232507491 0 0.33365817402274128 0.15789089208148979 0 0.30040947706207388 0.16512632217721829 0 0.32848741365188411 0.1727716232507491 0 0.3101655001798202 0.17563615506282959 0 0.30040947706207388 0.16512632217721829 0 0.32848741365188411 0.1727716232507491 0 0.3101655001798202 0.17563615506282959 0 0.31983557186529732 0.18171103000860481 0 0.32848741365188411 0.1727716232507491 0 0.3336272658304279 0.18895925974375941 0 0.31983557186529732 0.18171103000860481 0 0.32848741365188411 0.1727716232507491 0 0.3101655001798202 0.17563615506282959 0 0.30929675685570829 0.1858318568065235 0 0.31983557186529732 0.18171103000860481 0 0.30929675685570829 0.1858318568065235 0 0.31972446529152482 0.19052244909679969 0 0.31983557186529732 0.18171103000860481 0 0.31972446529152482 0.19052244909679969 0 0.3336272658304279 0.18895925974375941 0 0.31983557186529732 0.18171103000860481 0 0.32848741365188411 0.1727716232507491 0 0.34507730906385942 0.16855187839241309 0 0.35656535024169428 0.1804169243242798 0 0.3336272658304279 0.18895925974375941 0 0.32848741365188411 0.1727716232507491 0 0.35656535024169428 0.1804169243242798 0 0.32848741365188411 0.1727716232507491 0 0.35656535024169428 0.1804169243242798 0 0.32848741365188411 0.1727716232507491 0 0.33365817402274128 0.15789089208148979 0 0.34507730906385942 0.16855187839241309 0 0.33365817402274128 0.15789089208148979 0 0.34507730906385942 0.16855187839241309 0 0.36278106674677829 0.1609059875514994 0 0.34507730906385942 0.16855187839241309 0 0.35656535024169428 0.1804169243242798 0 0.36278106674677829 0.1609059875514994 0 0.33365817402274128 0.15789089208148979 0 0.36278106674677829 0.1609059875514994 0 0.35656535024169428 0.1804169243242798 0 0.37356219856206202 0.1741215612114578 0 0.38464328683150451 0.18806222539781059 0 0.35656535024169428 0.1804169243242798 0 0.38464328683150451 0.18806222539781059 0 0.35656535024169428 0.1804169243242798 0 0.37356219856206202 0.1741215612114578 0 0.36278106674677829 0.1609059875514994 0 0.36278106674677829 0.1609059875514994 0 0.36531512046589693 0.1378839500987098 0 0.37680076681991098 0.15092733218095339 0 0.36278106674677829 0.1609059875514994 0 0.34780073530519279 0.14835628742565241 0 0.36531512046589693 0.1378839500987098 0 0.34780073530519279 0.14835628742565241 0 0.34586764947947463 0.1362539899128139 0 0.36531512046589693 0.1378839500987098 0 0.33365817402274128 0.15789089208148979 0 0.36278106674677829 0.1609059875514994 0 0.34780073530519279 0.14835628742565241 0 0.34956654336434939 0.1234914401014125 0 0.34586764947947463 0.1362539899128139 0 0.36531512046589693 0.1378839500987098 0 0.34956654336434939 0.1234914401014125 0 0.36322639358210312 0.11848039068348271 0 0.36531512046589693 0.1378839500987098 0 0.36322639358210312 0.11848039068348271 0 0.36531512046589693 0.1378839500987098 0 0.38482072671029011 0.13725767299229241 0 0.36322639358210312 0.11848039068348271 0 0.38482072671029011 0.13725767299229241 0 0.36322639358210312 0.11848039068348271 0 0.38482072671029011 0.13725767299229241 0 0.38005682511468147 0.12140739343396729 0 0.38482072671029011 0.13725767299229241 0 0.39398634319161102 0.12556361147638159 0 0.38005682511468147 0.12140739343396729 0 0.38482072671029011 0.13725767299229241 0 0.39398634319161102 0.12556361147638159 0 0.40386822996399702 0.1370092008917044 0 0.39398634319161102 0.12556361147638159 0 0.40386822996399702 0.1370092008917044 0 0.40630256149234217 0.12337914253670321 0 0.38482072671029011 0.13725767299229241 0 0.40641505983847698 0.15603495530110209 0 0.38482072671029011 0.13725767299229241 0 0.40386822996399702 0.1370092008917044 0 0.40641505983847698 0.15603495530110209 0 0.38482072671029011 0.13725767299229241 0 0.39190395947081519 0.16392108302150901 0 0.40641505983847698 0.15603495530110209 0 0.36531512046589693 0.1378839500987098 0 0.38482072671029011 0.13725767299229241 0 0.37680076681991098 0.15092733218095339 0 0.38482072671029011 0.13725767299229241 0 0.37680076681991098 0.15092733218095339 0 0.39190395947081519 0.16392108302150901 0 0.36278106674677829 0.1609059875514994 0 0.39190395947081519 0.16392108302150901 0 0.36278106674677829 0.1609059875514994 0 0.37680076681991098 0.15092733218095339 0 0.39190395947081519 0.16392108302150901 0 0.37356219856206202 0.1741215612114578 0 0.36278106674677829 0.1609059875514994 0 0.39190395947081519 0.16392108302150901 0 0.37356219856206202 0.1741215612114578 0 0.39190395947081519 0.16392108302150901 0 0.38464328683150451 0.18806222539781059 0 0.4059128807594603 0.17981630131623391 0 0.39190395947081519 0.16392108302150901 0 0.38464328683150451 0.18806222539781059 0 0.39190395947081519 0.16392108302150901 0 0.42102685219485209 0.16693617849151851 0 0.40641505983847698 0.15603495530110209 0 0.4059128807594603 0.17981630131623391 0 0.39190395947081519 0.16392108302150901 0 0.42102685219485209 0.16693617849151851 0 0.42102685219485209 0.16693617849151851 0 0.40641505983847698 0.15603495530110209 0 0.41490094777653419 0.14712571815411829 0 0.39190395947081519 0.16392108302150901 0 0.42102685219485209 0.16693617849151851 0 0.4059128807594603 0.17981630131623391 0 0.42102685219485209 0.16693617849151851 0 0.42759287120751482 0.1799189573059411 0 0.4059128807594603 0.17981630131623391 0 0.42759287120751482 0.1799189573059411 0 0.42045703890892938 0.19185412915784311 0 0.42102685219485209 0.16693617849151851 0 0.42759287120751482 0.1799189573059411 0 0.45014974491888898 0.16995127396152809 0 0.42759287120751482 0.1799189573059411 0 0.42045703890892938 0.19185412915784311 0 0.43799329450951457 0.1898848624547933 0 0.42102685219485209 0.16693617849151851 0 0.45014974491888898 0.16995127396152809 0 0.42102685219485209 0.16693617849151851 0 0.43641214087317609 0.15776157540708571 0 0.42820809332857229 0.14540676379554701 0 0.42102685219485209 0.16693617849151851 0 0.43641214087317609 0.15776157540708571 0 0.45014974491888898 0.16995127396152809 0 0.43641214087317609 0.15776157540708571 0 0.42820809332857229 0.14540676379554701 0 0.44305345270963392 0.14224085277467549 0 0.42820809332857229 0.14540676379554701 0 0.43267139290449452 0.12562392175117529 0 0.41815906511665779 0.13368892679480551 0 0.42820809332857229 0.14540676379554701 0 0.43267139290449452 0.12562392175117529 0 0.44305345270963392 0.14224085277467549 0 0.43267139290449452 0.12562392175117529 0 0.41815906511665779 0.13368892679480551 0 0.41840244549433692 0.1204435227777134 0 0.41815906511665779 0.13368892679480551 0 0.41840244549433692 0.1204435227777134 0 0.40630256149234217 0.12337914253670321 0 0.40386822996399702 0.1370092008917044 0 0.41815906511665779 0.13368892679480551 0 0.40630256149234217 0.12337914253670321 0 0.40386822996399702 0.1370092008917044 0 0.41815906511665779 0.13368892679480551 0 0.41490094777653419 0.14712571815411829 0 0.42102685219485209 0.16693617849151851 0 0.42820809332857229 0.14540676379554701 0 0.41490094777653419 0.14712571815411829 0 0.40386822996399702 0.1370092008917044 0 0.40641505983847698 0.15603495530110209 0 0.41490094777653419 0.14712571815411829 0 0.42820809332857229 0.14540676379554701 0 0.41815906511665779 0.13368892679480551 0 0.41490094777653419 0.14712571815411829 0 0.39196586341458151 0.242441409442547 0 0.40329821407583749 0.23025496453590971 0 0.40866327585672191 0.24600766979752939 0 0.38129994004966872 0.25577407136566988 0 0.39196586341458151 0.242441409442547 0 0.40866327585672191 0.24600766979752939 0 0.38129994004966872 0.25577407136566988 0 0.39196586341458151 0.242441409442547 0 0.38106847269238292 0.24536179082341181 0 0.37169426656027921 0.24972740256563611 0 0.38106847269238292 0.24536179082341181 0 0.3757768555661396 0.240133652284411 0 0.37292139258550783 0.22672254500020811 0 0.3757768555661396 0.240133652284411 0 0.38460543787124563 0.238732418458795 0 0.38106847269238292 0.24536179082341181 0 0.3757768555661396 0.240133652284411 0 0.38460543787124563 0.238732418458795 0 0.39196586341458151 0.242441409442547 0 0.38106847269238292 0.24536179082341181 0 0.38460543787124563 0.238732418458795 0 0.39196586341458151 0.242441409442547 0 0.38460543787124563 0.238732418458795 0 0.38844350160088592 0.2284985707660753 0 0.37292139258550783 0.22672254500020811 0 0.38460543787124563 0.238732418458795 0 0.38844350160088592 0.2284985707660753 0 0.37292139258550783 0.22672254500020811 0 0.38844350160088592 0.2284985707660753 0 0.38369130631537601 0.21297307403445409 0 0.38844350160088592 0.2284985707660753 0 0.39679964264504158 0.21937630878092959 0 0.38369130631537601 0.21297307403445409 0 0.38844350160088592 0.2284985707660753 0 0.39679964264504158 0.21937630878092959 0 0.40329821407583749 0.23025496453590971 0 0.39196586341458151 0.242441409442547 0 0.38844350160088592 0.2284985707660753 0 0.40329821407583749 0.23025496453590971 0 0.39679964264504158 0.21937630878092959 0 0.40329821407583749 0.23025496453590971 0 0.41066806580544729 0.2160617609406458 0 0.39598296716959969 0.20626700748070109 0 0.40513352984814438 0.19492560706685999 0 0.41066806580544729 0.2160617609406458 0 0.39679964264504158 0.21937630878092959 0 0.39598296716959969 0.20626700748070109 0 0.41066806580544729 0.2160617609406458 0 0.39679964264504158 0.21937630878092959 0 0.39598296716959969 0.20626700748070109 0 0.38369130631537601 0.21297307403445409 0 0.36923798170140371 0.20928007436804161 0 0.37292139258550783 0.22672254500020811 0 0.38369130631537601 0.21297307403445409 0 0.36923798170140371 0.20928007436804161 0 0.38369130631537601 0.21297307403445409 0 0.38464328683150451 0.18806222539781059 0 0.39598296716959969 0.20626700748070109 0 0.38369130631537601 0.21297307403445409 0 0.38464328683150451 0.18806222539781059 0 0.39598296716959969 0.20626700748070109 0 0.38464328683150451 0.18806222539781059 0 0.40513352984814438 0.19492560706685999 0 0.4059128807594603 0.17981630131623391 0 0.38464328683150451 0.18806222539781059 0 0.40513352984814438 0.19492560706685999 0 0.40513352984814438 0.19492560706685999 0 0.42045703890892938 0.19185412915784311 0 0.42444067869502011 0.20693424997503959 0 0.4059128807594603 0.17981630131623391 0 0.40513352984814438 0.19492560706685999 0 0.42045703890892938 0.19185412915784311 0 0.42045703890892938 0.19185412915784311 0 0.42444067869502011 0.20693424997503959 0 0.43799329450951457 0.1898848624547933 0 0.42444067869502011 0.20693424997503959 0 0.44184419378540352 0.2076794424592901 0 0.43799329450951457 0.1898848624547933 0 0.42444067869502011 0.20693424997503959 0 0.4302098735549707 0.2206458244329694 0 0.44184419378540352 0.2076794424592901 0 0.42444067869502011 0.20693424997503959 0 0.41066806580544729 0.2160617609406458 0 0.4302098735549707 0.2206458244329694 0 0.40513352984814438 0.19492560706685999 0 0.42444067869502011 0.20693424997503959 0 0.41066806580544729 0.2160617609406458 0 0.41066806580544729 0.2160617609406458 0 0.41777320819135039 0.22984229758728861 0 0.4302098735549707 0.2206458244329694 0 0.40329821407583749 0.23025496453590971 0 0.41066806580544729 0.2160617609406458 0 0.41777320819135039 0.22984229758728861 0 0.4302098735549707 0.2206458244329694 0 0.43602661166377499 0.2362412682293889 0 0.44584438813649652 0.2203436080528294 0 0.41777320819135039 0.22984229758728861 0 0.4302098735549707 0.2206458244329694 0 0.43602661166377499 0.2362412682293889 0 0.43602661166377499 0.2362412682293889 0 0.43076425121212841 0.2486853010718087 0 0.40866327585672191 0.24600766979752939 0 0.43602661166377499 0.2362412682293889 0 0.40866327585672191 0.24600766979752939 0 0.41777320819135039 0.22984229758728861 0 0.43602661166377499 0.2362412682293889 0 0.40866327585672191 0.24600766979752939 0 0.41664462513020523 0.25422696758609492 0 0.43076425121212841 0.2486853010718087 0 0.40866327585672191 0.24600766979752939 0 0.40329821407583749 0.23025496453590971 0 0.41777320819135039 0.22984229758728861 0 0.40866327585672191 0.24600766979752939 0 0.45166362976964691 0.25106894999712381 0 0.45384283414141641 0.23962742592169059 0 0.47583181488482379 0.2451422378191761 0 0.45166362976964691 0.25106894999712381 0 0.47583181488482379 0.2451422378191761 0 0.45384283414141641 0.23962742592169059 0 0.47692141707070451 0.23056955077157251 0 0.45166362976964691 0.25106894999712381 0 0.43076425121212841 0.2486853010718087 0 0.45384283414141641 0.23962742592169059 0 0.43602661166377499 0.2362412682293889 0 0.43076425121212841 0.2486853010718087 0 0.45384283414141641 0.23962742592169059 0 0.43076425121212841 0.2486853010718087 0 0.45384283414141641 0.23962742592169059 0 0.43602661166377499 0.2362412682293889 0 0.46338994747082818 0.22647486666124839 0 0.43602661166377499 0.2362412682293889 0 0.44584438813649652 0.2203436080528294 0 0.46338994747082818 0.22647486666124839 0 0.43602661166377499 0.2362412682293889 0 0.45384283414141641 0.23962742592169059 0 0.46338994747082818 0.22647486666124839 0 0.44584438813649652 0.2203436080528294 0 0.46338994747082818 0.22647486666124839 0 0.4574246187180494 0.20998202225832771 0 0.45384283414141641 0.23962742592169059 0 0.46338994747082818 0.22647486666124839 0 0.47692141707070451 0.23056955077157251 0 0.46338994747082818 0.22647486666124839 0 0.4574246187180494 0.20998202225832771 0 0.47311107537994651 0.21060674662752529 0 0.4574246187180494 0.20998202225832771 0 0.46861366351278472 0.19789432193598561 0 0.47311107537994651 0.21060674662752529 0 0.44584438813649652 0.2203436080528294 0 0.4574246187180494 0.20998202225832771 0 0.44184419378540352 0.2076794424592901 0 0.4302098735549707 0.2206458244329694 0 0.44584438813649652 0.2203436080528294 0 0.44184419378540352 0.2076794424592901 0 0.4574246187180494 0.20998202225832771 0 0.44184419378540352 0.2076794424592901 0 0.45120510308892831 0.19507838461398491 0 0.44184419378540352 0.2076794424592901 0 0.43799329450951457 0.1898848624547933 0 0.45120510308892831 0.19507838461398491 0 0.4574246187180494 0.20998202225832771 0 0.45120510308892831 0.19507838461398491 0 0.46861366351278472 0.19789432193598561 0 0.45120510308892831 0.19507838461398491 0 0.46861366351278472 0.19789432193598561 0 0.45014974491888898 0.16995127396152809 0 0.46861366351278472 0.19789432193598561 0 0.48377650321145821 0.20030440734603891 0 0.47890777313388699 0.17818810929941131 0 0.46861366351278472 0.19789432193598561 0 0.48377650321145821 0.20030440734603891 0 0.47311107537994651 0.21060674662752529 0 0.48377650321145821 0.20030440734603891 0 0.5 0.19442179120654851 0 0.47890777313388699 0.17818810929941131 0 0.48377650321145821 0.20030440734603891 0 0.5 0.19442179120654851 0 0.49075328327788142 0.2167084650931079 0 0.5 0.19442179120654851 0 0.49075328327788142 0.2167084650931079 0 0.49999999999999339 0.2215116756214566 0 0.48377650321145821 0.20030440734603891 0 0.49075328327788142 0.2167084650931079 0 0.47311107537994651 0.21060674662752529 0 0.46338994747082818 0.22647486666124839 0 0.49075328327788142 0.2167084650931079 0 0.47311107537994651 0.21060674662752529 0 0.46338994747082818 0.22647486666124839 0 0.49075328327788142 0.2167084650931079 0 0.46338994747082818 0.22647486666124839 0 0.49075328327788142 0.2167084650931079 0 0.47692141707070451 0.23056955077157251 0 0.47692141707070451 0.23056955077157251 0 0.49999999999999339 0.2215116756214566 0 0.50000000000000067 0.2392155256412283 0 0.49075328327788142 0.2167084650931079 0 0.47692141707070451 0.23056955077157251 0 0.49999999999999339 0.2215116756214566 0 0.47692141707070451 0.23056955077157251 0 0.49999999999999339 0.2215116756214566 0 0.50000000000000067 0.2392155256412283 0 0.47583181488482379 0.2451422378191761 0 0.48341195364679568 0.26002408893105827 0 0.50000000000000067 0.2392155256412283 0 0.47583181488482379 0.2451422378191761 0 0.47692141707070451 0.23056955077157251 0 0.50000000000000067 0.2392155256412283 0 0.47583181488482379 0.2451422378191761 0 0.45384283414141641 0.23962742592169059 0 0.47692141707070451 0.23056955077157251 0 0.47583181488482379 0.2451422378191761 0 0.46053260521531592 0.14091734283165991 0 0.45014974491888898 0.16995127396152809 0 0.47759274938693741 0.15337993901402261 0 0.46053260521531592 0.14091734283165991 0 0.47596637305353268 0.1236489788231635 0 0.45094723062946279 0.12208098845927939 0 0.46053260521531592 0.14091734283165991 0 0.44305345270963392 0.14224085277467549 0 0.45094723062946279 0.12208098845927939 0 0.43267139290449452 0.12562392175117529 0 0.44305345270963392 0.14224085277467549 0 0.45094723062946279 0.12208098845927939 0 0.46053260521531592 0.14091734283165991 0 0.44305345270963392 0.14224085277467549 0 0.45014974491888898 0.16995127396152809 0 0.43641214087317609 0.15776157540708571 0 0.44305345270963392 0.14224085277467549 0 0.45014974491888898 0.16995127396152809 0 0.42759287120751482 0.1799189573059411 0 0.43799329450951457 0.1898848624547933 0 0.45014974491888898 0.16995127396152809 0 0.43799329450951457 0.1898848624547933 0 0.45120510308892831 0.19507838461398491 0 0.45014974491888898 0.16995127396152809 0 0.46861366351278472 0.19789432193598561 0 0.45014974491888898 0.16995127396152809 0 0.47890777313388699 0.17818810929941131 0 0.45014974491888898 0.16995127396152809 0 0.47890777313388699 0.17818810929941131 0 0.47759274938693741 0.15337993901402261 0 0.5 0.19442179120654851 0 0.47890777313388699 0.17818810929941131 0 0.5 0.16733190679164031 0 0.47890777313388699 0.17818810929941131 0 0.5 0.16733190679164031 0 0.47759274938693741 0.15337993901402261 0 0.5 0.16733190679164031 0 0.47759274938693741 0.15337993901402261 0 0.5 0.14024202237673219 0 0.46053260521531592 0.14091734283165991 0 0.47759274938693741 0.15337993901402261 0 0.47596637305353268 0.1236489788231635 0 0.5 0.14024202237673219 0 0.5 0.11315213796182411 0 0.47596637305353268 0.1236489788231635 0 0.47759274938693741 0.15337993901402261 0 0.5 0.14024202237673219 0 0.47596637305353268 0.1236489788231635 0 0.5 0.11315213796182411 0 0.48146508414057748 0.097867616362435003 0 0.47596637305353268 0.1236489788231635 0 0.5 0.11315213796182411 0 0.48146508414057748 0.097867616362435003 0 0.5 0.08606225354691599 0 0.48146508414057748 0.097867616362435003 0 0.46684480345772023 0.083704774648097419 0 0.46085076100455152 0.1051260388446932 0 0.48146508414057748 0.097867616362435003 0 0.47596637305353268 0.1236489788231635 0 0.46085076100455152 0.1051260388446932 0 0.5 0.08606225354691599 0 0.48297411160829701 0.071419164250366693 0 0.5 0.058972369132007867 0 0.48146508414057748 0.097867616362435003 0 0.5 0.08606225354691599 0 0.48297411160829701 0.071419164250366693 0 0.48146508414057748 0.097867616362435003 0 0.48297411160829701 0.071419164250366693 0 0.46684480345772023 0.083704774648097419 0 0.48297411160829701 0.071419164250366693 0 0.46368779630991369 0.062884433647911922 0 0.46684480345772023 0.083704774648097419 0 0.46368779630991369 0.062884433647911922 0 0.4455316944648699 0.078385408113317706 0 0.46368779630991369 0.062884433647911922 0 0.46684480345772023 0.083704774648097419 0 0.4455316944648699 0.078385408113317706 0 0.46684480345772023 0.083704774648097419 0 0.4455316944648699 0.078385408113317706 0 0.46085076100455152 0.1051260388446932 0 0.4455316944648699 0.078385408113317706 0 0.46085076100455152 0.1051260388446932 0 0.43655847815144871 0.087567909291679069 0 0.4455316944648699 0.078385408113317706 0 0.43655847815144871 0.087567909291679069 0 0.43300293116684879 0.070359854062556224 0 0.4455316944648699 0.078385408113317706 0 0.43300293116684879 0.070359854062556224 0 0.44432728466234178 0.059795406129610977 0 0.46368779630991369 0.062884433647911922 0 0.4455316944648699 0.078385408113317706 0 0.44432728466234178 0.059795406129610977 0 0.47596637305353268 0.1236489788231635 0 0.46085076100455152 0.1051260388446932 0 0.45094723062946279 0.12208098845927939 0 0.46085076100455152 0.1051260388446932 0 0.43655847815144871 0.087567909291679069 0 0.46085076100455152 0.1051260388446932 0 0.43845481143497073 0.110031162788742 0 0.43302597451412722 0.09911942802672713 0 0.46085076100455152 0.1051260388446932 0 0.43302597451412722 0.09911942802672713 0 0.43655847815144871 0.087567909291679069 0 0.43267139290449452 0.12562392175117529 0 0.45094723062946279 0.12208098845927939 0 0.43845481143497073 0.110031162788742 0 0.46085076100455152 0.1051260388446932 0 0.45094723062946279 0.12208098845927939 0 0.43845481143497073 0.110031162788742 0 0.43267139290449452 0.12562392175117529 0 0.43845481143497073 0.110031162788742 0 0.42512360996164289 0.1101942667169049 0 0.43267139290449452 0.12562392175117529 0 0.42512360996164289 0.1101942667169049 0 0.41840244549433692 0.1204435227777134 0 0.42512360996164289 0.1101942667169049 0 0.41840244549433692 0.1204435227777134 0 0.41145911669595331 0.1096997076075869 0 0.41840244549433692 0.1204435227777134 0 0.41145911669595331 0.1096997076075869 0 0.40630256149234217 0.12337914253670321 0 0.41145911669595331 0.1096997076075869 0 0.41782870111656589 0.098086010242617663 0 0.40188519574572068 0.098349840232826835 0 0.41782870111656589 0.098086010242617663 0 0.41132824907511162 0.087668761689670915 0 0.40188519574572068 0.098349840232826835 0 0.42512360996164289 0.1101942667169049 0 0.41145911669595331 0.1096997076075869 0 0.41782870111656589 0.098086010242617663 0 0.41782870111656589 0.098086010242617663 0 0.43302597451412722 0.09911942802672713 0 0.42198136315300161 0.08812274721924529 0 0.42512360996164289 0.1101942667169049 0 0.41782870111656589 0.098086010242617663 0 0.43302597451412722 0.09911942802672713 0 0.43845481143497073 0.110031162788742 0 0.42512360996164289 0.1101942667169049 0 0.43302597451412722 0.09911942802672713 0 0.43655847815144871 0.087567909291679069 0 0.42198136315300161 0.08812274721924529 0 0.41226619529834591 0.070009779738664735 0 0.43655847815144871 0.087567909291679069 0 0.41226619529834591 0.070009779738664735 0 0.43302597451412722 0.09911942802672713 0 0.43655847815144871 0.087567909291679069 0 0.42198136315300161 0.08812274721924529 0 0.43300293116684879 0.070359854062556224 0 0.41226619529834591 0.070009779738664735 0 0.42739758089851382 0.054541393999090262 0 0.43655847815144871 0.087567909291679069 0 0.43300293116684879 0.070359854062556224 0 0.41226619529834591 0.070009779738664735 0 0.42198136315300161 0.08812274721924529 0 0.41226619529834591 0.070009779738664735 0 0.41132824907511162 0.087668761689670915 0 0.41226619529834591 0.070009779738664735 0 0.41132824907511162 0.087668761689670915 0 0.39992923875424519 0.082621500021195282 0 0.41782870111656589 0.098086010242617663 0 0.42198136315300161 0.08812274721924529 0 0.41132824907511162 0.087668761689670915 0 0.41132824907511162 0.087668761689670915 0 0.39992923875424519 0.082621500021195282 0 0.40188519574572068 0.098349840232826835 0 0.39992923875424519 0.082621500021195282 0 0.38759228221014619 0.095233220303727467 0 0.40188519574572068 0.098349840232826835 0 0.39992923875424519 0.082621500021195282 0 0.38759228221014619 0.095233220303727467 0 0.41226619529834591 0.070009779738664735 0 0.39707386889515511 0.070908779594843374 0 0.39683376059791597 0.058855427163935138 0 0.41226619529834591 0.070009779738664735 0 0.39683376059791597 0.058855427163935138 0 0.41226619529834591 0.070009779738664735 0 0.39992923875424519 0.082621500021195282 0 0.41226619529834591 0.070009779738664735 0 0.39992923875424519 0.082621500021195282 0 0.39707386889515511 0.070908779594843374 0 0.39992923875424519 0.082621500021195282 0 0.39707386889515511 0.070908779594843374 0 0.38583977896057609 0.075316135258006081 0 0.39707386889515511 0.070908779594843374 0 0.38282045226763678 0.060547433734587333 0 0.39683376059791597 0.058855427163935138 0 0.39707386889515511 0.070908779594843374 0 0.38583977896057609 0.075316135258006081 0 0.38282045226763678 0.060547433734587333 0 0.38583977896057609 0.075316135258006081 0 0.37596532967213542 0.069868995675824025 0 0.37682589963749002 0.081332762740894418 0 0.37307104071443398 0.061065176941414383 0 0.37596532967213542 0.069868995675824025 0 0.38282045226763678 0.060547433734587333 0 0.38583977896057609 0.075316135258006081 0 0.37596532967213542 0.069868995675824025 0 0.38282045226763678 0.060547433734587333 0 0.39992923875424519 0.082621500021195282 0 0.38412803848747967 0.086259474622970303 0 0.38759228221014619 0.095233220303727467 0 0.39992923875424519 0.082621500021195282 0 0.38583977896057609 0.075316135258006081 0 0.38412803848747967 0.086259474622970303 0 0.37045299287494049 0.09679375479102828 0 0.38412803848747967 0.086259474622970303 0 0.38759228221014619 0.095233220303727467 0 0.38583977896057609 0.075316135258006081 0 0.38412803848747967 0.086259474622970303 0 0.37682589963749002 0.081332762740894418 0 0.37045299287494049 0.09679375479102828 0 0.38412803848747967 0.086259474622970303 0 0.37682589963749002 0.081332762740894418 0 0.37045299287494049 0.09679375479102828 0 0.38005682511468147 0.12140739343396729 0 0.37045299287494049 0.09679375479102828 0 0.38759228221014619 0.095233220303727467 0 0.38890959528695412 0.1083938038889192 0 0.37045299287494049 0.09679375479102828 0 0.38890959528695412 0.1083938038889192 0 0.38005682511468147 0.12140739343396729 0 0.39398634319161102 0.12556361147638159 0 0.38890959528695412 0.1083938038889192 0 0.38005682511468147 0.12140739343396729 0 0.39398634319161102 0.12556361147638159 0 0.38890959528695412 0.1083938038889192 0 0.39948393258462489 0.11301500309558379 0 0.39398634319161102 0.12556361147638159 0 0.40630256149234217 0.12337914253670321 0 0.39948393258462489 0.11301500309558379 0 0.41145911669595331 0.1096997076075869 0 0.40630256149234217 0.12337914253670321 0 0.39948393258462489 0.11301500309558379 0 0.41145911669595331 0.1096997076075869 0 0.39948393258462489 0.11301500309558379 0 0.40188519574572068 0.098349840232826835 0 0.38759228221014619 0.095233220303727467 0 0.38890959528695412 0.1083938038889192 0 0.40188519574572068 0.098349840232826835 0 0.38890959528695412 0.1083938038889192 0 0.39948393258462489 0.11301500309558379 0 0.40188519574572068 0.098349840232826835 0 0.3912475249538237 0.025882868266216091 0 0.40325323122183843 0.024352223252143548 0 0.39536881189699241 0.01378873843063998 0 0.3912475249538237 0.025882868266216091 0 0.40325323122183843 0.024352223252143548 0 0.39805180056669343 0.032772735105760037 0 0.40325323122183843 0.024352223252143548 0 0.39805180056669343 0.032772735105760037 0 0.40655765028286611 0.035582104639029083 0 0.40325323122183843 0.024352223252143548 0 0.39536881189699241 0.01378873843063998 0 0.40720094273855439 0.01372602960598159 0 0.40060323373222451 0.0042547197705496897 0 0.39536881189699241 0.01378873843063998 0 0.40720094273855439 0.01372602960598159 0 0.40060323373222451 0.0042547197705496897 0 0.41081432206005303 0.0037114498956348132 0 0.4046584776842293 -0.0050702490882302163 0 0.40060323373222451 0.0042547197705496897 0 0.41081432206005303 0.0037114498956348132 0 0.40720094273855439 0.01372602960598159 0 0.40060323373222451 0.0042547197705496897 0 0.39025836247721268 0.0036292771787240202 0 0.39531848553630572 -0.0042569273994520467 0 0.40060323373222451 0.0042547197705496897 0 0.39536881189699241 0.01378873843063998 0 0.39025836247721268 0.0036292771787240202 0 0.37844401144479839 0.012609093579625891 0 0.38356146703633898 -0.0078565650350033434 0 0.37844401144479839 0.012609093579625891 0 0.39025836247721268 0.0036292771787240202 0 0.38356146703633898 -0.0078565650350033434 0 0.39536881189699241 0.01378873843063998 0 0.37844401144479839 0.012609093579625891 0 0.39025836247721268 0.0036292771787240202 0 0.3912475249538237 0.025882868266216091 0 0.37844401144479839 0.012609093579625891 0 0.38063223185621792 0.036578263657106522 0 0.37844401144479839 0.012609093579625891 0 0.38063223185621792 0.036578263657106522 0 0.37146335928247548 0.04052602251159599 0 0.37844401144479839 0.012609093579625891 0 0.38063223185621792 0.036578263657106522 0 0.3912475249538237 0.025882868266216091 0 0.39536881189699241 0.01378873843063998 0 0.37844401144479839 0.012609093579625891 0 0.37146335928247548 0.04052602251159599 0 0.38063223185621792 0.036578263657106522 0 0.38282045226763678 0.060547433734587333 0 0.3912475249538237 0.025882868266216091 0 0.38063223185621792 0.036578263657106522 0 0.3908528121234538 0.035995570554822158 0 0.38063223185621792 0.036578263657106522 0 0.38791705742610771 0.044539104287684539 0 0.3908528121234538 0.035995570554822158 0 0.38791705742610771 0.044539104287684539 0 0.38282045226763678 0.060547433734587333 0 0.39079668350586277 0.051215399393808793 0 0.37307104071443398 0.061065176941414383 0 0.37146335928247548 0.04052602251159599 0 0.38282045226763678 0.060547433734587333 0 0.38063223185621792 0.036578263657106522 0 0.38791705742610771 0.044539104287684539 0 0.38282045226763678 0.060547433734587333 0 0.38063223185621792 0.036578263657106522 0 0.38282045226763678 0.060547433734587333 0 0.38282045226763678 0.060547433734587333 0 0.39683376059791597 0.058855427163935138 0 0.39079668350586277 0.051215399393808793 0 0.41226619529834591 0.070009779738664735 0 0.39683376059791597 0.058855427163935138 0 0.40948896714378957 0.05055434744181983 0 0.39683376059791597 0.058855427163935138 0 0.39079668350586277 0.051215399393808793 0 0.39674782008621368 0.04348041067995833 0 0.39683376059791597 0.058855427163935138 0 0.39674782008621368 0.04348041067995833 0 0.40948896714378957 0.05055434744181983 0 0.3908528121234538 0.035995570554822158 0 0.39805180056669343 0.032772735105760037 0 0.39674782008621368 0.04348041067995833 0 0.3912475249538237 0.025882868266216091 0 0.3908528121234538 0.035995570554822158 0 0.39805180056669343 0.032772735105760037 0 0.38791705742610771 0.044539104287684539 0 0.3908528121234538 0.035995570554822158 0 0.39674782008621368 0.04348041067995833 0 0.38791705742610771 0.044539104287684539 0 0.39079668350586277 0.051215399393808793 0 0.39674782008621368 0.04348041067995833 0 0.39674782008621368 0.04348041067995833 0 0.40655765028286611 0.035582104639029083 0 0.40948896714378957 0.05055434744181983 0 0.39805180056669343 0.032772735105760037 0 0.39674782008621368 0.04348041067995833 0 0.40655765028286611 0.035582104639029083 0 0.40655765028286611 0.035582104639029083 0 0.41713079569888262 0.040856968430241461 0 0.41557099838193923 0.024039796491718179 0 0.41713079569888262 0.040856968430241461 0 0.42755741698364552 0.032815777208855347 0 0.41557099838193923 0.024039796491718179 0 0.40655765028286611 0.035582104639029083 0 0.41713079569888262 0.040856968430241461 0 0.40948896714378957 0.05055434744181983 0 0.41226619529834591 0.070009779738664735 0 0.40948896714378957 0.05055434744181983 0 0.42739758089851382 0.054541393999090262 0 0.41713079569888262 0.040856968430241461 0 0.40948896714378957 0.05055434744181983 0 0.42739758089851382 0.054541393999090262 0 0.41226619529834591 0.070009779738664735 0 0.42739758089851382 0.054541393999090262 0 0.43300293116684879 0.070359854062556224 0 0.42739758089851382 0.054541393999090262 0 0.44432728466234178 0.059795406129610977 0 0.41713079569888262 0.040856968430241461 0 0.42739758089851382 0.054541393999090262 0 0.42755741698364552 0.032815777208855347 0 0.42739758089851382 0.054541393999090262 0 0.42755741698364552 0.032815777208855347 0 0.44252896649868317 0.039073008259517338 0 0.42739758089851382 0.054541393999090262 0 0.44252896649868317 0.039073008259517338 0 0.42755741698364552 0.032815777208855347 0 0.4358194844604939 0.024219735287320941 0 0.44252896649868317 0.039073008259517338 0 0.42755741698364552 0.032815777208855347 0 0.41557099838193923 0.024039796491718179 0 0.4265644217351573 0.014684511896395219 0 0.4358194844604939 0.024219735287320941 0 0.4265644217351573 0.014684511896395219 0 0.44548351627008242 0.01642882659412407 0 0.42755741698364552 0.032815777208855347 0 0.4358194844604939 0.024219735287320941 0 0.4265644217351573 0.014684511896395219 0 0.41557099838193923 0.024039796491718179 0 0.4165272652869268 0.01155925859927168 0 0.4265644217351573 0.014684511896395219 0 0.41557099838193923 0.024039796491718179 0 0.40720094273855439 0.01372602960598159 0 0.4165272652869268 0.01155925859927168 0 0.40325323122183843 0.024352223252143548 0 0.41557099838193923 0.024039796491718179 0 0.40720094273855439 0.01372602960598159 0 0.40325323122183843 0.024352223252143548 0 0.40655765028286611 0.035582104639029083 0 0.41557099838193923 0.024039796491718179 0 0.41081432206005303 0.0037114498956348132 0 0.40720094273855439 0.01372602960598159 0 0.4165272652869268 0.01155925859927168 0 0.4165272652869268 0.01155925859927168 0 0.42248564151892998 0.0016345051066286029 0 0.4265644217351573 0.014684511896395219 0 0.41081432206005303 0.0037114498956348132 0 0.4165272652869268 0.01155925859927168 0 0.42248564151892998 0.0016345051066286029 0 0.42248564151892998 0.0016345051066286029 0 0.4265644217351573 0.014684511896395219 0 0.4382820622288856 -0.0014159552958160841 0 0.4265644217351573 0.014684511896395219 0 0.44548351627008242 0.01642882659412407 0 0.4382820622288856 -0.0014159552958160841 0 0.45100246047295739 0.0046664116742636159 0 0.44548351627008242 0.01642882659412407 0 0.4382820622288856 -0.0014159552958160841 0 0.45100246047295739 0.0046664116742636159 0 0.44548351627008242 0.01642882659412407 0 0.4580470330794123 0.0188547641718908 0 0.4358194844604939 0.024219735287320941 0 0.4514029071021442 0.02821869916314456 0 0.44548351627008242 0.01642882659412407 0 0.4358194844604939 0.024219735287320941 0 0.4514029071021442 0.02821869916314456 0 0.44252896649868317 0.039073008259517338 0 0.4514029071021442 0.02821869916314456 0 0.44548351627008242 0.01642882659412407 0 0.4580470330794123 0.0188547641718908 0 0.4514029071021442 0.02821869916314456 0 0.4580470330794123 0.0188547641718908 0 0.46553563141862692 0.027383902935855992 0 0.4580470330794123 0.0188547641718908 0 0.46553563141862692 0.027383902935855992 0 0.471035018561343 0.01684384088441979 0 0.4580470330794123 0.0188547641718908 0 0.4620271672997433 0.0081957990277541914 0 0.471035018561343 0.01684384088441979 0 0.4620271672997433 0.0081957990277541914 0 0.47207727543944228 0.0077163925679632076 0 0.45540766643685782 -0.0078732224449345398 0 0.4620271672997433 0.0081957990277541914 0 0.47207727543944228 0.0077163925679632076 0 0.471035018561343 0.01684384088441979 0 0.45100246047295739 0.0046664116742636159 0 0.4620271672997433 0.0081957990277541914 0 0.45540766643685782 -0.0078732224449345398 0 0.45100246047295739 0.0046664116742636159 0 0.4580470330794123 0.0188547641718908 0 0.4620271672997433 0.0081957990277541914 0 0.42739758089851382 0.054541393999090262 0 0.44432728466234178 0.059795406129610977 0 0.44252896649868317 0.039073008259517338 0 0.44432728466234178 0.059795406129610977 0 0.44252896649868317 0.039073008259517338 0 0.46100281088556699 0.043351957730158222 0 0.4514029071021442 0.02821869916314456 0 0.44252896649868317 0.039073008259517338 0 0.46100281088556699 0.043351957730158222 0 0.4514029071021442 0.02821869916314456 0 0.46553563141862692 0.027383902935855992 0 0.46100281088556699 0.043351957730158222 0 0.46553563141862692 0.027383902935855992 0 0.46100281088556699 0.043351957730158222 0 0.4764725540003833 0.035303178421407518 0 0.46368779630991369 0.062884433647911922 0 0.44432728466234178 0.059795406129610977 0 0.46100281088556699 0.043351957730158222 0 0.48297411160829701 0.071419164250366693 0 0.46368779630991369 0.062884433647911922 0 0.48184389815495748 0.047383459182506117 0 0.46368779630991369 0.062884433647911922 0 0.46100281088556699 0.043351957730158222 0 0.48184389815495748 0.047383459182506117 0 0.46368779630991369 0.062884433647911922 0 0.48184389815495748 0.047383459182506117 0 0.46100281088556699 0.043351957730158222 0 0.48184389815495748 0.047383459182506117 0 0.4764725540003833 0.035303178421407518 0 0.48184389815495748 0.047383459182506117 0 0.50000000000000089 0.031882484717099757 0 0.48184389815495748 0.047383459182506117 0 0.50000000000000089 0.031882484717099757 0 0.5 0.058972369132007867 0 0.48184389815495748 0.047383459182506117 0 0.4764725540003833 0.035303178421407518 0 0.50000000000000089 0.031882484717099757 0 0.48297411160829701 0.071419164250366693 0 0.48184389815495748 0.047383459182506117 0 0.5 0.058972369132007867 0 0.48173822001607031 0.002441982684480838 0 0.47207727543944228 0.0077163925679632076 0 0.45540766643685782 -0.0078732224449345398 0 0.48073089036299149 0.01447516008145705 0 0.48088876464914698 0.0066420825236524483 0 0.47207727543944228 0.0077163925679632076 0 0.48088876464914698 0.0066420825236524483 0 0.48173822001607031 0.002441982684480838 0 0.48944624590280772 0.014576472087587141 0 0.48073089036299149 0.01447516008145705 0 0.48088876464914698 0.0066420825236524483 0 0.48944624590280772 0.014576472087587141 0 0.48088876464914698 0.0066420825236524483 0 0.48173822001607031 0.002441982684480838 0 0.47207727543944228 0.0077163925679632076 0 0.48088876464914698 0.0066420825236524483 0 0.48173822001607031 0.002441982684480838 0 0.48073089036299149 0.01447516008145705 0 0.47207727543944228 0.0077163925679632076 0 0.471035018561343 0.01684384088441979 0 0.46553563141862692 0.027383902935855992 0 0.471035018561343 0.01684384088441979 0 0.48098968552297122 0.023479159592672289 0 0.46553563141862692 0.027383902935855992 0 0.4764725540003833 0.035303178421407518 0 0.48098968552297122 0.023479159592672289 0 0.48073089036299149 0.01447516008145705 0 0.471035018561343 0.01684384088441979 0 0.48098968552297122 0.023479159592672289 0 0.48073089036299149 0.01447516008145705 0 0.48098968552297122 0.023479159592672289 0 0.48944624590280772 0.014576472087587141 0 0.50000000000000089 0.031882484717099757 0 0.50000000000000044 0.0095961811708810997 0 0.48944624590280772 0.014576472087587141 0 0.4764725540003833 0.035303178421407518 0 0.50000000000000089 0.031882484717099757 0 0.48098968552297122 0.023479159592672289 0 0.50000000000000089 0.031882484717099757 0 0.48098968552297122 0.023479159592672289 0 0.48944624590280772 0.014576472087587141 0 0.48173822001607031 0.002441982684480838 0 0.50000000000000044 0.0095961811708810997 0 0.48944624590280772 0.014576472087587141 0 0.48173822001607031 0.002441982684480838 0 0.50000000000000044 0.0095961811708810997 0 0.48173822001607031 0.002441982684480838 0 0.50000000000000044 0.0095961811708810997 0 0.5 -0.01553848795347695 0 0.48173822001607031 0.002441982684480838 0 0.5 -0.01553848795347695 0 0.48723509010938909 -0.024737082977995831 0 0.48173822001607031 0.002441982684480838 0 0.48723509010938909 -0.024737082977995831 0 0.48173822001607031 0.002441982684480838 0 0.46944239540012012 -0.021901386132034111 0 0.45540766643685782 -0.0078732224449345398 0 0.48173822001607031 0.002441982684480838 0 0.46944239540012012 -0.021901386132034111 0 0.48723509010938909 -0.024737082977995831 0 0.46944239540012012 -0.021901386132034111 0 0.48723509010938909 -0.024737082977995831 0 0.47311684284700922 -0.039980301183512167 0 0.5 -0.01553848795347695 0 0.48723509010938909 -0.024737082977995831 0 0.5 -0.040673157077835087 0 0.48723509010938909 -0.024737082977995831 0 0.49273196020270971 -0.051916148640471983 0 0.48034048547664182 -0.050194577481915269 0 0.48723509010938909 -0.024737082977995831 0 0.49273196020270971 -0.051916148640471983 0 0.48723509010938909 -0.024737082977995831 0 0.5 -0.040673157077835087 0 0.49273196020270971 -0.051916148640471983 0 0.5 -0.040673157077835087 0 0.49273196020270971 -0.051916148640471983 0 0.5 -0.065807826202193331 0 0.49273196020270971 -0.051916148640471983 0 0.48384360039889979 -0.062204599920787272 0 0.48034048547664182 -0.050194577481915269 0 0.48034048547664182 -0.050194577481915269 0 0.47035120232490191 -0.060528185902064997 0 0.47311684284700922 -0.039980301183512167 0 0.47035120232490191 -0.060528185902064997 0 0.47311684284700922 -0.039980301183512167 0 0.48384360039889979 -0.062204599920787272 0 0.48034048547664182 -0.050194577481915269 0 0.47035120232490191 -0.060528185902064997 0 0.48723509010938909 -0.024737082977995831 0 0.48034048547664182 -0.050194577481915269 0 0.47311684284700922 -0.039980301183512167 0 0.46944239540012012 -0.021901386132034111 0 0.47311684284700922 -0.039980301183512167 0 0.44971415759127392 -0.039358306738208573 0 0.47035120232490191 -0.060528185902064997 0 0.47311684284700922 -0.039980301183512167 0 0.44971415759127392 -0.039358306738208573 0 0.47035120232490191 -0.060528185902064997 0 0.44971415759127392 -0.039358306738208573 0 0.47035120232490191 -0.060528185902064997 0 0.43963483674523918 -0.055334607978488382 0 0.44971415759127392 -0.039358306738208573 0 0.43963483674523918 -0.055334607978488382 0 0.44971415759127392 -0.039358306738208573 0 0.42419530264354072 -0.042652000491910397 0 0.46944239540012012 -0.021901386132034111 0 0.44971415759127392 -0.039358306738208573 0 0.45540766643685782 -0.0078732224449345398 0 0.44971415759127392 -0.039358306738208573 0 0.42907711285764621 -0.01818842757435184 0 0.44971415759127392 -0.039358306738208573 0 0.45540766643685782 -0.0078732224449345398 0 0.42907711285764621 -0.01818842757435184 0 0.45540766643685782 -0.0078732224449345398 0 0.42907711285764621 -0.01818842757435184 0 0.45100246047295739 0.0046664116742636159 0 0.4382820622288856 -0.0014159552958160841 0 0.45540766643685782 -0.0078732224449345398 0 0.4382820622288856 -0.0014159552958160841 0 0.45540766643685782 -0.0078732224449345398 0 0.42907711285764621 -0.01818842757435184 0 0.48173822001607031 0.002441982684480838 0 0.45540766643685782 -0.0078732224449345398 0 0.47129126618897188 -0.1223351355815797 0 0.47148248434309947 -0.114916285604633 0 0.48087269318342413 -0.1216818802472065 0 0.47148248434309947 -0.114916285604633 0 0.48087269318342413 -0.1216818802472065 0 0.47838814501791832 -0.1066654575105275 0 0.48087269318342413 -0.1216818802472065 0 0.48924328608656842 -0.1141618265083332 0 0.47838814501791832 -0.1066654575105275 0 0.5 -0.1122204549214597 0 0.48924328608656842 -0.1141618265083332 0 0.5 -0.13349841451636779 0 0.48087269318342413 -0.1216818802472065 0 0.48924328608656842 -0.1141618265083332 0 0.5 -0.13349841451636779 0 0.5 -0.1122204549214597 0 0.48924328608656842 -0.1141618265083332 0 0.48827073793524339 -0.097774102912636218 0 0.48924328608656842 -0.1141618265083332 0 0.48827073793524339 -0.097774102912636218 0 0.47838814501791832 -0.1066654575105275 0 0.5 -0.1122204549214597 0 0.48827073793524339 -0.097774102912636218 0 0.50000000000000266 -0.090942495326551576 0 0.47652975213937199 -0.091635549067057065 0 0.46683976751390588 -0.086617099886465918 0 0.46456669494636288 -0.10350535152343909 0 0.48827073793524339 -0.097774102912636218 0 0.47838814501791832 -0.1066654575105275 0 0.47652975213937199 -0.091635549067057065 0 0.47148248434309947 -0.114916285604633 0 0.47838814501791832 -0.1066654575105275 0 0.46456669494636288 -0.10350535152343909 0 0.47838814501791832 -0.1066654575105275 0 0.47652975213937199 -0.091635549067057065 0 0.46456669494636288 -0.10350535152343909 0 0.48827073793524339 -0.097774102912636218 0 0.47652975213937199 -0.091635549067057065 0 0.48517560116245317 -0.075735340614307423 0 0.47652975213937199 -0.091635549067057065 0 0.48517560116245317 -0.075735340614307423 0 0.46683976751390588 -0.086617099886465918 0 0.47652975213937199 -0.091635549067057065 0 0.46683976751390588 -0.086617099886465918 0 0.50000000000000266 -0.090942495326551576 0 0.49822883029603021 -0.079095214302948247 0 0.5 -0.065807826202193331 0 0.48827073793524339 -0.097774102912636218 0 0.50000000000000266 -0.090942495326551576 0 0.48517560116245317 -0.075735340614307423 0 0.50000000000000266 -0.090942495326551576 0 0.48517560116245317 -0.075735340614307423 0 0.50000000000000266 -0.090942495326551576 0 0.49822883029603021 -0.079095214302948247 0 0.48517560116245317 -0.075735340614307423 0 0.49273196020270971 -0.051916148640471983 0 0.49822883029603021 -0.079095214302948247 0 0.48384360039889979 -0.062204599920787272 0 0.49822883029603021 -0.079095214302948247 0 0.48517560116245317 -0.075735340614307423 0 0.49273196020270971 -0.051916148640471983 0 0.48384360039889979 -0.062204599920787272 0 0.49822883029603021 -0.079095214302948247 0 0.49273196020270971 -0.051916148640471983 0 0.49822883029603021 -0.079095214302948247 0 0.5 -0.065807826202193331 0 0.47035120232490191 -0.060528185902064997 0 0.48517560116245317 -0.075735340614307423 0 0.47035120232490191 -0.060528185902064997 0 0.48517560116245317 -0.075735340614307423 0 0.46683976751390588 -0.086617099886465918 0 0.48384360039889979 -0.062204599920787272 0 0.47035120232490191 -0.060528185902064997 0 0.48517560116245317 -0.075735340614307423 0 0.47035120232490191 -0.060528185902064997 0 0.46683976751390588 -0.086617099886465918 0 0.47035120232490191 -0.060528185902064997 0 0.44249197108241189 -0.074007360679063244 0 0.46683976751390588 -0.086617099886465918 0 0.47035120232490191 -0.060528185902064997 0 0.43963483674523918 -0.055334607978488382 0 0.44249197108241189 -0.074007360679063244 0 0.44249197108241189 -0.074007360679063244 0 0.46683976751390588 -0.086617099886465918 0 0.4490662803509099 -0.094083529251462475 0 0.44249197108241189 -0.074007360679063244 0 0.4490662803509099 -0.094083529251462475 0 0.42834270349958448 -0.099226311759436261 0 0.44249197108241189 -0.074007360679063244 0 0.46683976751390588 -0.086617099886465918 0 0.46683976751390588 -0.086617099886465918 0 0.46456669494636288 -0.10350535152343909 0 0.4490662803509099 -0.094083529251462475 0 0.46683976751390588 -0.086617099886465918 0 0.46456669494636288 -0.10350535152343909 0 0.46456669494636288 -0.10350535152343909 0 0.4490662803509099 -0.094083529251462475 0 0.44386094964032902 -0.11054798122052439 0 0.4490662803509099 -0.094083529251462475 0 0.44386094964032902 -0.11054798122052439 0 0.42834270349958448 -0.099226311759436261 0 0.44386094964032902 -0.11054798122052439 0 0.46257396642688631 -0.12529077885077469 0 0.45239247298790419 -0.125419693033265 0 0.44386094964032902 -0.11054798122052439 0 0.42916935431308728 -0.1205456085246996 0 0.4435038969132965 -0.12540022695152131 0 0.44386094964032902 -0.11054798122052439 0 0.45239247298790419 -0.125419693033265 0 0.4435038969132965 -0.12540022695152131 0 0.44386094964032902 -0.11054798122052439 0 0.46229362237882032 -0.1203936031604123 0 0.46257396642688631 -0.12529077885077469 0 0.46456669494636288 -0.10350535152343909 0 0.46229362237882032 -0.1203936031604123 0 0.46456669494636288 -0.10350535152343909 0 0.44386094964032902 -0.11054798122052439 0 0.46229362237882032 -0.1203936031604123 0 0.44386094964032902 -0.11054798122052439 0 0.46257396642688631 -0.12529077885077469 0 0.47148248434309947 -0.114916285604633 0 0.46456669494636288 -0.10350535152343909 0 0.46229362237882032 -0.1203936031604123 0 0.47129126618897188 -0.1223351355815797 0 0.46229362237882032 -0.1203936031604123 0 0.46257396642688631 -0.12529077885077469 0 0.47129126618897188 -0.1223351355815797 0 0.47148248434309947 -0.114916285604633 0 0.46229362237882032 -0.1203936031604123 0 0.44386094964032902 -0.11054798122052439 0 0.42916935431308728 -0.1205456085246996 0 0.42834270349958448 -0.099226311759436261 0 0.41143930547928681 -0.11934523636421419 0 0.42916935431308728 -0.1205456085246996 0 0.42834270349958448 -0.099226311759436261 0 0.41143930547928681 -0.11934523636421419 0 0.40555832972599831 -0.095826118330896617 0 0.41143930547928681 -0.11934523636421419 0 0.42834270349958448 -0.099226311759436261 0 0.40555832972599831 -0.095826118330896617 0 0.42834270349958448 -0.099226311759436261 0 0.41884290658632428 -0.080552882507727325 0 0.40555832972599831 -0.095826118330896617 0 0.41884290658632428 -0.080552882507727325 0 0.39967735397270959 -0.072307000297579083 0 0.40555832972599831 -0.095826118330896617 0 0.44249197108241189 -0.074007360679063244 0 0.42834270349958448 -0.099226311759436261 0 0.41884290658632428 -0.080552882507727325 0 0.44249197108241189 -0.074007360679063244 0 0.41814417465091752 -0.061397621471661459 0 0.43963483674523918 -0.055334607978488382 0 0.44249197108241189 -0.074007360679063244 0 0.41814417465091752 -0.061397621471661459 0 0.44249197108241189 -0.074007360679063244 0 0.41884290658632428 -0.080552882507727325 0 0.41814417465091752 -0.061397621471661459 0 0.41884290658632428 -0.080552882507727325 0 0.39967735397270959 -0.072307000297579083 0 0.41814417465091752 -0.061397621471661459 0 0.39967735397270959 -0.072307000297579083 0 0.38669795957132042 -0.057310603286660967 0 0.37240766699872252 -0.068318548019290964 0 0.39967735397270959 -0.072307000297579083 0 0.37781097748786241 -0.089314889372882261 0 0.37240766699872252 -0.068318548019290964 0 0.39967735397270959 -0.072307000297579083 0 0.37781097748786241 -0.089314889372882261 0 0.40555832972599831 -0.095826118330896617 0 0.39967735397270959 -0.072307000297579083 0 0.40555832972599831 -0.095826118330896617 0 0.40555832972599831 -0.095826118330896617 0 0.38953803654933628 -0.10754997095337659 0 0.39823574772599779 -0.11763079726210079 0 0.37781097748786241 -0.089314889372882261 0 0.40555832972599831 -0.095826118330896617 0 0.38953803654933628 -0.10754997095337659 0 0.37781097748786241 -0.089314889372882261 0 0.38953803654933628 -0.10754997095337659 0 0.37644505785585192 -0.1058120404938334 0 0.38953803654933628 -0.10754997095337659 0 0.37644505785585192 -0.1058120404938334 0 0.37720890243704291 -0.12310924361699779 0 0.38953803654933628 -0.10754997095337659 0 0.37720890243704291 -0.12310924361699779 0 0.38918813321375051 -0.12739880168557821 0 0.38953803654933628 -0.10754997095337659 0 0.39823574772599779 -0.11763079726210079 0 0.38918813321375051 -0.12739880168557821 0 0.41143930547928681 -0.11934523636421419 0 0.39823574772599779 -0.11763079726210079 0 0.40257569972698831 -0.13396225485532559 0 0.41143930547928681 -0.11934523636421419 0 0.40555832972599831 -0.095826118330896617 0 0.39823574772599779 -0.11763079726210079 0 0.42011428296152808 -0.02169968792975261 0 0.41401194260749391 -0.028450411104576211 0 0.41343304557213612 -0.018371446868227208 0 0.42011428296152808 -0.02169968792975261 0 0.41343304557213612 -0.018371446868227208 0 0.41928481904255338 -0.01548900553927589 0 0.42011428296152808 -0.02169968792975261 0 0.41928481904255338 -0.01548900553927589 0 0.42542521438275183 -0.0144422395697206 0 0.42011428296152808 -0.02169968792975261 0 0.41401194260749391 -0.028450411104576211 0 0.42742255973229643 -0.030069766767760062 0 0.41401194260749391 -0.028450411104576211 0 0.40522076275047969 -0.019933987949522329 0 0.40044964155059998 -0.029094842751199331 0 0.41401194260749391 -0.028450411104576211 0 0.41343304557213612 -0.018371446868227208 0 0.40522076275047969 -0.019933987949522329 0 0.41343304557213612 -0.018371446868227208 0 0.40806592415966281 -0.01253819616599721 0 0.40522076275047969 -0.019933987949522329 0 0.40806592415966281 -0.01253819616599721 0 0.4135204533098043 -0.0054466611181140526 0 0.41498054603746559 -0.011947546426581419 0 0.41343304557213612 -0.018371446868227208 0 0.40806592415966281 -0.01253819616599721 0 0.41498054603746559 -0.011947546426581419 0 0.41081432206005303 0.0037114498956348132 0 0.4135204533098043 -0.0054466611181140526 0 0.4046584776842293 -0.0050702490882302163 0 0.40806592415966281 -0.01253819616599721 0 0.4135204533098043 -0.0054466611181140526 0 0.4046584776842293 -0.0050702490882302163 0 0.41081432206005303 0.0037114498956348132 0 0.42248564151892998 0.0016345051066286029 0 0.4135204533098043 -0.0054466611181140526 0 0.42248564151892998 0.0016345051066286029 0 0.4135204533098043 -0.0054466611181140526 0 0.42119781252485211 -0.0083000839364812864 0 0.41343304557213612 -0.018371446868227208 0 0.41498054603746559 -0.011947546426581419 0 0.41928481904255338 -0.01548900553927589 0 0.4135204533098043 -0.0054466611181140526 0 0.41498054603746559 -0.011947546426581419 0 0.42119781252485211 -0.0083000839364812864 0 0.41498054603746559 -0.011947546426581419 0 0.42119781252485211 -0.0083000839364812864 0 0.41928481904255338 -0.01548900553927589 0 0.42542521438275183 -0.0144422395697206 0 0.42820760236351979 -0.0076976995852137747 0 0.42907711285764621 -0.01818842757435184 0 0.4382820622288856 -0.0014159552958160841 0 0.42820760236351979 -0.0076976995852137747 0 0.42907711285764621 -0.01818842757435184 0 0.42119781252485211 -0.0083000839364812864 0 0.41928481904255338 -0.01548900553927589 0 0.42542521438275183 -0.0144422395697206 0 0.42248564151892998 0.0016345051066286029 0 0.4382820622288856 -0.0014159552958160841 0 0.42820760236351979 -0.0076976995852137747 0 0.42119781252485211 -0.0083000839364812864 0 0.42542521438275183 -0.0144422395697206 0 0.42820760236351979 -0.0076976995852137747 0 0.42248564151892998 0.0016345051066286029 0 0.42119781252485211 -0.0083000839364812864 0 0.42820760236351979 -0.0076976995852137747 0 0.44971415759127392 -0.039358306738208573 0 0.42907711285764621 -0.01818842757435184 0 0.42742255973229643 -0.030069766767760062 0 0.42011428296152808 -0.02169968792975261 0 0.42907711285764621 -0.01818842757435184 0 0.42742255973229643 -0.030069766767760062 0 0.42011428296152808 -0.02169968792975261 0 0.42542521438275183 -0.0144422395697206 0 0.42907711285764621 -0.01818842757435184 0 0.42011428296152808 -0.02169968792975261 0 0.42907711285764621 -0.01818842757435184 0 0.42542521438275183 -0.0144422395697206 0 0.42907711285764621 -0.01818842757435184 0 0.44971415759127392 -0.039358306738208573 0 0.42742255973229643 -0.030069766767760062 0 0.42419530264354072 -0.042652000491910397 0 0.41401194260749391 -0.028450411104576211 0 0.42742255973229643 -0.030069766767760062 0 0.42419530264354072 -0.042652000491910397 0 0.43963483674523918 -0.055334607978488382 0 0.42419530264354072 -0.042652000491910397 0 0.41814417465091752 -0.061397621471661459 0 0.41814417465091752 -0.061397621471661459 0 0.41107184061272262 -0.047596707948501772 0 0.39379637821942232 -0.04878788226426127 0 0.42419530264354072 -0.042652000491910397 0 0.41814417465091752 -0.061397621471661459 0 0.41107184061272262 -0.047596707948501772 0 0.41401194260749391 -0.028450411104576211 0 0.42419530264354072 -0.042652000491910397 0 0.40815150693701141 -0.037549327566173699 0 0.42419530264354072 -0.042652000491910397 0 0.41107184061272262 -0.047596707948501772 0 0.40815150693701141 -0.037549327566173699 0 0.41401194260749391 -0.028450411104576211 0 0.40815150693701141 -0.037549327566173699 0 0.40044964155059998 -0.029094842751199331 0 0.41107184061272262 -0.047596707948501772 0 0.40815150693701141 -0.037549327566173699 0 0.39379637821942232 -0.04878788226426127 0 0.40815150693701141 -0.037549327566173699 0 0.39379637821942232 -0.04878788226426127 0 0.40044964155059998 -0.029094842751199331 0 0.39379637821942232 -0.04878788226426127 0 0.38867892262788012 -0.028322223649632432 0 0.39379637821942232 -0.04878788226426127 0 0.38867892262788012 -0.028322223649632432 0 0.40044964155059998 -0.029094842751199331 0 0.39967735397270959 -0.072307000297579083 0 0.39379637821942232 -0.04878788226426127 0 0.38669795957132042 -0.057310603286660967 0 0.41814417465091752 -0.061397621471661459 0 0.39379637821942232 -0.04878788226426127 0 0.39967735397270959 -0.072307000297579083 0 0.39379637821942232 -0.04878788226426127 0 0.39967735397270959 -0.072307000297579083 0 0.41814417465091752 -0.061397621471661459 0 0.39379637821942232 -0.04878788226426127 0 0.39379637821942232 -0.04878788226426127 0 0.38896036142985008 -0.046283306103098283 0 0.38669795957132042 -0.057310603286660967 0 0.37839056082150663 -0.050608978831784571 0 0.37240766699872252 -0.068318548019290964 0 0.38669795957132042 -0.057310603286660967 0 0.37839056082150663 -0.050608978831784571 0 0.38896036142985008 -0.046283306103098283 0 0.39379637821942232 -0.04878788226426127 0 0.38669795957132042 -0.057310603286660967 0 0.38896036142985008 -0.046283306103098283 0 0.39379637821942232 -0.04878788226426127 0 0.38896036142985008 -0.046283306103098283 0 0.38867892262788012 -0.028322223649632432 0 0.3834615598562825 -0.037386722635115492 0 0.38896036142985008 -0.046283306103098283 0 0.38867892262788012 -0.028322223649632432 0 0.37839056082150663 -0.050608978831784571 0 0.3834615598562825 -0.037386722635115492 0 0.38896036142985008 -0.046283306103098283 0 0.37839056082150663 -0.050608978831784571 0 0.3834615598562825 -0.037386722635115492 0 0.37356965880113402 -0.040783236975350308 0 0.38867892262788012 -0.028322223649632432 0 0.38356146703633898 -0.0078565650350033434 0 0.3834615598562825 -0.037386722635115492 0 0.37600683512296651 -0.014087071697862221 0 0.37356965880113402 -0.040783236975350308 0 0.3834615598562825 -0.037386722635115492 0 0.38867892262788012 -0.028322223649632432 0 0.37600683512296651 -0.014087071697862221 0 0.38867892262788012 -0.028322223649632432 0 0.37600683512296651 -0.014087071697862221 0 0.38356146703633898 -0.0078565650350033434 0 0.38867892262788012 -0.028322223649632432 0 0.39658225960386179 -0.014459285545308009 0 0.38356146703633898 -0.0078565650350033434 0 0.38867892262788012 -0.028322223649632432 0 0.40044964155059998 -0.029094842751199331 0 0.39658225960386179 -0.014459285545308009 0 0.40522076275047969 -0.019933987949522329 0 0.40044964155059998 -0.029094842751199331 0 0.39658225960386179 -0.014459285545308009 0 0.40806592415966281 -0.01253819616599721 0 0.40522076275047969 -0.019933987949522329 0 0.39658225960386179 -0.014459285545308009 0 0.40060323373222451 0.0042547197705496897 0 0.4046584776842293 -0.0050702490882302163 0 0.39531848553630572 -0.0042569273994520467 0 0.40806592415966281 -0.01253819616599721 0 0.4046584776842293 -0.0050702490882302163 0 0.39658225960386179 -0.014459285545308009 0 0.4046584776842293 -0.0050702490882302163 0 0.39658225960386179 -0.014459285545308009 0 0.39531848553630572 -0.0042569273994520467 0 0.39658225960386179 -0.014459285545308009 0 0.39531848553630572 -0.0042569273994520467 0 0.38356146703633898 -0.0078565650350033434 0 0.39025836247721268 0.0036292771787240202 0 0.39531848553630572 -0.0042569273994520467 0 0.38356146703633898 -0.0078565650350033434 0 0.37844401144479839 0.012609093579625891 0 0.37600683512296651 -0.014087071697862221 0 0.37844401144479839 0.012609093579625891 0 0.37600683512296651 -0.014087071697862221 0 0.38356146703633898 -0.0078565650350033434 0 0.37600683512296651 -0.014087071697862221 0 0.36665723294200347 -0.001883505129568449 0 0.35850646790810559 -0.01395473468271459 0 0.37844401144479839 0.012609093579625891 0 0.37600683512296651 -0.014087071697862221 0 0.36665723294200347 -0.001883505129568449 0 0.36665723294200347 -0.001883505129568449 0 0.35531676971978082 -0.0033532784323768001 0 0.35850646790810559 -0.01395473468271459 0 0.37600683512296651 -0.014087071697862221 0 0.37356965880113402 -0.040783236975350308 0 0.37600683512296651 -0.014087071697862221 0 0.36404947753274258 -0.026706798856440471 0 0.35850646790810559 -0.01395473468271459 0 0.37600683512296651 -0.014087071697862221 0 0.36404947753274258 -0.026706798856440471 0 0.37356965880113402 -0.040783236975350308 0 0.34748556133762742 -0.02738266599094942 0 0.35850646790810559 -0.01395473468271459 0 0.34370628527030811 -0.0115647124322744 0 0.36404947753274258 -0.026706798856440471 0 0.34748556133762742 -0.02738266599094942 0 0.35850646790810559 -0.01395473468271459 0 0.36404947753274258 -0.026706798856440471 0 0.34748556133762742 -0.02738266599094942 0 0.36012817770438982 -0.039413746555128387 0 0.33689267375143878 0.0039255003288513873 0 0.35531676971978082 -0.0033532784323768001 0 0.34370628527030811 -0.0115647124322744 0 0.35531676971978082 -0.0033532784323768001 0 0.35850646790810559 -0.01395473468271459 0 0.34370628527030811 -0.0115647124322744 0 0.33689267375143878 0.0039255003288513873 0 0.34370628527030811 -0.0115647124322744 0 0.32469666258817742 -0.019557632270551 0 0.33689267375143878 0.0039255003288513873 0 0.30352242257352219 0.0039185454548519476 0 0.32469666258817742 -0.019557632270551 0 0.34748556133762742 -0.02738266599094942 0 0.34370628527030811 -0.0115647124322744 0 0.32469666258817742 -0.019557632270551 0 0.34748556133762742 -0.02738266599094942 0 0.32469666258817742 -0.019557632270551 0 0.33457477032001748 -0.043965109755099818 0 0.31326255248553708 -0.043768501277314603 0 0.32924913997341337 -0.063603686862235317 0 0.31014365419524398 -0.06072536978512106 0 0.31326255248553708 -0.043768501277314603 0 0.32924913997341337 -0.063603686862235317 0 0.31326255248553708 -0.043768501277314603 0 0.33457477032001748 -0.043965109755099818 0 0.32924913997341337 -0.063603686862235317 0 0.32469666258817742 -0.019557632270551 0 0.31326255248553708 -0.043768501277314603 0 0.33457477032001748 -0.043965109755099818 0 0.33457477032001748 -0.043965109755099818 0 0.34313363496153881 -0.061193084728204693 0 0.35029003257871461 -0.048624574981710279 0 0.33457477032001748 -0.043965109755099818 0 0.34313363496153881 -0.061193084728204693 0 0.32924913997341337 -0.063603686862235317 0 0.35029003257871461 -0.048624574981710279 0 0.36524615827173029 -0.053571455971191423 0 0.35631850447425872 -0.066333179594821989 0 0.34313363496153881 -0.061193084728204693 0 0.35029003257871461 -0.048624574981710279 0 0.35631850447425872 -0.066333179594821989 0 0.35029003257871461 -0.048624574981710279 0 0.36012817770438982 -0.039413746555128387 0 0.36524615827173029 -0.053571455971191423 0 0.34748556133762742 -0.02738266599094942 0 0.33457477032001748 -0.043965109755099818 0 0.35029003257871461 -0.048624574981710279 0 0.34748556133762742 -0.02738266599094942 0 0.35029003257871461 -0.048624574981710279 0 0.36012817770438982 -0.039413746555128387 0 0.36404947753274258 -0.026706798856440471 0 0.36012817770438982 -0.039413746555128387 0 0.37356965880113402 -0.040783236975350308 0 0.36012817770438982 -0.039413746555128387 0 0.37356965880113402 -0.040783236975350308 0 0.36524615827173029 -0.053571455971191423 0 0.37839056082150663 -0.050608978831784571 0 0.36524615827173029 -0.053571455971191423 0 0.37240766699872252 -0.068318548019290964 0 0.37839056082150663 -0.050608978831784571 0 0.37356965880113402 -0.040783236975350308 0 0.36524615827173029 -0.053571455971191423 0 0.36524615827173029 -0.053571455971191423 0 0.37240766699872252 -0.068318548019290964 0 0.35631850447425872 -0.066333179594821989 0 0.37240766699872252 -0.068318548019290964 0 0.36259903827425999 -0.08213590949324566 0 0.35631850447425872 -0.066333179594821989 0 0.37781097748786241 -0.089314889372882261 0 0.37240766699872252 -0.068318548019290964 0 0.36259903827425999 -0.08213590949324566 0 0.37781097748786241 -0.089314889372882261 0 0.36259903827425999 -0.08213590949324566 0 0.3612223149491664 -0.1032740580320769 0 0.34523572746128989 -0.083438872447156087 0 0.3612223149491664 -0.1032740580320769 0 0.36259903827425999 -0.08213590949324566 0 0.34523572746128989 -0.083438872447156087 0 0.3612223149491664 -0.1032740580320769 0 0.34313363496153881 -0.061193084728204693 0 0.34523572746128989 -0.083438872447156087 0 0.35631850447425872 -0.066333179594821989 0 0.36259903827425999 -0.08213590949324566 0 0.34523572746128989 -0.083438872447156087 0 0.35631850447425872 -0.066333179594821989 0 0.37720890243704291 -0.12310924361699779 0 0.36253108037134668 -0.1248744885805331 0 0.3612223149491664 -0.1032740580320769 0 0.37644505785585192 -0.1058120404938334 0 0.37720890243704291 -0.12310924361699779 0 0.3612223149491664 -0.1032740580320769 0 0.37720890243704291 -0.12310924361699779 0 0.3612223149491664 -0.1032740580320769 0 0.37781097748786241 -0.089314889372882261 0 0.37644505785585192 -0.1058120404938334 0 0.3612223149491664 -0.1032740580320769 0 0.34523572746128989 -0.083438872447156087 0 0.3612223149491664 -0.1032740580320769 0 0.33932087337301742 -0.1007066993955318 0 0.3612223149491664 -0.1032740580320769 0 0.34941185211170689 -0.1127717253903176 0 0.33932087337301742 -0.1007066993955318 0 0.36253108037134668 -0.1248744885805331 0 0.33587402752894302 -0.122350175475488 0 0.36253108037134668 -0.1248744885805331 0 0.34941185211170689 -0.1127717253903176 0 0.33587402752894302 -0.122350175475488 0 0.36253108037134668 -0.1248744885805331 0 0.3612223149491664 -0.1032740580320769 0 0.34941185211170689 -0.1127717253903176 0 0.34941185211170689 -0.1127717253903176 0 0.33587402752894302 -0.122350175475488 0 0.33932087337301742 -0.1007066993955318 0 0.33587402752894302 -0.122350175475488 0 0.33932087337301742 -0.1007066993955318 0 0.31943204723016899 -0.10139701157958859 0 0.33932087337301742 -0.1007066993955318 0 0.31943204723016899 -0.10139701157958859 0 0.32474927095682959 -0.081008353448563344 0 0.33587402752894302 -0.122350175475488 0 0.31943204723016899 -0.10139701157958859 0 0.3092169746865393 -0.1198258623704429 0 0.33587402752894302 -0.122350175475488 0 0.3092169746865393 -0.1198258623704429 0 0.34523572746128989 -0.083438872447156087 0 0.32924913997341337 -0.063603686862235317 0 0.32474927095682959 -0.081008353448563344 0 0.34523572746128989 -0.083438872447156087 0 0.32924913997341337 -0.063603686862235317 0 0.34313363496153881 -0.061193084728204693 0 0.34523572746128989 -0.083438872447156087 0 0.32924913997341337 -0.063603686862235317 0 0.34523572746128989 -0.083438872447156087 0 0.33932087337301742 -0.1007066993955318 0 0.32474927095682959 -0.081008353448563344 0 0.31943204723016899 -0.10139701157958859 0 0.32474927095682959 -0.081008353448563344 0 0.31117343018006932 -0.08835554327446378 0 0.32474927095682959 -0.081008353448563344 0 0.30201438303726968 -0.075929904193525521 0 0.32474927095682959 -0.081008353448563344 0 0.30201438303726968 -0.075929904193525521 0 0.31117343018006932 -0.08835554327446378 0 0.32924913997341337 -0.063603686862235317 0 0.32474927095682959 -0.081008353448563344 0 0.31014365419524398 -0.06072536978512106 0 0.32474927095682959 -0.081008353448563344 0 0.30201438303726968 -0.075929904193525521 0 0.31014365419524398 -0.06072536978512106 0 0.30201438303726968 -0.075929904193525521 0 0.31014365419524398 -0.06072536978512106 0 0.29222542489931519 -0.060978945333093171 0 0.31117343018006932 -0.08835554327446378 0 0.29442961060618023 -0.089764156713605506 0 0.30306705175182019 -0.101009202806625 0 0.30201438303726968 -0.075929904193525521 0 0.31117343018006932 -0.08835554327446378 0 0.29442961060618023 -0.089764156713605506 0 0.29442961060618023 -0.089764156713605506 0 0.28691460331806928 -0.079185378374353493 0 0.27734124638624891 -0.089737863242296378 0 0.30201438303726968 -0.075929904193525521 0 0.29442961060618023 -0.089764156713605506 0 0.28691460331806928 -0.079185378374353493 0 0.30201438303726968 -0.075929904193525521 0 0.27927949511770961 -0.070851454938488739 0 0.29222542489931519 -0.060978945333093171 0 0.30201438303726968 -0.075929904193525521 0 0.27927949511770961 -0.070851454938488739 0 0.30201438303726968 -0.075929904193525521 0 0.28691460331806928 -0.079185378374353493 0 0.27927949511770961 -0.070851454938488739 0 0.28691460331806928 -0.079185378374353493 0 0.27927949511770961 -0.070851454938488739 0 0.27809334201771629 -0.079209584513290715 0 0.28691460331806928 -0.079185378374353493 0 0.27927949511770961 -0.070851454938488739 0 0.27927949511770961 -0.070851454938488739 0 0.27868582307562201 -0.055886184139343542 0 0.29222542489931519 -0.060978945333093171 0 0.31943204723016899 -0.10139701157958859 0 0.3092169746865393 -0.1198258623704429 0 0.30306705175182019 -0.101009202806625 0 0.3092169746865393 -0.1198258623704429 0 0.30306705175182019 -0.101009202806625 0 0.28879183359809052 -0.10393054527906551 0 0.31943204723016899 -0.10139701157958859 0 0.31117343018006932 -0.08835554327446378 0 0.30306705175182019 -0.101009202806625 0 0.28879183359809052 -0.10393054527906551 0 0.28255992184413548 -0.11730154926539781 0 0.27267591943638608 -0.1048970298088977 0 0.29442961060618023 -0.089764156713605506 0 0.28879183359809052 -0.10393054527906551 0 0.27734124638624891 -0.089737863242296378 0 0.29442961060618023 -0.089764156713605506 0 0.30306705175182019 -0.101009202806625 0 0.28879183359809052 -0.10393054527906551 0 0.3092169746865393 -0.1198258623704429 0 0.28255992184413548 -0.11730154926539781 0 0.3092169746865393 -0.1198258623704429 0 0.28879183359809052 -0.10393054527906551 0 0.28255992184413548 -0.11730154926539781 0 0.3092169746865393 -0.1198258623704429 0 0.28255992184413548 -0.11730154926539781 0 0.28721398294742878 -0.13035474923543569 0 0.28255992184413548 -0.11730154926539781 0 0.26776517015272971 -0.1222840496799191 0 0.28721398294742878 -0.13035474923543569 0 0.28255992184413548 -0.11730154926539781 0 0.26776517015272971 -0.1222840496799191 0 0.27267591943638608 -0.1048970298088977 0 0.26776517015272971 -0.1222840496799191 0 0.27267591943638608 -0.1048970298088977 0 0.26047800574605201 -0.11084537767631369 0 0.28879183359809052 -0.10393054527906551 0 0.27267591943638608 -0.1048970298088977 0 0.27734124638624891 -0.089737863242296378 0 0.27267591943638608 -0.1048970298088977 0 0.27734124638624891 -0.089737863242296378 0 0.26256105175446781 -0.092679464148907056 0 0.25771864553297669 -0.099620140202181948 0 0.26047800574605201 -0.11084537767631369 0 0.24375228786211539 -0.116580291014256 0 0.27267591943638608 -0.1048970298088977 0 0.25771864553297669 -0.099620140202181948 0 0.26256105175446781 -0.092679464148907056 0 0.25771864553297669 -0.099620140202181948 0 0.25304747237378489 -0.090741332181114118 0 0.24292322406264641 -0.096552741650977186 0 0.25771864553297669 -0.099620140202181948 0 0.26256105175446781 -0.092679464148907056 0 0.25304747237378489 -0.090741332181114118 0 0.27267591943638608 -0.1048970298088977 0 0.25771864553297669 -0.099620140202181948 0 0.26047800574605201 -0.11084537767631369 0 0.26776517015272971 -0.1222840496799191 0 0.26153006621115998 -0.13421007507225571 0 0.24375228786211539 -0.116580291014256 0 0.26776517015272971 -0.1222840496799191 0 0.24375228786211539 -0.116580291014256 0 0.26776517015272971 -0.1222840496799191 0 0.26047800574605201 -0.11084537767631369 0 0.24375228786211539 -0.116580291014256 0 0.27927949511770961 -0.070851454938488739 0 0.25811154610651499 -0.066123023671663908 0 0.26329678137076351 -0.053405898285071182 0 0.27927949511770961 -0.070851454938488739 0 0.25811154610651499 -0.066123023671663908 0 0.26883802324883782 -0.077063641498024305 0 0.27927949511770961 -0.070851454938488739 0 0.25811154610651499 -0.066123023671663908 0 0.26883802324883782 -0.077063641498024305 0 0.27927949511770961 -0.070851454938488739 0 0.27809334201771629 -0.079209584513290715 0 0.26883802324883782 -0.077063641498024305 0 0.27809334201771629 -0.079209584513290715 0 0.27734124638624891 -0.089737863242296378 0 0.26883802324883782 -0.077063641498024305 0 0.27734124638624891 -0.089737863242296378 0 0.25202197504294188 -0.078400955310045109 0 0.28691460331806928 -0.079185378374353493 0 0.27809334201771629 -0.079209584513290715 0 0.27734124638624891 -0.089737863242296378 0 0.27734124638624891 -0.089737863242296378 0 0.26256105175446781 -0.092679464148907056 0 0.25202197504294188 -0.078400955310045109 0 0.27734124638624891 -0.089737863242296378 0 0.25202197504294188 -0.078400955310045109 0 0.26256105175446781 -0.092679464148907056 0 0.25304747237378489 -0.090741332181114118 0 0.25202197504294188 -0.078400955310045109 0 0.25304747237378489 -0.090741332181114118 0 0.25202197504294188 -0.078400955310045109 0 0.24624903761231479 -0.086847438891893419 0 0.26883802324883782 -0.077063641498024305 0 0.25202197504294188 -0.078400955310045109 0 0.25811154610651499 -0.066123023671663908 0 0.25811154610651499 -0.066123023671663908 0 0.26329678137076351 -0.053405898285071182 0 0.24870160087168189 -0.052882304334001928 0 0.26329678137076351 -0.053405898285071182 0 0.24870160087168189 -0.052882304334001928 0 0.24731406762381819 -0.035960341631652723 0 0.27927949511770961 -0.070851454938488739 0 0.26329678137076351 -0.053405898285071182 0 0.27868582307562201 -0.055886184139343542 0 0.27927949511770961 -0.070851454938488739 0 0.26329678137076351 -0.053405898285071182 0 0.26329678137076351 -0.053405898285071182 0 0.27868582307562201 -0.055886184139343542 0 0.27337213238318842 -0.044040078526876879 0 0.27868582307562201 -0.055886184139343542 0 0.27337213238318842 -0.044040078526876879 0 0.28525528160713332 -0.050154543613187753 0 0.26329678137076351 -0.053405898285071182 0 0.27337213238318842 -0.044040078526876879 0 0.26311483972878968 -0.036713614733010089 0 0.27337213238318842 -0.044040078526876879 0 0.27217486102646721 -0.027861542379398439 0 0.28494473946257981 -0.034556038004921102 0 0.27337213238318842 -0.044040078526876879 0 0.26311483972878968 -0.036713614733010089 0 0.27217486102646721 -0.027861542379398439 0 0.27337213238318842 -0.044040078526876879 0 0.28525528160713332 -0.050154543613187753 0 0.28494473946257981 -0.034556038004921102 0 0.26311483972878968 -0.036713614733010089 0 0.25941635623971138 -0.02230021284205122 0 0.24731406762381819 -0.035960341631652723 0 0.26329678137076351 -0.053405898285071182 0 0.24731406762381819 -0.035960341631652723 0 0.26329678137076351 -0.053405898285071182 0 0.26311483972878968 -0.036713614733010089 0 0.24731406762381819 -0.035960341631652723 0 0.25941635623971138 -0.02230021284205122 0 0.24731406762381819 -0.035960341631652723 0 0.2482857443068576 -0.021714794414400052 0 0.25941635623971138 -0.02230021284205122 0 0.25508119948702751 -0.010083838205662381 0 0.2482857443068576 -0.021714794414400052 0 0.26311483972878968 -0.036713614733010089 0 0.25941635623971138 -0.02230021284205122 0 0.27217486102646721 -0.027861542379398439 0 0.2541426920980116 -0.0036136263454906951 0 0.25508119948702751 -0.010083838205662381 0 0.24138147174972829 -0.0061427828714447699 0 0.2541426920980116 -0.0036136263454906951 0 0.25508119948702751 -0.010083838205662381 0 0.26047117107291767 -0.0019720443344692288 0 0.25446675038947358 0.0029162606258486688 0 0.2541426920980116 -0.0036136263454906951 0 0.26047117107291767 -0.0019720443344692288 0 0.25941635623971138 -0.02230021284205122 0 0.25508119948702751 -0.010083838205662381 0 0.26474460583379889 -0.01023883548432745 0 0.25941635623971138 -0.02230021284205122 0 0.26474460583379889 -0.01023883548432745 0 0.27166734417845928 -0.01430021117376327 0 0.25508119948702751 -0.010083838205662381 0 0.26474460583379889 -0.01023883548432745 0 0.26047117107291767 -0.0019720443344692288 0 0.26474460583379889 -0.01023883548432745 0 0.26047117107291767 -0.0019720443344692288 0 0.27708695819087842 -0.0025378708656911609 0 0.26474460583379889 -0.01023883548432745 0 0.27166734417845928 -0.01430021117376327 0 0.27708695819087842 -0.0025378708656911609 0 0.27166734417845928 -0.01430021117376327 0 0.27708695819087842 -0.0025378708656911609 0 0.28469269166600031 -0.01545933141113482 0 0.27217486102646721 -0.027861542379398439 0 0.28469269166600031 -0.01545933141113482 0 0.28494473946257981 -0.034556038004921102 0 0.25941635623971138 -0.02230021284205122 0 0.27166734417845928 -0.01430021117376327 0 0.27217486102646721 -0.027861542379398439 0 0.27166734417845928 -0.01430021117376327 0 0.27217486102646721 -0.027861542379398439 0 0.28469269166600031 -0.01545933141113482 0 0.28469269166600031 -0.01545933141113482 0 0.29727596499766062 -0.023933315692393788 0 0.28494473946257981 -0.034556038004921102 0 0.30352242257352219 0.0039185454548519476 0 0.28469269166600031 -0.01545933141113482 0 0.29727596499766062 -0.023933315692393788 0 0.30352242257352219 0.0039185454548519476 0 0.27708695819087842 -0.0025378708656911609 0 0.28469269166600031 -0.01545933141113482 0 0.30352242257352219 0.0039185454548519476 0 0.32469666258817742 -0.019557632270551 0 0.29727596499766062 -0.023933315692393788 0 0.32469666258817742 -0.019557632270551 0 0.31326255248553708 -0.043768501277314603 0 0.29727596499766062 -0.023933315692393788 0 0.31326255248553708 -0.043768501277314603 0 0.29727596499766062 -0.023933315692393788 0 0.2968975050950291 -0.045887416406534938 0 0.31326255248553708 -0.043768501277314603 0 0.29727596499766062 -0.023933315692393788 0 0.31326255248553708 -0.043768501277314603 0 0.2968975050950291 -0.045887416406534938 0 0.31014365419524398 -0.06072536978512106 0 0.2968975050950291 -0.045887416406534938 0 0.31014365419524398 -0.06072536978512106 0 0.29222542489931519 -0.060978945333093171 0 0.2968975050950291 -0.045887416406534938 0 0.29222542489931519 -0.060978945333093171 0 0.28525528160713332 -0.050154543613187753 0 0.27868582307562201 -0.055886184139343542 0 0.29222542489931519 -0.060978945333093171 0 0.28525528160713332 -0.050154543613187753 0 0.2968975050950291 -0.045887416406534938 0 0.28525528160713332 -0.050154543613187753 0 0.28494473946257981 -0.034556038004921102 0 0.29727596499766062 -0.023933315692393788 0 0.2968975050950291 -0.045887416406534938 0 0.28494473946257981 -0.034556038004921102 0 0.29579617193404978 -0.19432558104056491 0 0.30588539897632072 -0.22256652654210629 0 0.2776594049058328 -0.2175861504380624 0 0.29579617193404978 -0.19432558104056491 0 0.2776594049058328 -0.2175861504380624 0 0.2764107852420567 -0.19644220614923899 0 0.29579617193404978 -0.19432558104056491 0 0.2764107852420567 -0.19644220614923899 0 0.2792899687438003 -0.18116405860585089 0 0.29579617193404978 -0.19432558104056491 0 0.31045946319455608 -0.20263901644370941 0 0.31057073564158039 -0.17760626025882659 0 0.29579617193404978 -0.19432558104056491 0 0.30588539897632072 -0.22256652654210629 0 0.31045946319455608 -0.20263901644370941 0 0.30588539897632072 -0.22256652654210629 0 0.32020032842118662 -0.2136972324735969 0 0.29579617193404978 -0.19432558104056491 0 0.31045946319455608 -0.20263901644370941 0 0.30588539897632072 -0.22256652654210629 0 0.29681701546221179 -0.23419681124085551 0 0.31597462601859122 -0.25080747204364812 0 0.30111904597271899 -0.2536098058489899 0 0.30588539897632072 -0.22256652654210629 0 0.29681701546221179 -0.23419681124085551 0 0.31597462601859122 -0.25080747204364812 0 0.30588539897632072 -0.22256652654210629 0 0.31597462601859122 -0.25080747204364812 0 0.29681701546221179 -0.23419681124085551 0 0.31597462601859122 -0.25080747204364812 0 0.29681701546221179 -0.23419681124085551 0 0.30111904597271899 -0.2536098058489899 0 0.28456511698073272 -0.25518130134833977 0 0.29681701546221179 -0.23419681124085551 0 0.27830026498091959 -0.23745462562099759 0 0.28456511698073272 -0.25518130134833977 0 0.30588539897632072 -0.22256652654210629 0 0.29681701546221179 -0.23419681124085551 0 0.2776594049058328 -0.2175861504380624 0 0.29681701546221179 -0.23419681124085551 0 0.27830026498091959 -0.23745462562099759 0 0.2776594049058328 -0.2175861504380624 0 0.29681701546221179 -0.23419681124085551 0 0.2776594049058328 -0.2175861504380624 0 0.26584409390649738 -0.23415831621220631 0 0.27830026498091959 -0.23745462562099759 0 0.2776594049058328 -0.2175861504380624 0 0.26584409390649738 -0.23415831621220631 0 0.25658827463044448 -0.2222138965281123 0 0.2776594049058328 -0.2175861504380624 0 0.27830026498091959 -0.23745462562099759 0 0.28456511698073272 -0.25518130134833977 0 0.26629969424128969 -0.25192769388052821 0 0.26584409390649738 -0.23415831621220631 0 0.27830026498091959 -0.23745462562099759 0 0.26629969424128969 -0.25192769388052821 0 0.26584409390649738 -0.23415831621220631 0 0.25037283077400019 -0.2416092145933311 0 0.26629969424128969 -0.25192769388052821 0 0.25037283077400019 -0.2416092145933311 0 0.25658827463044448 -0.2222138965281123 0 0.2446094219978813 -0.2276121794933563 0 0.26584409390649738 -0.23415831621220631 0 0.25037283077400019 -0.2416092145933311 0 0.25658827463044448 -0.2222138965281123 0 0.25658827463044448 -0.2222138965281123 0 0.2776594049058328 -0.2175861504380624 0 0.25850179434945381 -0.20097548963526929 0 0.25658827463044448 -0.2222138965281123 0 0.25850179434945381 -0.20097548963526929 0 0.23907695871134879 -0.21289681242661959 0 0.2776594049058328 -0.2175861504380624 0 0.25850179434945381 -0.20097548963526929 0 0.2776594049058328 -0.2175861504380624 0 0.2764107852420567 -0.19644220614923899 0 0.25850179434945381 -0.20097548963526929 0 0.2764107852420567 -0.19644220614923899 0 0.25850179434945381 -0.20097548963526929 0 0.26539786460737957 -0.18100391429238191 0 0.25850179434945381 -0.20097548963526929 0 0.26539786460737957 -0.18100391429238191 0 0.23934418379307471 -0.18436482883247621 0 0.26539786460737957 -0.18100391429238191 0 0.25449645062408999 -0.16331052089379791 0 0.23934418379307471 -0.18436482883247621 0 0.26539786460737957 -0.18100391429238191 0 0.25449645062408999 -0.16331052089379791 0 0.27043371620885309 -0.16438603764101259 0 0.25449645062408999 -0.16331052089379791 0 0.27043371620885309 -0.16438603764101259 0 0.2633734196266177 -0.15149826902969399 0 0.27043371620885309 -0.16438603764101259 0 0.2792899687438003 -0.18116405860585089 0 0.28570694489177878 -0.1660846355390232 0 0.27043371620885309 -0.16438603764101259 0 0.27930784456020519 -0.15183985913025491 0 0.28570694489177878 -0.1660846355390232 0 0.26539786460737957 -0.18100391429238191 0 0.27043371620885309 -0.16438603764101259 0 0.2792899687438003 -0.18116405860585089 0 0.2764107852420567 -0.19644220614923899 0 0.26539786460737957 -0.18100391429238191 0 0.2792899687438003 -0.18116405860585089 0 0.26153006621115998 -0.13421007507225571 0 0.24375228786211539 -0.116580291014256 0 0.24955680073527009 -0.143898101237383 0 0.26153006621115998 -0.13421007507225571 0 0.24375228786211539 -0.116580291014256 0 0.25449645062408999 -0.16331052089379791 0 0.2633734196266177 -0.15149826902969399 0 0.24955680073527009 -0.143898101237383 0 0.26153006621115998 -0.13421007507225571 0 0.2633734196266177 -0.15149826902969399 0 0.24955680073527009 -0.143898101237383 0 0.27043371620885309 -0.16438603764101259 0 0.2633734196266177 -0.15149826902969399 0 0.27930784456020519 -0.15183985913025491 0 0.27561771784950778 -0.13784369003748159 0 0.28570694489177878 -0.1660846355390232 0 0.26153006621115998 -0.13421007507225571 0 0.27930784456020519 -0.15183985913025491 0 0.27561771784950778 -0.13784369003748159 0 0.27930784456020519 -0.15183985913025491 0 0.27561771784950778 -0.13784369003748159 0 0.28570694489177878 -0.1660846355390232 0 0.26153006621115998 -0.13421007507225571 0 0.2633734196266177 -0.15149826902969399 0 0.27930784456020519 -0.15183985913025491 0 0.26153006621115998 -0.13421007507225571 0 0.27930784456020519 -0.15183985913025491 0 0.26776517015272971 -0.1222840496799191 0 0.27561771784950778 -0.13784369003748159 0 0.28721398294742878 -0.13035474923543569 0 0.26776517015272971 -0.1222840496799191 0 0.26153006621115998 -0.13421007507225571 0 0.27561771784950778 -0.13784369003748159 0 0.27561771784950778 -0.13784369003748159 0 0.28721398294742878 -0.13035474923543569 0 0.28891568690104508 -0.14625428249578579 0 0.28721398294742878 -0.13035474923543569 0 0.28891568690104508 -0.14625428249578579 0 0.29920842625061578 -0.1386190615635868 0 0.28891568690104508 -0.14625428249578579 0 0.29920842625061578 -0.1386190615635868 0 0.29789574789403661 -0.15876522012859751 0 0.27561771784950778 -0.13784369003748159 0 0.28891568690104508 -0.14625428249578579 0 0.28570694489177878 -0.1660846355390232 0 0.30985117626407932 -0.1486491484402036 0 0.29920842625061578 -0.1386190615635868 0 0.29789574789403661 -0.15876522012859751 0 0.30985117626407932 -0.1486491484402036 0 0.29789574789403661 -0.15876522012859751 0 0.3134799250960158 -0.16133035304856411 0 0.30985117626407932 -0.1486491484402036 0 0.29920842625061578 -0.1386190615635868 0 0.31980994510895661 -0.13408045692276491 0 0.3092169746865393 -0.1198258623704429 0 0.28721398294742878 -0.13035474923543569 0 0.29920842625061578 -0.1386190615635868 0 0.3092169746865393 -0.1198258623704429 0 0.29920842625061578 -0.1386190615635868 0 0.31980994510895661 -0.13408045692276491 0 0.29579617193404978 -0.19432558104056491 0 0.2792899687438003 -0.18116405860585089 0 0.28570694489177878 -0.1660846355390232 0 0.29579617193404978 -0.19432558104056491 0 0.28570694489177878 -0.1660846355390232 0 0.29579617193404978 -0.19432558104056491 0 0.28570694489177878 -0.1660846355390232 0 0.29784246694311001 -0.17248502473641619 0 0.28891568690104508 -0.14625428249578579 0 0.28570694489177878 -0.1660846355390232 0 0.29789574789403661 -0.15876522012859751 0 0.28570694489177878 -0.1660846355390232 0 0.29789574789403661 -0.15876522012859751 0 0.29784246694311001 -0.17248502473641619 0 0.29789574789403661 -0.15876522012859751 0 0.31057073564158039 -0.17760626025882659 0 0.3134799250960158 -0.16133035304856411 0 0.29789574789403661 -0.15876522012859751 0 0.31057073564158039 -0.17760626025882659 0 0.29784246694311001 -0.17248502473641619 0 0.29789574789403661 -0.15876522012859751 0 0.31057073564158039 -0.17760626025882659 0 0.29579617193404978 -0.19432558104056491 0 0.31057073564158039 -0.17760626025882659 0 0.29784246694311001 -0.17248502473641619 0 0.31057073564158039 -0.17760626025882659 0 0.33117051957001492 -0.16690810347740409 0 0.33960500058918919 -0.18923554211963439 0 0.31057073564158039 -0.17760626025882659 0 0.32324572338912438 -0.19644730038905581 0 0.3134799250960158 -0.16133035304856411 0 0.33117051957001492 -0.16690810347740409 0 0.32297156368297691 -0.15191279281852399 0 0.31057073564158039 -0.17760626025882659 0 0.3134799250960158 -0.16133035304856411 0 0.33117051957001492 -0.16690810347740409 0 0.33117051957001492 -0.16690810347740409 0 0.34312821131240068 -0.1490342399984359 0 0.35150112372442083 -0.17432517416681301 0 0.33117051957001492 -0.16690810347740409 0 0.35150112372442083 -0.17432517416681301 0 0.33960500058918919 -0.18923554211963439 0 0.33587402752894302 -0.122350175475488 0 0.3092169746865393 -0.1198258623704429 0 0.31980994510895661 -0.13408045692276491 0 0.30985117626407932 -0.1486491484402036 0 0.31980994510895661 -0.13408045692276491 0 0.32297156368297691 -0.15191279281852399 0 0.30985117626407932 -0.1486491484402036 0 0.3134799250960158 -0.16133035304856411 0 0.32297156368297691 -0.15191279281852399 0 0.33117051957001492 -0.16690810347740409 0 0.32297156368297691 -0.15191279281852399 0 0.34312821131240068 -0.1490342399984359 0 0.31980994510895661 -0.13408045692276491 0 0.32297156368297691 -0.15191279281852399 0 0.34312821131240068 -0.1490342399984359 0 0.33587402752894302 -0.122350175475488 0 0.31980994510895661 -0.13408045692276491 0 0.34312821131240068 -0.1490342399984359 0 0.36253108037134668 -0.1248744885805331 0 0.33587402752894302 -0.122350175475488 0 0.3555623608711499 -0.1359942506039106 0 0.33587402752894302 -0.122350175475488 0 0.34312821131240068 -0.1490342399984359 0 0.3555623608711499 -0.1359942506039106 0 0.34312821131240068 -0.1490342399984359 0 0.3555623608711499 -0.1359942506039106 0 0.36858459771950869 -0.15733985743645959 0 0.3555623608711499 -0.1359942506039106 0 0.36652086356581781 -0.12946943863695781 0 0.36858459771950869 -0.15733985743645959 0 0.36652086356581781 -0.12946943863695781 0 0.36858459771950869 -0.15733985743645959 0 0.36652086356581781 -0.12946943863695781 0 0.36858459771950869 -0.15733985743645959 0 0.3787995421462832 -0.1425544525875144 0 0.36652086356581781 -0.12946943863695781 0 0.37808333446084269 -0.1309391893982525 0 0.3787995421462832 -0.1425544525875144 0 0.36253108037134668 -0.1248744885805331 0 0.36652086356581781 -0.12946943863695781 0 0.37808333446084269 -0.1309391893982525 0 0.36253108037134668 -0.1248744885805331 0 0.3555623608711499 -0.1359942506039106 0 0.36652086356581781 -0.12946943863695781 0 0.35150112372442083 -0.17432517416681301 0 0.37064833187319962 -0.1852102762359614 0 0.35587008128221181 -0.19822302573298239 0 0.35150112372442083 -0.17432517416681301 0 0.35587008128221181 -0.19822302573298239 0 0.33960500058918919 -0.18923554211963439 0 0.34312821131240068 -0.1490342399984359 0 0.35150112372442083 -0.17432517416681301 0 0.36858459771950869 -0.15733985743645959 0 0.36858459771950869 -0.15733985743645959 0 0.37064833187319962 -0.1852102762359614 0 0.35150112372442083 -0.17432517416681301 0 0.36858459771950869 -0.15733985743645959 0 0.37064833187319962 -0.1852102762359614 0 0.36858459771950869 -0.15733985743645959 0 0.37064833187319962 -0.1852102762359614 0 0.3834788620725188 -0.17954848884060079 0 0.37064833187319962 -0.1852102762359614 0 0.37271206602689039 -0.21308069503546309 0 0.38139900114097952 -0.20469292352659629 0 0.37064833187319962 -0.1852102762359614 0 0.37271206602689039 -0.21308069503546309 0 0.37064833187319962 -0.1852102762359614 0 0.37271206602689039 -0.21308069503546309 0 0.35587008128221181 -0.19822302573298239 0 0.37271206602689039 -0.21308069503546309 0 0.35603419272415182 -0.2169366224123114 0 0.35587008128221181 -0.19822302573298239 0 0.35603419272415182 -0.2169366224123114 0 0.35587008128221181 -0.19822302573298239 0 0.33592071113666833 -0.21528834051928489 0 0.35587008128221181 -0.19822302573298239 0 0.33960500058918919 -0.18923554211963439 0 0.33592071113666833 -0.21528834051928489 0 0.33960500058918919 -0.18923554211963439 0 0.33592071113666833 -0.21528834051928489 0 0.32324572338912438 -0.19644730038905581 0 0.33592071113666833 -0.21528834051928489 0 0.32324572338912438 -0.19644730038905581 0 0.33592071113666833 -0.21528834051928489 0 0.32020032842118662 -0.2136972324735969 0 0.32324572338912438 -0.19644730038905581 0 0.31045946319455608 -0.20263901644370941 0 0.32020032842118662 -0.2136972324735969 0 0.32324572338912438 -0.19644730038905581 0 0.31057073564158039 -0.17760626025882659 0 0.33960500058918919 -0.18923554211963439 0 0.32324572338912438 -0.19644730038905581 0 0.31045946319455608 -0.20263901644370941 0 0.31057073564158039 -0.17760626025882659 0 0.32324572338912438 -0.19644730038905581 0 0.32549034540926353 -0.23154497847382799 0 0.33517615116993849 -0.24743488902137309 0 0.31597462601859122 -0.25080747204364812 0 0.30588539897632072 -0.22256652654210629 0 0.32549034540926353 -0.23154497847382799 0 0.31597462601859122 -0.25080747204364812 0 0.30588539897632072 -0.22256652654210629 0 0.32020032842118662 -0.2136972324735969 0 0.32549034540926353 -0.23154497847382799 0 0.33592071113666833 -0.21528834051928489 0 0.32020032842118662 -0.2136972324735969 0 0.32549034540926353 -0.23154497847382799 0 0.33592071113666833 -0.21528834051928489 0 0.32549034540926353 -0.23154497847382799 0 0.34859569888421221 -0.23412938064951411 0 0.33592071113666833 -0.21528834051928489 0 0.34859569888421221 -0.23412938064951411 0 0.32549034540926353 -0.23154497847382799 0 0.33517615116993849 -0.24743488902137309 0 0.34859569888421221 -0.23412938064951411 0 0.33517615116993849 -0.24743488902137309 0 0.34859569888421221 -0.23412938064951411 0 0.35185333732921159 -0.25428502110151557 0 0.34859569888421221 -0.23412938064951411 0 0.36075586336603621 -0.2426037127049111 0 0.35185333732921159 -0.25428502110151557 0 0.34859569888421221 -0.23412938064951411 0 0.36291464790978972 -0.22902601310760301 0 0.36075586336603621 -0.2426037127049111 0 0.35603419272415182 -0.2169366224123114 0 0.34859569888421221 -0.23412938064951411 0 0.36291464790978972 -0.22902601310760301 0 0.35603419272415182 -0.2169366224123114 0 0.33592071113666833 -0.21528834051928489 0 0.34859569888421221 -0.23412938064951411 0 0.37271206602689039 -0.21308069503546309 0 0.35603419272415182 -0.2169366224123114 0 0.36291464790978972 -0.22902601310760301 0 0.37271206602689039 -0.21308069503546309 0 0.37477580018058132 -0.24095111383496479 0 0.37555308153547928 -0.22286467051027881 0 0.37271206602689039 -0.21308069503546309 0 0.37477580018058132 -0.24095111383496479 0 0.37271206602689039 -0.21308069503546309 0 0.36291464790978972 -0.22902601310760301 0 0.37477580018058132 -0.24095111383496479 0 0.36075586336603621 -0.2426037127049111 0 0.37477580018058132 -0.24095111383496479 0 0.36563983252638571 -0.25462703483095822 0 0.36291464790978972 -0.22902601310760301 0 0.36075586336603621 -0.2426037127049111 0 0.37477580018058132 -0.24095111383496479 0 0.37477580018058132 -0.24095111383496479 0 0.39321551516580561 -0.23618023300957031 0 0.38725375881062551 -0.25185160038302579 0 0.39321551516580561 -0.23618023300957031 0 0.41087794879613182 -0.2494957955088617 0 0.40741230325918792 -0.23450562481703699 0 0.39321551516580561 -0.23618023300957031 0 0.41087794879613182 -0.2494957955088617 0 0.39321551516580561 -0.23618023300957031 0 0.38725375881062551 -0.25185160038302579 0 0.39640803358832022 -0.25154779433757402 0 0.39321551516580561 -0.23618023300957031 0 0.41087794879613182 -0.2494957955088617 0 0.39640803358832022 -0.25154779433757402 0 0.4055308246994358 -0.22407667781788709 0 0.39424069285124719 -0.22310079746779379 0 0.40434357831770951 -0.21487406561090469 0 0.4055308246994358 -0.22407667781788709 0 0.39424069285124719 -0.22310079746779379 0 0.40741230325918792 -0.23450562481703699 0 0.39321551516580561 -0.23618023300957031 0 0.39424069285124719 -0.22310079746779379 0 0.40741230325918792 -0.23450562481703699 0 0.37477580018058132 -0.24095111383496479 0 0.39321551516580561 -0.23618023300957031 0 0.37555308153547928 -0.22286467051027881 0 0.39424069285124719 -0.22310079746779379 0 0.37555308153547928 -0.22286467051027881 0 0.38300691860546521 -0.21527996176244341 0 0.39321551516580561 -0.23618023300957031 0 0.37555308153547928 -0.22286467051027881 0 0.39321551516580561 -0.23618023300957031 0 0.39424069285124719 -0.22310079746779379 0 0.37555308153547928 -0.22286467051027881 0 0.37271206602689039 -0.21308069503546309 0 0.37555308153547928 -0.22286467051027881 0 0.38300691860546521 -0.21527996176244341 0 0.37271206602689039 -0.21308069503546309 0 0.38139900114097952 -0.20469292352659629 0 0.38300691860546521 -0.21527996176244341 0 0.38139900114097952 -0.20469292352659629 0 0.39078770323730427 -0.19674260859680251 0 0.39112975147272949 -0.2126607222720846 0 0.38139900114097952 -0.20469292352659629 0 0.38300691860546521 -0.21527996176244341 0 0.39112975147272949 -0.2126607222720846 0 0.39424069285124719 -0.22310079746779379 0 0.38300691860546521 -0.21527996176244341 0 0.39112975147272949 -0.2126607222720846 0 0.37064833187319962 -0.1852102762359614 0 0.38139900114097952 -0.20469292352659629 0 0.39078770323730427 -0.19674260859680251 0 0.39078770323730427 -0.19674260859680251 0 0.40475141021500721 -0.1910589369573561 0 0.39510197637232292 -0.1839605883432579 0 0.39078770323730427 -0.19674260859680251 0 0.40426546228868082 -0.20108352786525729 0 0.397631623829106 -0.20634023108626229 0 0.39078770323730427 -0.19674260859680251 0 0.40426546228868082 -0.20108352786525729 0 0.40475141021500721 -0.1910589369573561 0 0.39078770323730427 -0.19674260859680251 0 0.39112975147272949 -0.2126607222720846 0 0.397631623829106 -0.20634023108626229 0 0.39112975147272949 -0.2126607222720846 0 0.397631623829106 -0.20634023108626229 0 0.40434357831770951 -0.21487406561090469 0 0.39424069285124719 -0.22310079746779379 0 0.39112975147272949 -0.2126607222720846 0 0.40434357831770951 -0.21487406561090469 0 0.40426546228868082 -0.20108352786525729 0 0.397631623829106 -0.20634023108626229 0 0.40434357831770951 -0.21487406561090469 0 0.40434357831770951 -0.21487406561090469 0 0.41713092845542321 -0.20900944133272009 0 0.41612672436959858 -0.22382622337581301 0 0.40426546228868082 -0.20108352786525729 0 0.40434357831770951 -0.21487406561090469 0 0.41713092845542321 -0.20900944133272009 0 0.41713092845542321 -0.20900944133272009 0 0.42330136258736267 -0.2174116668913772 0 0.41612672436959858 -0.22382622337581301 0 0.40475141021500721 -0.1910589369573561 0 0.41487892771890261 -0.19826025474908979 0 0.4146572714410397 -0.186958864794112 0 0.40426546228868082 -0.20108352786525729 0 0.41713092845542321 -0.20900944133272009 0 0.41487892771890261 -0.19826025474908979 0 0.40426546228868082 -0.20108352786525729 0 0.40475141021500721 -0.1910589369573561 0 0.41487892771890261 -0.19826025474908979 0 0.41713092845542321 -0.20900944133272009 0 0.41487892771890261 -0.19826025474908979 0 0.42701217502226602 -0.19751647228806199 0 0.41487892771890261 -0.19826025474908979 0 0.42053294087941678 -0.1923617771039739 0 0.42701217502226602 -0.19751647228806199 0 0.42053294087941678 -0.1923617771039739 0 0.4146572714410397 -0.186958864794112 0 0.42558338933545942 -0.1867115165846317 0 0.41487892771890261 -0.19826025474908979 0 0.42053294087941678 -0.1923617771039739 0 0.4146572714410397 -0.186958864794112 0 0.42701217502226602 -0.19751647228806199 0 0.43844209377108118 -0.18689286854296691 0 0.44355474576021348 -0.2050869029196882 0 0.42053294087941678 -0.1923617771039739 0 0.42701217502226602 -0.19751647228806199 0 0.42558338933545942 -0.1867115165846317 0 0.42701217502226602 -0.19751647228806199 0 0.42558338933545942 -0.1867115165846317 0 0.43844209377108118 -0.18689286854296691 0 0.42701217502226602 -0.19751647228806199 0 0.43006687167525981 -0.21185300334864521 0 0.44355474576021348 -0.2050869029196882 0 0.41713092845542321 -0.20900944133272009 0 0.42330136258736267 -0.2174116668913772 0 0.43006687167525981 -0.21185300334864521 0 0.42330136258736267 -0.2174116668913772 0 0.43006687167525981 -0.21185300334864521 0 0.42988092584916948 -0.2249579995083304 0 0.41713092845542321 -0.20900944133272009 0 0.42701217502226602 -0.19751647228806199 0 0.43006687167525981 -0.21185300334864521 0 0.43006687167525981 -0.21185300334864521 0 0.42988092584916948 -0.2249579995083304 0 0.44009267276725389 -0.2176624614444449 0 0.42330136258736267 -0.2174116668913772 0 0.42988092584916948 -0.2249579995083304 0 0.41612672436959858 -0.22382622337581301 0 0.42988092584916948 -0.2249579995083304 0 0.43458399188612801 -0.2397076170126072 0 0.42159465327244361 -0.23640953485310751 0 0.42988092584916948 -0.2249579995083304 0 0.42159465327244361 -0.23640953485310751 0 0.41612672436959858 -0.22382622337581301 0 0.42988092584916948 -0.2249579995083304 0 0.43458399188612801 -0.2397076170126072 0 0.44416109061426973 -0.22983272991065171 0 0.43458399188612801 -0.2397076170126072 0 0.42656562700980838 -0.24831468624349931 0 0.4372088962240912 -0.25169219704383999 0 0.43458399188612801 -0.2397076170126072 0 0.42656562700980838 -0.24831468624349931 0 0.42159465327244361 -0.23640953485310751 0 0.42656562700980838 -0.24831468624349931 0 0.42159465327244361 -0.23640953485310751 0 0.41087794879613182 -0.2494957955088617 0 0.42159465327244361 -0.23640953485310751 0 0.41087794879613182 -0.2494957955088617 0 0.40741230325918792 -0.23450562481703699 0 0.4055308246994358 -0.22407667781788709 0 0.40741230325918792 -0.23450562481703699 0 0.41612672436959858 -0.22382622337581301 0 0.4055308246994358 -0.22407667781788709 0 0.40434357831770951 -0.21487406561090469 0 0.41612672436959858 -0.22382622337581301 0 0.42159465327244361 -0.23640953485310751 0 0.40741230325918792 -0.23450562481703699 0 0.41612672436959858 -0.22382622337581301 0 0.39823574772599779 -0.11763079726210079 0 0.40257569972698831 -0.13396225485532559 0 0.38918813321375051 -0.12739880168557821 0 0.40257569972698831 -0.13396225485532559 0 0.38918813321375051 -0.12739880168557821 0 0.39017348084279901 -0.13955387731924049 0 0.38918813321375051 -0.12739880168557821 0 0.37808333446084269 -0.1309391893982525 0 0.39017348084279901 -0.13955387731924049 0 0.37720890243704291 -0.12310924361699779 0 0.36253108037134668 -0.1248744885805331 0 0.38918813321375051 -0.12739880168557821 0 0.36253108037134668 -0.1248744885805331 0 0.38918813321375051 -0.12739880168557821 0 0.37808333446084269 -0.1309391893982525 0 0.36253108037134668 -0.1248744885805331 0 0.38918813321375051 -0.12739880168557821 0 0.37808333446084269 -0.1309391893982525 0 0.39017348084279901 -0.13955387731924049 0 0.3787995421462832 -0.1425544525875144 0 0.36858459771950869 -0.15733985743645959 0 0.3787995421462832 -0.1425544525875144 0 0.38535727780346091 -0.1527557998392445 0 0.39017348084279901 -0.13955387731924049 0 0.3787995421462832 -0.1425544525875144 0 0.38535727780346091 -0.1527557998392445 0 0.40257569972698831 -0.13396225485532559 0 0.39822107621443897 -0.1501202070538992 0 0.41732028123257531 -0.14286435439753159 0 0.40257569972698831 -0.13396225485532559 0 0.39017348084279901 -0.13955387731924049 0 0.39822107621443897 -0.1501202070538992 0 0.39017348084279901 -0.13955387731924049 0 0.38535727780346091 -0.1527557998392445 0 0.39822107621443897 -0.1501202070538992 0 0.39822107621443897 -0.1501202070538992 0 0.39107178753907162 -0.16851380255406381 0 0.40713652226246821 -0.16744863749245631 0 0.39107178753907162 -0.16851380255406381 0 0.40713652226246821 -0.16744863749245631 0 0.38535727780346091 -0.1527557998392445 0 0.39822107621443897 -0.1501202070538992 0 0.39107178753907162 -0.16851380255406381 0 0.39107178753907162 -0.16851380255406381 0 0.40460499843718001 -0.17902112385493851 0 0.40713652226246821 -0.16744863749245631 0 0.36858459771950869 -0.15733985743645959 0 0.38535727780346091 -0.1527557998392445 0 0.39107178753907162 -0.16851380255406381 0 0.36858459771950869 -0.15733985743645959 0 0.39107178753907162 -0.16851380255406381 0 0.3834788620725188 -0.17954848884060079 0 0.39107178753907162 -0.16851380255406381 0 0.3834788620725188 -0.17954848884060079 0 0.39510197637232292 -0.1839605883432579 0 0.39078770323730427 -0.19674260859680251 0 0.3834788620725188 -0.17954848884060079 0 0.39510197637232292 -0.1839605883432579 0 0.37064833187319962 -0.1852102762359614 0 0.39078770323730427 -0.19674260859680251 0 0.3834788620725188 -0.17954848884060079 0 0.39107178753907162 -0.16851380255406381 0 0.39510197637232292 -0.1839605883432579 0 0.40460499843718001 -0.17902112385493851 0 0.40475141021500721 -0.1910589369573561 0 0.39510197637232292 -0.1839605883432579 0 0.40460499843718001 -0.17902112385493851 0 0.40475141021500721 -0.1910589369573561 0 0.40460499843718001 -0.17902112385493851 0 0.4146572714410397 -0.186958864794112 0 0.40460499843718001 -0.17902112385493851 0 0.41491102279317088 -0.17618591298838529 0 0.4146572714410397 -0.186958864794112 0 0.40460499843718001 -0.17902112385493851 0 0.41491102279317088 -0.17618591298838529 0 0.40713652226246821 -0.16744863749245631 0 0.41491102279317088 -0.17618591298838529 0 0.42527009306055918 -0.1746571334479238 0 0.4232012569858648 -0.16638347243084889 0 0.41491102279317088 -0.17618591298838529 0 0.42095079563492938 -0.18072636251124541 0 0.42527009306055918 -0.1746571334479238 0 0.41491102279317088 -0.17618591298838529 0 0.42095079563492938 -0.18072636251124541 0 0.4146572714410397 -0.186958864794112 0 0.42095079563492938 -0.18072636251124541 0 0.4146572714410397 -0.186958864794112 0 0.42558338933545942 -0.1867115165846317 0 0.43180268423531071 -0.1802632517690351 0 0.42527009306055918 -0.1746571334479238 0 0.44880083799057491 -0.164686103644653 0 0.42095079563492938 -0.18072636251124541 0 0.42558338933545942 -0.1867115165846317 0 0.43180268423531071 -0.1802632517690351 0 0.42558338933545942 -0.1867115165846317 0 0.43180268423531071 -0.1802632517690351 0 0.43844209377108118 -0.18689286854296691 0 0.42095079563492938 -0.18072636251124541 0 0.43180268423531071 -0.1802632517690351 0 0.42527009306055918 -0.1746571334479238 0 0.42527009306055918 -0.1746571334479238 0 0.4232012569858648 -0.16638347243084889 0 0.44880083799057491 -0.164686103644653 0 0.4232012569858648 -0.16638347243084889 0 0.43334283997313311 -0.15135273030925811 0 0.44880083799057491 -0.164686103644653 0 0.4232012569858648 -0.16638347243084889 0 0.44880083799057491 -0.164686103644653 0 0.42527009306055918 -0.1746571334479238 0 0.4232012569858648 -0.16638347243084889 0 0.4232012569858648 -0.16638347243084889 0 0.40713652226246821 -0.16744863749245631 0 0.41732028123257531 -0.14286435439753159 0 0.41491102279317088 -0.17618591298838529 0 0.4232012569858648 -0.16638347243084889 0 0.40713652226246821 -0.16744863749245631 0 0.4232012569858648 -0.16638347243084889 0 0.40713652226246821 -0.16744863749245631 0 0.4232012569858648 -0.16638347243084889 0 0.41732028123257531 -0.14286435439753159 0 0.39822107621443897 -0.1501202070538992 0 0.40713652226246821 -0.16744863749245631 0 0.41732028123257531 -0.14286435439753159 0 0.41732028123257531 -0.14286435439753159 0 0.43334283997313311 -0.15135273030925811 0 0.43763345530417341 -0.13584027725706749 0 0.4232012569858648 -0.16638347243084889 0 0.41732028123257531 -0.14286435439753159 0 0.43334283997313311 -0.15135273030925811 0 0.42916935431308728 -0.1205456085246996 0 0.41732028123257531 -0.14286435439753159 0 0.43763345530417341 -0.13584027725706749 0 0.42916935431308728 -0.1205456085246996 0 0.4435038969132965 -0.12540022695152131 0 0.43763345530417341 -0.13584027725706749 0 0.41143930547928681 -0.11934523636421419 0 0.42916935431308728 -0.1205456085246996 0 0.41732028123257531 -0.14286435439753159 0 0.41143930547928681 -0.11934523636421419 0 0.40257569972698831 -0.13396225485532559 0 0.41732028123257531 -0.14286435439753159 0 0.41143930547928681 -0.11934523636421419 0 0.41732028123257531 -0.14286435439753159 0 0.46257396642688631 -0.12529077885077469 0 0.46381730130484328 -0.1363472541609663 0 0.4585659370706795 -0.1308283620105129 0 0.46381730130484328 -0.1363472541609663 0 0.4585659370706795 -0.1308283620105129 0 0.45274550479158487 -0.1345999168850856 0 0.46381730130484328 -0.1363472541609663 0 0.45274550479158487 -0.1345999168850856 0 0.46138481906560302 -0.14686228775601681 0 0.46257396642688631 -0.12529077885077469 0 0.4585659370706795 -0.1308283620105129 0 0.45239247298790419 -0.125419693033265 0 0.4585659370706795 -0.1308283620105129 0 0.45239247298790419 -0.125419693033265 0 0.45274550479158487 -0.1345999168850856 0 0.45239247298790419 -0.125419693033265 0 0.4435038969132965 -0.12540022695152131 0 0.45274550479158487 -0.1345999168850856 0 0.4435038969132965 -0.12540022695152131 0 0.43763345530417341 -0.13584027725706749 0 0.45274550479158487 -0.1345999168850856 0 0.43763345530417341 -0.13584027725706749 0 0.45274550479158487 -0.1345999168850856 0 0.44678149142501389 -0.1466682631704162 0 0.43334283997313311 -0.15135273030925811 0 0.44678149142501389 -0.1466682631704162 0 0.44880083799057491 -0.164686103644653 0 0.44678149142501389 -0.1466682631704162 0 0.46138481906560302 -0.14686228775601681 0 0.44880083799057491 -0.164686103644653 0 0.43334283997313311 -0.15135273030925811 0 0.43763345530417341 -0.13584027725706749 0 0.44678149142501389 -0.1466682631704162 0 0.45274550479158487 -0.1345999168850856 0 0.44678149142501389 -0.1466682631704162 0 0.46138481906560302 -0.14686228775601681 0 0.46138481906560302 -0.14686228775601681 0 0.44880083799057491 -0.164686103644653 0 0.47440041899528501 -0.16298873485845719 0 0.44880083799057491 -0.164686103644653 0 0.46834799031954211 -0.17915452781490099 0 0.47440041899528501 -0.16298873485845719 0 0.44880083799057491 -0.164686103644653 0 0.47440041899528501 -0.16298873485845719 0 0.43180268423531071 -0.1802632517690351 0 0.44880083799057491 -0.164686103644653 0 0.43844209377108118 -0.18689286854296691 0 0.44880083799057491 -0.164686103644653 0 0.43844209377108118 -0.18689286854296691 0 0.45508032593701309 -0.1914137801830845 0 0.44880083799057491 -0.164686103644653 0 0.46834799031954211 -0.17915452781490099 0 0.45508032593701309 -0.1914137801830845 0 0.46834799031954211 -0.17915452781490099 0 0.48419704391512092 -0.17843144908975531 0 0.47440041899528501 -0.16298873485845719 0 0.46834799031954211 -0.17915452781490099 0 0.48419704391512092 -0.17843144908975531 0 0.47823681026078202 -0.19812675643970101 0 0.48419704391512092 -0.17843144908975531 0 0.49999999999999523 -0.16129136607226169 0 0.5 -0.1905958602634561 0 0.49999999999999523 -0.16129136607226169 0 0.47440041899528501 -0.16298873485845719 0 0.50000000000000067 -0.1547763741112759 0 0.48419704391512092 -0.17843144908975531 0 0.49999999999999523 -0.16129136607226169 0 0.47440041899528501 -0.16298873485845719 0 0.49999999999999523 -0.16129136607226169 0 0.47440041899528501 -0.16298873485845719 0 0.46138481906560302 -0.14686228775601681 0 0.47440041899528501 -0.16298873485845719 0 0.48128698321344371 -0.14003357648102521 0 0.46381730130484328 -0.1363472541609663 0 0.46138481906560302 -0.14686228775601681 0 0.48128698321344371 -0.14003357648102521 0 0.50000000000000067 -0.1547763741112759 0 0.48128698321344371 -0.14003357648102521 0 0.50000000000000067 -0.1547763741112759 0 0.5 -0.13349841451636779 0 0.48128698321344371 -0.14003357648102521 0 0.47440041899528501 -0.16298873485845719 0 0.50000000000000067 -0.1547763741112759 0 0.48128698321344371 -0.14003357648102521 0 0.48087269318342413 -0.1216818802472065 0 0.5 -0.13349841451636779 0 0.48128698321344371 -0.14003357648102521 0 0.46257396642688631 -0.12529077885077469 0 0.48128698321344371 -0.14003357648102521 0 0.46257396642688631 -0.12529077885077469 0 0.46381730130484328 -0.1363472541609663 0 0.48128698321344371 -0.14003357648102521 0 0.47129126618897188 -0.1223351355815797 0 0.48087269318342413 -0.1216818802472065 0 0.48128698321344371 -0.14003357648102521 0 0.47129126618897188 -0.1223351355815797 0 0.46257396642688631 -0.12529077885077469 0 0.48128698321344371 -0.14003357648102521 0 0.46029750420545162 -0.23134667767863379 0 0.45079963313025367 -0.219495204315066 0 0.46126535540865482 -0.21094244298034759 0 0.46029750420545162 -0.23134667767863379 0 0.46126535540865482 -0.21094244298034759 0 0.47937109712497578 -0.22608105856418539 0 0.46029750420545162 -0.23134667767863379 0 0.44856132313442931 -0.24393079079591279 0 0.47387431588802909 -0.25499376211151131 0 0.46029750420545162 -0.23134667767863379 0 0.44856132313442931 -0.24393079079591279 0 0.44416109061426973 -0.22983272991065171 0 0.43458399188612801 -0.2397076170126072 0 0.44856132313442931 -0.24393079079591279 0 0.4372088962240912 -0.25169219704383999 0 0.43458399188612801 -0.2397076170126072 0 0.44856132313442931 -0.24393079079591279 0 0.44416109061426973 -0.22983272991065171 0 0.46029750420545162 -0.23134667767863379 0 0.44416109061426973 -0.22983272991065171 0 0.45079963313025367 -0.219495204315066 0 0.44416109061426973 -0.22983272991065171 0 0.45079963313025367 -0.219495204315066 0 0.44009267276725389 -0.2176624614444449 0 0.42988092584916948 -0.2249579995083304 0 0.44416109061426973 -0.22983272991065171 0 0.44009267276725389 -0.2176624614444449 0 0.45079963313025367 -0.219495204315066 0 0.44355474576021348 -0.2050869029196882 0 0.46126535540865482 -0.21094244298034759 0 0.43006687167525981 -0.21185300334864521 0 0.44009267276725389 -0.2176624614444449 0 0.44355474576021348 -0.2050869029196882 0 0.45079963313025367 -0.219495204315066 0 0.44009267276725389 -0.2176624614444449 0 0.44355474576021348 -0.2050869029196882 0 0.43844209377108118 -0.18689286854296691 0 0.44355474576021348 -0.2050869029196882 0 0.45508032593701309 -0.1914137801830845 0 0.46834799031954211 -0.17915452781490099 0 0.45508032593701309 -0.1914137801830845 0 0.47823681026078202 -0.19812675643970101 0 0.44355474576021348 -0.2050869029196882 0 0.45508032593701309 -0.1914137801830845 0 0.46126535540865482 -0.21094244298034759 0 0.45508032593701309 -0.1914137801830845 0 0.46126535540865482 -0.21094244298034759 0 0.47823681026078202 -0.19812675643970101 0 0.46126535540865482 -0.21094244298034759 0 0.47823681026078202 -0.19812675643970101 0 0.47937109712497578 -0.22608105856418539 0 0.48419704391512092 -0.17843144908975531 0 0.47823681026078202 -0.19812675643970101 0 0.5 -0.1905958602634561 0 0.47823681026078202 -0.19812675643970101 0 0.5 -0.1905958602634561 0 0.5 -0.21990035445465039 0 0.47823681026078202 -0.19812675643970101 0 0.5 -0.21990035445465039 0 0.47937109712497578 -0.22608105856418539 0 0.5 -0.21990035445465039 0 0.47937109712497578 -0.22608105856418539 0 0.50000000000000444 -0.24920484864584491 0 0.46029750420545162 -0.23134667767863379 0 0.47937109712497578 -0.22608105856418539 0 0.47387431588802909 -0.25499376211151131 0 0.47937109712497578 -0.22608105856418539 0 0.50000000000000444 -0.24920484864584491 0 0.47387431588802909 -0.25499376211151131 0 0.50000000000000444 -0.24920484864584491 0 0.4915669900217115 -0.25615479242606781 0 0.5 -0.27170772691138367 0 0.50000000000000444 -0.24920484864584491 0 0.4915669900217115 -0.25615479242606781 0 0.47387431588802909 -0.25499376211151131 0 0.50000000000000444 -0.24920484864584491 0 0.47387431588802909 -0.25499376211151131 0 0.4915669900217115 -0.25615479242606781 0 0.48280749151585822 -0.27129304150170008 0 0.47954864786353962 -0.26301133191085868 0 0.4915669900217115 -0.25615479242606781 0 0.5 -0.27170772691138367 0 0.48280749151585822 -0.27129304150170008 0 0.5 -0.27170772691138367 0 0.48280749151585822 -0.27129304150170008 0 0.48951500520952212 -0.28458010338455908 0 0.48280749151585822 -0.27129304150170008 0 0.47474596181800061 -0.28621450290334632 0 0.48951500520952212 -0.28458010338455908 0 0.48280749151585822 -0.27129304150170008 0 0.47416229901770612 -0.26612875971404459 0 0.47954864786353962 -0.26301133191085868 0 0.48280749151585822 -0.27129304150170008 0 0.47416229901770612 -0.26612875971404459 0 0.47052118473631321 -0.27447720361836658 0 0.47416229901770612 -0.26612875971404459 0 0.47052118473631321 -0.27447720361836658 0 0.46319689217890331 -0.26835660325056299 0 0.48280749151585822 -0.27129304150170008 0 0.47052118473631321 -0.27447720361836658 0 0.47474596181800061 -0.28621450290334632 0 0.4915669900217115 -0.25615479242606781 0 0.46965781089888248 -0.25846873400162218 0 0.4915669900217115 -0.25615479242606781 0 0.47387431588802909 -0.25499376211151131 0 0.46965781089888248 -0.25846873400162218 0 0.4915669900217115 -0.25615479242606781 0 0.47954864786353962 -0.26301133191085868 0 0.46965781089888248 -0.25846873400162218 0 0.47416229901770612 -0.26612875971404459 0 0.47954864786353962 -0.26301133191085868 0 0.46965781089888248 -0.25846873400162218 0 0.47416229901770612 -0.26612875971404459 0 0.46965781089888248 -0.25846873400162218 0 0.46319689217890331 -0.26835660325056299 0 0.46965781089888248 -0.25846873400162218 0 0.46319689217890331 -0.26835660325056299 0 0.4477486317760534 -0.26078267557717671 0 0.44856132313442931 -0.24393079079591279 0 0.47387431588802909 -0.25499376211151131 0 0.4477486317760534 -0.26078267557717671 0 0.47387431588802909 -0.25499376211151131 0 0.4477486317760534 -0.26078267557717671 0 0.46965781089888248 -0.25846873400162218 0 0.4477486317760534 -0.26078267557717671 0 0.47387431588802909 -0.25499376211151131 0 0.46965781089888248 -0.25846873400162218 0 0.4477486317760534 -0.26078267557717671 0 0.47052118473631321 -0.27447720361836658 0 0.45389453446556111 -0.28192564334160541 0 0.47474596181800061 -0.28621450290334632 0 0.47052118473631321 -0.27447720361836658 0 0.46319689217890331 -0.26835660325056299 0 0.45389453446556111 -0.28192564334160541 0 0.46319689217890331 -0.26835660325056299 0 0.4477486317760534 -0.26078267557717671 0 0.45389453446556111 -0.28192564334160541 0 0.45389453446556111 -0.28192564334160541 0 0.430823863629894 -0.26453285558412298 0 0.45389453446556111 -0.28192564334160541 0 0.430823863629894 -0.26453285558412298 0 0.43570592202634773 -0.28205449164250063 0 0.4477486317760534 -0.26078267557717671 0 0.45389453446556111 -0.28192564334160541 0 0.430823863629894 -0.26453285558412298 0 0.4477486317760534 -0.26078267557717671 0 0.42854038242645709 -0.26281135800815408 0 0.44856132313442931 -0.24393079079591279 0 0.4477486317760534 -0.26078267557717671 0 0.4372088962240912 -0.25169219704383999 0 0.4477486317760534 -0.26078267557717671 0 0.42854038242645709 -0.26281135800815408 0 0.4372088962240912 -0.25169219704383999 0 0.4477486317760534 -0.26078267557717671 0 0.430823863629894 -0.26453285558412298 0 0.44815314542162782 -0.30273998798419938 0 0.44271266904340639 -0.31513600928105973 0 0.43092107089682352 -0.30573631325696571 0 0.44815314542162782 -0.30273998798419938 0 0.43874415768382158 -0.29310671547163403 0 0.43092107089682352 -0.30573631325696571 0 0.43874415768382158 -0.29310671547163403 0 0.45389453446556111 -0.28192564334160541 0 0.43570592202634773 -0.28205449164250063 0 0.44815314542162782 -0.30273998798419938 0 0.43874415768382158 -0.29310671547163403 0 0.45389453446556111 -0.28192564334160541 0 0.45389453446556111 -0.28192564334160541 0 0.46668010371271101 -0.29937682325086112 0 0.47474596181800061 -0.28621450290334632 0 0.44815314542162782 -0.30273998798419938 0 0.45389453446556111 -0.28192564334160541 0 0.46668010371271101 -0.29937682325086112 0 0.46668010371271101 -0.29937682325086112 0 0.45907432653114449 -0.32014896664993769 0 0.44815314542162782 -0.30273998798419938 0 0.46668010371271101 -0.29937682325086112 0 0.45907432653114449 -0.32014896664993769 0 0.46668010371271101 -0.29937682325086112 0 0.48375110351916628 -0.30725513966339157 0 0.45907432653114449 -0.32014896664993769 0 0.46668010371271101 -0.29937682325086112 0 0.48375110351916628 -0.30725513966339157 0 0.47474596181800061 -0.28621450290334632 0 0.48375110351916628 -0.30725513966339157 0 0.47474596181800061 -0.28621450290334632 0 0.48951500520952212 -0.28458010338455908 0 0.48375110351916628 -0.30725513966339157 0 0.5 -0.29421060517692271 0 0.48951500520952212 -0.28458010338455908 0 0.5 -0.27170772691138367 0 0.5 -0.29421060517692271 0 0.48951500520952212 -0.28458010338455908 0 0.48375110351916628 -0.30725513966339157 0 0.5 -0.29421060517692271 0 0.49999999999999972 -0.31671348344246159 0 0.48375110351916628 -0.30725513966339157 0 0.49999999999999972 -0.31671348344246159 0 0.48658745812515303 -0.32591538654610069 0 0.49999999999999972 -0.31671348344246159 0 0.49107839048707969 -0.33844651150006611 0 0.49999999999999972 -0.31671348344246159 0 0.48658745812515303 -0.32591538654610069 0 0.49107839048707969 -0.33844651150006611 0 0.49999999999999972 -0.31671348344246159 0 0.5 -0.34354646621870782 0 0.49107839048707969 -0.33844651150006611 0 0.48658745812515303 -0.32591538654610069 0 0.49107839048707969 -0.33844651150006611 0 0.48013111160135669 -0.33592777501669763 0 0.48658745812515303 -0.32591538654610069 0 0.48013111160135669 -0.33592777501669763 0 0.47588582758327369 -0.32632043512378739 0 0.48013111160135669 -0.33592777501669763 0 0.46883970942210401 -0.33989811375075968 0 0.47588582758327369 -0.32632043512378739 0 0.48375110351916628 -0.30725513966339157 0 0.48658745812515303 -0.32591538654610069 0 0.47588582758327369 -0.32632043512378739 0 0.48375110351916628 -0.30725513966339157 0 0.47588582758327369 -0.32632043512378739 0 0.45907432653114449 -0.32014896664993769 0 0.5 -0.37037944899495368 0 0.48466784746851571 -0.3739080713738358 0 0.48215678097416009 -0.36017953955767068 0 0.5 -0.34354646621870782 0 0.49107839048707969 -0.33844651150006611 0 0.48215678097416009 -0.36017953955767068 0 0.49107839048707969 -0.33844651150006611 0 0.48013111160135669 -0.33592777501669763 0 0.48215678097416009 -0.36017953955767068 0 0.5 -0.34354646621870782 0 0.5 -0.37037944899495368 0 0.48215678097416009 -0.36017953955767068 0 0.49107839048707969 -0.33844651150006611 0 0.48215678097416009 -0.36017953955767068 0 0.48013111160135669 -0.33592777501669763 0 0.46883970942210401 -0.33989811375075968 0 0.48215678097416009 -0.36017953955767068 0 0.46883970942210401 -0.33989811375075968 0 0.48215678097416009 -0.36017953955767068 0 0.46166172922915721 -0.35810144835948332 0 0.48215678097416009 -0.36017953955767068 0 0.47323517146124039 -0.38191256761527542 0 0.48215678097416009 -0.36017953955767068 0 0.4671179630262795 -0.37324494563770522 0 0.47323517146124039 -0.38191256761527542 0 0.48466784746851571 -0.3739080713738358 0 0.48215678097416009 -0.36017953955767068 0 0.47323517146124039 -0.38191256761527542 0 0.48215678097416009 -0.36017953955767068 0 0.4671179630262795 -0.37324494563770522 0 0.46166172922915721 -0.35810144835948332 0 0.45652460043480969 -0.37267172771365881 0 0.46166172922915721 -0.35810144835948332 0 0.44386277216801179 -0.36169325344809122 0 0.45652460043480969 -0.37267172771365881 0 0.4671179630262795 -0.37324494563770522 0 0.46166172922915721 -0.35810144835948332 0 0.46883970942210401 -0.33989811375075968 0 0.46166172922915721 -0.35810144835948332 0 0.45146854934957792 -0.34092111004901438 0 0.43963091224731599 -0.34751792105314822 0 0.44386277216801179 -0.36169325344809122 0 0.45146854934957792 -0.34092111004901438 0 0.44386277216801179 -0.36169325344809122 0 0.45146854934957792 -0.34092111004901438 0 0.46166172922915721 -0.35810144835948332 0 0.44386277216801179 -0.36169325344809122 0 0.45146854934957792 -0.34092111004901438 0 0.44386277216801179 -0.36169325344809122 0 0.43376943787959182 -0.36708850497004442 0 0.43808065797110041 -0.37748478958974491 0 0.45652460043480969 -0.37267172771365881 0 0.44386277216801179 -0.36169325344809122 0 0.44783900322824399 -0.38008781189722518 0 0.44386277216801179 -0.36169325344809122 0 0.43808065797110041 -0.37748478958974491 0 0.44386277216801179 -0.36169325344809122 0 0.43808065797110041 -0.37748478958974491 0 0.44783900322824399 -0.38008781189722518 0 0.45652460043480969 -0.37267172771365881 0 0.44386277216801179 -0.36169325344809122 0 0.46883970942210401 -0.33989811375075968 0 0.45907432653114449 -0.32014896664993769 0 0.45146854934957792 -0.34092111004901438 0 0.45907432653114449 -0.32014896664993769 0 0.45146854934957792 -0.34092111004901438 0 0.46883970942210401 -0.33989811375075968 0 0.47588582758327369 -0.32632043512378739 0 0.45907432653114449 -0.32014896664993769 0 0.43963091224731599 -0.34751792105314822 0 0.45146854934957792 -0.34092111004901438 0 0.43565299676263758 -0.3352386806192425 0 0.45146854934957792 -0.34092111004901438 0 0.44493724809618768 -0.32603283426431229 0 0.43565299676263758 -0.3352386806192425 0 0.45907432653114449 -0.32014896664993769 0 0.45146854934957792 -0.34092111004901438 0 0.44493724809618768 -0.32603283426431229 0 0.45907432653114449 -0.32014896664993769 0 0.44493724809618768 -0.32603283426431229 0 0.44271266904340639 -0.31513600928105973 0 0.44493724809618768 -0.32603283426431229 0 0.44271266904340639 -0.31513600928105973 0 0.43047755427124879 -0.32102194424988317 0 0.44815314542162782 -0.30273998798419938 0 0.45907432653114449 -0.32014896664993769 0 0.44271266904340639 -0.31513600928105973 0 0.44271266904340639 -0.31513600928105973 0 0.43047755427124879 -0.32102194424988317 0 0.43092107089682352 -0.30573631325696571 0 0.43047755427124879 -0.32102194424988317 0 0.41919911313656122 -0.31385112706466711 0 0.41739686236043672 -0.32199345155319897 0 0.43047755427124879 -0.32102194424988317 0 0.41919911313656122 -0.31385112706466711 0 0.43092107089682352 -0.30573631325696571 0 0.43047755427124879 -0.32102194424988317 0 0.42053718701310799 -0.32957674384091618 0 0.41739686236043672 -0.32199345155319897 0 0.44493724809618768 -0.32603283426431229 0 0.43047755427124879 -0.32102194424988317 0 0.43565299676263758 -0.3352386806192425 0 0.43565299676263758 -0.3352386806192425 0 0.42053718701310799 -0.32957674384091618 0 0.4250793590774925 -0.34540704162396091 0 0.43963091224731599 -0.34751792105314822 0 0.43565299676263758 -0.3352386806192425 0 0.4250793590774925 -0.34540704162396091 0 0.43047755427124879 -0.32102194424988317 0 0.43565299676263758 -0.3352386806192425 0 0.42053718701310799 -0.32957674384091618 0 0.4062959459869725 -0.32912082979983148 0 0.4250793590774925 -0.34540704162396091 0 0.41055923831377589 -0.34398547157316572 0 0.42053718701310799 -0.32957674384091618 0 0.4062959459869725 -0.32912082979983148 0 0.4250793590774925 -0.34540704162396091 0 0.4062959459869725 -0.32912082979983148 0 0.4250793590774925 -0.34540704162396091 0 0.42053718701310799 -0.32957674384091618 0 0.4062959459869725 -0.32912082979983148 0 0.40802480504278882 -0.32457497099322458 0 0.4062959459869725 -0.32912082979983148 0 0.40802480504278882 -0.32457497099322458 0 0.4062959459869725 -0.32912082979983148 0 0.40802480504278882 -0.32457497099322458 0 0.40572459905769331 -0.31910551143285631 0 0.40802480504278882 -0.32457497099322458 0 0.4119015194344513 -0.31818912214386269 0 0.41739686236043672 -0.32199345155319897 0 0.40802480504278882 -0.32457497099322458 0 0.4119015194344513 -0.31818912214386269 0 0.40572459905769331 -0.31910551143285631 0 0.4119015194344513 -0.31818912214386269 0 0.41919911313656122 -0.31385112706466711 0 0.40916221757477672 -0.31142054967536659 0 0.4119015194344513 -0.31818912214386269 0 0.40572459905769331 -0.31910551143285631 0 0.40916221757477672 -0.31142054967536659 0 0.4119015194344513 -0.31818912214386269 0 0.41919911313656122 -0.31385112706466711 0 0.41739686236043672 -0.32199345155319897 0 0.42053718701310799 -0.32957674384091618 0 0.40802480504278882 -0.32457497099322458 0 0.41739686236043672 -0.32199345155319897 0 0.44386277216801179 -0.36169325344809122 0 0.43376943787959182 -0.36708850497004442 0 0.42728564025893462 -0.35958684797927032 0 0.42489657602010461 -0.37065940299189432 0 0.43376943787959182 -0.36708850497004442 0 0.43808065797110041 -0.37748478958974491 0 0.42489657602010461 -0.37065940299189432 0 0.43376943787959182 -0.36708850497004442 0 0.42728564025893462 -0.35958684797927032 0 0.44386277216801179 -0.36169325344809122 0 0.4250793590774925 -0.34540704162396091 0 0.43963091224731599 -0.34751792105314822 0 0.44386277216801179 -0.36169325344809122 0 0.4250793590774925 -0.34540704162396091 0 0.44386277216801179 -0.36169325344809122 0 0.42728564025893462 -0.35958684797927032 0 0.4250793590774925 -0.34540704162396091 0 0.42728564025893462 -0.35958684797927032 0 0.4250793590774925 -0.34540704162396091 0 0.41069622259092692 -0.35617360609135817 0 0.4250793590774925 -0.34540704162396091 0 0.41055923831377589 -0.34398547157316572 0 0.41069622259092692 -0.35617360609135817 0 0.41055923831377589 -0.34398547157316572 0 0.41069622259092692 -0.35617360609135817 0 0.40016542559971202 -0.34524040877751239 0 0.42489657602010461 -0.37065940299189432 0 0.42728564025893462 -0.35958684797927032 0 0.41069622259092692 -0.35617360609135817 0 0.42489657602010461 -0.37065940299189432 0 0.41069622259092692 -0.35617360609135817 0 0.4070765621089808 -0.37107032214525337 0 0.42489657602010461 -0.37065940299189432 0 0.41069622259092692 -0.35617360609135817 0 0.39585190457779329 -0.37201308858561799 0 0.3940349052124521 -0.36135998775519362 0 0.38601585554704992 -0.38244526212700758 0 0.41069622259092692 -0.35617360609135817 0 0.4070765621089808 -0.37107032214525337 0 0.3940349052124521 -0.36135998775519362 0 0.4070765621089808 -0.37107032214525337 0 0.39585190457779329 -0.37201308858561799 0 0.3940349052124521 -0.36135998775519362 0 0.39585190457779329 -0.37201308858561799 0 0.3940349052124521 -0.36135998775519362 0 0.3940349052124521 -0.36135998775519362 0 0.40016542559971202 -0.34524040877751239 0 0.38974443050024338 -0.33620485529262373 0 0.3940349052124521 -0.36135998775519362 0 0.38974443050024338 -0.33620485529262373 0 0.3940349052124521 -0.36135998775519362 0 0.40016542559971202 -0.34524040877751239 0 0.41069622259092692 -0.35617360609135817 0 0.3940349052124521 -0.36135998775519362 0 0.40016542559971202 -0.34524040877751239 0 0.3940349052124521 -0.36135998775519362 0 0.38974443050024338 -0.33620485529262373 0 0.37368731816096312 -0.34897020548070451 0 0.3940349052124521 -0.36135998775519362 0 0.38601585554704992 -0.38244526212700758 0 0.3940349052124521 -0.36135998775519362 0 0.38601585554704992 -0.38244526212700758 0 0.3689120952668708 -0.37284951495870189 0 0.3940349052124521 -0.36135998775519362 0 0.3689120952668708 -0.37284951495870189 0 0.37368731816096312 -0.34897020548070451 0 0.4062959459869725 -0.32912082979983148 0 0.40572459905769331 -0.31910551143285631 0 0.39816778062817881 -0.31191488097197773 0 0.4062959459869725 -0.32912082979983148 0 0.38974443050024338 -0.33620485529262373 0 0.38545395578803499 -0.31104972283005378 0 0.4062959459869725 -0.32912082979983148 0 0.38545395578803499 -0.31104972283005378 0 0.4062959459869725 -0.32912082979983148 0 0.38545395578803499 -0.31104972283005378 0 0.39816778062817881 -0.31191488097197773 0 0.40572459905769331 -0.31910551143285631 0 0.39816778062817881 -0.31191488097197773 0 0.40916221757477672 -0.31142054967536659 0 0.4062959459869725 -0.32912082979983148 0 0.40016542559971202 -0.34524040877751239 0 0.38974443050024338 -0.33620485529262373 0 0.4062959459869725 -0.32912082979983148 0 0.40016542559971202 -0.34524040877751239 0 0.4062959459869725 -0.32912082979983148 0 0.41055923831377589 -0.34398547157316572 0 0.40016542559971202 -0.34524040877751239 0 0.38974443050024338 -0.33620485529262373 0 0.36945761595668469 -0.32738841673247931 0 0.37368731816096312 -0.34897020548070451 0 0.38974443050024338 -0.33620485529262373 0 0.38545395578803499 -0.31104972283005378 0 0.36945761595668469 -0.32738841673247931 0 0.38974443050024338 -0.33620485529262373 0 0.38545395578803499 -0.31104972283005378 0 0.38545395578803499 -0.31104972283005378 0 0.38245755150739558 -0.29348174920317632 0 0.37101427446782781 -0.29852975601036341 0 0.38545395578803499 -0.31104972283005378 0 0.38245755150739558 -0.29348174920317632 0 0.38545395578803499 -0.31104972283005378 0 0.37101427446782781 -0.29852975601036341 0 0.38545395578803499 -0.31104972283005378 0 0.39567659353887108 -0.29306988619604551 0 0.38245755150739558 -0.29348174920317632 0 0.39816778062817881 -0.31191488097197773 0 0.40563314249086863 -0.30155395497769039 0 0.39567659353887108 -0.29306988619604551 0 0.38545395578803499 -0.31104972283005378 0 0.39816778062817881 -0.31191488097197773 0 0.39567659353887108 -0.29306988619604551 0 0.39816778062817881 -0.31191488097197773 0 0.40563314249086863 -0.30155395497769039 0 0.40916221757477672 -0.31142054967536659 0 0.39567659353887108 -0.29306988619604551 0 0.40514250542832608 -0.27022331558021301 0 0.41160024963212011 -0.28933460066763711 0 0.40563314249086863 -0.30155395497769039 0 0.39567659353887108 -0.29306988619604551 0 0.41160024963212011 -0.28933460066763711 0 0.38245755150739558 -0.29348174920317632 0 0.37946114722675722 -0.27591377557629859 0 0.39567659353887108 -0.29306988619604551 0 0.38245755150739558 -0.29348174920317632 0 0.37946114722675722 -0.27591377557629859 0 0.38245755150739558 -0.29348174920317632 0 0.37795999762798671 -0.28395322059410122 0 0.37946114722675722 -0.27591377557629859 0 0.37519981906117678 -0.29055939022370142 0 0.38245755150739558 -0.29348174920317632 0 0.37101427446782781 -0.29852975601036341 0 0.37519981906117678 -0.29055939022370142 0 0.38245755150739558 -0.29348174920317632 0 0.37795999762798671 -0.28395322059410122 0 0.37795999762798671 -0.28395322059410122 0 0.37946114722675722 -0.27591377557629859 0 0.37739853904771847 -0.27637080706343392 0 0.37739853904771847 -0.27637080706343392 0 0.37683953433427181 -0.26882153263446662 0 0.37273728942595791 -0.27740364396778311 0 0.37795999762798671 -0.28395322059410122 0 0.37739853904771847 -0.27637080706343392 0 0.37273728942595791 -0.27740364396778311 0 0.37946114722675722 -0.27591377557629859 0 0.38774772661347989 -0.26664574742688191 0 0.3964002279028962 -0.26984905957103239 0 0.37946114722675722 -0.27591377557629859 0 0.3964002279028962 -0.26984905957103239 0 0.37795999762798671 -0.28395322059410122 0 0.37739853904771847 -0.27637080706343392 0 0.37739853904771847 -0.27637080706343392 0 0.37273728942595791 -0.27740364396778311 0 0.37946114722675722 -0.27591377557629859 0 0.37739853904771847 -0.27637080706343392 0 0.37683953433427181 -0.26882153263446662 0 0.37946114722675722 -0.27591377557629859 0 0.37739853904771847 -0.27637080706343392 0 0.37946114722675722 -0.27591377557629859 0 0.37843581040967561 -0.26746760801825881 0 0.38284686623937531 -0.26497045393317709 0 0.37946114722675722 -0.27591377557629859 0 0.37683953433427181 -0.26882153263446662 0 0.37843581040967561 -0.26746760801825881 0 0.37739853904771847 -0.27637080706343392 0 0.37683953433427181 -0.26882153263446662 0 0.37683953433427181 -0.26882153263446662 0 0.37843581040967561 -0.26746760801825881 0 0.37946114722675722 -0.27591377557629859 0 0.38774772661347989 -0.26664574742688191 0 0.38284686623937531 -0.26497045393317709 0 0.37477580018058132 -0.24095111383496479 0 0.37683953433427181 -0.26882153263446662 0 0.38107906364546162 -0.25934379353391329 0 0.37477580018058132 -0.24095111383496479 0 0.37683953433427181 -0.26882153263446662 0 0.37477580018058132 -0.24095111383496479 0 0.38107906364546162 -0.25934379353391329 0 0.38725375881062551 -0.25185160038302579 0 0.37843581040967561 -0.26746760801825881 0 0.38107906364546162 -0.25934379353391329 0 0.38284686623937531 -0.26497045393317709 0 0.37683953433427181 -0.26882153263446662 0 0.37843581040967561 -0.26746760801825881 0 0.38107906364546162 -0.25934379353391329 0 0.38107906364546162 -0.25934379353391329 0 0.38632261189823958 -0.26200045239958702 0 0.38284686623937531 -0.26497045393317709 0 0.38774772661347989 -0.26664574742688191 0 0.38632261189823958 -0.26200045239958702 0 0.38284686623937531 -0.26497045393317709 0 0.38774772661347989 -0.26664574742688191 0 0.38955528694719099 -0.2630172622662057 0 0.39295554709344072 -0.26445586107842978 0 0.38774772661347989 -0.26664574742688191 0 0.38632261189823958 -0.26200045239958702 0 0.38955528694719099 -0.2630172622662057 0 0.38632261189823958 -0.26200045239958702 0 0.38955528694719099 -0.2630172622662057 0 0.39119526218360401 -0.25896698815992442 0 0.38632261189823958 -0.26200045239958702 0 0.38725375881062551 -0.25185160038302579 0 0.39119526218360401 -0.25896698815992442 0 0.38107906364546162 -0.25934379353391329 0 0.38632261189823958 -0.26200045239958702 0 0.38725375881062551 -0.25185160038302579 0 0.40314688718896508 -0.2619981766022052 0 0.39707581272688741 -0.26613449373937459 0 0.41345304600685079 -0.26440480953867462 0 0.39707581272688741 -0.26613449373937459 0 0.41345304600685079 -0.26440480953867462 0 0.38725375881062551 -0.25185160038302579 0 0.39640803358832022 -0.25154779433757402 0 0.39119526218360401 -0.25896698815992442 0 0.39640803358832022 -0.25154779433757402 0 0.39702034872720737 -0.26014738253762237 0 0.39119526218360401 -0.25896698815992442 0 0.39702034872720737 -0.26014738253762237 0 0.39119526218360401 -0.25896698815992442 0 0.39295554709344072 -0.26445586107842978 0 0.38955528694719099 -0.2630172622662057 0 0.39119526218360401 -0.25896698815992442 0 0.39295554709344072 -0.26445586107842978 0 0.39702034872720737 -0.26014738253762237 0 0.39295554709344072 -0.26445586107842978 0 0.39707581272688741 -0.26613449373937459 0 0.39702034872720737 -0.26014738253762237 0 0.40314688718896508 -0.2619981766022052 0 0.39707581272688741 -0.26613449373937459 0 0.40314688718896508 -0.2619981766022052 0 0.40257909468765629 -0.25704117102420471 0 0.40998094690083942 -0.2590606397541646 0 0.39702034872720737 -0.26014738253762237 0 0.40314688718896508 -0.2619981766022052 0 0.40257909468765629 -0.25704117102420471 0 0.39640803358832022 -0.25154779433757402 0 0.39702034872720737 -0.26014738253762237 0 0.40257909468765629 -0.25704117102420471 0 0.41087794879613182 -0.2494957955088617 0 0.39640803358832022 -0.25154779433757402 0 0.40257909468765629 -0.25704117102420471 0 0.40514250542832608 -0.27022331558021301 0 0.3964002279028962 -0.26984905957103239 0 0.41345304600685079 -0.26440480953867462 0 0.37946114722675722 -0.27591377557629859 0 0.40514250542832608 -0.27022331558021301 0 0.3964002279028962 -0.26984905957103239 0 0.39707581272688741 -0.26613449373937459 0 0.3964002279028962 -0.26984905957103239 0 0.41345304600685079 -0.26440480953867462 0 0.37946114722675722 -0.27591377557629859 0 0.40514250542832608 -0.27022331558021301 0 0.3964002279028962 -0.26984905957103239 0 0.41345304600685079 -0.26440480953867462 0 0.39567659353887108 -0.29306988619604551 0 0.37946114722675722 -0.27591377557629859 0 0.40514250542832608 -0.27022331558021301 0 0.38774772661347989 -0.26664574742688191 0 0.39295554709344072 -0.26445586107842978 0 0.3964002279028962 -0.26984905957103239 0 0.39295554709344072 -0.26445586107842978 0 0.39707581272688741 -0.26613449373937459 0 0.3964002279028962 -0.26984905957103239 0 0.40514250542832608 -0.27022331558021301 0 0.41345304600685079 -0.26440480953867462 0 0.430823863629894 -0.26453285558412298 0 0.40514250542832608 -0.27022331558021301 0 0.430823863629894 -0.26453285558412298 0 0.40514250542832608 -0.27022331558021301 0 0.42166373126508722 -0.27984448092147479 0 0.41160024963212011 -0.28933460066763711 0 0.40514250542832608 -0.27022331558021301 0 0.42166373126508722 -0.27984448092147479 0 0.430823863629894 -0.26453285558412298 0 0.41087794879613182 -0.2494957955088617 0 0.41984775782459283 -0.2623632460968765 0 0.42854038242645709 -0.26281135800815408 0 0.41087794879613182 -0.2494957955088617 0 0.42854038242645709 -0.26281135800815408 0 0.41087794879613182 -0.2494957955088617 0 0.40257909468765629 -0.25704117102420471 0 0.40998094690083942 -0.2590606397541646 0 0.41087794879613182 -0.2494957955088617 0 0.40998094690083942 -0.2590606397541646 0 0.41984775782459283 -0.2623632460968765 0 0.40314688718896508 -0.2619981766022052 0 0.40998094690083942 -0.2590606397541646 0 0.41345304600685079 -0.26440480953867462 0 0.41345304600685079 -0.26440480953867462 0 0.41984775782459283 -0.2623632460968765 0 0.42854038242645709 -0.26281135800815408 0 0.40998094690083942 -0.2590606397541646 0 0.41345304600685079 -0.26440480953867462 0 0.41984775782459283 -0.2623632460968765 0 0.41345304600685079 -0.26440480953867462 0 0.42854038242645709 -0.26281135800815408 0 0.41345304600685079 -0.26440480953867462 0 0.41984775782459283 -0.2623632460968765 0 0.42656562700980838 -0.24831468624349931 0 0.41087794879613182 -0.2494957955088617 0 0.42854038242645709 -0.26281135800815408 0 0.4477486317760534 -0.26078267557717671 0 0.42854038242645709 -0.26281135800815408 0 0.430823863629894 -0.26453285558412298 0 0.41345304600685079 -0.26440480953867462 0 0.42854038242645709 -0.26281135800815408 0 0.430823863629894 -0.26453285558412298 0 0.42854038242645709 -0.26281135800815408 0 0.430823863629894 -0.26453285558412298 0 0.42656562700980838 -0.24831468624349931 0 0.42854038242645709 -0.26281135800815408 0 0.4372088962240912 -0.25169219704383999 0 0.42166373126508722 -0.27984448092147479 0 0.430823863629894 -0.26453285558412298 0 0.43570592202634773 -0.28205449164250063 0 0.42166373126508722 -0.27984448092147479 0 0.43570592202634773 -0.28205449164250063 0 0.42504611560874761 -0.29307714113289868 0 0.43874415768382158 -0.29310671547163403 0 0.43570592202634773 -0.28205449164250063 0 0.42504611560874761 -0.29307714113289868 0 0.43874415768382158 -0.29310671547163403 0 0.42504611560874761 -0.29307714113289868 0 0.43092107089682352 -0.30573631325696571 0 0.41919911313656122 -0.31385112706466711 0 0.43092107089682352 -0.30573631325696571 0 0.41692698488998292 -0.30249561446253759 0 0.42504611560874761 -0.29307714113289868 0 0.43092107089682352 -0.30573631325696571 0 0.41692698488998292 -0.30249561446253759 0 0.41919911313656122 -0.31385112706466711 0 0.41692698488998292 -0.30249561446253759 0 0.40916221757477672 -0.31142054967536659 0 0.40563314249086863 -0.30155395497769039 0 0.41692698488998292 -0.30249561446253759 0 0.40916221757477672 -0.31142054967536659 0 0.40563314249086863 -0.30155395497769039 0 0.41692698488998292 -0.30249561446253759 0 0.41160024963212011 -0.28933460066763711 0 0.42166373126508722 -0.27984448092147479 0 0.42504611560874761 -0.29307714113289868 0 0.41160024963212011 -0.28933460066763711 0 0.42504611560874761 -0.29307714113289868 0 0.41692698488998292 -0.30249561446253759 0 0.41160024963212011 -0.28933460066763711 0 0.5 -0.5 0 0.47532784176218862 -0.47257481327436679 0 0.43264288253940292 -0.48275234633568048 0 0.5 -0.5 0 0.41749257905485199 -0.50000000000000033 0 0.43264288253940292 -0.48275234633568048 0 0.47532784176218862 -0.47257481327436679 0 0.44779318602395363 -0.46550469267136052 0 0.43264288253940292 -0.48275234633568048 0 0.44779318602395363 -0.46550469267136052 0 0.43264288253940292 -0.48275234633568048 0 0.5 -0.5 0 0.47532784176218862 -0.47257481327436679 0 0.49999999999999828 -0.44642064777577001 0 0.47532784176218862 -0.47257481327436679 0 0.47918453573141367 -0.4495963838019249 0 0.46294348950850428 -0.44825703900704061 0 0.47532784176218862 -0.47257481327436679 0 0.49999999999999828 -0.44642064777577001 0 0.47918453573141367 -0.4495963838019249 0 0.49999999999999828 -0.44642064777577001 0 0.47846681165496419 -0.4311330351505217 0 0.49999999999999828 -0.44642064777577001 0 0.47918453573141367 -0.4495963838019249 0 0.47846681165496419 -0.4311330351505217 0 0.47918453573141367 -0.4495963838019249 0 0.46294348950850428 -0.44825703900704061 0 0.47846681165496419 -0.4311330351505217 0 0.46294348950850428 -0.44825703900704061 0 0.44442683605218691 -0.44583817528272968 0 0.45721208074107311 -0.43281318479414382 0 0.46294348950850428 -0.44825703900704061 0 0.44779318602395363 -0.46550469267136052 0 0.47532784176218862 -0.47257481327436679 0 0.46294348950850428 -0.44825703900704061 0 0.44779318602395363 -0.46550469267136052 0 0.44779318602395363 -0.46550469267136052 0 0.44442683605218691 -0.44583817528272968 0 0.43057418754349119 -0.46211781715143319 0 0.46294348950850428 -0.44825703900704061 0 0.44779318602395363 -0.46550469267136052 0 0.44442683605218691 -0.44583817528272968 0 0.44442683605218691 -0.44583817528272968 0 0.44324354583686831 -0.42153379012121539 0 0.45721208074107311 -0.43281318479414382 0 0.44442683605218691 -0.44583817528272968 0 0.44324354583686831 -0.42153379012121539 0 0.42653452723640378 -0.44279137365393179 0 0.44324354583686831 -0.42153379012121539 0 0.45693362330993059 -0.41584542252527262 0 0.45721208074107311 -0.43281318479414382 0 0.45693362330993059 -0.41584542252527262 0 0.4354004349648965 -0.40055780990002432 0 0.44324354583686831 -0.42153379012121539 0 0.45693362330993059 -0.41584542252527262 0 0.4354004349648965 -0.40055780990002432 0 0.45693362330993059 -0.41584542252527262 0 0.46461049463358839 -0.41117161714406408 0 0.47846681165496419 -0.4311330351505217 0 0.45693362330993059 -0.41584542252527262 0 0.46461049463358839 -0.41117161714406408 0 0.45329728287846061 -0.39963099679296588 0 0.46294348950850428 -0.44825703900704061 0 0.45721208074107311 -0.43281318479414382 0 0.47846681165496419 -0.4311330351505217 0 0.45693362330993059 -0.41584542252527262 0 0.45721208074107311 -0.43281318479414382 0 0.47846681165496419 -0.4311330351505217 0 0.45693362330993059 -0.41584542252527262 0 0.47846681165496419 -0.4311330351505217 0 0.49999999999999828 -0.44642064777577001 0 0.47846681165496419 -0.4311330351505217 0 0.5 -0.42181653977348488 0 0.5 -0.42181653977348488 0 0.48394518954555588 -0.41195106762427058 0 0.49999999999999789 -0.3972124317711998 0 0.47846681165496419 -0.4311330351505217 0 0.5 -0.42181653977348488 0 0.48394518954555588 -0.41195106762427058 0 0.46461049463358839 -0.41117161714406408 0 0.47846681165496419 -0.4311330351505217 0 0.48394518954555588 -0.41195106762427058 0 0.46461049463358839 -0.41117161714406408 0 0.48394518954555588 -0.41195106762427058 0 0.47664864143922919 -0.39842171428208217 0 0.47664864143922919 -0.39842171428208217 0 0.47975395238035062 -0.3854291032725421 0 0.46812846895096999 -0.38912968091376021 0 0.47664864143922919 -0.39842171428208217 0 0.49999999999999789 -0.3972124317711998 0 0.48779058149940679 -0.38751051868815611 0 0.48394518954555588 -0.41195106762427058 0 0.47664864143922919 -0.39842171428208217 0 0.49999999999999789 -0.3972124317711998 0 0.47664864143922919 -0.39842171428208217 0 0.49999999999999789 -0.3972124317711998 0 0.5 -0.37037944899495368 0 0.49999999999999789 -0.3972124317711998 0 0.48779058149940679 -0.38751051868815611 0 0.5 -0.37037944899495368 0 0.48466784746851571 -0.3739080713738358 0 0.48779058149940679 -0.38751051868815611 0 0.48466784746851571 -0.3739080713738358 0 0.47975395238035062 -0.3854291032725421 0 0.47323517146124039 -0.38191256761527542 0 0.48466784746851571 -0.3739080713738358 0 0.48779058149940679 -0.38751051868815611 0 0.47975395238035062 -0.3854291032725421 0 0.47664864143922919 -0.39842171428208217 0 0.48779058149940679 -0.38751051868815611 0 0.47975395238035062 -0.3854291032725421 0 0.47975395238035062 -0.3854291032725421 0 0.47323517146124039 -0.38191256761527542 0 0.46812846895096999 -0.38912968091376021 0 0.46918642870160698 -0.38365020197922722 0 0.47323517146124039 -0.38191256761527542 0 0.46812846895096999 -0.38912968091376021 0 0.4671179630262795 -0.37324494563770522 0 0.46918642870160698 -0.38365020197922722 0 0.47323517146124039 -0.38191256761527542 0 0.45652460043480969 -0.37267172771365881 0 0.4671179630262795 -0.37324494563770522 0 0.46918642870160698 -0.38365020197922722 0 0.45652460043480969 -0.37267172771365881 0 0.46918642870160698 -0.38365020197922722 0 0.45652460043480969 -0.37267172771365881 0 0.45606522570456098 -0.38599652494351028 0 0.44783900322824399 -0.38008781189722518 0 0.45652460043480969 -0.37267172771365881 0 0.46918642870160698 -0.38365020197922722 0 0.45606522570456098 -0.38599652494351028 0 0.46918642870160698 -0.38365020197922722 0 0.45606522570456098 -0.38599652494351028 0 0.46812846895096999 -0.38912968091376021 0 0.46461049463358839 -0.41117161714406408 0 0.47664864143922919 -0.39842171428208217 0 0.45329728287846061 -0.39963099679296588 0 0.47664864143922919 -0.39842171428208217 0 0.45329728287846061 -0.39963099679296588 0 0.47664864143922919 -0.39842171428208217 0 0.46812846895096999 -0.38912968091376021 0 0.45329728287846061 -0.39963099679296588 0 0.46461049463358839 -0.41117161714406408 0 0.45329728287846061 -0.39963099679296588 0 0.45606522570456098 -0.38599652494351028 0 0.46812846895096999 -0.38912968091376021 0 0.45329728287846061 -0.39963099679296588 0 0.45693362330993059 -0.41584542252527262 0 0.45329728287846061 -0.39963099679296588 0 0.4354004349648965 -0.40055780990002432 0 0.45329728287846061 -0.39963099679296588 0 0.4354004349648965 -0.40055780990002432 0 0.45329728287846061 -0.39963099679296588 0 0.4390969294492823 -0.3851451998924304 0 0.4354004349648965 -0.40055780990002432 0 0.45329728287846061 -0.39963099679296588 0 0.4390969294492823 -0.3851451998924304 0 0.45606522570456098 -0.38599652494351028 0 0.4390969294492823 -0.3851451998924304 0 0.44783900322824399 -0.38008781189722518 0 0.45606522570456098 -0.38599652494351028 0 0.45329728287846061 -0.39963099679296588 0 0.4390969294492823 -0.3851451998924304 0 0.4390969294492823 -0.3851451998924304 0 0.43808065797110041 -0.37748478958974491 0 0.44783900322824399 -0.38008781189722518 0 0.42782015831496062 -0.38505662608606978 0 0.4354004349648965 -0.40055780990002432 0 0.41188669282555868 -0.38386409155992901 0 0.42489657602010461 -0.37065940299189432 0 0.4390969294492823 -0.3851451998924304 0 0.42782015831496062 -0.38505662608606978 0 0.42489657602010461 -0.37065940299189432 0 0.4390969294492823 -0.3851451998924304 0 0.43808065797110041 -0.37748478958974491 0 0.42489657602010461 -0.37065940299189432 0 0.4390969294492823 -0.3851451998924304 0 0.4390969294492823 -0.3851451998924304 0 0.42782015831496062 -0.38505662608606978 0 0.4354004349648965 -0.40055780990002432 0 0.4354004349648965 -0.40055780990002432 0 0.41188669282555868 -0.38386409155992901 0 0.4354004349648965 -0.40055780990002432 0 0.40669862042327182 -0.40204417319942209 0 0.4354004349648965 -0.40055780990002432 0 0.40669862042327182 -0.40204417319942209 0 0.41188669282555868 -0.38386409155992901 0 0.42489657602010461 -0.37065940299189432 0 0.42782015831496062 -0.38505662608606978 0 0.41188669282555868 -0.38386409155992901 0 0.42489657602010461 -0.37065940299189432 0 0.4070765621089808 -0.37107032214525337 0 0.41188669282555868 -0.38386409155992901 0 0.4070765621089808 -0.37107032214525337 0 0.39585190457779329 -0.37201308858561799 0 0.39886607975096749 -0.38470810625682389 0 0.40669862042327182 -0.40204417319942209 0 0.41188669282555868 -0.38386409155992901 0 0.39886607975096749 -0.38470810625682389 0 0.4070765621089808 -0.37107032214525337 0 0.41188669282555868 -0.38386409155992901 0 0.39886607975096749 -0.38470810625682389 0 0.39585190457779329 -0.37201308858561799 0 0.39886607975096749 -0.38470810625682389 0 0.38601585554704992 -0.38244526212700758 0 0.39886607975096749 -0.38470810625682389 0 0.38601585554704992 -0.38244526212700758 0 0.37799680588164719 -0.40353053649882148 0 0.38601585554704992 -0.38244526212700758 0 0.37799680588164719 -0.40353053649882148 0 0.38601585554704992 -0.38244526212700758 0 0.37799680588164719 -0.40353053649882148 0 0.36816388811638329 -0.39545065246060412 0 0.37799680588164719 -0.40353053649882148 0 0.37635446215448021 -0.40784891206015261 0 0.37799680588164719 -0.40353053649882148 0 0.37505152225636262 -0.40368306209891941 0 0.37635446215448021 -0.40784891206015261 0 0.37799680588164719 -0.40353053649882148 0 0.37505152225636262 -0.40368306209891941 0 0.40669862042327182 -0.40204417319942209 0 0.39886607975096749 -0.38470810625682389 0 0.37799680588164719 -0.40353053649882148 0 0.40669862042327182 -0.40204417319942209 0 0.37799680588164719 -0.40353053649882148 0 0.40669862042327182 -0.40204417319942209 0 0.38553791301154328 -0.41840677215457472 0 0.40567792500840172 -0.4277251834563135 0 0.40669862042327182 -0.40204417319942209 0 0.37799680588164719 -0.40353053649882148 0 0.38553791301154328 -0.41840677215457472 0 0.38553791301154328 -0.41840677215457472 0 0.36905142820508552 -0.42917232846767789 0 0.37241381966677689 -0.417360225696081 0 0.38553791301154328 -0.41840677215457472 0 0.37635446215448021 -0.40784891206015261 0 0.37241381966677689 -0.417360225696081 0 0.37799680588164719 -0.40353053649882148 0 0.38553791301154328 -0.41840677215457472 0 0.37635446215448021 -0.40784891206015261 0 0.38553791301154328 -0.41840677215457472 0 0.38807715457860831 -0.4388905332329941 0 0.36905142820508552 -0.42917232846767789 0 0.38553791301154328 -0.41840677215457472 0 0.40567792500840172 -0.4277251834563135 0 0.38807715457860831 -0.4388905332329941 0 0.40567792500840172 -0.4277251834563135 0 0.42351101069396863 -0.41893046606618117 0 0.42653452723640378 -0.44279137365393179 0 0.4354004349648965 -0.40055780990002432 0 0.40669862042327182 -0.40204417319942209 0 0.42351101069396863 -0.41893046606618117 0 0.40669862042327182 -0.40204417319942209 0 0.40567792500840172 -0.4277251834563135 0 0.42351101069396863 -0.41893046606618117 0 0.44324354583686831 -0.42153379012121539 0 0.4354004349648965 -0.40055780990002432 0 0.42351101069396863 -0.41893046606618117 0 0.44324354583686831 -0.42153379012121539 0 0.42653452723640378 -0.44279137365393179 0 0.44324354583686831 -0.42153379012121539 0 0.42351101069396863 -0.41893046606618117 0 0.42653452723640378 -0.44279137365393179 0 0.44442683605218691 -0.44583817528272968 0 0.42653452723640378 -0.44279137365393179 0 0.43057418754349119 -0.46211781715143319 0 0.42653452723640378 -0.44279137365393179 0 0.43057418754349119 -0.46211781715143319 0 0.40982550863593931 -0.46404895718664829 0 0.42653452723640378 -0.44279137365393179 0 0.40982550863593931 -0.46404895718664829 0 0.42653452723640378 -0.44279137365393179 0 0.40982550863593931 -0.46404895718664829 0 0.4036378289262339 -0.44671034290208689 0 0.40567792500840172 -0.4277251834563135 0 0.42653452723640378 -0.44279137365393179 0 0.4036378289262339 -0.44671034290208689 0 0.40567792500840172 -0.4277251834563135 0 0.4036378289262339 -0.44671034290208689 0 0.38807715457860831 -0.4388905332329941 0 0.4036378289262339 -0.44671034290208689 0 0.38807715457860831 -0.4388905332329941 0 0.38807402917181633 -0.46009566698054732 0 0.38807715457860831 -0.4388905332329941 0 0.3733961412993268 -0.45022493016754961 0 0.36905142820508552 -0.42917232846767789 0 0.38807715457860831 -0.4388905332329941 0 0.38807402917181633 -0.46009566698054732 0 0.3733961412993268 -0.45022493016754961 0 0.38807402917181633 -0.46009566698054732 0 0.36593927904035028 -0.47432204071884282 0 0.3733961412993268 -0.45022493016754961 0 0.40982550863593931 -0.46404895718664829 0 0.4036378289262339 -0.44671034290208689 0 0.38807402917181633 -0.46009566698054732 0 0.40982550863593931 -0.46404895718664829 0 0.39311649003547477 -0.48530654071936469 0 0.40982550863593931 -0.46404895718664829 0 0.38807402917181633 -0.46009566698054732 0 0.39311649003547477 -0.48530654071936469 0 0.38807402917181633 -0.46009566698054732 0 0.39311649003547477 -0.48530654071936469 0 0.36593927904035028 -0.47432204071884282 0 0.37603974257992701 -0.49999999999999978 0 0.39311649003547477 -0.48530654071936469 0 0.36593927904035028 -0.47432204071884282 0 0.37603974257992701 -0.49999999999999978 0 0.39676616081738958 -0.5 0 0.39311649003547477 -0.48530654071936469 0 0.39676616081738958 -0.5 0 0.39311649003547477 -0.48530654071936469 0 0.41749257905485199 -0.50000000000000033 0 0.40982550863593931 -0.46404895718664829 0 0.41749257905485199 -0.50000000000000033 0 0.43264288253940292 -0.48275234633568048 0 0.40982550863593931 -0.46404895718664829 0 0.39311649003547477 -0.48530654071936469 0 0.41749257905485199 -0.50000000000000033 0 0.43057418754349119 -0.46211781715143319 0 0.40982550863593931 -0.46404895718664829 0 0.43264288253940292 -0.48275234633568048 0 0.44779318602395363 -0.46550469267136052 0 0.43057418754349119 -0.46211781715143319 0 0.43264288253940292 -0.48275234633568048 0 0.41749257905485199 -0.50000000000000033 0 0.43264288253940292 -0.48275234633568048 0 0.32215468257820618 -0.5 0 0.33760568703239408 -0.47417818032706111 0 0.31005432530219129 -0.48106067464861729 0 0.33760568703239408 -0.47417818032706111 0 0.3189449745883719 -0.46117016543644002 0 0.31005432530219129 -0.48106067464861729 0 0.32215468257820618 -0.5 0 0.33760568703239408 -0.47417818032706111 0 0.34909721257906662 -0.5 0 0.37603974257992701 -0.49999999999999978 0 0.34909721257906662 -0.5 0 0.36593927904035028 -0.47432204071884282 0 0.37603974257992701 -0.49999999999999978 0 0.36593927904035028 -0.47432204071884282 0 0.33760568703239408 -0.47417818032706111 0 0.34909721257906662 -0.5 0 0.36593927904035028 -0.47432204071884282 0 0.33760568703239408 -0.47417818032706111 0 0.36593927904035028 -0.47432204071884282 0 0.35583881550077368 -0.44864408143768569 0 0.36593927904035028 -0.47432204071884282 0 0.35583881550077368 -0.44864408143768569 0 0.36593927904035028 -0.47432204071884282 0 0.3733961412993268 -0.45022493016754961 0 0.35583881550077368 -0.44864408143768569 0 0.3733961412993268 -0.45022493016754961 0 0.35583881550077368 -0.44864408143768569 0 0.36905142820508552 -0.42917232846767789 0 0.35583881550077368 -0.44864408143768569 0 0.33540415989768779 -0.44905252560006492 0 0.34573835196119679 -0.42296612215652868 0 0.33760568703239408 -0.47417818032706111 0 0.35583881550077368 -0.44864408143768569 0 0.33540415989768779 -0.44905252560006492 0 0.33760568703239408 -0.47417818032706111 0 0.33540415989768779 -0.44905252560006492 0 0.3189449745883719 -0.46117016543644002 0 0.33540415989768779 -0.44905252560006492 0 0.3189449745883719 -0.46117016543644002 0 0.32126124445813709 -0.43429719032362252 0 0.3189449745883719 -0.46117016543644002 0 0.32126124445813709 -0.43429719032362252 0 0.30480654487456732 -0.44641521679941309 0 0.32126124445813709 -0.43429719032362252 0 0.3193156137706864 -0.40941365839269389 0 0.29937418247959258 -0.41817563384508599 0 0.3193156137706864 -0.40941365839269389 0 0.34573835196119679 -0.42296612215652868 0 0.33563788842162012 -0.39728816287537172 0 0.34573835196119679 -0.42296612215652868 0 0.33563788842162012 -0.39728816287537172 0 0.33540415989768779 -0.44905252560006492 0 0.32126124445813709 -0.43429719032362252 0 0.34573835196119679 -0.42296612215652868 0 0.32126124445813709 -0.43429719032362252 0 0.3193156137706864 -0.40941365839269389 0 0.34573835196119679 -0.42296612215652868 0 0.35583881550077368 -0.44864408143768569 0 0.34573835196119679 -0.42296612215652868 0 0.36905142820508552 -0.42917232846767789 0 0.35583881550077368 -0.44864408143768569 0 0.34573835196119679 -0.42296612215652868 0 0.36905142820508552 -0.42917232846767789 0 0.37241381966677689 -0.417360225696081 0 0.36195200988480669 -0.41065981681110758 0 0.36990343230398692 -0.40830781576793279 0 0.37241381966677689 -0.417360225696081 0 0.36195200988480669 -0.41065981681110758 0 0.37635446215448021 -0.40784891206015261 0 0.36990343230398692 -0.40830781576793279 0 0.37241381966677689 -0.417360225696081 0 0.37505152225636262 -0.40368306209891941 0 0.37635446215448021 -0.40784891206015261 0 0.36990343230398692 -0.40830781576793279 0 0.36990343230398692 -0.40830781576793279 0 0.36195200988480669 -0.41065981681110758 0 0.36876771314038492 -0.40452533678464098 0 0.34573835196119679 -0.42296612215652868 0 0.36195200988480669 -0.41065981681110758 0 0.35211107663302149 -0.40015425695529971 0 0.34573835196119679 -0.42296612215652868 0 0.36905142820508552 -0.42917232846767789 0 0.36195200988480669 -0.41065981681110758 0 0.34573835196119679 -0.42296612215652868 0 0.35211107663302149 -0.40015425695529971 0 0.33563788842162012 -0.39728816287537172 0 0.35211107663302149 -0.40015425695529971 0 0.35352794608594401 -0.38791341326287138 0 0.33563788842162012 -0.39728816287537172 0 0.35211107663302149 -0.40015425695529971 0 0.36816388811638329 -0.39545065246060412 0 0.35352794608594401 -0.38791341326287138 0 0.36195200988480669 -0.41065981681110758 0 0.36816388811638329 -0.39545065246060412 0 0.36876771314038492 -0.40452533678464098 0 0.36195200988480669 -0.41065981681110758 0 0.35211107663302149 -0.40015425695529971 0 0.36816388811638329 -0.39545065246060412 0 0.37505152225636262 -0.40368306209891941 0 0.36816388811638329 -0.39545065246060412 0 0.36876771314038492 -0.40452533678464098 0 0.37799680588164719 -0.40353053649882148 0 0.37505152225636262 -0.40368306209891941 0 0.36816388811638329 -0.39545065246060412 0 0.37505152225636262 -0.40368306209891941 0 0.36990343230398692 -0.40830781576793279 0 0.36876771314038492 -0.40452533678464098 0 0.38601585554704992 -0.38244526212700758 0 0.36816388811638329 -0.39545065246060412 0 0.3689120952668708 -0.37284951495870189 0 0.36816388811638329 -0.39545065246060412 0 0.35352794608594401 -0.38791341326287138 0 0.3689120952668708 -0.37284951495870189 0 0.35352794608594401 -0.38791341326287138 0 0.33563788842162012 -0.39728816287537172 0 0.34467783115022588 -0.37252705130409253 0 0.35352794608594401 -0.38791341326287138 0 0.3689120952668708 -0.37284951495870189 0 0.34467783115022588 -0.37252705130409253 0 0.33563788842162012 -0.39728816287537172 0 0.3255374248820434 -0.37161020359421471 0 0.33563788842162012 -0.39728816287537172 0 0.34467783115022588 -0.37252705130409253 0 0.3255374248820434 -0.37161020359421471 0 0.3193156137706864 -0.40941365839269389 0 0.33563788842162012 -0.39728816287537172 0 0.30534853388527528 -0.38930881101125692 0 0.33563788842162012 -0.39728816287537172 0 0.30534853388527528 -0.38930881101125692 0 0.3255374248820434 -0.37161020359421471 0 0.30534853388527528 -0.38930881101125692 0 0.3255374248820434 -0.37161020359421471 0 0.30525369772634148 -0.37164386163485291 0 0.30534853388527528 -0.38930881101125692 0 0.28783989868818821 -0.37644057584389279 0 0.30525369772634148 -0.37164386163485291 0 0.3193156137706864 -0.40941365839269389 0 0.30534853388527528 -0.38930881101125692 0 0.29937418247959258 -0.41817563384508599 0 0.30534853388527528 -0.38930881101125692 0 0.28922044672054198 -0.39637746652331562 0 0.29937418247959258 -0.41817563384508599 0 0.28922044672054198 -0.39637746652331562 0 0.27510086349567708 -0.39798721671617321 0 0.28320928432356041 -0.41012407252970262 0 0.28922044672054198 -0.39637746652331562 0 0.28783989868818821 -0.37644057584389279 0 0.27924907625512951 -0.38731579260330862 0 0.30534853388527528 -0.38930881101125692 0 0.28922044672054198 -0.39637746652331562 0 0.28783989868818821 -0.37644057584389279 0 0.30534853388527528 -0.38930881101125692 0 0.28783989868818821 -0.37644057584389279 0 0.28783989868818821 -0.37644057584389279 0 0.27447250226623809 -0.37821124143188289 0 0.27924907625512951 -0.38731579260330862 0 0.27447250226623809 -0.37821124143188289 0 0.27924907625512951 -0.38731579260330862 0 0.26961167010500181 -0.38756246250127813 0 0.27447250226623809 -0.37821124143188289 0 0.26961167010500181 -0.38756246250127813 0 0.26423397132697279 -0.37890457124200982 0 0.26961167010500181 -0.38756246250127813 0 0.26423397132697279 -0.37890457124200982 0 0.25687819372407023 -0.38903915957053298 0 0.26423397132697279 -0.37890457124200982 0 0.25687819372407023 -0.38903915957053298 0 0.24987622704845311 -0.37613765202982719 0 0.25108303853213881 -0.40002667887407228 0 0.26390234922262928 -0.39930308446362528 0 0.256136481120742 -0.41447562176841068 0 0.25687819372407023 -0.38903915957053298 0 0.25108303853213881 -0.40002667887407228 0 0.24309899287842279 -0.39271330151873202 0 0.25687819372407023 -0.38903915957053298 0 0.25108303853213881 -0.40002667887407228 0 0.26390234922262928 -0.39930308446362528 0 0.26961167010500181 -0.38756246250127813 0 0.25687819372407023 -0.38903915957053298 0 0.26390234922262928 -0.39930308446362528 0 0.26390234922262928 -0.39930308446362528 0 0.27510086349567708 -0.39798721671617321 0 0.2708804648698091 -0.41009655218672442 0 0.26961167010500181 -0.38756246250127813 0 0.26390234922262928 -0.39930308446362528 0 0.27510086349567708 -0.39798721671617321 0 0.28922044672054198 -0.39637746652331562 0 0.27924907625512951 -0.38731579260330862 0 0.27510086349567708 -0.39798721671617321 0 0.27924907625512951 -0.38731579260330862 0 0.26961167010500181 -0.38756246250127813 0 0.27510086349567708 -0.39798721671617321 0 0.27510086349567708 -0.39798721671617321 0 0.2708804648698091 -0.41009655218672442 0 0.28320928432356041 -0.41012407252970262 0 0.2708804648698091 -0.41009655218672442 0 0.256136481120742 -0.41447562176841068 0 0.27433621812851161 -0.42550461519375637 0 0.2708804648698091 -0.41009655218672442 0 0.27433621812851161 -0.42550461519375637 0 0.28320928432356041 -0.41012407252970262 0 0.26390234922262928 -0.39930308446362528 0 0.2708804648698091 -0.41009655218672442 0 0.256136481120742 -0.41447562176841068 0 0.25108303853213881 -0.40002667887407228 0 0.256136481120742 -0.41447562176841068 0 0.24629253832767661 -0.41022035877505542 0 0.256136481120742 -0.41447562176841068 0 0.25513396950241118 -0.43290986753561628 0 0.2453827316299185 -0.42192330194190181 0 0.256136481120742 -0.41447562176841068 0 0.25513396950241118 -0.43290986753561628 0 0.27433621812851161 -0.42550461519375637 0 0.25513396950241118 -0.43290986753561628 0 0.27433621812851161 -0.42550461519375637 0 0.26752346795397081 -0.44788636482661331 0 0.27433621812851161 -0.42550461519375637 0 0.29937418247959258 -0.41817563384508599 0 0.28546596250580908 -0.44246723239800262 0 0.29937418247959258 -0.41817563384508599 0 0.30480654487456732 -0.44641521679941309 0 0.28546596250580908 -0.44246723239800262 0 0.28922044672054198 -0.39637746652331562 0 0.28320928432356041 -0.41012407252970262 0 0.29937418247959258 -0.41817563384508599 0 0.27433621812851161 -0.42550461519375637 0 0.28320928432356041 -0.41012407252970262 0 0.29937418247959258 -0.41817563384508599 0 0.32126124445813709 -0.43429719032362252 0 0.29937418247959258 -0.41817563384508599 0 0.30480654487456732 -0.44641521679941309 0 0.3189449745883719 -0.46117016543644002 0 0.30480654487456732 -0.44641521679941309 0 0.28880919487484108 -0.4658549053918814 0 0.30480654487456732 -0.44641521679941309 0 0.28880919487484108 -0.4658549053918814 0 0.28546596250580908 -0.44246723239800262 0 0.27433621812851161 -0.42550461519375637 0 0.28546596250580908 -0.44246723239800262 0 0.26752346795397081 -0.44788636482661331 0 0.28880919487484108 -0.4658549053918814 0 0.28546596250580908 -0.44246723239800262 0 0.26752346795397081 -0.44788636482661331 0 0.25513396950241118 -0.43290986753561628 0 0.26752346795397081 -0.44788636482661331 0 0.24480843210435321 -0.45079661158300749 0 0.26752346795397081 -0.44788636482661331 0 0.2588368117714554 -0.46700690363883102 0 0.24480843210435321 -0.45079661158300749 0 0.28880919487484108 -0.4658549053918814 0 0.26752346795397081 -0.44788636482661331 0 0.2588368117714554 -0.46700690363883102 0 0.28880919487484108 -0.4658549053918814 0 0.2588368117714554 -0.46700690363883102 0 0.27227655507569209 -0.48076744006000099 0 0.2588368117714554 -0.46700690363883102 0 0.27227655507569209 -0.48076744006000099 0 0.25270961841775552 -0.48460016746525392 0 0.2588368117714554 -0.46700690363883102 0 0.25270961841775552 -0.48460016746525392 0 0.23949561189523169 -0.47426551941090739 0 0.25270961841775552 -0.48460016746525392 0 0.26826962257648529 -0.5 0 0.2413270925756249 -0.5 0 0.27227655507569209 -0.48076744006000099 0 0.25270961841775552 -0.48460016746525392 0 0.26826962257648529 -0.5 0 0.27227655507569209 -0.48076744006000099 0 0.26826962257648529 -0.5 0 0.29521215257734579 -0.5 0 0.28880919487484108 -0.4658549053918814 0 0.27227655507569209 -0.48076744006000099 0 0.29521215257734579 -0.5 0 0.28880919487484108 -0.4658549053918814 0 0.29521215257734579 -0.5 0 0.31005432530219129 -0.48106067464861729 0 0.3189449745883719 -0.46117016543644002 0 0.28880919487484108 -0.4658549053918814 0 0.31005432530219129 -0.48106067464861729 0 0.32215468257820618 -0.5 0 0.29521215257734579 -0.5 0 0.31005432530219129 -0.48106067464861729 0 0.33463237856908817 -0.28956894479377399 0 0.33485830675890288 -0.30442904333306592 0 0.35657459314761941 -0.2860097891906741 0 0.33463237856908817 -0.28956894479377399 0 0.32894302133540282 -0.28710755170783531 0 0.35195887039823659 -0.28200771363307098 0 0.32894302133540282 -0.28710755170783531 0 0.35195887039823659 -0.28200771363307098 0 0.32894302133540282 -0.28710755170783531 0 0.33255663915089151 -0.29722249741805129 0 0.33463237856908817 -0.28956894479377399 0 0.32894302133540282 -0.28710755170783531 0 0.33255663915089151 -0.29722249741805129 0 0.32894302133540282 -0.28710755170783531 0 0.33255663915089151 -0.29722249741805129 0 0.32301709761150521 -0.2972128627914089 0 0.33485830675890288 -0.30442904333306592 0 0.34824447571033601 -0.30253517369681238 0 0.34533870308018377 -0.31598934501886372 0 0.33485830675890288 -0.30442904333306592 0 0.33255663915089151 -0.29722249741805129 0 0.32434770264142349 -0.30499280498860082 0 0.33463237856908817 -0.28956894479377399 0 0.33485830675890288 -0.30442904333306592 0 0.33255663915089151 -0.29722249741805129 0 0.32301709761150521 -0.2972128627914089 0 0.32434770264142349 -0.30499280498860082 0 0.3171485971304504 -0.30589952111326829 0 0.32434770264142349 -0.30499280498860082 0 0.3171485971304504 -0.30589952111326829 0 0.31314202037018413 -0.32284829747545468 0 0.33485830675890288 -0.30442904333306592 0 0.32434770264142349 -0.30499280498860082 0 0.31314202037018413 -0.32284829747545468 0 0.33255663915089151 -0.29722249741805129 0 0.32301709761150521 -0.2972128627914089 0 0.32434770264142349 -0.30499280498860082 0 0.3171485971304504 -0.30589952111326829 0 0.31208952779935789 -0.2908419387292881 0 0.30833746379913463 -0.30503745501229762 0 0.32301709761150521 -0.2972128627914089 0 0.3171485971304504 -0.30589952111326829 0 0.31208952779935789 -0.2908419387292881 0 0.32894302133540282 -0.28710755170783531 0 0.31611371382327402 -0.28007222207304999 0 0.31208952779935789 -0.2908419387292881 0 0.32894302133540282 -0.28710755170783531 0 0.32301709761150521 -0.2972128627914089 0 0.31208952779935789 -0.2908419387292881 0 0.32894302133540282 -0.28710755170783531 0 0.31208952779935789 -0.2908419387292881 0 0.32894302133540282 -0.28710755170783531 0 0.32245882367699719 -0.26895751187574157 0 0.32894302133540282 -0.28710755170783531 0 0.31611371382327402 -0.28007222207304999 0 0.32245882367699719 -0.26895751187574157 0 0.31611371382327402 -0.28007222207304999 0 0.32245882367699719 -0.26895751187574157 0 0.30706455279928557 -0.27339796693147528 0 0.32245882367699719 -0.26895751187574157 0 0.30981211567343969 -0.26250129009931661 0 0.30706455279928557 -0.27339796693147528 0 0.32245882367699719 -0.26895751187574157 0 0.31597462601859122 -0.25080747204364812 0 0.32245882367699719 -0.26895751187574157 0 0.31597462601859122 -0.25080747204364812 0 0.30981211567343969 -0.26250129009931661 0 0.32245882367699719 -0.26895751187574157 0 0.31597462601859122 -0.25080747204364812 0 0.33396674820841349 -0.26640759283836002 0 0.31597462601859122 -0.25080747204364812 0 0.33396674820841349 -0.26640759283836002 0 0.33517615116993849 -0.24743488902137309 0 0.33396674820841349 -0.26640759283836002 0 0.35185333732921159 -0.25428502110151557 0 0.33517615116993849 -0.24743488902137309 0 0.31597462601859122 -0.25080747204364812 0 0.33396674820841349 -0.26640759283836002 0 0.32894302133540282 -0.28710755170783531 0 0.32245882367699719 -0.26895751187574157 0 0.33396674820841349 -0.26640759283836002 0 0.33396674820841349 -0.26640759283836002 0 0.35195887039823659 -0.28200771363307098 0 0.32894302133540282 -0.28710755170783531 0 0.33396674820841349 -0.26640759283836002 0 0.35195887039823659 -0.28200771363307098 0 0.33396674820841349 -0.26640759283836002 0 0.35159414215374007 -0.26901089914998932 0 0.35195887039823659 -0.28200771363307098 0 0.35159414215374007 -0.26901089914998932 0 0.36459381448795669 -0.2792080702757721 0 0.35195887039823659 -0.28200771363307098 0 0.36459381448795669 -0.2792080702757721 0 0.35195887039823659 -0.28200771363307098 0 0.33396674820841349 -0.26640759283836002 0 0.35159414215374007 -0.26901089914998932 0 0.35185333732921159 -0.25428502110151557 0 0.35159414215374007 -0.26901089914998932 0 0.35185333732921159 -0.25428502110151557 0 0.36435388824524378 -0.26651308148643732 0 0.37477580018058132 -0.24095111383496479 0 0.37683953433427181 -0.26882153263446662 0 0.36563983252638571 -0.25462703483095822 0 0.36075586336603621 -0.2426037127049111 0 0.35185333732921159 -0.25428502110151557 0 0.36563983252638571 -0.25462703483095822 0 0.35185333732921159 -0.25428502110151557 0 0.36563983252638571 -0.25462703483095822 0 0.36435388824524378 -0.26651308148643732 0 0.37683953433427181 -0.26882153263446662 0 0.36563983252638571 -0.25462703483095822 0 0.36435388824524378 -0.26651308148643732 0 0.36459381448795669 -0.2792080702757721 0 0.36308990924476459 -0.28048364807874221 0 0.35195887039823659 -0.28200771363307098 0 0.36459381448795669 -0.2792080702757721 0 0.36308990924476459 -0.28048364807874221 0 0.37273728942595791 -0.27740364396778311 0 0.36459381448795669 -0.2792080702757721 0 0.36308990924476459 -0.28048364807874221 0 0.35159414215374007 -0.26901089914998932 0 0.36459381448795669 -0.2792080702757721 0 0.36435388824524378 -0.26651308148643732 0 0.37683953433427181 -0.26882153263446662 0 0.36459381448795669 -0.2792080702757721 0 0.36435388824524378 -0.26651308148643732 0 0.36459381448795669 -0.2792080702757721 0 0.37273728942595791 -0.27740364396778311 0 0.37683953433427181 -0.26882153263446662 0 0.36459381448795669 -0.2792080702757721 0 0.37273728942595791 -0.27740364396778311 0 0.37683953433427181 -0.26882153263446662 0 0.36459381448795669 -0.2792080702757721 0 0.36308990924476459 -0.28048364807874221 0 0.37273728942595791 -0.27740364396778311 0 0.37795999762798671 -0.28395322059410122 0 0.37273728942595791 -0.27740364396778311 0 0.36936745264149701 -0.28627283508716472 0 0.35657459314761941 -0.2860097891906741 0 0.35620629985463748 -0.30371251724464648 0 0.37101427446782781 -0.29852975601036341 0 0.36308990924476459 -0.28048364807874221 0 0.37273728942595791 -0.27740364396778311 0 0.36936745264149701 -0.28627283508716472 0 0.37519981906117678 -0.29055939022370142 0 0.37795999762798671 -0.28395322059410122 0 0.36936745264149701 -0.28627283508716472 0 0.37519981906117678 -0.29055939022370142 0 0.36936745264149701 -0.28627283508716472 0 0.37101427446782781 -0.29852975601036341 0 0.36936745264149701 -0.28627283508716472 0 0.35657459314761941 -0.2860097891906741 0 0.37101427446782781 -0.29852975601036341 0 0.35657459314761941 -0.2860097891906741 0 0.37101427446782781 -0.29852975601036341 0 0.36308990924476459 -0.28048364807874221 0 0.36936745264149701 -0.28627283508716472 0 0.35657459314761941 -0.2860097891906741 0 0.36308990924476459 -0.28048364807874221 0 0.35657459314761941 -0.2860097891906741 0 0.36308990924476459 -0.28048364807874221 0 0.35366972758071469 -0.28349111722646431 0 0.33463237856908817 -0.28956894479377399 0 0.35366972758071469 -0.28349111722646431 0 0.33463237856908817 -0.28956894479377399 0 0.35366972758071469 -0.28349111722646431 0 0.35195887039823659 -0.28200771363307098 0 0.36308990924476459 -0.28048364807874221 0 0.35366972758071469 -0.28349111722646431 0 0.35195887039823659 -0.28200771363307098 0 0.33485830675890288 -0.30442904333306592 0 0.35657459314761941 -0.2860097891906741 0 0.36308990924476459 -0.28048364807874221 0 0.35366972758071469 -0.28349111722646431 0 0.35657459314761941 -0.2860097891906741 0 0.33463237856908817 -0.28956894479377399 0 0.35366972758071469 -0.28349111722646431 0 0.35657459314761941 -0.2860097891906741 0 0.35366972758071469 -0.28349111722646431 0 0.35657459314761941 -0.2860097891906741 0 0.35366972758071469 -0.28349111722646431 0 0.35195887039823659 -0.28200771363307098 0 0.35620629985463748 -0.30371251724464648 0 0.36380134767337091 -0.31365371592763602 0 0.34533870308018377 -0.31598934501886372 0 0.35657459314761941 -0.2860097891906741 0 0.34824447571033601 -0.30253517369681238 0 0.35620629985463748 -0.30371251724464648 0 0.33485830675890288 -0.30442904333306592 0 0.35657459314761941 -0.2860097891906741 0 0.34824447571033601 -0.30253517369681238 0 0.34824447571033601 -0.30253517369681238 0 0.35620629985463748 -0.30371251724464648 0 0.34533870308018377 -0.31598934501886372 0 0.38545395578803499 -0.31104972283005378 0 0.37101427446782781 -0.29852975601036341 0 0.36380134767337091 -0.31365371592763602 0 0.35620629985463748 -0.30371251724464648 0 0.37101427446782781 -0.29852975601036341 0 0.36380134767337091 -0.31365371592763602 0 0.38545395578803499 -0.31104972283005378 0 0.36380134767337091 -0.31365371592763602 0 0.36945761595668469 -0.32738841673247931 0 0.36380134767337091 -0.31365371592763602 0 0.36945761595668469 -0.32738841673247931 0 0.35533723689285712 -0.32525253772940937 0 0.36945761595668469 -0.32738841673247931 0 0.35618710249729552 -0.34088690244721892 0 0.35533723689285712 -0.32525253772940937 0 0.36945761595668469 -0.32738841673247931 0 0.35618710249729552 -0.34088690244721892 0 0.37368731816096312 -0.34897020548070451 0 0.35618710249729552 -0.34088690244721892 0 0.33810128782584858 -0.35072533414536311 0 0.34064131712366241 -0.33181983138849169 0 0.35618710249729552 -0.34088690244721892 0 0.35533723689285712 -0.32525253772940937 0 0.34064131712366241 -0.33181983138849169 0 0.34533870308018377 -0.31598934501886372 0 0.35533723689285712 -0.32525253772940937 0 0.34064131712366241 -0.33181983138849169 0 0.36380134767337091 -0.31365371592763602 0 0.34533870308018377 -0.31598934501886372 0 0.35533723689285712 -0.32525253772940937 0 0.3689120952668708 -0.37284951495870189 0 0.37368731816096312 -0.34897020548070451 0 0.35738528973841999 -0.35772904562383351 0 0.35618710249729552 -0.34088690244721892 0 0.37368731816096312 -0.34897020548070451 0 0.35738528973841999 -0.35772904562383351 0 0.35618710249729552 -0.34088690244721892 0 0.35738528973841999 -0.35772904562383351 0 0.33810128782584858 -0.35072533414536311 0 0.35738528973841999 -0.35772904562383351 0 0.34467783115022588 -0.37252705130409253 0 0.33810128782584858 -0.35072533414536311 0 0.3689120952668708 -0.37284951495870189 0 0.35738528973841999 -0.35772904562383351 0 0.34467783115022588 -0.37252705130409253 0 0.34467783115022588 -0.37252705130409253 0 0.33810128782584858 -0.35072533414536311 0 0.3255374248820434 -0.37161020359421471 0 0.31543696134246668 -0.34593224431305769 0 0.3255374248820434 -0.37161020359421471 0 0.30900602422585888 -0.35865430802761772 0 0.31543696134246668 -0.34593224431305769 0 0.3255374248820434 -0.37161020359421471 0 0.33810128782584858 -0.35072533414536311 0 0.31543696134246668 -0.34593224431305769 0 0.3255374248820434 -0.37161020359421471 0 0.3255374248820434 -0.37161020359421471 0 0.30525369772634148 -0.37164386163485291 0 0.30900602422585888 -0.35865430802761772 0 0.34533870308018377 -0.31598934501886372 0 0.33130220335757699 -0.32186248444176119 0 0.34064131712366241 -0.33181983138849169 0 0.33485830675890288 -0.30442904333306592 0 0.34533870308018377 -0.31598934501886372 0 0.33130220335757699 -0.32186248444176119 0 0.33810128782584858 -0.35072533414536311 0 0.34064131712366241 -0.33181983138849169 0 0.3268430880468266 -0.33457206034663262 0 0.33130220335757699 -0.32186248444176119 0 0.34064131712366241 -0.33181983138849169 0 0.3268430880468266 -0.33457206034663262 0 0.31543696134246668 -0.34593224431305769 0 0.3268430880468266 -0.33457206034663262 0 0.31314202037018413 -0.32284829747545468 0 0.33810128782584858 -0.35072533414536311 0 0.31543696134246668 -0.34593224431305769 0 0.3268430880468266 -0.33457206034663262 0 0.33130220335757699 -0.32186248444176119 0 0.3268430880468266 -0.33457206034663262 0 0.31314202037018413 -0.32284829747545468 0 0.33485830675890288 -0.30442904333306592 0 0.31314202037018413 -0.32284829747545468 0 0.3171485971304504 -0.30589952111326829 0 0.31314202037018413 -0.32284829747545468 0 0.3109911447756647 -0.31350988965823029 0 0.33485830675890288 -0.30442904333306592 0 0.33130220335757699 -0.32186248444176119 0 0.31314202037018413 -0.32284829747545468 0 0.31314202037018413 -0.32284829747545468 0 0.30533649780288991 -0.32025428503190068 0 0.3109911447756647 -0.31350988965823029 0 0.30533649780288991 -0.32025428503190068 0 0.3109911447756647 -0.31350988965823029 0 0.30833746379913463 -0.30503745501229762 0 0.31543696134246668 -0.34593224431305769 0 0.30533649780288991 -0.32025428503190068 0 0.30314188851555429 -0.3464145030398364 0 0.30533649780288991 -0.32025428503190068 0 0.29792146783109758 -0.32077626486014349 0 0.30314188851555429 -0.3464145030398364 0 0.31543696134246668 -0.34593224431305769 0 0.31314202037018413 -0.32284829747545468 0 0.30533649780288991 -0.32025428503190068 0 0.29792146783109758 -0.32077626486014349 0 0.30314188851555429 -0.3464145030398364 0 0.31543696134246668 -0.34593224431305769 0 0.30533649780288991 -0.32025428503190068 0 0.29792146783109758 -0.32077626486014349 0 0.29422135484035322 -0.33366994296298719 0 0.30314188851555429 -0.3464145030398364 0 0.29422135484035322 -0.33366994296298719 0 0.29546103181119637 -0.34185893253319311 0 0.30314188851555429 -0.3464145030398364 0 0.29422135484035322 -0.33366994296298719 0 0.29546103181119637 -0.34185893253319311 0 0.28827175492889229 -0.34275780055790278 0 0.29546103181119637 -0.34185893253319311 0 0.28827175492889229 -0.34275780055790278 0 0.29811044553331972 -0.34650788457159087 0 0.29422135484035322 -0.33366994296298719 0 0.28827175492889229 -0.34275780055790278 0 0.27955848846152698 -0.33666113426449551 0 0.29422135484035322 -0.33366994296298719 0 0.28744860979629389 -0.32474860906702402 0 0.27955848846152698 -0.33666113426449551 0 0.28744860979629389 -0.32474860906702402 0 0.29019889155513462 -0.31620785207956748 0 0.28097437988070417 -0.31138482246715898 0 0.29792146783109758 -0.32077626486014349 0 0.29019889155513462 -0.31620785207956748 0 0.29244758100571983 -0.32385066724243061 0 0.29422135484035322 -0.33366994296298719 0 0.28744860979629389 -0.32474860906702402 0 0.29244758100571983 -0.32385066724243061 0 0.29792146783109758 -0.32077626486014349 0 0.29422135484035322 -0.33366994296298719 0 0.29244758100571983 -0.32385066724243061 0 0.28744860979629389 -0.32474860906702402 0 0.29019889155513462 -0.31620785207956748 0 0.29244758100571983 -0.32385066724243061 0 0.30525369772634148 -0.37164386163485291 0 0.30031449930387721 -0.36082981960256849 0 0.30900602422585888 -0.35865430802761772 0 0.30525369772634148 -0.37164386163485291 0 0.30031449930387721 -0.36082981960256849 0 0.29483415024835152 -0.36747827247447862 0 0.30080593951138668 -0.35381036279877531 0 0.30900602422585888 -0.35865430802761772 0 0.30314188851555429 -0.3464145030398364 0 0.30080593951138668 -0.35381036279877531 0 0.29811044553331972 -0.34650788457159087 0 0.29345683997832372 -0.35664529875226292 0 0.30031449930387721 -0.36082981960256849 0 0.30080593951138668 -0.35381036279877531 0 0.30900602422585888 -0.35865430802761772 0 0.30031449930387721 -0.36082981960256849 0 0.30080593951138668 -0.35381036279877531 0 0.29345683997832372 -0.35664529875226292 0 0.31543696134246668 -0.34593224431305769 0 0.30900602422585888 -0.35865430802761772 0 0.30314188851555429 -0.3464145030398364 0 0.30080593951138668 -0.35381036279877531 0 0.30314188851555429 -0.3464145030398364 0 0.29811044553331972 -0.34650788457159087 0 0.29546103181119637 -0.34185893253319311 0 0.30314188851555429 -0.3464145030398364 0 0.29811044553331972 -0.34650788457159087 0 0.29811044553331972 -0.34650788457159087 0 0.29345683997832372 -0.35664529875226292 0 0.28122462644821988 -0.35688066365974619 0 0.28827175492889229 -0.34275780055790278 0 0.29811044553331972 -0.34650788457159087 0 0.28122462644821988 -0.35688066365974619 0 0.28827175492889229 -0.34275780055790278 0 0.28122462644821988 -0.35688066365974619 0 0.27955848846152698 -0.33666113426449551 0 0.29811044553331972 -0.34650788457159087 0 0.28122462644821988 -0.35688066365974619 0 0.29345683997832372 -0.35664529875226292 0 0.28676543400443838 -0.36101512068260139 0 0.28122462644821988 -0.35688066365974619 0 0.28676543400443838 -0.36101512068260139 0 0.28122462644821988 -0.35688066365974619 0 0.28783989868818821 -0.37644057584389279 0 0.30525369772634148 -0.37164386163485291 0 0.29483415024835152 -0.36747827247447862 0 0.28783989868818821 -0.37644057584389279 0 0.28676543400443838 -0.36101512068260139 0 0.27033126349110148 -0.36357234067652822 0 0.29357505063040601 -0.36145191270551408 0 0.28676543400443838 -0.36101512068260139 0 0.29483415024835152 -0.36747827247447862 0 0.30031449930387721 -0.36082981960256849 0 0.29357505063040601 -0.36145191270551408 0 0.29483415024835152 -0.36747827247447862 0 0.30031449930387721 -0.36082981960256849 0 0.29345683997832372 -0.35664529875226292 0 0.29357505063040601 -0.36145191270551408 0 0.29345683997832372 -0.35664529875226292 0 0.29357505063040601 -0.36145191270551408 0 0.28676543400443838 -0.36101512068260139 0 0.28783989868818821 -0.37644057584389279 0 0.28676543400443838 -0.36101512068260139 0 0.29483415024835152 -0.36747827247447862 0 0.28783989868818821 -0.37644057584389279 0 0.27033126349110148 -0.36357234067652822 0 0.28783989868818821 -0.37644057584389279 0 0.27447250226623809 -0.37821124143188289 0 0.27033126349110148 -0.36357234067652822 0 0.28676543400443838 -0.36101512068260139 0 0.27033126349110148 -0.36357234067652822 0 0.28122462644821988 -0.35688066365974619 0 0.27447250226623809 -0.37821124143188289 0 0.26423397132697279 -0.37890457124200982 0 0.27033126349110148 -0.36357234067652822 0 0.27033126349110148 -0.36357234067652822 0 0.28122462644821988 -0.35688066365974619 0 0.28122462644821988 -0.35688066365974619 0 0.26082083375001269 -0.34165569813656432 0 0.27033126349110148 -0.36357234067652822 0 0.28122462644821988 -0.35688066365974619 0 0.26082083375001269 -0.34165569813656432 0 0.28122462644821988 -0.35688066365974619 0 0.27955848846152698 -0.33666113426449551 0 0.26082083375001269 -0.34165569813656432 0 0.27033126349110148 -0.36357234067652822 0 0.25099839141978419 -0.34936335514031408 0 0.27033126349110148 -0.36357234067652822 0 0.25099839141978419 -0.34936335514031408 0 0.26082083375001269 -0.34165569813656432 0 0.27033126349110148 -0.36357234067652822 0 0.25099839141978419 -0.34936335514031408 0 0.24534349961555019 -0.36253701182870851 0 0.26423397132697279 -0.37890457124200982 0 0.27033126349110148 -0.36357234067652822 0 0.24987622704845311 -0.37613765202982719 0 0.27033126349110148 -0.36357234067652822 0 0.24534349961555019 -0.36253701182870851 0 0.24987622704845311 -0.37613765202982719 0 0.27033126349110148 -0.36357234067652822 0 0.24987622704845311 -0.37613765202982719 0 0.28744860979629389 -0.32474860906702402 0 0.26598899428458778 -0.32103793389256657 0 0.27955848846152698 -0.33666113426449551 0 0.28744860979629389 -0.32474860906702402 0 0.26598899428458778 -0.32103793389256657 0 0.28097437988070417 -0.31138482246715898 0 0.26598899428458778 -0.32103793389256657 0 0.27955848846152698 -0.33666113426449551 0 0.26082083375001269 -0.34165569813656432 0 0.26082083375001269 -0.34165569813656432 0 0.2404170410518052 -0.32643073261338312 0 0.26598899428458778 -0.32103793389256657 0 0.26082083375001269 -0.34165569813656432 0 0.2404170410518052 -0.32643073261338312 0 0.25099839141978419 -0.34936335514031408 0 0.26082083375001269 -0.34165569813656432 0 0.2404170410518052 -0.32643073261338312 0 0.26598899428458778 -0.32103793389256657 0 0.24423538898563429 -0.30587701823941071 0 0.2404170410518052 -0.32643073261338312 0 0.26846821806613752 -0.30050752245993012 0 0.24423538898563429 -0.30587701823941071 0 0.25301376652256202 -0.2892367573709661 0 0.26846821806613752 -0.30050752245993012 0 0.24423538898563429 -0.30587701823941071 0 0.26598899428458778 -0.32103793389256657 0 0.26846821806613752 -0.30050752245993012 0 0.24423538898563429 -0.30587701823941071 0 0.25301376652256202 -0.2892367573709661 0 0.26500420865911251 -0.28331687632378699 0 0.26846821806613752 -0.30050752245993012 0 0.25301376652256202 -0.2892367573709661 0 0.26500420865911251 -0.28331687632378699 0 0.2507153324002197 -0.27704953531328702 0 0.26500420865911251 -0.28331687632378699 0 0.27805302037335089 -0.28584974436810762 0 0.26846821806613752 -0.30050752245993012 0 0.27805302037335089 -0.28584974436810762 0 0.26846821806613752 -0.30050752245993012 0 0.29270104714664102 -0.29513802668045069 0 0.26500420865911251 -0.28331687632378699 0 0.27805302037335089 -0.28584974436810762 0 0.27342558025451552 -0.27498979272208851 0 0.26598899428458778 -0.32103793389256657 0 0.26846821806613752 -0.30050752245993012 0 0.28097437988070417 -0.31138482246715898 0 0.26846821806613752 -0.30050752245993012 0 0.28097437988070417 -0.31138482246715898 0 0.29270104714664102 -0.29513802668045069 0 0.26846821806613752 -0.30050752245993012 0 0.29270104714664102 -0.29513802668045069 0 0.29792146783109758 -0.32077626486014349 0 0.29270104714664102 -0.29513802668045069 0 0.29019889155513462 -0.31620785207956748 0 0.28097437988070417 -0.31138482246715898 0 0.29270104714664102 -0.29513802668045069 0 0.29792146783109758 -0.32077626486014349 0 0.29019889155513462 -0.31620785207956748 0 0.29270104714664102 -0.29513802668045069 0 0.29792146783109758 -0.32077626486014349 0 0.29270104714664102 -0.29513802668045069 0 0.29523603426331357 -0.29457632575074338 0 0.27805302037335089 -0.28584974436810762 0 0.29026987947112831 -0.28319821192468808 0 0.29270104714664102 -0.29513802668045069 0 0.27805302037335089 -0.28584974436810762 0 0.29026987947112831 -0.28319821192468808 0 0.28863308206368682 -0.27515966401439529 0 0.29026987947112831 -0.28319821192468808 0 0.29523603426331357 -0.29457632575074338 0 0.29026987947112831 -0.28319821192468808 0 0.29523603426331357 -0.29457632575074338 0 0.30320790951940702 -0.28313078900162059 0 0.29026987947112831 -0.28319821192468808 0 0.29270104714664102 -0.29513802668045069 0 0.29523603426331357 -0.29457632575074338 0 0.29026987947112831 -0.28319821192468808 0 0.29270104714664102 -0.29513802668045069 0 0.29270104714664102 -0.29513802668045069 0 0.29523603426331357 -0.29457632575074338 0 0.29523603426331357 -0.29457632575074338 0 0.31208952779935789 -0.2908419387292881 0 0.29523603426331357 -0.29457632575074338 0 0.30320790951940702 -0.28313078900162059 0 0.31208952779935789 -0.2908419387292881 0 0.29523603426331357 -0.29457632575074338 0 0.31208952779935789 -0.2908419387292881 0 0.30833746379913463 -0.30503745501229762 0 0.31611371382327402 -0.28007222207304999 0 0.30320790951940702 -0.28313078900162059 0 0.31208952779935789 -0.2908419387292881 0 0.30533649780288991 -0.32025428503190068 0 0.29523603426331357 -0.29457632575074338 0 0.30833746379913463 -0.30503745501229762 0 0.30533649780288991 -0.32025428503190068 0 0.29792146783109758 -0.32077626486014349 0 0.29523603426331357 -0.29457632575074338 0 0.30533649780288991 -0.32025428503190068 0 0.29523603426331357 -0.29457632575074338 0 0.3171485971304504 -0.30589952111326829 0 0.3109911447756647 -0.31350988965823029 0 0.30833746379913463 -0.30503745501229762 0 0.29812220868357159 -0.26533402464574418 0 0.30111904597271899 -0.2536098058489899 0 0.30981211567343969 -0.26250129009931661 0 0.31597462601859122 -0.25080747204364812 0 0.30111904597271899 -0.2536098058489899 0 0.30981211567343969 -0.26250129009931661 0 0.29812220868357159 -0.26533402464574418 0 0.30981211567343969 -0.26250129009931661 0 0.30706455279928557 -0.27339796693147528 0 0.31611371382327402 -0.28007222207304999 0 0.30320790951940702 -0.28313078900162059 0 0.30706455279928557 -0.27339796693147528 0 0.29026987947112831 -0.28319821192468808 0 0.30320790951940702 -0.28313078900162059 0 0.29755036247591721 -0.27602563541609298 0 0.30320790951940702 -0.28313078900162059 0 0.30706455279928557 -0.27339796693147528 0 0.29755036247591721 -0.27602563541609298 0 0.29812220868357159 -0.26533402464574418 0 0.30706455279928557 -0.27339796693147528 0 0.29755036247591721 -0.27602563541609298 0 0.29812220868357159 -0.26533402464574418 0 0.29755036247591721 -0.27602563541609298 0 0.28863308206368682 -0.27515966401439529 0 0.29026987947112831 -0.28319821192468808 0 0.28863308206368682 -0.27515966401439529 0 0.29026987947112831 -0.28319821192468808 0 0.29755036247591721 -0.27602563541609298 0 0.28863308206368682 -0.27515966401439529 0 0.28863308206368682 -0.27515966401439529 0 0.28456511698073272 -0.25518130134833977 0 0.29812220868357159 -0.26533402464574418 0 0.28863308206368682 -0.27515966401439529 0 0.28456511698073272 -0.25518130134833977 0 0.29812220868357159 -0.26533402464574418 0 0.30111904597271899 -0.2536098058489899 0 0.28456511698073272 -0.25518130134833977 0 0.28863308206368682 -0.27515966401439529 0 0.28456511698073272 -0.25518130134833977 0 0.27223885194073971 -0.26265851400849172 0 0.28456511698073272 -0.25518130134833977 0 0.27223885194073971 -0.26265851400849172 0 0.26629969424128969 -0.25192769388052821 0 0.27223885194073971 -0.26265851400849172 0 0.26629969424128969 -0.25192769388052821 0 0.2629172406837702 -0.26740365320709081 0 0.26500420865911251 -0.28331687632378699 0 0.27342558025451552 -0.27498979272208851 0 0.2629172406837702 -0.26740365320709081 0 0.28863308206368682 -0.27515966401439529 0 0.27223885194073971 -0.26265851400849172 0 0.27342558025451552 -0.27498979272208851 0 0.27805302037335089 -0.28584974436810762 0 0.28863308206368682 -0.27515966401439529 0 0.27342558025451552 -0.27498979272208851 0 0.27223885194073971 -0.26265851400849172 0 0.27342558025451552 -0.27498979272208851 0 0.2629172406837702 -0.26740365320709081 0 0.26500420865911251 -0.28331687632378699 0 0.2629172406837702 -0.26740365320709081 0 0.2507153324002197 -0.27704953531328702 0 0.2629172406837702 -0.26740365320709081 0 0.2507153324002197 -0.27704953531328702 0 0.2466218950091964 -0.26012473444713258 0 0.25037283077400019 -0.2416092145933311 0 0.26629969424128969 -0.25192769388052821 0 0.2466218950091964 -0.26012473444713258 0 0.26629969424128969 -0.25192769388052821 0 0.2629172406837702 -0.26740365320709081 0 0.2466218950091964 -0.26012473444713258 0 0.25037283077400019 -0.2416092145933311 0 0.2466218950091964 -0.26012473444713258 0 0.2339549802858914 -0.24933471903745599 0 0.2466218950091964 -0.26012473444713258 0 0.22717476572977791 -0.26325637954660608 0 0.2339549802858914 -0.24933471903745599 0 0.2466218950091964 -0.26012473444713258 0 0.23628574795648369 -0.27498419313581679 0 0.22717476572977791 -0.26325637954660608 0 0.2507153324002197 -0.27704953531328702 0 0.2466218950091964 -0.26012473444713258 0 0.23628574795648369 -0.27498419313581679 0 0.2507153324002197 -0.27704953531328702 0 0.23628574795648369 -0.27498419313581679 0 0.24044913557019401 -0.28723099739492908 0 0.2247339410531527 -0.27667652802353632 0 0.21554844428562811 -0.26491471108287651 0 0.21653111649902579 -0.28712771180040292 0 0.23628574795648369 -0.27498419313581679 0 0.2247339410531527 -0.27667652802353632 0 0.22717476572977791 -0.26325637954660608 0 0.2247339410531527 -0.27667652802353632 0 0.22717476572977791 -0.26325637954660608 0 0.21554844428562811 -0.26491471108287651 0 0.22717476572977791 -0.26325637954660608 0 0.22331750647786899 -0.25281133177650322 0 0.2339549802858914 -0.24933471903745599 0 0.22717476572977791 -0.26325637954660608 0 0.22331750647786899 -0.25281133177650322 0 0.21554844428562811 -0.26491471108287651 0 0.2084475354763706 -0.25511513831035743 0 0.21554844428562811 -0.26491471108287651 0 0.1982966667633215 -0.26354120971092698 0 0.21554844428562811 -0.26491471108287651 0 0.21456577207223029 -0.24270171036535029 0 0.22331750647786899 -0.25281133177650322 0 0.21554844428562811 -0.26491471108287651 0 0.21456577207223029 -0.24270171036535029 0 0.2084475354763706 -0.25511513831035743 0 0.21554844428562811 -0.26491471108287651 0 0.21336353465090491 -0.24693864317134839 0 0.21554844428562811 -0.26491471108287651 0 0.21336353465090491 -0.24693864317134839 0 0.21456577207223029 -0.24270171036535029 0 0.2084475354763706 -0.25511513831035743 0 0.1982966667633215 -0.26354120971092698 0 0.2080714594183444 -0.2424179483002232 0 0.1982966667633215 -0.26354120971092698 0 0.2080714594183444 -0.2424179483002232 0 0.21554844428562811 -0.26491471108287651 0 0.21653111649902579 -0.28712771180040292 0 0.21554844428562811 -0.26491471108287651 0 0.20859607852913339 -0.28093905456482821 0 0.21653111649902579 -0.28712771180040292 0 0.21554844428562811 -0.26491471108287651 0 0.20859607852913339 -0.28093905456482821 0 0.2011380539128553 -0.27767933622792518 0 0.21554844428562811 -0.26491471108287651 0 0.2011380539128553 -0.27767933622792518 0 0.1982966667633215 -0.26354120971092698 0 0.1982966667633215 -0.26354120971092698 0 0.18852187410829821 -0.28466447112163068 0 0.1982966667633215 -0.26354120971092698 0 0.18852187410829821 -0.28466447112163068 0 0.1845366839674035 -0.26640487959885623 0 0.2011380539128553 -0.27767933622792518 0 0.1982966667633215 -0.26354120971092698 0 0.18852187410829821 -0.28466447112163068 0 0.1982966667633215 -0.26354120971092698 0 0.2080714594183444 -0.2424179483002232 0 0.19254414318066221 -0.24961624770678509 0 0.1982966667633215 -0.26354120971092698 0 0.18706352147094041 -0.25756661524031438 0 0.1845366839674035 -0.26640487959885623 0 0.1982966667633215 -0.26354120971092698 0 0.18706352147094041 -0.25756661524031438 0 0.19254414318066221 -0.24961624770678509 0 0.18706352147094041 -0.25756661524031438 0 0.19254414318066221 -0.24961624770678509 0 0.18399505531774341 -0.24981832115951039 0 0.20249447748908611 -0.29813355613580778 0 0.1976485991634879 -0.30796138879627621 0 0.19462594870140809 -0.30164723750547567 0 0.20249447748908611 -0.29813355613580778 0 0.19462594870140809 -0.30164723750547567 0 0.19392418081794471 -0.29575522021664652 0 0.20249447748908611 -0.29813355613580778 0 0.1976485991634879 -0.30796138879627621 0 0.20782414549410869 -0.30817847155873718 0 0.1976485991634879 -0.30796138879627621 0 0.20782414549410869 -0.30817847155873718 0 0.20282381327660201 -0.31505297042611552 0 0.1976485991634879 -0.30796138879627621 0 0.19009702279388629 -0.3064242775921906 0 0.18802618722583669 -0.31833181955932999 0 0.1976485991634879 -0.30796138879627621 0 0.19009702279388629 -0.3064242775921906 0 0.19462594870140809 -0.30164723750547567 0 0.19009702279388629 -0.3064242775921906 0 0.19462594870140809 -0.30164723750547567 0 0.1880606218677118 -0.30022154946313712 0 0.19462594870140809 -0.30164723750547567 0 0.19110113081553529 -0.29631368747161629 0 0.19392418081794471 -0.29575522021664652 0 0.1880606218677118 -0.30022154946313712 0 0.19110113081553529 -0.29631368747161629 0 0.18734834214976739 -0.29514628785519947 0 0.19462594870140809 -0.30164723750547567 0 0.1880606218677118 -0.30022154946313712 0 0.19110113081553529 -0.29631368747161629 0 0.20249447748908611 -0.29813355613580778 0 0.18747516626574931 -0.28692639975368628 0 0.20249447748908611 -0.29813355613580778 0 0.19392418081794471 -0.29575522021664652 0 0.18747516626574931 -0.28692639975368628 0 0.19110113081553529 -0.29631368747161629 0 0.19392418081794471 -0.29575522021664652 0 0.18747516626574931 -0.28692639975368628 0 0.19110113081553529 -0.29631368747161629 0 0.18747516626574931 -0.28692639975368628 0 0.18734834214976739 -0.29514628785519947 0 0.18852187410829821 -0.28466447112163068 0 0.19787122383615691 -0.29172525818392958 0 0.18852187410829821 -0.28466447112163068 0 0.19731262536099689 -0.28481999283041842 0 0.19787122383615691 -0.29172525818392958 0 0.18852187410829821 -0.28466447112163068 0 0.19787122383615691 -0.29172525818392958 0 0.18747516626574931 -0.28692639975368628 0 0.18852187410829821 -0.28466447112163068 0 0.18747516626574931 -0.28692639975368628 0 0.2011380539128553 -0.27767933622792518 0 0.18852187410829821 -0.28466447112163068 0 0.19731262536099689 -0.28481999283041842 0 0.201719349586677 -0.2852109057881882 0 0.19787122383615691 -0.29172525818392958 0 0.206049533411369 -0.28982701925762389 0 0.19731262536099689 -0.28481999283041842 0 0.201719349586677 -0.2852109057881882 0 0.19787122383615691 -0.29172525818392958 0 0.2011380539128553 -0.27767933622792518 0 0.19731262536099689 -0.28481999283041842 0 0.201719349586677 -0.2852109057881882 0 0.20249447748908611 -0.29813355613580778 0 0.19787122383615691 -0.29172525818392958 0 0.18747516626574931 -0.28692639975368628 0 0.20249447748908611 -0.29813355613580778 0 0.19787122383615691 -0.29172525818392958 0 0.206049533411369 -0.28982701925762389 0 0.20249447748908611 -0.29813355613580778 0 0.206049533411369 -0.28982701925762389 0 0.20903552332543929 -0.29406903275804652 0 0.206049533411369 -0.28982701925762389 0 0.20903552332543929 -0.29406903275804652 0 0.21653111649902579 -0.28712771180040292 0 0.20249447748908611 -0.29813355613580778 0 0.20903552332543929 -0.29406903275804652 0 0.2123558614978226 -0.29827812898856709 0 0.20859607852913339 -0.28093905456482821 0 0.206049533411369 -0.28982701925762389 0 0.21653111649902579 -0.28712771180040292 0 0.20859607852913339 -0.28093905456482821 0 0.201719349586677 -0.2852109057881882 0 0.206049533411369 -0.28982701925762389 0 0.20859607852913339 -0.28093905456482821 0 0.2011380539128553 -0.27767933622792518 0 0.201719349586677 -0.2852109057881882 0 0.20903552332543929 -0.29406903275804652 0 0.21653111649902579 -0.28712771180040292 0 0.2123558614978226 -0.29827812898856709 0 0.21653111649902579 -0.28712771180040292 0 0.2175137887124228 -0.30934071251792922 0 0.21653111649902579 -0.28712771180040292 0 0.2123558614978226 -0.29827812898856709 0 0.2175137887124228 -0.30934071251792922 0 0.20249447748908611 -0.29813355613580778 0 0.2123558614978226 -0.29827812898856709 0 0.2175137887124228 -0.30934071251792922 0 0.20249447748908611 -0.29813355613580778 0 0.2175137887124228 -0.30934071251792922 0 0.20782414549410869 -0.30817847155873718 0 0.2176214393273678 -0.31177412129290383 0 0.20282381327660201 -0.31505297042611552 0 0.20249447748908611 -0.29813355613580778 0 0.20782414549410869 -0.30817847155873718 0 0.2175137887124228 -0.30934071251792922 0 0.20782414549410869 -0.30817847155873718 0 0.2175137887124228 -0.30934071251792922 0 0.2176214393273678 -0.31177412129290383 0 0.2175137887124228 -0.30934071251792922 0 0.2176214393273678 -0.31177412129290383 0 0.2175137887124228 -0.30934071251792922 0 0.2176214393273678 -0.31177412129290383 0 0.21999804566891551 -0.31122614102315033 0 0.21999804566891551 -0.31122614102315033 0 0.24423538898563429 -0.30587701823941071 0 0.2175137887124228 -0.30934071251792922 0 0.21999804566891551 -0.31122614102315033 0 0.22812963079484819 -0.29309964455197901 0 0.21999804566891551 -0.31122614102315033 0 0.22812963079484819 -0.29309964455197901 0 0.21999804566891551 -0.31122614102315033 0 0.22812963079484819 -0.29309964455197901 0 0.24423538898563429 -0.30587701823941071 0 0.2176214393273678 -0.31177412129290383 0 0.21999804566891551 -0.31122614102315033 0 0.2175137887124228 -0.30934071251792922 0 0.21999804566891551 -0.31122614102315033 0 0.23628574795648369 -0.27498419313581679 0 0.22812963079484819 -0.29309964455197901 0 0.2247339410531527 -0.27667652802353632 0 0.21653111649902579 -0.28712771180040292 0 0.22812963079484819 -0.29309964455197901 0 0.23628574795648369 -0.27498419313581679 0 0.2247339410531527 -0.27667652802353632 0 0.22812963079484819 -0.29309964455197901 0 0.21653111649902579 -0.28712771180040292 0 0.2175137887124228 -0.30934071251792922 0 0.22812963079484819 -0.29309964455197901 0 0.23628574795648369 -0.27498419313581679 0 0.22812963079484819 -0.29309964455197901 0 0.24044913557019401 -0.28723099739492908 0 0.25301376652256202 -0.2892367573709661 0 0.24044913557019401 -0.28723099739492908 0 0.24423538898563429 -0.30587701823941071 0 0.22812963079484819 -0.29309964455197901 0 0.24044913557019401 -0.28723099739492908 0 0.24423538898563429 -0.30587701823941071 0 0.25301376652256202 -0.2892367573709661 0 0.2507153324002197 -0.27704953531328702 0 0.24044913557019401 -0.28723099739492908 0 0.21999804566891551 -0.31122614102315033 0 0.24423538898563429 -0.30587701823941071 0 0.2404170410518052 -0.32643073261338312 0 0.25099839141978419 -0.34936335514031408 0 0.2316655193484673 -0.33515436960409939 0 0.25099839141978419 -0.34936335514031408 0 0.2404170410518052 -0.32643073261338312 0 0.2316655193484673 -0.33515436960409939 0 0.2404170410518052 -0.32643073261338312 0 0.2316655193484673 -0.33515436960409939 0 0.2247705650129608 -0.32491873692320528 0 0.2316655193484673 -0.33515436960409939 0 0.22208049410379579 -0.34309390150507102 0 0.22867514261462599 -0.34782526071452929 0 0.2316655193484673 -0.33515436960409939 0 0.22208049410379579 -0.34309390150507102 0 0.220555537226792 -0.33578323097752499 0 0.22208049410379579 -0.34309390150507102 0 0.220555537226792 -0.33578323097752499 0 0.21451162402718699 -0.34512658597487872 0 0.220555537226792 -0.33578323097752499 0 0.2247705650129608 -0.32491873692320528 0 0.21820242441149371 -0.32490710899175251 0 0.2316655193484673 -0.33515436960409939 0 0.220555537226792 -0.33578323097752499 0 0.2247705650129608 -0.32491873692320528 0 0.21999804566891551 -0.31122614102315033 0 0.2404170410518052 -0.32643073261338312 0 0.2247705650129608 -0.32491873692320528 0 0.21999804566891551 -0.31122614102315033 0 0.2404170410518052 -0.32643073261338312 0 0.2247705650129608 -0.32491873692320528 0 0.21780935440599439 -0.31602188338433101 0 0.21820242441149371 -0.32490710899175251 0 0.21999804566891551 -0.31122614102315033 0 0.2247705650129608 -0.32491873692320528 0 0.21780935440599439 -0.31602188338433101 0 0.21999804566891551 -0.31122614102315033 0 0.21780935440599439 -0.31602188338433101 0 0.23679608458568241 -0.3713456781615978 0 0.24534349961555019 -0.36253701182870851 0 0.24987622704845311 -0.37613765202982719 0 0.23679608458568241 -0.3713456781615978 0 0.24534349961555019 -0.36253701182870851 0 0.23133102347449649 -0.35950822589080189 0 0.25099839141978419 -0.34936335514031408 0 0.2316655193484673 -0.33515436960409939 0 0.23760271529458479 -0.35087764463569071 0 0.24534349961555019 -0.36253701182870851 0 0.23760271529458479 -0.35087764463569071 0 0.23133102347449649 -0.35950822589080189 0 0.25099839141978419 -0.34936335514031408 0 0.24534349961555019 -0.36253701182870851 0 0.23760271529458479 -0.35087764463569071 0 0.2316655193484673 -0.33515436960409939 0 0.23760271529458479 -0.35087764463569071 0 0.22867514261462599 -0.34782526071452929 0 0.22208049410379579 -0.34309390150507102 0 0.22076837523631451 -0.35267920974236072 0 0.21451162402718699 -0.34512658597487872 0 0.22208049410379579 -0.34309390150507102 0 0.22867514261462599 -0.34782526071452929 0 0.22076837523631451 -0.35267920974236072 0 0.22076837523631451 -0.35267920974236072 0 0.22341137818785181 -0.36337688942730773 0 0.21609027172906259 -0.36087537471117581 0 0.22076837523631451 -0.35267920974236072 0 0.23133102347449649 -0.35950822589080189 0 0.22341137818785181 -0.36337688942730773 0 0.22867514261462599 -0.34782526071452929 0 0.22076837523631451 -0.35267920974236072 0 0.23133102347449649 -0.35950822589080189 0 0.23760271529458479 -0.35087764463569071 0 0.22867514261462599 -0.34782526071452929 0 0.23133102347449649 -0.35950822589080189 0 0.23133102347449649 -0.35950822589080189 0 0.22341137818785181 -0.36337688942730773 0 0.22699371624108439 -0.37103399677892651 0 0.22341137818785181 -0.36337688942730773 0 0.22699371624108439 -0.37103399677892651 0 0.21663927632257499 -0.37152038636996992 0 0.22699371624108439 -0.37103399677892651 0 0.21663927632257499 -0.37152038636996992 0 0.22189277223980711 -0.38054577212349588 0 0.23679608458568241 -0.3713456781615978 0 0.22699371624108439 -0.37103399677892651 0 0.23010576568282681 -0.37607478874810818 0 0.23679608458568241 -0.3713456781615978 0 0.23133102347449649 -0.35950822589080189 0 0.22699371624108439 -0.37103399677892651 0 0.21663927632257499 -0.37152038636996992 0 0.20683644217058031 -0.36558797855932218 0 0.20576161095015591 -0.37595213443190167 0 0.22341137818785181 -0.36337688942730773 0 0.21663927632257499 -0.37152038636996992 0 0.21609027172906259 -0.36087537471117581 0 0.21609027172906259 -0.36087537471117581 0 0.20683644217058031 -0.36558797855932218 0 0.21089823393406021 -0.35324530101306001 0 0.21663927632257499 -0.37152038636996992 0 0.21609027172906259 -0.36087537471117581 0 0.20683644217058031 -0.36558797855932218 0 0.19940837682496099 -0.35689206815154528 0 0.20777431361625601 -0.33831058893907762 0 0.21089823393406021 -0.35324530101306001 0 0.19940837682496099 -0.35689206815154528 0 0.20777431361625601 -0.33831058893907762 0 0.20683644217058031 -0.36558797855932218 0 0.21089823393406021 -0.35324530101306001 0 0.19940837682496099 -0.35689206815154528 0 0.22076837523631451 -0.35267920974236072 0 0.21609027172906259 -0.36087537471117581 0 0.21089823393406021 -0.35324530101306001 0 0.21089823393406021 -0.35324530101306001 0 0.21451162402718699 -0.34512658597487872 0 0.20777431361625601 -0.33831058893907762 0 0.22076837523631451 -0.35267920974236072 0 0.21089823393406021 -0.35324530101306001 0 0.21451162402718699 -0.34512658597487872 0 0.1971616983813648 -0.34495631128618592 0 0.19940837682496099 -0.35689206815154528 0 0.20777431361625601 -0.33831058893907762 0 0.1971616983813648 -0.34495631128618592 0 0.18787137947787569 -0.35180034780069419 0 0.18864170350563411 -0.33720407153827198 0 0.1971616983813648 -0.34495631128618592 0 0.18787137947787569 -0.35180034780069419 0 0.19940837682496099 -0.35689206815154528 0 0.20683644217058031 -0.36558797855932218 0 0.20576161095015591 -0.37595213443190167 0 0.1910424400336663 -0.37547354736401328 0 0.18787137947787569 -0.35180034780069419 0 0.19940837682496099 -0.35689206815154528 0 0.1910424400336663 -0.37547354736401328 0 0.19940837682496099 -0.35689206815154528 0 0.1910424400336663 -0.37547354736401328 0 0.20683644217058031 -0.36558797855932218 0 0.19940837682496099 -0.35689206815154528 0 0.1910424400336663 -0.37547354736401328 0 0.21780935440599439 -0.31602188338433101 0 0.20777431361625601 -0.33831058893907762 0 0.21780935440599439 -0.31602188338433101 0 0.20777431361625601 -0.33831058893907762 0 0.20282381327660201 -0.31505297042611552 0 0.21780935440599439 -0.31602188338433101 0 0.21820242441149371 -0.32490710899175251 0 0.20777431361625601 -0.33831058893907762 0 0.2176214393273678 -0.31177412129290383 0 0.20282381327660201 -0.31505297042611552 0 0.2176214393273678 -0.31177412129290383 0 0.21780935440599439 -0.31602188338433101 0 0.20282381327660201 -0.31505297042611552 0 0.2176214393273678 -0.31177412129290383 0 0.21780935440599439 -0.31602188338433101 0 0.2176214393273678 -0.31177412129290383 0 0.21999804566891551 -0.31122614102315033 0 0.21780935440599439 -0.31602188338433101 0 0.21780935440599439 -0.31602188338433101 0 0.21820242441149371 -0.32490710899175251 0 0.220555537226792 -0.33578323097752499 0 0.21820242441149371 -0.32490710899175251 0 0.20777431361625601 -0.33831058893907762 0 0.220555537226792 -0.33578323097752499 0 0.21451162402718699 -0.34512658597487872 0 0.20777431361625601 -0.33831058893907762 0 0.21451162402718699 -0.34512658597487872 0 0.20777431361625601 -0.33831058893907762 0 0.1971616983813648 -0.34495631128618592 0 0.20777431361625601 -0.33831058893907762 0 0.18864170350563411 -0.33720407153827198 0 0.20777431361625601 -0.33831058893907762 0 0.18802618722583669 -0.31833181955932999 0 0.20777431361625601 -0.33831058893907762 0 0.18864170350563411 -0.33720407153827198 0 0.18802618722583669 -0.31833181955932999 0 0.20777431361625601 -0.33831058893907762 0 0.20282381327660201 -0.31505297042611552 0 0.18802618722583669 -0.31833181955932999 0 0.20282381327660201 -0.31505297042611552 0 0.18802618722583669 -0.31833181955932999 0 0.1976485991634879 -0.30796138879627621 0 0.20282381327660201 -0.31505297042611552 0 0.18802618722583669 -0.31833181955932999 0 0.18802618722583669 -0.31833181955932999 0 0.1791507244663583 -0.32983729973660558 0 0.16791254130802971 -0.3227885891963716 0 0.18802618722583669 -0.31833181955932999 0 0.17151825735526699 -0.31325416760549368 0 0.16791254130802971 -0.3227885891963716 0 0.18802618722583669 -0.31833181955932999 0 0.16791254130802971 -0.3227885891963716 0 0.18864170350563411 -0.33720407153827198 0 0.18802618722583669 -0.31833181955932999 0 0.1791507244663583 -0.32983729973660558 0 0.17202246582593331 -0.34102471865244838 0 0.1791507244663583 -0.32983729973660558 0 0.16791254130802971 -0.3227885891963716 0 0.18787137947787569 -0.35180034780069419 0 0.18864170350563411 -0.33720407153827198 0 0.17202246582593331 -0.34102471865244838 0 0.18864170350563411 -0.33720407153827198 0 0.17202246582593331 -0.34102471865244838 0 0.1791507244663583 -0.32983729973660558 0 0.17202246582593331 -0.34102471865244838 0 0.1546435437787094 -0.34381338892778002 0 0.1557586906108582 -0.32786840018592928 0 0.17202246582593331 -0.34102471865244838 0 0.16791254130802971 -0.3227885891963716 0 0.1557586906108582 -0.32786840018592928 0 0.16791254130802971 -0.3227885891963716 0 0.1557586906108582 -0.32786840018592928 0 0.1602411687519314 -0.31190927739118429 0 0.17151825735526699 -0.31325416760549368 0 0.16791254130802971 -0.3227885891963716 0 0.1602411687519314 -0.31190927739118429 0 0.18787137947787569 -0.35180034780069419 0 0.17662324672053431 -0.35795823269279659 0 0.1910424400336663 -0.37547354736401328 0 0.17662324672053431 -0.35795823269279659 0 0.17035242753357599 -0.36877211446365682 0 0.1910424400336663 -0.37547354736401328 0 0.17035242753357599 -0.36877211446365682 0 0.1910424400336663 -0.37547354736401328 0 0.1737051017910701 -0.38004230502140057 0 0.18787137947787569 -0.35180034780069419 0 0.17202246582593331 -0.34102471865244838 0 0.17662324672053431 -0.35795823269279659 0 0.17202246582593331 -0.34102471865244838 0 0.17662324672053431 -0.35795823269279659 0 0.16265844046108829 -0.35526087104265458 0 0.17202246582593331 -0.34102471865244838 0 0.16265844046108829 -0.35526087104265458 0 0.1546435437787094 -0.34381338892778002 0 0.17662324672053431 -0.35795823269279659 0 0.16265844046108829 -0.35526087104265458 0 0.17035242753357599 -0.36877211446365682 0 0.16265844046108829 -0.35526087104265458 0 0.1569593121701936 -0.36832063090657668 0 0.17035242753357599 -0.36877211446365682 0 0.1569593121701936 -0.36832063090657668 0 0.17035242753357599 -0.36877211446365682 0 0.16307541855137739 -0.37743582412871929 0 0.14536400873927011 -0.3681220756701501 0 0.1426630499740982 -0.35652090160864008 0 0.13524945632583441 -0.37311377610700652 0 0.16265844046108829 -0.35526087104265458 0 0.1569593121701936 -0.36832063090657668 0 0.1426630499740982 -0.35652090160864008 0 0.14536400873927011 -0.3681220756701501 0 0.13524945632583441 -0.37311377610700652 0 0.14973869037300869 -0.38096853745143089 0 0.1569593121701936 -0.36832063090657668 0 0.14536400873927011 -0.3681220756701501 0 0.14973869037300869 -0.38096853745143089 0 0.1569593121701936 -0.36832063090657668 0 0.14536400873927011 -0.3681220756701501 0 0.1426630499740982 -0.35652090160864008 0 0.1546435437787094 -0.34381338892778002 0 0.1426630499740982 -0.35652090160864008 0 0.1424354920479888 -0.33775294740649747 0 0.16265844046108829 -0.35526087104265458 0 0.1546435437787094 -0.34381338892778002 0 0.1426630499740982 -0.35652090160864008 0 0.13449730155472761 -0.34743155680512378 0 0.12784456261830821 -0.36308533366748658 0 0.123981461538115 -0.35128285539313481 0 0.1426630499740982 -0.35652090160864008 0 0.13449730155472761 -0.34743155680512378 0 0.1424354920479888 -0.33775294740649747 0 0.1426630499740982 -0.35652090160864008 0 0.13449730155472761 -0.34743155680512378 0 0.12784456261830821 -0.36308533366748658 0 0.13449730155472761 -0.34743155680512378 0 0.13051916655351839 -0.33696304048325831 0 0.123981461538115 -0.35128285539313481 0 0.1426630499740982 -0.35652090160864008 0 0.12784456261830821 -0.36308533366748658 0 0.13524945632583441 -0.37311377610700652 0 0.12784456261830821 -0.36308533366748658 0 0.13524945632583441 -0.37311377610700652 0 0.12609635470998201 -0.38402791619100712 0 0.14855409589738661 -0.31441038212804873 0 0.1557586906108582 -0.32786840018592928 0 0.1602411687519314 -0.31190927739118429 0 0.1445015266660287 -0.32337949759917511 0 0.14855409589738661 -0.31441038212804873 0 0.13871327718005111 -0.31332369293528212 0 0.1445015266660287 -0.32337949759917511 0 0.14855409589738661 -0.31441038212804873 0 0.1557586906108582 -0.32786840018592928 0 0.1546435437787094 -0.34381338892778002 0 0.1557586906108582 -0.32786840018592928 0 0.1424354920479888 -0.33775294740649747 0 0.1445015266660287 -0.32337949759917511 0 0.1557586906108582 -0.32786840018592928 0 0.1424354920479888 -0.33775294740649747 0 0.1445015266660287 -0.32337949759917511 0 0.1424354920479888 -0.33775294740649747 0 0.13219802669416811 -0.32498852212276208 0 0.1424354920479888 -0.33775294740649747 0 0.13051916655351839 -0.33696304048325831 0 0.13219802669416811 -0.32498852212276208 0 0.13449730155472761 -0.34743155680512378 0 0.1424354920479888 -0.33775294740649747 0 0.13051916655351839 -0.33696304048325831 0 0.13051916655351839 -0.33696304048325831 0 0.13219802669416811 -0.32498852212276208 0 0.12260601330919629 -0.33072698382653798 0 0.1445015266660287 -0.32337949759917511 0 0.13219802669416811 -0.32498852212276208 0 0.13871327718005111 -0.31332369293528212 0 0.13219802669416811 -0.32498852212276208 0 0.1265219532001009 -0.3124330460259736 0 0.1192961391526948 -0.32261879728377291 0 0.13219802669416811 -0.32498852212276208 0 0.13871327718005111 -0.31332369293528212 0 0.1265219532001009 -0.3124330460259736 0 0.1265219532001009 -0.3124330460259736 0 0.1332586495603032 -0.30031372317270688 0 0.1198701537204314 -0.30089140532399938 0 0.1332586495603032 -0.30031372317270688 0 0.1242383748246253 -0.29131174999725179 0 0.1198701537204314 -0.30089140532399938 0 0.13871327718005111 -0.31332369293528212 0 0.1265219532001009 -0.3124330460259736 0 0.1332586495603032 -0.30031372317270688 0 0.13871327718005111 -0.31332369293528212 0 0.1332586495603032 -0.30031372317270688 0 0.147245411062319 -0.30441698656302629 0 0.14855409589738661 -0.31441038212804873 0 0.13871327718005111 -0.31332369293528212 0 0.147245411062319 -0.30441698656302629 0 0.147245411062319 -0.30441698656302629 0 0.15432967412725099 -0.29846298066074151 0 0.14327492933615671 -0.29425024746867751 0 0.1332586495603032 -0.30031372317270688 0 0.147245411062319 -0.30441698656302629 0 0.14327492933615671 -0.29425024746867751 0 0.147245411062319 -0.30441698656302629 0 0.15432967412725099 -0.29846298066074151 0 0.1602411687519314 -0.31190927739118429 0 0.14855409589738661 -0.31441038212804873 0 0.147245411062319 -0.30441698656302629 0 0.1602411687519314 -0.31190927739118429 0 0.15432967412725099 -0.29846298066074151 0 0.1517600770447052 -0.28164214899084639 0 0.14327492933615671 -0.29425024746867751 0 0.1517600770447052 -0.28164214899084639 0 0.14327492933615671 -0.29425024746867751 0 0.13646338677899769 -0.28546266283427663 0 0.1332586495603032 -0.30031372317270688 0 0.14327492933615671 -0.29425024746867751 0 0.13646338677899769 -0.28546266283427663 0 0.1332586495603032 -0.30031372317270688 0 0.13646338677899769 -0.28546266283427663 0 0.1242383748246253 -0.29131174999725179 0 0.13646338677899769 -0.28546266283427663 0 0.1233023238440631 -0.28097148456094378 0 0.1242383748246253 -0.29131174999725179 0 0.1517600770447052 -0.28164214899084639 0 0.13646338677899769 -0.28546266283427663 0 0.1311170075682456 -0.27142576198599933 0 0.1517600770447052 -0.28164214899084639 0 0.1311170075682456 -0.27142576198599933 0 0.1364827709165429 -0.26618641562940759 0 0.13646338677899769 -0.28546266283427663 0 0.1311170075682456 -0.27142576198599933 0 0.1233023238440631 -0.28097148456094378 0 0.1311170075682456 -0.27142576198599933 0 0.1364827709165429 -0.26618641562940759 0 0.1212054647883809 -0.25073068226796852 0 0.1364827709165429 -0.26618641562940759 0 0.13217397618885759 -0.25462043987800831 0 0.1212054647883809 -0.25073068226796852 0 0.1364827709165429 -0.26618641562940759 0 0.1212054647883809 -0.25073068226796852 0 0.1364827709165429 -0.26618641562940759 0 0.13217397618885759 -0.25462043987800831 0 0.14275904560399111 -0.25945725309375861 0 0.13217397618885759 -0.25462043987800831 0 0.1429630926125974 -0.2502577086919005 0 0.14275904560399111 -0.25945725309375861 0 0.1429630926125974 -0.2502577086919005 0 0.16574248336044761 -0.26746108990676593 0 0.1429630926125974 -0.2502577086919005 0 0.15128247879849499 -0.26292486595599002 0 0.16574248336044761 -0.26746108990676593 0 0.1429630926125974 -0.2502577086919005 0 0.16574248336044761 -0.26746108990676593 0 0.16001236861667459 -0.2513654190734112 0 0.1429630926125974 -0.2502577086919005 0 0.14275904560399111 -0.25945725309375861 0 0.15128247879849499 -0.26292486595599002 0 0.1364827709165429 -0.26618641562940759 0 0.14275904560399111 -0.25945725309375861 0 0.15128247879849499 -0.26292486595599002 0 0.1517600770447052 -0.28164214899084639 0 0.1364827709165429 -0.26618641562940759 0 0.15128247879849499 -0.26292486595599002 0 0.1517600770447052 -0.28164214899084639 0 0.15128247879849499 -0.26292486595599002 0 0.15776774232478771 -0.26956647822523339 0 0.1517600770447052 -0.28164214899084639 0 0.1311170075682456 -0.27142576198599933 0 0.1517600770447052 -0.28164214899084639 0 0.1364827709165429 -0.26618641562940759 0 0.1517600770447052 -0.28164214899084639 0 0.16209364730358741 -0.27452888323759039 0 0.16594555478614451 -0.28284233368471318 0 0.1517600770447052 -0.28164214899084639 0 0.16209364730358741 -0.27452888323759039 0 0.15776774232478771 -0.26956647822523339 0 0.16209364730358741 -0.27452888323759039 0 0.15776774232478771 -0.26956647822523339 0 0.16574248336044761 -0.26746108990676593 0 0.15128247879849499 -0.26292486595599002 0 0.15776774232478771 -0.26956647822523339 0 0.16574248336044761 -0.26746108990676593 0 0.16209364730358741 -0.27452888323759039 0 0.16574248336044761 -0.26746108990676593 0 0.16920230535812411 -0.27329149954452342 0 0.16209364730358741 -0.27452888323759039 0 0.16920230535812411 -0.27329149954452342 0 0.16594555478614451 -0.28284233368471318 0 0.16920230535812411 -0.27329149954452342 0 0.1710222018321049 -0.28124575318360368 0 0.16594555478614451 -0.28284233368471318 0 0.16574248336044761 -0.26746108990676593 0 0.16001236861667459 -0.2513654190734112 0 0.16988601458932601 -0.2589500224365659 0 0.16574248336044761 -0.26746108990676593 0 0.16988601458932601 -0.2589500224365659 0 0.17628584543496439 -0.26683535894776161 0 0.16001236861667459 -0.2513654190734112 0 0.16988601458932601 -0.2589500224365659 0 0.16978669848249819 -0.25098739912941831 0 0.1767458594742066 -0.25730285456071711 0 0.17619278994504239 -0.24587918172992959 0 0.18399505531774341 -0.24981832115951039 0 0.16978669848249819 -0.25098739912941831 0 0.1767458594742066 -0.25730285456071711 0 0.17619278994504239 -0.24587918172992959 0 0.16988601458932601 -0.2589500224365659 0 0.16978669848249819 -0.25098739912941831 0 0.1767458594742066 -0.25730285456071711 0 0.16988601458932601 -0.2589500224365659 0 0.1767458594742066 -0.25730285456071711 0 0.17628584543496439 -0.26683535894776161 0 0.1767458594742066 -0.25730285456071711 0 0.17628584543496439 -0.26683535894776161 0 0.1845366839674035 -0.26640487959885623 0 0.1767458594742066 -0.25730285456071711 0 0.18706352147094041 -0.25756661524031438 0 0.1845366839674035 -0.26640487959885623 0 0.1767458594742066 -0.25730285456071711 0 0.18706352147094041 -0.25756661524031438 0 0.18399505531774341 -0.24981832115951039 0 0.18852187410829821 -0.28466447112163068 0 0.17628584543496439 -0.26683535894776161 0 0.1845366839674035 -0.26640487959885623 0 0.18852187410829821 -0.28466447112163068 0 0.16574248336044761 -0.26746108990676593 0 0.18852187410829821 -0.28466447112163068 0 0.16574248336044761 -0.26746108990676593 0 0.17628584543496439 -0.26683535894776161 0 0.16920230535812411 -0.27329149954452342 0 0.18747516626574931 -0.28692639975368628 0 0.17602993407772211 -0.2832030986568283 0 0.18852187410829821 -0.28466447112163068 0 0.16574248336044761 -0.26746108990676593 0 0.16920230535812411 -0.27329149954452342 0 0.16920230535812411 -0.27329149954452342 0 0.18747516626574931 -0.28692639975368628 0 0.16920230535812411 -0.27329149954452342 0 0.1710222018321049 -0.28124575318360368 0 0.17602993407772211 -0.2832030986568283 0 0.18747516626574931 -0.28692639975368628 0 0.1806905449634813 -0.28832929748571318 0 0.17602993407772211 -0.2832030986568283 0 0.18852187410829821 -0.28466447112163068 0 0.16920230535812411 -0.27329149954452342 0 0.18747516626574931 -0.28692639975368628 0 0.18747516626574931 -0.28692639975368628 0 0.1806905449634813 -0.28832929748571318 0 0.18301660310609241 -0.29114958545392738 0 0.17291101310642881 -0.28564608084835003 0 0.17864991096044419 -0.29495009963706692 0 0.16594555478614451 -0.28284233368471318 0 0.1806905449634813 -0.28832929748571318 0 0.17602993407772211 -0.2832030986568283 0 0.17673138357400531 -0.28840876668861409 0 0.17602993407772211 -0.2832030986568283 0 0.17673138357400531 -0.28840876668861409 0 0.17291101310642881 -0.28564608084835003 0 0.1710222018321049 -0.28124575318360368 0 0.17602993407772211 -0.2832030986568283 0 0.17291101310642881 -0.28564608084835003 0 0.17673138357400531 -0.28840876668861409 0 0.17291101310642881 -0.28564608084835003 0 0.17864991096044419 -0.29495009963706692 0 0.17673138357400531 -0.28840876668861409 0 0.17909088347012619 -0.29088019083727579 0 0.17864991096044419 -0.29495009963706692 0 0.1806905449634813 -0.28832929748571318 0 0.17673138357400531 -0.28840876668861409 0 0.17909088347012619 -0.29088019083727579 0 0.17909088347012619 -0.29088019083727579 0 0.17864991096044419 -0.29495009963706692 0 0.18114425154506539 -0.29221912984395187 0 0.18747516626574931 -0.28692639975368628 0 0.18734834214976739 -0.29514628785519947 0 0.1827564496500734 -0.29712351473235832 0 0.18747516626574931 -0.28692639975368628 0 0.18301660310609241 -0.29114958545392738 0 0.1827564496500734 -0.29712351473235832 0 0.18114425154506539 -0.29221912984395187 0 0.18301660310609241 -0.29114958545392738 0 0.1827564496500734 -0.29712351473235832 0 0.17864991096044419 -0.29495009963706692 0 0.18114425154506539 -0.29221912984395187 0 0.1827564496500734 -0.29712351473235832 0 0.18747516626574931 -0.28692639975368628 0 0.1827564496500734 -0.29712351473235832 0 0.1806905449634813 -0.28832929748571318 0 0.18114425154506539 -0.29221912984395187 0 0.18301660310609241 -0.29114958545392738 0 0.1806905449634813 -0.28832929748571318 0 0.17909088347012619 -0.29088019083727579 0 0.18114425154506539 -0.29221912984395187 0 0.18802618722583669 -0.31833181955932999 0 0.18221347423979239 -0.30458962683289892 0 0.1698931321352706 -0.29998698427508858 0 0.1880606218677118 -0.30022154946313712 0 0.18734834214976739 -0.29514628785519947 0 0.1827564496500734 -0.29712351473235832 0 0.19009702279388629 -0.3064242775921906 0 0.1880606218677118 -0.30022154946313712 0 0.18221347423979239 -0.30458962683289892 0 0.18802618722583669 -0.31833181955932999 0 0.17151825735526699 -0.31325416760549368 0 0.1698931321352706 -0.29998698427508858 0 0.1880606218677118 -0.30022154946313712 0 0.18221347423979239 -0.30458962683289892 0 0.1827564496500734 -0.29712351473235832 0 0.18802618722583669 -0.31833181955932999 0 0.1698931321352706 -0.29998698427508858 0 0.17864991096044419 -0.29495009963706692 0 0.1827564496500734 -0.29712351473235832 0 0.17837824174639511 -0.29916255636935318 0 0.18221347423979239 -0.30458962683289892 0 0.1827564496500734 -0.29712351473235832 0 0.17837824174639511 -0.29916255636935318 0 0.19009702279388629 -0.3064242775921906 0 0.18802618722583669 -0.31833181955932999 0 0.18221347423979239 -0.30458962683289892 0 0.18221347423979239 -0.30458962683289892 0 0.17837824174639511 -0.29916255636935318 0 0.1698931321352706 -0.29998698427508858 0 0.17864991096044419 -0.29495009963706692 0 0.17837824174639511 -0.29916255636935318 0 0.1698931321352706 -0.29998698427508858 0 0.17151825735526699 -0.31325416760549368 0 0.1698931321352706 -0.29998698427508858 0 0.1602411687519314 -0.31190927739118429 0 0.15432967412725099 -0.29846298066074151 0 0.1698931321352706 -0.29998698427508858 0 0.1602411687519314 -0.31190927739118429 0 0.1517600770447052 -0.28164214899084639 0 0.17864991096044419 -0.29495009963706692 0 0.1698931321352706 -0.29998698427508858 0 0.1517600770447052 -0.28164214899084639 0 0.1698931321352706 -0.29998698427508858 0 0.15432967412725099 -0.29846298066074151 0 0.1517600770447052 -0.28164214899084639 0 0.1698931321352706 -0.29998698427508858 0 0.1517600770447052 -0.28164214899084639 0 0.17864991096044419 -0.29495009963706692 0 0.1517600770447052 -0.28164214899084639 0 0.17864991096044419 -0.29495009963706692 0 0.16594555478614451 -0.28284233368471318 0 0.1710222018321049 -0.28124575318360368 0 0.17291101310642881 -0.28564608084835003 0 0.16594555478614451 -0.28284233368471318 0 0.21438456257476449 -0.5 0 0.2048745361024723 -0.48472171768082351 0 0.18744203257390391 -0.5 0 0.19122796324104871 -0.48466606029959602 0 0.2048745361024723 -0.48472171768082351 0 0.18744203257390391 -0.5 0 0.19122796324104871 -0.48466606029959602 0 0.20365346230900849 -0.47086657296764728 0 0.1938641377332887 -0.4633108835168005 0 0.19122796324104871 -0.48466606029959602 0 0.20365346230900849 -0.47086657296764728 0 0.2048745361024723 -0.48472171768082351 0 0.21766866328091511 -0.47157360957620892 0 0.2048745361024723 -0.48472171768082351 0 0.22288060450936709 -0.48400008360299168 0 0.20365346230900849 -0.47086657296764728 0 0.21766866328091511 -0.47157360957620892 0 0.2048745361024723 -0.48472171768082351 0 0.21438456257476449 -0.5 0 0.2048745361024723 -0.48472171768082351 0 0.22288060450936709 -0.48400008360299168 0 0.21438456257476449 -0.5 0 0.23633351028628971 -0.48712361601618398 0 0.2413270925756249 -0.5 0 0.21438456257476449 -0.5 0 0.23633351028628971 -0.48712361601618398 0 0.22288060450936709 -0.48400008360299168 0 0.25270961841775552 -0.48460016746525392 0 0.23633351028628971 -0.48712361601618398 0 0.2413270925756249 -0.5 0 0.25270961841775552 -0.48460016746525392 0 0.23633351028628971 -0.48712361601618398 0 0.23949561189523169 -0.47426551941090739 0 0.23949561189523169 -0.47426551941090739 0 0.22288060450936709 -0.48400008360299168 0 0.22545312399173489 -0.46028769725088831 0 0.21766866328091511 -0.47157360957620892 0 0.22288060450936709 -0.48400008360299168 0 0.22545312399173489 -0.46028769725088831 0 0.23633351028628971 -0.48712361601618398 0 0.23949561189523169 -0.47426551941090739 0 0.22288060450936709 -0.48400008360299168 0 0.22288060450936709 -0.48400008360299168 0 0.22545312399173489 -0.46028769725088831 0 0.21766866328091511 -0.47157360957620892 0 0.22545312399173489 -0.46028769725088831 0 0.2186728293425339 -0.44755637628226819 0 0.2588368117714554 -0.46700690363883102 0 0.23949561189523169 -0.47426551941090739 0 0.2409729068143365 -0.46262444708906358 0 0.22545312399173489 -0.46028769725088831 0 0.2409729068143365 -0.46262444708906358 0 0.24480843210435321 -0.45079661158300749 0 0.2588368117714554 -0.46700690363883102 0 0.2409729068143365 -0.46262444708906358 0 0.24480843210435321 -0.45079661158300749 0 0.23949561189523169 -0.47426551941090739 0 0.22545312399173489 -0.46028769725088831 0 0.2409729068143365 -0.46262444708906358 0 0.24480843210435321 -0.45079661158300749 0 0.22802564347410281 -0.43657531089878487 0 0.2418992233321238 -0.43333026798624508 0 0.25513396950241118 -0.43290986753561628 0 0.24480843210435321 -0.45079661158300749 0 0.2418992233321238 -0.43333026798624508 0 0.22545312399173489 -0.46028769725088831 0 0.22802564347410281 -0.43657531089878487 0 0.2186728293425339 -0.44755637628226819 0 0.21246462128442831 -0.43168381348743168 0 0.22802564347410281 -0.43657531089878487 0 0.22545312399173489 -0.46028769725088831 0 0.2186728293425339 -0.44755637628226819 0 0.22802564347410281 -0.43657531089878487 0 0.22545312399173489 -0.46028769725088831 0 0.24480843210435321 -0.45079661158300749 0 0.22802564347410281 -0.43657531089878487 0 0.20442019459899149 -0.44533796874460208 0 0.2186728293425339 -0.44755637628226819 0 0.21246462128442831 -0.43168381348743168 0 0.21766866328091511 -0.47157360957620892 0 0.20442019459899149 -0.44533796874460208 0 0.21766866328091511 -0.47157360957620892 0 0.20442019459899149 -0.44533796874460208 0 0.2186728293425339 -0.44755637628226819 0 0.20365346230900849 -0.47086657296764728 0 0.21766866328091511 -0.47157360957620892 0 0.20442019459899149 -0.44533796874460208 0 0.20365346230900849 -0.47086657296764728 0 0.20442019459899149 -0.44533796874460208 0 0.1938641377332887 -0.4633108835168005 0 0.20442019459899149 -0.44533796874460208 0 0.18484232774876749 -0.43033534366960768 0 0.18590039067086719 -0.44115637567916172 0 0.20442019459899149 -0.44533796874460208 0 0.18923595964957429 -0.45067509688328122 0 0.18590039067086719 -0.44115637567916172 0 0.20442019459899149 -0.44533796874460208 0 0.1938641377332887 -0.4633108835168005 0 0.18923595964957429 -0.45067509688328122 0 0.20442019459899149 -0.44533796874460208 0 0.1911717259170673 -0.41910232791299562 0 0.20473537155931409 -0.42802668409371708 0 0.20442019459899149 -0.44533796874460208 0 0.1911717259170673 -0.41910232791299562 0 0.20442019459899149 -0.44533796874460208 0 0.1911717259170673 -0.41910232791299562 0 0.18484232774876749 -0.43033534366960768 0 0.1911717259170673 -0.41910232791299562 0 0.21088494443676881 -0.41598262622983972 0 0.20473537155931409 -0.42802668409371708 0 0.18851111772050869 -0.41383358608972459 0 0.208966154163157 -0.40126827473642579 0 0.1911717259170673 -0.41910232791299562 0 0.21088494443676881 -0.41598262622983972 0 0.1911717259170673 -0.41910232791299562 0 0.18851111772050869 -0.41383358608972459 0 0.21088494443676881 -0.41598262622983972 0 0.18851111772050869 -0.41383358608972459 0 0.21088494443676881 -0.41598262622983972 0 0.208966154163157 -0.40126827473642579 0 0.1911717259170673 -0.41910232791299562 0 0.18851111772050869 -0.41383358608972459 0 0.21088494443676881 -0.41598262622983972 0 0.22155668588658281 -0.40529615173032069 0 0.208966154163157 -0.40126827473642579 0 0.21088494443676881 -0.41598262622983972 0 0.20473537155931409 -0.42802668409371708 0 0.21246462128442831 -0.43168381348743168 0 0.21088494443676881 -0.41598262622983972 0 0.21246462128442831 -0.43168381348743168 0 0.21959695705502991 -0.42408781639437282 0 0.20442019459899149 -0.44533796874460208 0 0.20473537155931409 -0.42802668409371708 0 0.21246462128442831 -0.43168381348743168 0 0.21246462128442831 -0.43168381348743168 0 0.21959695705502991 -0.42408781639437282 0 0.22802564347410281 -0.43657531089878487 0 0.22802564347410281 -0.43657531089878487 0 0.23614533994983331 -0.4244462479719151 0 0.23059816295646979 -0.4128629245466815 0 0.22802564347410281 -0.43657531089878487 0 0.23059816295646979 -0.4128629245466815 0 0.21959695705502991 -0.42408781639437282 0 0.22802564347410281 -0.43657531089878487 0 0.23059816295646979 -0.4128629245466815 0 0.22802564347410281 -0.43657531089878487 0 0.2418992233321238 -0.43333026798624508 0 0.23614533994983331 -0.4244462479719151 0 0.2418992233321238 -0.43333026798624508 0 0.23614533994983331 -0.4244462479719151 0 0.2453827316299185 -0.42192330194190181 0 0.25513396950241118 -0.43290986753561628 0 0.2418992233321238 -0.43333026798624508 0 0.2453827316299185 -0.42192330194190181 0 0.256136481120742 -0.41447562176841068 0 0.2453827316299185 -0.42192330194190181 0 0.24629253832767661 -0.41022035877505542 0 0.2453827316299185 -0.42192330194190181 0 0.24629253832767661 -0.41022035877505542 0 0.2366098857920339 -0.41191154353144788 0 0.23614533994983331 -0.4244462479719151 0 0.2366098857920339 -0.41191154353144788 0 0.23059816295646979 -0.4128629245466815 0 0.23614533994983331 -0.4244462479719151 0 0.2453827316299185 -0.42192330194190181 0 0.2366098857920339 -0.41191154353144788 0 0.24629253832767661 -0.41022035877505542 0 0.2366098857920339 -0.41191154353144788 0 0.2422505545635501 -0.40276464775944387 0 0.21088494443676881 -0.41598262622983972 0 0.23059816295646979 -0.4128629245466815 0 0.2366098857920339 -0.41191154353144788 0 0.23059816295646979 -0.4128629245466815 0 0.23156745731421779 -0.4039283829592023 0 0.23059816295646979 -0.4128629245466815 0 0.22155668588658281 -0.40529615173032069 0 0.23156745731421779 -0.4039283829592023 0 0.23059816295646979 -0.4128629245466815 0 0.23156745731421779 -0.4039283829592023 0 0.21088494443676881 -0.41598262622983972 0 0.23059816295646979 -0.4128629245466815 0 0.22155668588658281 -0.40529615173032069 0 0.21088494443676881 -0.41598262622983972 0 0.21959695705502991 -0.42408781639437282 0 0.23059816295646979 -0.4128629245466815 0 0.2366098857920339 -0.41191154353144788 0 0.23059816295646979 -0.4128629245466815 0 0.22155668588658281 -0.40529615173032069 0 0.22942119060580499 -0.38870296338312649 0 0.208966154163157 -0.40126827473642579 0 0.22155668588658281 -0.40529615173032069 0 0.23156745731421779 -0.4039283829592023 0 0.22942119060580499 -0.38870296338312649 0 0.22942119060580499 -0.38870296338312649 0 0.208966154163157 -0.40126827473642579 0 0.23156745731421779 -0.4039283829592023 0 0.24309899287842279 -0.39271330151873202 0 0.2422505545635501 -0.40276464775944387 0 0.2366098857920339 -0.41191154353144788 0 0.23156745731421779 -0.4039283829592023 0 0.2422505545635501 -0.40276464775944387 0 0.23156745731421779 -0.4039283829592023 0 0.24309899287842279 -0.39271330151873202 0 0.22942119060580499 -0.38870296338312649 0 0.25108303853213881 -0.40002667887407228 0 0.24629253832767661 -0.41022035877505542 0 0.2422505545635501 -0.40276464775944387 0 0.25108303853213881 -0.40002667887407228 0 0.24309899287842279 -0.39271330151873202 0 0.2422505545635501 -0.40276464775944387 0 0.24987622704845311 -0.37613765202982719 0 0.22942119060580499 -0.38870296338312649 0 0.24309899287842279 -0.39271330151873202 0 0.24987622704845311 -0.37613765202982719 0 0.22942119060580499 -0.38870296338312649 0 0.24987622704845311 -0.37613765202982719 0 0.23474048966473349 -0.38137370792841258 0 0.22942119060580499 -0.38870296338312649 0 0.25687819372407023 -0.38903915957053298 0 0.24309899287842279 -0.39271330151873202 0 0.24987622704845311 -0.37613765202982719 0 0.23679608458568241 -0.3713456781615978 0 0.24987622704845311 -0.37613765202982719 0 0.23474048966473349 -0.38137370792841258 0 0.23474048966473349 -0.38137370792841258 0 0.23010576568282681 -0.37607478874810818 0 0.22189277223980711 -0.38054577212349588 0 0.23474048966473349 -0.38137370792841258 0 0.22189277223980711 -0.38054577212349588 0 0.20961824525516401 -0.3936281247522696 0 0.23474048966473349 -0.38137370792841258 0 0.22942119060580499 -0.38870296338312649 0 0.20961824525516401 -0.3936281247522696 0 0.23679608458568241 -0.3713456781615978 0 0.23474048966473349 -0.38137370792841258 0 0.23010576568282681 -0.37607478874810818 0 0.23474048966473349 -0.38137370792841258 0 0.20961824525516401 -0.3936281247522696 0 0.22699371624108439 -0.37103399677892651 0 0.23010576568282681 -0.37607478874810818 0 0.22189277223980711 -0.38054577212349588 0 0.21663927632257499 -0.37152038636996992 0 0.22189277223980711 -0.38054577212349588 0 0.21119602619295649 -0.38157571206759561 0 0.21663927632257499 -0.37152038636996992 0 0.21119602619295649 -0.38157571206759561 0 0.20576161095015591 -0.37595213443190167 0 0.21119602619295649 -0.38157571206759561 0 0.20576161095015591 -0.37595213443190167 0 0.20229958674085519 -0.38616776423662919 0 0.21119602619295649 -0.38157571206759561 0 0.20961824525516401 -0.3936281247522696 0 0.20229958674085519 -0.38616776423662919 0 0.22189277223980711 -0.38054577212349588 0 0.21119602619295649 -0.38157571206759561 0 0.20961824525516401 -0.3936281247522696 0 0.22942119060580499 -0.38870296338312649 0 0.208966154163157 -0.40126827473642579 0 0.20961824525516401 -0.3936281247522696 0 0.20961824525516401 -0.3936281247522696 0 0.18449600084559339 -0.40588254157612419 0 0.20961824525516401 -0.3936281247522696 0 0.19262774622386039 -0.39991289132556063 0 0.20229958674085519 -0.38616776423662919 0 0.18851111772050869 -0.41383358608972459 0 0.20961824525516401 -0.3936281247522696 0 0.18449600084559339 -0.40588254157612419 0 0.19262774622386039 -0.39991289132556063 0 0.193172237845981 -0.38760648281860499 0 0.20229958674085519 -0.38616776423662919 0 0.20961824525516401 -0.3936281247522696 0 0.19262774622386039 -0.39991289132556063 0 0.18449600084559339 -0.40588254157612419 0 0.18851111772050869 -0.41383358608972459 0 0.208966154163157 -0.40126827473642579 0 0.20961824525516401 -0.3936281247522696 0 0.19262774622386039 -0.39991289132556063 0 0.18963514604776821 -0.39361523539988952 0 0.193172237845981 -0.38760648281860499 0 0.19262774622386039 -0.39991289132556063 0 0.18963514604776821 -0.39361523539988952 0 0.18221634088723479 -0.40136818287387582 0 0.18963514604776821 -0.39361523539988952 0 0.193172237845981 -0.38760648281860499 0 0.18267650324237161 -0.39405502657648112 0 0.193172237845981 -0.38760648281860499 0 0.1910424400336663 -0.37547354736401328 0 0.18267650324237161 -0.39405502657648112 0 0.20576161095015591 -0.37595213443190167 0 0.1910424400336663 -0.37547354736401328 0 0.20229958674085519 -0.38616776423662919 0 0.193172237845981 -0.38760648281860499 0 0.1910424400336663 -0.37547354736401328 0 0.20229958674085519 -0.38616776423662919 0 0.1910424400336663 -0.37547354736401328 0 0.17822948803450961 -0.38676940160015832 0 0.1737051017910701 -0.38004230502140057 0 0.1910424400336663 -0.37547354736401328 0 0.18267650324237161 -0.39405502657648112 0 0.1910424400336663 -0.37547354736401328 0 0.17822948803450961 -0.38676940160015832 0 0.18267650324237161 -0.39405502657648112 0 0.17822948803450961 -0.38676940160015832 0 0.17910183421640119 -0.39520059623836468 0 0.1646215608890387 -0.38907553280053181 0 0.17822948803450961 -0.38676940160015832 0 0.1737051017910701 -0.38004230502140057 0 0.1646215608890387 -0.38907553280053181 0 0.17822948803450961 -0.38676940160015832 0 0.18267650324237161 -0.39405502657648112 0 0.17910183421640119 -0.39520059623836468 0 0.18221634088723479 -0.40136818287387582 0 0.17910183421640119 -0.39520059623836468 0 0.15805845094365739 -0.40474493864538458 0 0.18963514604776821 -0.39361523539988952 0 0.18267650324237161 -0.39405502657648112 0 0.18221634088723479 -0.40136818287387582 0 0.18267650324237161 -0.39405502657648112 0 0.18221634088723479 -0.40136818287387582 0 0.17910183421640119 -0.39520059623836468 0 0.18221634088723479 -0.40136818287387582 0 0.17910183421640119 -0.39520059623836468 0 0.19262774622386039 -0.39991289132556063 0 0.18221634088723479 -0.40136818287387582 0 0.19262774622386039 -0.39991289132556063 0 0.18449600084559339 -0.40588254157612419 0 0.18221634088723479 -0.40136818287387582 0 0.18449600084559339 -0.40588254157612419 0 0.18221634088723479 -0.40136818287387582 0 0.17910183421640119 -0.39520059623836468 0 0.15805845094365739 -0.40474493864538458 0 0.1646215608890387 -0.38907553280053181 0 0.18221634088723479 -0.40136818287387582 0 0.15805845094365739 -0.40474493864538458 0 0.15805845094365739 -0.40474493864538458 0 0.1646215608890387 -0.38907553280053181 0 0.14706277844018539 -0.39464292458295508 0 0.1737051017910701 -0.38004230502140057 0 0.1646215608890387 -0.38907553280053181 0 0.16307541855137739 -0.37743582412871929 0 0.17035242753357599 -0.36877211446365682 0 0.1737051017910701 -0.38004230502140057 0 0.16307541855137739 -0.37743582412871929 0 0.1569593121701936 -0.36832063090657668 0 0.16307541855137739 -0.37743582412871929 0 0.14973869037300869 -0.38096853745143089 0 0.1646215608890387 -0.38907553280053181 0 0.16307541855137739 -0.37743582412871929 0 0.14973869037300869 -0.38096853745143089 0 0.1646215608890387 -0.38907553280053181 0 0.14973869037300869 -0.38096853745143089 0 0.14706277844018539 -0.39464292458295508 0 0.14973869037300869 -0.38096853745143089 0 0.1375772795987745 -0.38493757303029391 0 0.14706277844018539 -0.39464292458295508 0 0.13524945632583441 -0.37311377610700652 0 0.14973869037300869 -0.38096853745143089 0 0.1375772795987745 -0.38493757303029391 0 0.13524945632583441 -0.37311377610700652 0 0.1375772795987745 -0.38493757303029391 0 0.12609635470998201 -0.38402791619100712 0 0.1375772795987745 -0.38493757303029391 0 0.12609635470998201 -0.38402791619100712 0 0.13569313113510631 -0.39589912548093298 0 0.12645644117523869 -0.39722706905544619 0 0.13569313113510631 -0.39589912548093298 0 0.1339005610000801 -0.40812169441689322 0 0.12645644117523869 -0.39722706905544619 0 0.1339005610000801 -0.40812169441689322 0 0.1250254850364893 -0.40936224001308058 0 0.12609635470998201 -0.38402791619100712 0 0.12645644117523869 -0.39722706905544619 0 0.13569313113510631 -0.39589912548093298 0 0.1375772795987745 -0.38493757303029391 0 0.13569313113510631 -0.39589912548093298 0 0.14706277844018539 -0.39464292458295508 0 0.13569313113510631 -0.39589912548093298 0 0.14706277844018539 -0.39464292458295508 0 0.1339005610000801 -0.40812169441689322 0 0.13569313113510631 -0.39589912548093298 0 0.1339005610000801 -0.40812169441689322 0 0.15805845094365739 -0.40474493864538458 0 0.14706277844018539 -0.39464292458295508 0 0.1339005610000801 -0.40812169441689322 0 0.15805845094365739 -0.40474493864538458 0 0.1339005610000801 -0.40812169441689322 0 0.15805845094365739 -0.40474493864538458 0 0.15398562739609989 -0.414436145328195 0 0.14500783119440661 -0.41410657591589572 0 0.15805845094365739 -0.40474493864538458 0 0.14500783119440661 -0.41410657591589572 0 0.1339005610000801 -0.40812169441689322 0 0.15398562739609989 -0.414436145328195 0 0.15088002640467921 -0.42009116626417142 0 0.14500783119440661 -0.41410657591589572 0 0.15088002640467921 -0.42009116626417142 0 0.15979138776423191 -0.42406840149736191 0 0.15636365466176849 -0.41960526040447821 0 0.15398562739609989 -0.414436145328195 0 0.15088002640467921 -0.42009116626417142 0 0.15636365466176849 -0.41960526040447821 0 0.15088002640467921 -0.42009116626417142 0 0.14500783119440661 -0.41410657591589572 0 0.14354831806896931 -0.42663893719234869 0 0.14500783119440661 -0.41410657591589572 0 0.1339005610000801 -0.40812169441689322 0 0.13212255532719441 -0.42024495614079282 0 0.14500783119440661 -0.41410657591589572 0 0.13212255532719441 -0.42024495614079282 0 0.14354831806896931 -0.42663893719234869 0 0.1339005610000801 -0.40812169441689322 0 0.13212255532719441 -0.42024495614079282 0 0.13212255532719441 -0.42024495614079282 0 0.1250254850364893 -0.40936224001308058 0 0.117866085899093 -0.41583132647739651 0 0.13212255532719441 -0.42024495614079282 0 0.1250254850364893 -0.40936224001308058 0 0.1339005610000801 -0.40812169441689322 0 0.13212255532719441 -0.42024495614079282 0 0.1250254850364893 -0.40936224001308058 0 0.1339005610000801 -0.40812169441689322 0 0.1250254850364893 -0.40936224001308058 0 0.13212255532719441 -0.42024495614079282 0 0.14354831806896931 -0.42663893719234869 0 0.1460535583969573 -0.44160689079445481 0 0.13212255532719441 -0.42024495614079282 0 0.128223579302082 -0.44682997076052833 0 0.13212255532719441 -0.42024495614079282 0 0.128223579302082 -0.44682997076052833 0 0.1159996351348133 -0.43474120747525058 0 0.13212255532719441 -0.42024495614079282 0 0.1460535583969573 -0.44160689079445481 0 0.13212255532719441 -0.42024495614079282 0 0.1460535583969573 -0.44160689079445481 0 0.128223579302082 -0.44682997076052833 0 0.15088002640467921 -0.42009116626417142 0 0.14354831806896931 -0.42663893719234869 0 0.15979138776423191 -0.42406840149736191 0 0.14354831806896931 -0.42663893719234869 0 0.15979138776423191 -0.42406840149736191 0 0.14354831806896931 -0.42663893719234869 0 0.15423293294423909 -0.43386412417913311 0 0.1460535583969573 -0.44160689079445481 0 0.14354831806896931 -0.42663893719234869 0 0.15423293294423909 -0.43386412417913311 0 0.15979138776423191 -0.42406840149736191 0 0.15423293294423909 -0.43386412417913311 0 0.16088991666547389 -0.43196094602310392 0 0.16557730454712019 -0.44172028084172121 0 0.1713980071398 -0.42434598792645378 0 0.15979138776423191 -0.42406840149736191 0 0.1760344574594947 -0.42149786580237669 0 0.15423293294423909 -0.43386412417913311 0 0.16088991666547389 -0.43196094602310392 0 0.15979138776423191 -0.42406840149736191 0 0.15979138776423191 -0.42406840149736191 0 0.1760344574594947 -0.42149786580237669 0 0.16626302434537371 -0.43076979168845952 0 0.17509911994716071 -0.43336510097506958 0 0.16557730454712019 -0.44172028084172121 0 0.16088991666547389 -0.43196094602310392 0 0.16626302434537371 -0.43076979168845952 0 0.16557730454712019 -0.44172028084172121 0 0.16626302434537371 -0.43076979168845952 0 0.1713980071398 -0.42434598792645378 0 0.17509911994716071 -0.43336510097506958 0 0.16626302434537371 -0.43076979168845952 0 0.1713980071398 -0.42434598792645378 0 0.15979138776423191 -0.42406840149736191 0 0.16088991666547389 -0.43196094602310392 0 0.16626302434537371 -0.43076979168845952 0 0.15979138776423191 -0.42406840149736191 0 0.15636365466176849 -0.41960526040447821 0 0.16176651730702801 -0.41283252991975622 0 0.17042982775368151 -0.41274390099030239 0 0.18221634088723479 -0.40136818287387582 0 0.15805845094365739 -0.40474493864538458 0 0.17042982775368151 -0.41274390099030239 0 0.15979138776423191 -0.42406840149736191 0 0.15636365466176849 -0.41960526040447821 0 0.17042982775368151 -0.41274390099030239 0 0.15636365466176849 -0.41960526040447821 0 0.17042982775368151 -0.41274390099030239 0 0.15979138776423191 -0.42406840149736191 0 0.17042982775368151 -0.41274390099030239 0 0.1760344574594947 -0.42149786580237669 0 0.15398562739609989 -0.414436145328195 0 0.15636365466176849 -0.41960526040447821 0 0.16176651730702801 -0.41283252991975622 0 0.15805845094365739 -0.40474493864538458 0 0.15398562739609989 -0.414436145328195 0 0.16176651730702801 -0.41283252991975622 0 0.15805845094365739 -0.40474493864538458 0 0.16176651730702801 -0.41283252991975622 0 0.17042982775368151 -0.41274390099030239 0 0.17042982775368151 -0.41274390099030239 0 0.1760344574594947 -0.42149786580237669 0 0.17986785094481991 -0.4134894736146324 0 0.18449600084559339 -0.40588254157612419 0 0.17042982775368151 -0.41274390099030239 0 0.18449600084559339 -0.40588254157612419 0 0.18221634088723479 -0.40136818287387582 0 0.17042982775368151 -0.41274390099030239 0 0.18449600084559339 -0.40588254157612419 0 0.17042982775368151 -0.41274390099030239 0 0.17986785094481991 -0.4134894736146324 0 0.18851111772050869 -0.41383358608972459 0 0.18449600084559339 -0.40588254157612419 0 0.18851111772050869 -0.41383358608972459 0 0.18449600084559339 -0.40588254157612419 0 0.17986785094481991 -0.4134894736146324 0 0.18851111772050869 -0.41383358608972459 0 0.1760344574594947 -0.42149786580237669 0 0.1911717259170673 -0.41910232791299562 0 0.1760344574594947 -0.42149786580237669 0 0.18851111772050869 -0.41383358608972459 0 0.1760344574594947 -0.42149786580237669 0 0.17986785094481991 -0.4134894736146324 0 0.1911717259170673 -0.41910232791299562 0 0.18851111772050869 -0.41383358608972459 0 0.1760344574594947 -0.42149786580237669 0 0.1911717259170673 -0.41910232791299562 0 0.1760344574594947 -0.42149786580237669 0 0.18484232774876749 -0.43033534366960768 0 0.18484232774876749 -0.43033534366960768 0 0.17509911994716071 -0.43336510097506958 0 0.18590039067086719 -0.44115637567916172 0 0.18484232774876749 -0.43033534366960768 0 0.17509911994716071 -0.43336510097506958 0 0.17653319474121221 -0.42750765242104072 0 0.1713980071398 -0.42434598792645378 0 0.17509911994716071 -0.43336510097506958 0 0.17653319474121221 -0.42750765242104072 0 0.1760344574594947 -0.42149786580237669 0 0.18484232774876749 -0.43033534366960768 0 0.17653319474121221 -0.42750765242104072 0 0.1713980071398 -0.42434598792645378 0 0.1760344574594947 -0.42149786580237669 0 0.17653319474121221 -0.42750765242104072 0 0.1713980071398 -0.42434598792645378 0 0.1760344574594947 -0.42149786580237669 0 0.17791556380287959 -0.4455361086535346 0 0.17376504419967539 -0.46076368888843938 0 0.16557730454712019 -0.44172028084172121 0 0.17509911994716071 -0.43336510097506958 0 0.17791556380287959 -0.4455361086535346 0 0.18590039067086719 -0.44115637567916172 0 0.17509911994716071 -0.43336510097506958 0 0.17791556380287959 -0.4455361086535346 0 0.16557730454712019 -0.44172028084172121 0 0.18923595964957429 -0.45067509688328122 0 0.17791556380287959 -0.4455361086535346 0 0.18590039067086719 -0.44115637567916172 0 0.18923595964957429 -0.45067509688328122 0 0.17791556380287959 -0.4455361086535346 0 0.17376504419967539 -0.46076368888843938 0 0.1938641377332887 -0.4633108835168005 0 0.18923595964957429 -0.45067509688328122 0 0.17376504419967539 -0.46076368888843938 0 0.1938641377332887 -0.4633108835168005 0 0.17376504419967539 -0.46076368888843938 0 0.17718182015316611 -0.48165544175840053 0 0.17376504419967539 -0.46076368888843938 0 0.15550290350416551 -0.45157236434768988 0 0.1539044029471725 -0.46809795184702829 0 0.17376504419967539 -0.46076368888843938 0 0.16557730454712019 -0.44172028084172121 0 0.15550290350416551 -0.45157236434768988 0 0.15423293294423909 -0.43386412417913311 0 0.16557730454712019 -0.44172028084172121 0 0.15550290350416551 -0.45157236434768988 0 0.15423293294423909 -0.43386412417913311 0 0.15550290350416551 -0.45157236434768988 0 0.1460535583969573 -0.44160689079445481 0 0.15550290350416551 -0.45157236434768988 0 0.1460535583969573 -0.44160689079445481 0 0.14153074802588431 -0.45654190970348868 0 0.1460535583969573 -0.44160689079445481 0 0.128223579302082 -0.44682997076052833 0 0.14153074802588431 -0.45654190970348868 0 0.128223579302082 -0.44682997076052833 0 0.12432460327697011 -0.47341498538026422 0 0.128223579302082 -0.44682997076052833 0 0.14153074802588431 -0.45654190970348868 0 0.12432460327697011 -0.47341498538026422 0 0.1539044029471725 -0.46809795184702829 0 0.14153074802588431 -0.45654190970348868 0 0.12432460327697011 -0.47341498538026422 0 0.15550290350416551 -0.45157236434768988 0 0.1539044029471725 -0.46809795184702829 0 0.14153074802588431 -0.45654190970348868 0 0.1539044029471725 -0.46809795184702829 0 0.15048103374274721 -0.48484579871078243 0 0.12432460327697011 -0.47341498538026422 0 0.1404625649124509 -0.5 0 0.15048103374274721 -0.48484579871078243 0 0.12432460327697011 -0.47341498538026422 0 0.1404625649124509 -0.5 0 0.12042562725185831 -0.49999999999999989 0 0.12432460327697011 -0.47341498538026422 0 0.1404625649124509 -0.5 0 0.15048103374274721 -0.48484579871078243 0 0.16049950257304349 -0.50000000000000033 0 0.16049950257304349 -0.50000000000000033 0 0.17718182015316611 -0.48165544175840053 0 0.15048103374274721 -0.48484579871078243 0 0.16049950257304349 -0.50000000000000033 0 0.17718182015316611 -0.48165544175840053 0 0.17376504419967539 -0.46076368888843938 0 0.1539044029471725 -0.46809795184702829 0 0.17718182015316611 -0.48165544175840053 0 0.1539044029471725 -0.46809795184702829 0 0.15048103374274721 -0.48484579871078243 0 0.17718182015316611 -0.48165544175840053 0 0.1938641377332887 -0.4633108835168005 0 0.17718182015316611 -0.48165544175840053 0 0.19122796324104871 -0.48466606029959602 0 0.1938641377332887 -0.4633108835168005 0 0.17718182015316611 -0.48165544175840053 0 0.16049950257304349 -0.50000000000000033 0 0.17718182015316611 -0.48165544175840053 0 0.18744203257390391 -0.5 0 0.19122796324104871 -0.48466606029959602 0 0.17718182015316611 -0.48165544175840053 0 0.18744203257390391 -0.5 0 0.072018957471098571 -0.48629524479662273 0 0.069142552082564368 -0.5 0 0.082735946582200875 -0.4892045976485363 0 0.072018957471098571 -0.48629524479662273 0 0.079568506083734697 -0.4785915255016745 0 0.082735946582200875 -0.4892045976485363 0 0.072018957471098571 -0.48629524479662273 0 0.062670741706174135 -0.48944359682069549 0 0.064881374578912687 -0.4815757870058418 0 0.072018957471098571 -0.48629524479662273 0 0.069142552082564368 -0.5 0 0.062670741706174135 -0.48944359682069549 0 0.073180054077148754 -0.46968413697177741 0 0.079568506083734697 -0.4785915255016745 0 0.081395248040860374 -0.46160025678040811 0 0.067447632246636219 -0.45716428258124142 0 0.05849497948899289 -0.47642287528831911 0 0.061758178687080389 -0.47580514524370598 0 0.072018957471098571 -0.48629524479662273 0 0.064881374578912687 -0.4815757870058418 0 0.070673492561877091 -0.4782128222507579 0 0.064881374578912687 -0.4815757870058418 0 0.066280053791524171 -0.47680462027284459 0 0.061758178687080389 -0.47580514524370598 0 0.064881374578912687 -0.4815757870058418 0 0.066280053791524171 -0.47680462027284459 0 0.070673492561877091 -0.4782128222507579 0 0.066280053791524171 -0.47680462027284459 0 0.067807169338226503 -0.47162472659107291 0 0.061758178687080389 -0.47580514524370598 0 0.066280053791524171 -0.47680462027284459 0 0.067807169338226503 -0.47162472659107291 0 0.070673492561877091 -0.4782128222507579 0 0.067807169338226503 -0.47162472659107291 0 0.073180054077148754 -0.46968413697177741 0 0.070673492561877091 -0.4782128222507579 0 0.073180054077148754 -0.46968413697177741 0 0.070673492561877091 -0.4782128222507579 0 0.079568506083734697 -0.4785915255016745 0 0.072018957471098571 -0.48629524479662273 0 0.070673492561877091 -0.4782128222507579 0 0.079568506083734697 -0.4785915255016745 0 0.096876661376123455 -0.48080012839020431 0 0.081395248040860374 -0.46160025678040811 0 0.096876661376123455 -0.48080012839020431 0 0.095349939854524335 -0.46404107218864848 0 0.081395248040860374 -0.46160025678040811 0 0.079568506083734697 -0.4785915255016745 0 0.082735946582200875 -0.4892045976485363 0 0.096876661376123455 -0.48080012839020431 0 0.079568506083734697 -0.4785915255016745 0 0.096876661376123455 -0.48080012839020431 0 0.081395248040860374 -0.46160025678040811 0 0.090750313396975479 -0.5 0 0.082735946582200875 -0.4892045976485363 0 0.096876661376123455 -0.48080012839020431 0 0.069142552082564368 -0.5 0 0.090750313396975479 -0.5 0 0.082735946582200875 -0.4892045976485363 0 0.1123580747113867 -0.50000000000000033 0 0.1124728586670535 -0.48406595427175642 0 0.096876661376123455 -0.48080012839020431 0 0.090750313396975479 -0.5 0 0.1123580747113867 -0.50000000000000033 0 0.096876661376123455 -0.48080012839020431 0 0.1123580747113867 -0.50000000000000033 0 0.096876661376123455 -0.48080012839020431 0 0.1123580747113867 -0.50000000000000033 0 0.12042562725185831 -0.49999999999999989 0 0.1124728586670535 -0.48406595427175642 0 0.12042562725185831 -0.49999999999999989 0 0.1124728586670535 -0.48406595427175642 0 0.12432460327697011 -0.47341498538026422 0 0.12042562725185831 -0.49999999999999989 0 0.12432460327697011 -0.47341498538026422 0 0.1124728586670535 -0.48406595427175642 0 0.12432460327697011 -0.47341498538026422 0 0.1082250197838846 -0.46311527911574241 0 0.096876661376123455 -0.48080012839020431 0 0.095349939854524335 -0.46404107218864848 0 0.1082250197838846 -0.46311527911574241 0 0.1124728586670535 -0.48406595427175642 0 0.096876661376123455 -0.48080012839020431 0 0.1082250197838846 -0.46311527911574241 0 0.095349939854524335 -0.46404107218864848 0 0.1082250197838846 -0.46311527911574241 0 0.094902830217228867 -0.45064862446823939 0 0.128223579302082 -0.44682997076052833 0 0.12432460327697011 -0.47341498538026422 0 0.1082250197838846 -0.46311527911574241 0 0.128223579302082 -0.44682997076052833 0 0.1069391861142964 -0.44299064961396012 0 0.1159996351348133 -0.43474120747525058 0 0.128223579302082 -0.44682997076052833 0 0.1082250197838846 -0.46311527911574241 0 0.1069391861142964 -0.44299064961396012 0 0.1082250197838846 -0.46311527911574241 0 0.1069391861142964 -0.44299064961396012 0 0.094902830217228867 -0.45064862446823939 0 0.1069391861142964 -0.44299064961396012 0 0.091812697424993442 -0.4386357446441016 0 0.098414951810672224 -0.43233268446502993 0 0.1069391861142964 -0.44299064961396012 0 0.094902830217228867 -0.45064862446823939 0 0.091812697424993442 -0.4386357446441016 0 0.094902830217228867 -0.45064862446823939 0 0.091812697424993442 -0.4386357446441016 0 0.082434724511159588 -0.44537142502386151 0 0.094902830217228867 -0.45064862446823939 0 0.082434724511159588 -0.44537142502386151 0 0.081395248040860374 -0.46160025678040811 0 0.091812697424993442 -0.4386357446441016 0 0.082434724511159588 -0.44537142502386151 0 0.078149012167117934 -0.43357211405594609 0 0.095349939854524335 -0.46404107218864848 0 0.094902830217228867 -0.45064862446823939 0 0.081395248040860374 -0.46160025678040811 0 0.067447632246636219 -0.45716428258124142 0 0.065913834705597293 -0.44240038517061198 0 0.057068655694905858 -0.46015288389510001 0 0.067447632246636219 -0.45716428258124142 0 0.05849497948899289 -0.47642287528831911 0 0.067807169338226503 -0.47162472659107291 0 0.067447632246636219 -0.45716428258124142 0 0.061758178687080389 -0.47580514524370598 0 0.081395248040860374 -0.46160025678040811 0 0.067447632246636219 -0.45716428258124142 0 0.065913834705597293 -0.44240038517061198 0 0.073180054077148754 -0.46968413697177741 0 0.081395248040860374 -0.46160025678040811 0 0.067447632246636219 -0.45716428258124142 0 0.067807169338226503 -0.47162472659107291 0 0.073180054077148754 -0.46968413697177741 0 0.067447632246636219 -0.45716428258124142 0 0.081395248040860374 -0.46160025678040811 0 0.065913834705597293 -0.44240038517061198 0 0.082434724511159588 -0.44537142502386151 0 0.081395248040860374 -0.46160025678040811 0 0.065913834705597293 -0.44240038517061198 0 0.082434724511159588 -0.44537142502386151 0 0.065913834705597293 -0.44240038517061198 0 0.078149012167117934 -0.43357211405594609 0 0.065921365320016911 -0.4273577277455588 0 0.073982485551444349 -0.42005290588181732 0 0.078149012167117934 -0.43357211405594609 0 0.065913834705597293 -0.44240038517061198 0 0.065921365320016911 -0.4273577277455588 0 0.078149012167117934 -0.43357211405594609 0 0.073982485551444349 -0.42005290588181732 0 0.069775570718114244 -0.40426700169235308 0 0.060774245729122177 -0.41691050055794487 0 0.065921365320016911 -0.4273577277455588 0 0.073982485551444349 -0.42005290588181732 0 0.060774245729122177 -0.41691050055794487 0 0.073982485551444349 -0.42005290588181732 0 0.086447448161059384 -0.41120764722282821 0 0.069775570718114244 -0.40426700169235308 0 0.073982485551444349 -0.42005290588181732 0 0.086447448161059384 -0.41120764722282821 0 0.088692331433278357 -0.42535053834926723 0 0.086447448161059384 -0.41120764722282821 0 0.093827427438274241 -0.41775801958915132 0 0.099702730965631758 -0.41290181884877419 0 0.086447448161059384 -0.41120764722282821 0 0.088692331433278357 -0.42535053834926723 0 0.093827427438274241 -0.41775801958915132 0 0.088692331433278357 -0.42535053834926723 0 0.097645949564215143 -0.42435504664253748 0 0.093827427438274241 -0.41775801958915132 0 0.073982485551444349 -0.42005290588181732 0 0.088692331433278357 -0.42535053834926723 0 0.078149012167117934 -0.43357211405594609 0 0.091812697424993442 -0.4386357446441016 0 0.088692331433278357 -0.42535053834926723 0 0.078149012167117934 -0.43357211405594609 0 0.091812697424993442 -0.4386357446441016 0 0.088692331433278357 -0.42535053834926723 0 0.098414951810672224 -0.43233268446502993 0 0.098414951810672224 -0.43233268446502993 0 0.097645949564215143 -0.42435504664253748 0 0.1061961683754654 -0.43004895598907111 0 0.088692331433278357 -0.42535053834926723 0 0.098414951810672224 -0.43233268446502993 0 0.097645949564215143 -0.42435504664253748 0 0.1061961683754654 -0.43004895598907111 0 0.11152958735588871 -0.42539382439527612 0 0.1045809803654715 -0.42051706085107571 0 0.097645949564215143 -0.42435504664253748 0 0.1061961683754654 -0.43004895598907111 0 0.1045809803654715 -0.42051706085107571 0 0.1069391861142964 -0.44299064961396012 0 0.098414951810672224 -0.43233268446502993 0 0.1061961683754654 -0.43004895598907111 0 0.1061961683754654 -0.43004895598907111 0 0.1159996351348133 -0.43474120747525058 0 0.11152958735588871 -0.42539382439527612 0 0.13212255532719441 -0.42024495614079282 0 0.1159996351348133 -0.43474120747525058 0 0.11851153239627241 -0.42275952171654291 0 0.1069391861142964 -0.44299064961396012 0 0.1061961683754654 -0.43004895598907111 0 0.1159996351348133 -0.43474120747525058 0 0.1159996351348133 -0.43474120747525058 0 0.11152958735588871 -0.42539382439527612 0 0.11851153239627241 -0.42275952171654291 0 0.11152958735588871 -0.42539382439527612 0 0.11851153239627241 -0.42275952171654291 0 0.1123596205074209 -0.41890237594444008 0 0.1250254850364893 -0.40936224001308058 0 0.117866085899093 -0.41583132647739651 0 0.1096180349996463 -0.41151587164058129 0 0.1250254850364893 -0.40936224001308058 0 0.1096180349996463 -0.41151587164058129 0 0.13212255532719441 -0.42024495614079282 0 0.11851153239627241 -0.42275952171654291 0 0.117866085899093 -0.41583132647739651 0 0.117866085899093 -0.41583132647739651 0 0.1123596205074209 -0.41890237594444008 0 0.1096180349996463 -0.41151587164058129 0 0.11851153239627241 -0.42275952171654291 0 0.117866085899093 -0.41583132647739651 0 0.1123596205074209 -0.41890237594444008 0 0.11152958735588871 -0.42539382439527612 0 0.1123596205074209 -0.41890237594444008 0 0.1045809803654715 -0.42051706085107571 0 0.1123596205074209 -0.41890237594444008 0 0.1096180349996463 -0.41151587164058129 0 0.1065506547415149 -0.41613106226330793 0 0.1096180349996463 -0.41151587164058129 0 0.1065506547415149 -0.41613106226330793 0 0.099702730965631758 -0.41290181884877419 0 0.1096180349996463 -0.41151587164058129 0 0.099702730965631758 -0.41290181884877419 0 0.1096180349996463 -0.41151587164058129 0 0.099702730965631758 -0.41290181884877419 0 0.1041447551606165 -0.40305668800175581 0 0.1123596205074209 -0.41890237594444008 0 0.1065506547415149 -0.41613106226330793 0 0.1045809803654715 -0.42051706085107571 0 0.1065506547415149 -0.41613106226330793 0 0.1045809803654715 -0.42051706085107571 0 0.099702730965631758 -0.41290181884877419 0 0.1045809803654715 -0.42051706085107571 0 0.093827427438274241 -0.41775801958915132 0 0.099702730965631758 -0.41290181884877419 0 0.097645949564215143 -0.42435504664253748 0 0.1045809803654715 -0.42051706085107571 0 0.093827427438274241 -0.41775801958915132 0 0.086447448161059384 -0.41120764722282821 0 0.099702730965631758 -0.41290181884877419 0 0.095691580682652475 -0.39908469234235189 0 0.095691580682652475 -0.39908469234235189 0 0.1041447551606165 -0.40305668800175581 0 0.1115666739945345 -0.38872436917531578 0 0.099702730965631758 -0.41290181884877419 0 0.095691580682652475 -0.39908469234235189 0 0.1041447551606165 -0.40305668800175581 0 0.1096180349996463 -0.41151587164058129 0 0.1041447551606165 -0.40305668800175581 0 0.1115666739945345 -0.38872436917531578 0 0.1250254850364893 -0.40936224001308058 0 0.1115666739945345 -0.38872436917531578 0 0.1096180349996463 -0.41151587164058129 0 0.1115666739945345 -0.38872436917531578 0 0.1250254850364893 -0.40936224001308058 0 0.1096180349996463 -0.41151587164058129 0 0.1115666739945345 -0.38872436917531578 0 0.12645644117523869 -0.39722706905544619 0 0.1250254850364893 -0.40936224001308058 0 0.1115666739945345 -0.38872436917531578 0 0.12609635470998201 -0.38402791619100712 0 0.1115666739945345 -0.38872436917531578 0 0.113745377556003 -0.36324200547299851 0 0.1115666739945345 -0.38872436917531578 0 0.113745377556003 -0.36324200547299851 0 0.12609635470998201 -0.38402791619100712 0 0.12645644117523869 -0.39722706905544619 0 0.1115666739945345 -0.38872436917531578 0 0.1115666739945345 -0.38872436917531578 0 0.096372132326470572 -0.36542491223168638 0 0.1115666739945345 -0.38872436917531578 0 0.089853218628298884 -0.38394717958202601 0 0.096372132326470572 -0.36542491223168638 0 0.095691580682652475 -0.39908469234235189 0 0.1115666739945345 -0.38872436917531578 0 0.089853218628298884 -0.38394717958202601 0 0.089853218628298884 -0.38394717958202601 0 0.082924844884061683 -0.39714926844771359 0 0.072939106935086151 -0.38728773006234168 0 0.089853218628298884 -0.38394717958202601 0 0.072939106935086151 -0.38728773006234168 0 0.07582030708563034 -0.37256671738353597 0 0.095691580682652475 -0.39908469234235189 0 0.089853218628298884 -0.38394717958202601 0 0.082924844884061683 -0.39714926844771359 0 0.086447448161059384 -0.41120764722282821 0 0.082924844884061683 -0.39714926844771359 0 0.069775570718114244 -0.40426700169235308 0 0.086447448161059384 -0.41120764722282821 0 0.095691580682652475 -0.39908469234235189 0 0.082924844884061683 -0.39714926844771359 0 0.069775570718114244 -0.40426700169235308 0 0.072939106935086151 -0.38728773006234168 0 0.058313699768321348 -0.39007371912844929 0 0.082924844884061683 -0.39714926844771359 0 0.069775570718114244 -0.40426700169235308 0 0.072939106935086151 -0.38728773006234168 0 0.072939106935086151 -0.38728773006234168 0 0.05933500968155693 -0.37671477575793533 0 0.058313699768321348 -0.39007371912844929 0 0.072939106935086151 -0.38728773006234168 0 0.05933500968155693 -0.37671477575793533 0 0.07582030708563034 -0.37256671738353597 0 0.05933500968155693 -0.37671477575793533 0 0.043300396670470892 -0.38581293046691678 0 0.039079294002052851 -0.37065651216905859 0 0.05933500968155693 -0.37671477575793533 0 0.058313699768321348 -0.39007371912844929 0 0.043300396670470892 -0.38581293046691678 0 0.058313699768321348 -0.39007371912844929 0 0.0466875803122518 -0.39705513158652528 0 0.054373060569327003 -0.40663711634463268 0 0.069775570718114244 -0.40426700169235308 0 0.058313699768321348 -0.39007371912844929 0 0.054373060569327003 -0.40663711634463268 0 0.058313699768321348 -0.39007371912844929 0 0.054373060569327003 -0.40663711634463268 0 0.0466875803122518 -0.39705513158652528 0 0.042121557959679479 -0.40689397827368962 0 0.054373060569327003 -0.40663711634463268 0 0.058313699768321348 -0.39007371912844929 0 0.0466875803122518 -0.39705513158652528 0 0.043300396670470892 -0.38581293046691678 0 0.0466875803122518 -0.39705513158652528 0 0.032645317368698572 -0.39721328630736241 0 0.043300396670470892 -0.38581293046691678 0 0.0466875803122518 -0.39705513158652528 0 0.032645317368698572 -0.39721328630736241 0 0.042121557959679479 -0.40689397827368962 0 0.032645317368698572 -0.39721328630736241 0 0.043300396670470892 -0.38581293046691678 0 0.025542853711361019 -0.38384675294920401 0 0.043300396670470892 -0.38581293046691678 0 0.025542853711361019 -0.38384675294920401 0 0.039079294002052851 -0.37065651216905859 0 0.025542853711361019 -0.38384675294920401 0 0.009690974369139977 -0.39295199195252922 0 0.016784443680880379 -0.36713146693108112 0 -0.0064694903547723136 -0.38059021958606692 0 0.009690974369139977 -0.39295199195252922 0 0.016784443680880379 -0.36713146693108112 0 0.032645317368698572 -0.39721328630736241 0 0.009690974369139977 -0.39295199195252922 0 0.030062121183744069 -0.41560348860952728 0 0.032645317368698572 -0.39721328630736241 0 0.025542853711361019 -0.38384675294920401 0 0.009690974369139977 -0.39295199195252922 0 0.009690974369139977 -0.39295199195252922 0 0.030062121183744069 -0.41560348860952728 0 0.01224976062295041 -0.42183763890738629 0 -0.0080625817845775948 -0.40608726553411861 0 0.009690974369139977 -0.39295199195252922 0 0.01224976062295041 -0.42183763890738629 0 0.009690974369139977 -0.39295199195252922 0 0.01224976062295041 -0.42183763890738629 0 0.01224976062295041 -0.42183763890738629 0 0.01480854687676085 -0.45072328586224342 0 0.030062121183744069 -0.41560348860952728 0 0.01224976062295041 -0.42183763890738629 0 0.028535899264767479 -0.43733174884408438 0 0.01224976062295041 -0.42183763890738629 0 0.028535899264767479 -0.43733174884408438 0 0.01480854687676085 -0.45072328586224342 0 0.030062121183744069 -0.41560348860952728 0 0.028535899264767479 -0.43733174884408438 0 0.039909128579099777 -0.42893709763038412 0 0.039909128579099777 -0.42893709763038412 0 0.050432421370333713 -0.42320051356081623 0 0.04400553312424714 -0.45021417746364167 0 0.039909128579099777 -0.42893709763038412 0 0.046509667952406512 -0.41833555967385072 0 0.050432421370333713 -0.42320051356081623 0 0.032645317368698572 -0.39721328630736241 0 0.030062121183744069 -0.41560348860952728 0 0.042121557959679479 -0.40689397827368962 0 0.030062121183744069 -0.41560348860952728 0 0.039909128579099777 -0.42893709763038412 0 0.046509667952406512 -0.41833555967385072 0 0.030062121183744069 -0.41560348860952728 0 0.042121557959679479 -0.40689397827368962 0 0.046509667952406512 -0.41833555967385072 0 0.054373060569327003 -0.40663711634463268 0 0.050432421370333713 -0.42320051356081623 0 0.046509667952406512 -0.41833555967385072 0 0.054373060569327003 -0.40663711634463268 0 0.050432421370333713 -0.42320051356081623 0 0.054373060569327003 -0.40663711634463268 0 0.060774245729122177 -0.41691050055794487 0 0.050432421370333713 -0.42320051356081623 0 0.046509667952406512 -0.41833555967385072 0 0.050432421370333713 -0.42320051356081623 0 0.042121557959679479 -0.40689397827368962 0 0.046509667952406512 -0.41833555967385072 0 0.054373060569327003 -0.40663711634463268 0 0.069775570718114244 -0.40426700169235308 0 0.054373060569327003 -0.40663711634463268 0 0.060774245729122177 -0.41691050055794487 0 0.050432421370333713 -0.42320051356081623 0 0.04400553312424714 -0.45021417746364167 0 0.065913834705597293 -0.44240038517061198 0 0.050432421370333713 -0.42320051356081623 0 0.065913834705597293 -0.44240038517061198 0 0.065921365320016911 -0.4273577277455588 0 0.050432421370333713 -0.42320051356081623 0 0.065921365320016911 -0.4273577277455588 0 0.060774245729122177 -0.41691050055794487 0 0.050432421370333713 -0.42320051356081623 0 0.065913834705597293 -0.44240038517061198 0 0.050432421370333713 -0.42320051356081623 0 0.04400553312424714 -0.45021417746364167 0 0.065913834705597293 -0.44240038517061198 0 0.057068655694905858 -0.46015288389510001 0 0.04400553312424714 -0.45021417746364167 0 0.057068655694905858 -0.46015288389510001 0 0.048043393468649283 -0.46676160836513853 0 0.04400553312424714 -0.45021417746364167 0 0.067447632246636219 -0.45716428258124142 0 0.057068655694905858 -0.46015288389510001 0 0.05849497948899289 -0.47642287528831911 0 0.057068655694905858 -0.46015288389510001 0 0.048043393468649283 -0.46676160836513853 0 0.052635520687858477 -0.47072247146996382 0 0.04400553312424714 -0.45021417746364167 0 0.037578644878161642 -0.47722784136646751 0 0.048043393468649283 -0.46676160836513853 0 0.04400553312424714 -0.45021417746364167 0 0.037578644878161642 -0.47722784136646751 0 0.04400553312424714 -0.45021417746364167 0 0.030366658319331299 -0.45781827645911538 0 0.037578644878161642 -0.47722784136646751 0 0.028535899264767479 -0.43733174884408438 0 0.039909128579099777 -0.42893709763038412 0 0.04400553312424714 -0.45021417746364167 0 0.028535899264767479 -0.43733174884408438 0 0.04400553312424714 -0.45021417746364167 0 0.030366658319331299 -0.45781827645911538 0 0.028535899264767479 -0.43733174884408438 0 0.01480854687676085 -0.45072328586224342 0 0.030366658319331299 -0.45781827645911538 0 -0.008216644178786571 -0.4466179140804285 0 0.01224976062295041 -0.42183763890738629 0 0.01480854687676085 -0.45072328586224342 0 0.01480854687676085 -0.45072328586224342 0 0.017367333130571299 -0.47960893281710049 0 0.0084119176919832291 -0.471974008478943 0 -0.0021957942935651631 -0.46571035637089769 0 0.01480854687676085 -0.45072328586224342 0 0.0084119176919832291 -0.471974008478943 0 -0.008216644178786571 -0.4466179140804285 0 -0.0021957942935651631 -0.46571035637089769 0 0.01480854687676085 -0.45072328586224342 0 0.01480854687676085 -0.45072328586224342 0 0.017367333130571299 -0.47960893281710049 0 0.01480854687676085 -0.45072328586224342 0 0.030366658319331299 -0.45781827645911538 0 0.0269046674527194 -0.47359432875914009 0 0.01480854687676085 -0.45072328586224342 0 0.0269046674527194 -0.47359432875914009 0 0.017367333130571299 -0.47960893281710049 0 0.017367333130571299 -0.47960893281710049 0 0.012735562036971701 -0.48508522326900949 0 0.035615270762982369 -0.48075404927866472 0 0.012735562036971701 -0.48508522326900949 0 0.035615270762982369 -0.48075404927866472 0 0.0269046674527194 -0.47359432875914009 0 0.017367333130571299 -0.47960893281710049 0 0.035615270762982369 -0.48075404927866472 0 0.017367333130571299 -0.47960893281710049 0 0.0084119176919832291 -0.471974008478943 0 0.012735562036971701 -0.48508522326900949 0 -0.00065605929082254884 -0.47874224407546379 0 0.0084119176919832291 -0.471974008478943 0 0.012735562036971701 -0.48508522326900949 0 -0.0021957942935651631 -0.46571035637089769 0 -0.00065605929082254884 -0.47874224407546379 0 0.0084119176919832291 -0.471974008478943 0 -0.010144146689038991 -0.48941639725935437 0 -0.00065605929082254884 -0.47874224407546379 0 0.012735562036971701 -0.48508522326900949 0 -0.010144146689038991 -0.48941639725935437 0 0.012735562036971701 -0.48508522326900949 0 -0.011489863113854141 -0.5 0 0.012735562036971701 -0.48508522326900949 0 0.01802246382714956 -0.5 0 0.01802246382714956 -0.5 0 0.025329369399590369 -0.48901546815995378 0 0.047534790768153173 -0.50000000000000044 0 0.012735562036971701 -0.48508522326900949 0 0.025329369399590369 -0.48901546815995378 0 0.035615270762982369 -0.48075404927866472 0 0.012735562036971701 -0.48508522326900949 0 0.01802246382714956 -0.5 0 0.025329369399590369 -0.48901546815995378 0 0.025329369399590369 -0.48901546815995378 0 0.035615270762982369 -0.48075404927866472 0 0.047534790768153173 -0.50000000000000044 0 0.030366658319331299 -0.45781827645911538 0 0.0269046674527194 -0.47359432875914009 0 0.037578644878161642 -0.47722784136646751 0 0.0269046674527194 -0.47359432875914009 0 0.037578644878161642 -0.47722784136646751 0 0.035615270762982369 -0.48075404927866472 0 0.048043393468649283 -0.46676160836513853 0 0.037578644878161642 -0.47722784136646751 0 0.046296380844488463 -0.47463440362945558 0 0.035615270762982369 -0.48075404927866472 0 0.046296380844488463 -0.47463440362945558 0 0.049693011087844949 -0.4756354888466594 0 0.037578644878161642 -0.47722784136646751 0 0.035615270762982369 -0.48075404927866472 0 0.046296380844488463 -0.47463440362945558 0 0.057068655694905858 -0.46015288389510001 0 0.052635520687858477 -0.47072247146996382 0 0.05849497948899289 -0.47642287528831911 0 0.035615270762982369 -0.48075404927866472 0 0.049693011087844949 -0.4756354888466594 0 0.05849497948899289 -0.47642287528831911 0 0.035615270762982369 -0.48075404927866472 0 0.05849497948899289 -0.47642287528831911 0 0.048043393468649283 -0.46676160836513853 0 0.046296380844488463 -0.47463440362945558 0 0.052635520687858477 -0.47072247146996382 0 0.049693011087844949 -0.4756354888466594 0 0.052635520687858477 -0.47072247146996382 0 0.05849497948899289 -0.47642287528831911 0 0.046296380844488463 -0.47463440362945558 0 0.049693011087844949 -0.4756354888466594 0 0.052635520687858477 -0.47072247146996382 0 0.05849497948899289 -0.47642287528831911 0 0.061758178687080389 -0.47580514524370598 0 0.062670741706174135 -0.48944359682069549 0 0.064881374578912687 -0.4815757870058418 0 0.05849497948899289 -0.47642287528831911 0 0.064881374578912687 -0.4815757870058418 0 0.05849497948899289 -0.47642287528831911 0 0.061758178687080389 -0.47580514524370598 0 0.069142552082564368 -0.5 0 0.062670741706174135 -0.48944359682069549 0 0.047534790768153173 -0.50000000000000044 0 0.05849497948899289 -0.47642287528831911 0 0.047534790768153173 -0.50000000000000044 0 0.035615270762982369 -0.48075404927866472 0 0.05849497948899289 -0.47642287528831911 0 0.047534790768153173 -0.50000000000000044 0 0.062670741706174135 -0.48944359682069549 0 0.05849497948899289 -0.47642287528831911 0 0.047534790768153173 -0.50000000000000044 0 0.089727975817252392 -0.29646224842349211 0 0.069967983226982527 -0.30495776272600778 0 0.075483032258224086 -0.28815868119130272 0 0.089727975817252392 -0.29646224842349211 0 0.088503230311337153 -0.27716835087377989 0 0.101883582619993 -0.28460947857741209 0 0.089727975817252392 -0.29646224842349211 0 0.075483032258224086 -0.28815868119130272 0 0.088503230311337153 -0.27716835087377989 0 0.089727975817252392 -0.29646224842349211 0 0.086214248119208581 -0.31193359067875348 0 0.069967983226982527 -0.30495776272600778 0 0.089727975817252392 -0.29646224842349211 0 0.086214248119208581 -0.31193359067875348 0 0.10049372866807189 -0.31082656242210721 0 0.069967983226982527 -0.30495776272600778 0 0.075483032258224086 -0.28815868119130272 0 0.059449054433483903 -0.28956707473318272 0 0.075483032258224086 -0.28815868119130272 0 0.0646939085167762 -0.2722383315448984 0 0.059449054433483903 -0.28956707473318272 0 0.0646939085167762 -0.2722383315448984 0 0.077350866508299074 -0.27549126298099152 0 0.080723294946858856 -0.26439968831398508 0 0.075483032258224086 -0.28815868119130272 0 0.0646939085167762 -0.2722383315448984 0 0.077350866508299074 -0.27549126298099152 0 0.0646939085167762 -0.2722383315448984 0 0.070005134957367529 -0.25889031236374099 0 0.080723294946858856 -0.26439968831398508 0 0.070005134957367529 -0.25889031236374099 0 0.061490933840310687 -0.25382890142296882 0 0.070069103552599196 -0.24823964670048029 0 0.0646939085167762 -0.2722383315448984 0 0.070005134957367529 -0.25889031236374099 0 0.060614126731859473 -0.2624009925450973 0 0.070005134957367529 -0.25889031236374099 0 0.061490933840310687 -0.25382890142296882 0 0.060614126731859473 -0.2624009925450973 0 0.070005134957367529 -0.25889031236374099 0 0.080071368274292315 -0.25145738896057979 0 0.080723294946858856 -0.26439968831398508 0 0.070005134957367529 -0.25889031236374099 0 0.080071368274292315 -0.25145738896057979 0 0.070069103552599196 -0.24823964670048029 0 0.080071368274292315 -0.25145738896057979 0 0.080723294946858856 -0.26439968831398508 0 0.090706365013478091 -0.25245448435890872 0 0.080723294946858856 -0.26439968831398508 0 0.090706365013478091 -0.25245448435890872 0 0.095060577752172304 -0.26241188567384149 0 0.075483032258224086 -0.28815868119130272 0 0.077350866508299074 -0.27549126298099152 0 0.088503230311337153 -0.27716835087377989 0 0.077350866508299074 -0.27549126298099152 0 0.080723294946858856 -0.26439968831398508 0 0.088503230311337153 -0.27716835087377989 0 0.080723294946858856 -0.26439968831398508 0 0.088503230311337153 -0.27716835087377989 0 0.095060577752172304 -0.26241188567384149 0 0.088503230311337153 -0.27716835087377989 0 0.1016952336099234 -0.27235330725820578 0 0.101883582619993 -0.28460947857741209 0 0.088503230311337153 -0.27716835087377989 0 0.1016952336099234 -0.27235330725820578 0 0.095060577752172304 -0.26241188567384149 0 0.1016952336099234 -0.27235330725820578 0 0.1104739380917857 -0.2612093749811526 0 0.1125548392743288 -0.27636744618484282 0 0.1016952336099234 -0.27235330725820578 0 0.1125548392743288 -0.27636744618484282 0 0.101883582619993 -0.28460947857741209 0 0.090706365013478091 -0.25245448435890872 0 0.099550463170151926 -0.25262580003909579 0 0.095060577752172304 -0.26241188567384149 0 0.1016952336099234 -0.27235330725820578 0 0.095060577752172304 -0.26241188567384149 0 0.1104739380917857 -0.2612093749811526 0 0.099550463170151926 -0.25262580003909579 0 0.095060577752172304 -0.26241188567384149 0 0.1104739380917857 -0.2612093749811526 0 0.099550463170151926 -0.25262580003909579 0 0.1104739380917857 -0.2612093749811526 0 0.1078238037173969 -0.24832262031645649 0 0.1311170075682456 -0.27142576198599933 0 0.1104739380917857 -0.2612093749811526 0 0.1212054647883809 -0.25073068226796852 0 0.1104739380917857 -0.2612093749811526 0 0.1212054647883809 -0.25073068226796852 0 0.1078238037173969 -0.24832262031645649 0 0.1311170075682456 -0.27142576198599933 0 0.1104739380917857 -0.2612093749811526 0 0.1311170075682456 -0.27142576198599933 0 0.1104739380917857 -0.2612093749811526 0 0.1193620271946058 -0.27249351692823448 0 0.1104739380917857 -0.2612093749811526 0 0.1125548392743288 -0.27636744618484282 0 0.1193620271946058 -0.27249351692823448 0 0.1125548392743288 -0.27636744618484282 0 0.1193620271946058 -0.27249351692823448 0 0.1233023238440631 -0.28097148456094378 0 0.1311170075682456 -0.27142576198599933 0 0.1193620271946058 -0.27249351692823448 0 0.1233023238440631 -0.28097148456094378 0 0.1233023238440631 -0.28097148456094378 0 0.1242383748246253 -0.29131174999725179 0 0.1141297936923768 -0.28878453930630188 0 0.1242383748246253 -0.29131174999725179 0 0.1141297936923768 -0.28878453930630188 0 0.1198701537204314 -0.30089140532399938 0 0.1141297936923768 -0.28878453930630188 0 0.10622170970645189 -0.29895353846799488 0 0.1198701537204314 -0.30089140532399938 0 0.1125548392743288 -0.27636744618484282 0 0.1233023238440631 -0.28097148456094378 0 0.1141297936923768 -0.28878453930630188 0 0.1125548392743288 -0.27636744618484282 0 0.1141297936923768 -0.28878453930630188 0 0.101883582619993 -0.28460947857741209 0 0.089727975817252392 -0.29646224842349211 0 0.101883582619993 -0.28460947857741209 0 0.10622170970645189 -0.29895353846799488 0 0.1141297936923768 -0.28878453930630188 0 0.101883582619993 -0.28460947857741209 0 0.10622170970645189 -0.29895353846799488 0 0.089727975817252392 -0.29646224842349211 0 0.10049372866807189 -0.31082656242210721 0 0.10622170970645189 -0.29895353846799488 0 0.10049372866807189 -0.31082656242210721 0 0.10622170970645189 -0.29895353846799488 0 0.1134387524627216 -0.31086840579325631 0 0.10622170970645189 -0.29895353846799488 0 0.1134387524627216 -0.31086840579325631 0 0.1198701537204314 -0.30089140532399938 0 0.1265219532001009 -0.3124330460259736 0 0.1134387524627216 -0.31086840579325631 0 0.1198701537204314 -0.30089140532399938 0 0.1265219532001009 -0.3124330460259736 0 0.1134387524627216 -0.31086840579325631 0 0.1192961391526948 -0.32261879728377291 0 0.1134387524627216 -0.31086840579325631 0 0.1192961391526948 -0.32261879728377291 0 0.1082288303285789 -0.31948708523568958 0 0.1192961391526948 -0.32261879728377291 0 0.1093748658769356 -0.32997486192450581 0 0.1082288303285789 -0.31948708523568958 0 0.1192961391526948 -0.32261879728377291 0 0.1168506625355451 -0.3296807312869221 0 0.1093748658769356 -0.32997486192450581 0 0.1192961391526948 -0.32261879728377291 0 0.12260601330919629 -0.33072698382653798 0 0.1168506625355451 -0.3296807312869221 0 0.13219802669416811 -0.32498852212276208 0 0.1192961391526948 -0.32261879728377291 0 0.12260601330919629 -0.33072698382653798 0 0.13051916655351839 -0.33696304048325831 0 0.12260601330919629 -0.33072698382653798 0 0.1159240811174677 -0.33775964177068091 0 0.12260601330919629 -0.33072698382653798 0 0.1159240811174677 -0.33775964177068091 0 0.1161256318033537 -0.33540228211287182 0 0.12260601330919629 -0.33072698382653798 0 0.1168506625355451 -0.3296807312869221 0 0.1161256318033537 -0.33540228211287182 0 0.13051916655351839 -0.33696304048325831 0 0.1159240811174677 -0.33775964177068091 0 0.13051916655351839 -0.33696304048325831 0 0.1159240811174677 -0.33775964177068091 0 0.123981461538115 -0.35128285539313481 0 0.1159240811174677 -0.33775964177068091 0 0.1161256318033537 -0.33540228211287182 0 0.1168506625355451 -0.3296807312869221 0 0.1161256318033537 -0.33540228211287182 0 0.1093748658769356 -0.32997486192450581 0 0.1159240811174677 -0.33775964177068091 0 0.1161256318033537 -0.33540228211287182 0 0.1093748658769356 -0.32997486192450581 0 0.1159240811174677 -0.33775964177068091 0 0.092335912071574502 -0.33904708650077298 0 0.1159240811174677 -0.33775964177068091 0 0.1093748658769356 -0.32997486192450581 0 0.092335912071574502 -0.33904708650077298 0 0.1093748658769356 -0.32997486192450581 0 0.096347407600029022 -0.32440529872184809 0 0.092335912071574502 -0.33904708650077298 0 0.1159240811174677 -0.33775964177068091 0 0.10211321446004019 -0.35101158716873732 0 0.092335912071574502 -0.33904708650077298 0 0.086214248119208581 -0.31193359067875348 0 0.10049372866807189 -0.31082656242210721 0 0.096347407600029022 -0.32440529872184809 0 0.10049372866807189 -0.31082656242210721 0 0.1134387524627216 -0.31086840579325631 0 0.1082288303285789 -0.31948708523568958 0 0.10049372866807189 -0.31082656242210721 0 0.096347407600029022 -0.32440529872184809 0 0.1082288303285789 -0.31948708523568958 0 0.1093748658769356 -0.32997486192450581 0 0.096347407600029022 -0.32440529872184809 0 0.1082288303285789 -0.31948708523568958 0 0.12784456261830821 -0.36308533366748658 0 0.12609635470998201 -0.38402791619100712 0 0.113745377556003 -0.36324200547299851 0 0.1159240811174677 -0.33775964177068091 0 0.113745377556003 -0.36324200547299851 0 0.123981461538115 -0.35128285539313481 0 0.1159240811174677 -0.33775964177068091 0 0.113745377556003 -0.36324200547299851 0 0.1159240811174677 -0.33775964177068091 0 0.113745377556003 -0.36324200547299851 0 0.10211321446004019 -0.35101158716873732 0 0.12784456261830821 -0.36308533366748658 0 0.113745377556003 -0.36324200547299851 0 0.123981461538115 -0.35128285539313481 0 0.1115666739945345 -0.38872436917531578 0 0.113745377556003 -0.36324200547299851 0 0.096372132326470572 -0.36542491223168638 0 0.113745377556003 -0.36324200547299851 0 0.10211321446004019 -0.35101158716873732 0 0.096372132326470572 -0.36542491223168638 0 0.089853218628298884 -0.38394717958202601 0 0.096372132326470572 -0.36542491223168638 0 0.07582030708563034 -0.37256671738353597 0 0.096372132326470572 -0.36542491223168638 0 0.082110249222110576 -0.35466523699539548 0 0.07582030708563034 -0.37256671738353597 0 0.10211321446004019 -0.35101158716873732 0 0.096372132326470572 -0.36542491223168638 0 0.082110249222110576 -0.35466523699539548 0 0.082110249222110576 -0.35466523699539548 0 0.092335912071574502 -0.33904708650077298 0 0.068747743025681235 -0.34033453123086538 0 0.10211321446004019 -0.35101158716873732 0 0.082110249222110576 -0.35466523699539548 0 0.092335912071574502 -0.33904708650077298 0 0.082110249222110576 -0.35466523699539548 0 0.068747743025681235 -0.34033453123086538 0 0.057272186363266697 -0.35960658745677498 0 0.082110249222110576 -0.35466523699539548 0 0.07582030708563034 -0.37256671738353597 0 0.057272186363266697 -0.35960658745677498 0 0.05933500968155693 -0.37671477575793533 0 0.07582030708563034 -0.37256671738353597 0 0.057272186363266697 -0.35960658745677498 0 0.086214248119208581 -0.31193359067875348 0 0.096347407600029022 -0.32440529872184809 0 0.078030795921920637 -0.32434601069550512 0 0.092335912071574502 -0.33904708650077298 0 0.068747743025681235 -0.34033453123086538 0 0.078030795921920637 -0.32434601069550512 0 0.092335912071574502 -0.33904708650077298 0 0.068747743025681235 -0.34033453123086538 0 0.096347407600029022 -0.32440529872184809 0 0.092335912071574502 -0.33904708650077298 0 0.078030795921920637 -0.32434601069550512 0 0.068747743025681235 -0.34033453123086538 0 0.078030795921920637 -0.32434601069550512 0 0.053863538987460123 -0.3232816795844588 0 0.069967983226982527 -0.30495776272600778 0 0.078030795921920637 -0.32434601069550512 0 0.053863538987460123 -0.3232816795844588 0 0.086214248119208581 -0.31193359067875348 0 0.069967983226982527 -0.30495776272600778 0 0.078030795921920637 -0.32434601069550512 0 0.068747743025681235 -0.34033453123086538 0 0.045159573979787898 -0.34162197596095778 0 0.068747743025681235 -0.34033453123086538 0 0.053863538987460123 -0.3232816795844588 0 0.045159573979787898 -0.34162197596095778 0 0.053863538987460123 -0.3232816795844588 0 0.034832013842728909 -0.33032259781876938 0 0.045159573979787898 -0.34162197596095778 0 0.034832013842728909 -0.33032259781876938 0 0.045159573979787898 -0.34162197596095778 0 0.02157140493389462 -0.34290942069105018 0 0.045159573979787898 -0.34162197596095778 0 0.02157140493389462 -0.34290942069105018 0 0.053863538987460123 -0.3232816795844588 0 0.034832013842728909 -0.33032259781876938 0 0.03621734991660093 -0.31670946998547028 0 0.053863538987460123 -0.3232816795844588 0 0.03621734991660093 -0.31670946998547028 0 0.048768037075517537 -0.30442990221103089 0 0.05933500968155693 -0.37671477575793533 0 0.057272186363266697 -0.35960658745677498 0 0.039079294002052851 -0.37065651216905859 0 0.068747743025681235 -0.34033453123086538 0 0.045159573979787898 -0.34162197596095778 0 0.057272186363266697 -0.35960658745677498 0 0.045159573979787898 -0.34162197596095778 0 0.034512899630155462 -0.3545258348651717 0 0.02157140493389462 -0.34290942069105018 0 0.045159573979787898 -0.34162197596095778 0 0.057272186363266697 -0.35960658745677498 0 0.034512899630155462 -0.3545258348651717 0 0.057272186363266697 -0.35960658745677498 0 0.034512899630155462 -0.3545258348651717 0 0.039079294002052851 -0.37065651216905859 0 0.025542853711361019 -0.38384675294920401 0 0.039079294002052851 -0.37065651216905859 0 0.016784443680880379 -0.36713146693108112 0 0.034512899630155462 -0.3545258348651717 0 0.039079294002052851 -0.37065651216905859 0 0.016784443680880379 -0.36713146693108112 0 0.034512899630155462 -0.3545258348651717 0 0.016784443680880379 -0.36713146693108112 0 0.02157140493389462 -0.34290942069105018 0 -0.0043130761299947744 -0.35643483176966217 0 0.016784443680880379 -0.36713146693108112 0 0.02157140493389462 -0.34290942069105018 0 -0.0038616663111063101 -0.33241552487502413 0 -0.0043130761299947744 -0.35643483176966217 0 0.02157140493389462 -0.34290942069105018 0 -0.0043130761299947744 -0.35643483176966217 0 -0.0064694903547723136 -0.38059021958606692 0 0.016784443680880379 -0.36713146693108112 0 0.03621734991660093 -0.31670946998547028 0 0.020048637459846991 -0.32439583124448262 0 0.029165048793799431 -0.30349547286963757 0 0.034832013842728909 -0.33032259781876938 0 0.03621734991660093 -0.31670946998547028 0 0.020048637459846991 -0.32439583124448262 0 0.020048637459846991 -0.32439583124448262 0 0.0094652366165251054 -0.31053241408104548 0 0.029165048793799431 -0.30349547286963757 0 0.034832013842728909 -0.33032259781876938 0 0.020048637459846991 -0.32439583124448262 0 0.02157140493389462 -0.34290942069105018 0 -0.0038616663111063101 -0.33241552487502413 0 0.020048637459846991 -0.32439583124448262 0 0.02157140493389462 -0.34290942069105018 0 -0.0038616663111063101 -0.33241552487502413 0 0.020048637459846991 -0.32439583124448262 0 0.0094652366165251054 -0.31053241408104548 0 -0.01007927323019326 -0.3103345258507364 0 0.0094652366165251054 -0.31053241408104548 0 0.0017563221397047381 -0.2997067901486577 0 0.0094652366165251054 -0.31053241408104548 0 0.0017563221397047381 -0.2997067901486577 0 0.017453688627786131 -0.29322190620108468 0 0.0017563221397047381 -0.2997067901486577 0 0.0066437179820165657 -0.2861171845936395 0 0.017453688627786131 -0.29322190620108468 0 -0.0080748459131490501 -0.2914060437848453 0 0.0017563221397047381 -0.2997067901486577 0 0.0066437179820165657 -0.2861171845936395 0 0.0066437179820165657 -0.2861171845936395 0 0.017453688627786131 -0.29322190620108468 0 0.01908241754038794 -0.28073467218482329 0 0.017453688627786131 -0.29322190620108468 0 0.029398966714908509 -0.28692964748338379 0 0.029165048793799431 -0.30349547286963757 0 0.017453688627786131 -0.29322190620108468 0 0.029398966714908509 -0.28692964748338379 0 0.01908241754038794 -0.28073467218482329 0 0.0094652366165251054 -0.31053241408104548 0 0.017453688627786131 -0.29322190620108468 0 0.029165048793799431 -0.30349547286963757 0 0.03621734991660093 -0.31670946998547028 0 0.029165048793799431 -0.30349547286963757 0 0.048768037075517537 -0.30442990221103089 0 0.029165048793799431 -0.30349547286963757 0 0.043029943860180789 -0.28970337243015992 0 0.048768037075517537 -0.30442990221103089 0 0.029398966714908509 -0.28692964748338379 0 0.029165048793799431 -0.30349547286963757 0 0.043029943860180789 -0.28970337243015992 0 0.029398966714908509 -0.28692964748338379 0 0.043029943860180789 -0.28970337243015992 0 0.038396769586432553 -0.27977596087564799 0 0.043029943860180789 -0.28970337243015992 0 0.051749435803858171 -0.27840569125857739 0 0.038396769586432553 -0.27977596087564799 0 0.043029943860180789 -0.28970337243015992 0 0.059449054433483903 -0.28956707473318272 0 0.051749435803858171 -0.27840569125857739 0 0.043029943860180789 -0.28970337243015992 0 0.059449054433483903 -0.28956707473318272 0 0.048768037075517537 -0.30442990221103089 0 0.069967983226982527 -0.30495776272600778 0 0.059449054433483903 -0.28956707473318272 0 0.048768037075517537 -0.30442990221103089 0 0.069967983226982527 -0.30495776272600778 0 0.053863538987460123 -0.3232816795844588 0 0.048768037075517537 -0.30442990221103089 0 0.053380735395516472 -0.25867595766617779 0 0.04428054005230446 -0.26275141268032309 0 0.045372505498807933 -0.25408090721008542 0 0.053380735395516472 -0.25867595766617779 0 0.053158010572478251 -0.26777612517812432 0 0.04428054005230446 -0.26275141268032309 0 0.053380735395516472 -0.25867595766617779 0 0.045372505498807933 -0.25408090721008542 0 0.05268811686830014 -0.24901610311096159 0 0.053380735395516472 -0.25867595766617779 0 0.061490933840310687 -0.25382890142296882 0 0.05268811686830014 -0.24901610311096159 0 0.053380735395516472 -0.25867595766617779 0 0.060614126731859473 -0.2624009925450973 0 0.053158010572478251 -0.26777612517812432 0 0.053380735395516472 -0.25867595766617779 0 0.061490933840310687 -0.25382890142296882 0 0.060614126731859473 -0.2624009925450973 0 0.0646939085167762 -0.2722383315448984 0 0.060614126731859473 -0.2624009925450973 0 0.053158010572478251 -0.26777612517812432 0 0.0646939085167762 -0.2722383315448984 0 0.059449054433483903 -0.28956707473318272 0 0.051749435803858171 -0.27840569125857739 0 0.0646939085167762 -0.2722383315448984 0 0.051749435803858171 -0.27840569125857739 0 0.053158010572478251 -0.26777612517812432 0 0.053158010572478251 -0.26777612517812432 0 0.044229316934554799 -0.27218436537367241 0 0.04428054005230446 -0.26275141268032309 0 0.051749435803858171 -0.27840569125857739 0 0.053158010572478251 -0.26777612517812432 0 0.044229316934554799 -0.27218436537367241 0 0.044229316934554799 -0.27218436537367241 0 0.031885251388666561 -0.26470215361104171 0 0.04428054005230446 -0.26275141268032309 0 0.051749435803858171 -0.27840569125857739 0 0.044229316934554799 -0.27218436537367241 0 0.038396769586432553 -0.27977596087564799 0 0.044229316934554799 -0.27218436537367241 0 0.038396769586432553 -0.27977596087564799 0 0.029696712261103771 -0.27487286106778819 0 0.029398966714908509 -0.28692964748338379 0 0.038396769586432553 -0.27977596087564799 0 0.029696712261103771 -0.27487286106778819 0 0.044229316934554799 -0.27218436537367241 0 0.031885251388666561 -0.26470215361104171 0 0.029696712261103771 -0.27487286106778819 0 0.037315510146954597 -0.25849363249326118 0 0.031885251388666561 -0.26470215361104171 0 0.04428054005230446 -0.26275141268032309 0 0.037315510146954597 -0.25849363249326118 0 0.031885251388666561 -0.26470215361104171 0 0.03069464768829987 -0.25176037071845259 0 0.037315510146954597 -0.25849363249326118 0 0.04428054005230446 -0.26275141268032309 0 0.045372505498807933 -0.25408090721008542 0 0.045372505498807933 -0.25408090721008542 0 0.03069464768829987 -0.25176037071845259 0 0.042588116356466379 -0.2448823624008481 0 0.037315510146954597 -0.25849363249326118 0 0.045372505498807933 -0.25408090721008542 0 0.03069464768829987 -0.25176037071845259 0 0.031885251388666561 -0.26470215361104171 0 0.021199614426200629 -0.26114166245967918 0 0.019908913466960752 -0.27058631964059482 0 0.031885251388666561 -0.26470215361104171 0 0.03069464768829987 -0.25176037071845259 0 0.021199614426200629 -0.26114166245967918 0 0.03069464768829987 -0.25176037071845259 0 0.021199614426200629 -0.26114166245967918 0 0.016145176335298529 -0.25210595968411048 0 0.029398966714908509 -0.28692964748338379 0 0.029696712261103771 -0.27487286106778819 0 0.01908241754038794 -0.28073467218482329 0 0.031885251388666561 -0.26470215361104171 0 0.029696712261103771 -0.27487286106778819 0 0.019908913466960752 -0.27058631964059482 0 0.019908913466960752 -0.27058631964059482 0 0.01908241754038794 -0.28073467218482329 0 0.01128192931255503 -0.27464126756021451 0 0.029696712261103771 -0.27487286106778819 0 0.019908913466960752 -0.27058631964059482 0 0.01908241754038794 -0.28073467218482329 0 -0.01145854626600548 -0.26602311564559261 0 0.01128192931255503 -0.27464126756021451 0 0.0057158633005241696 -0.26337829885565528 0 0.0066437179820165657 -0.2861171845936395 0 0.01908241754038794 -0.28073467218482329 0 0.01128192931255503 -0.27464126756021451 0 0.019908913466960752 -0.27058631964059482 0 0.01128192931255503 -0.27464126756021451 0 0.0057158633005241696 -0.26337829885565528 0 -0.002848760243290064 -0.27761611820401882 0 0.0066437179820165657 -0.2861171845936395 0 0.01128192931255503 -0.27464126756021451 0 0.016145176335298529 -0.25210595968411048 0 0.0057158633005241696 -0.26337829885565528 0 0.0054759062840018038 -0.25064707341720888 0 0.021199614426200629 -0.26114166245967918 0 0.019908913466960752 -0.27058631964059482 0 0.0057158633005241696 -0.26337829885565528 0 0.021199614426200629 -0.26114166245967918 0 0.016145176335298529 -0.25210595968411048 0 0.0057158633005241696 -0.26337829885565528 0 -0.0009620894167222515 -0.25496392916579452 0 0.0057158633005241696 -0.26337829885565528 0 0.0054759062840018038 -0.25064707341720888 0 -0.0009620894167222515 -0.25496392916579452 0 -0.0029313858115674811 -0.24854412401401971 0 0.0054759062840018038 -0.25064707341720888 0 0.0054759062840018038 -0.25064707341720888 0 0.0026199421412959989 -0.2430643023623929 0 0.011589873569895199 -0.24127835128668559 0 -0.0029313858115674811 -0.24854412401401971 0 0.0054759062840018038 -0.25064707341720888 0 0.0026199421412959989 -0.2430643023623929 0 0.016145176335298529 -0.25210595968411048 0 0.0054759062840018038 -0.25064707341720888 0 0.011589873569895199 -0.24127835128668559 0 0.011589873569895199 -0.24127835128668559 0 0.010668172172219499 -0.2272828987723072 0 0.020574075722817331 -0.2351284197632682 0 0.0026199421412959989 -0.2430643023623929 0 0.011589873569895199 -0.24127835128668559 0 0.0017465435191736189 -0.23378549097037141 0 -0.00080535468136348092 -0.21995366459000901 0 0.010668172172219499 -0.2272828987723072 0 0.01016515501406726 -0.20926501301563591 0 -0.00080535468136348092 -0.21995366459000901 0 0.0017465435191736189 -0.23378549097037141 0 0.010668172172219499 -0.2272828987723072 0 0.010668172172219499 -0.2272828987723072 0 0.02170661161633574 -0.22145314359659171 0 0.01016515501406726 -0.20926501301563591 0 0.011589873569895199 -0.24127835128668559 0 0.0017465435191736189 -0.23378549097037141 0 0.010668172172219499 -0.2272828987723072 0 0.010668172172219499 -0.2272828987723072 0 0.02170661161633574 -0.22145314359659171 0 0.020574075722817331 -0.2351284197632682 0 0.02170661161633574 -0.22145314359659171 0 0.02866695829179056 -0.22960637228307629 0 0.036392787169896093 -0.22322562645731159 0 0.02170661161633574 -0.22145314359659171 0 0.02866695829179056 -0.22960637228307629 0 0.020574075722817331 -0.2351284197632682 0 0.02866695829179056 -0.22960637228307629 0 0.020574075722817331 -0.2351284197632682 0 0.032071787069821417 -0.24054619649286721 0 0.022195152742869501 -0.2444300013669817 0 0.020574075722817331 -0.2351284197632682 0 0.032071787069821417 -0.24054619649286721 0 0.03069464768829987 -0.25176037071845259 0 0.022195152742869501 -0.2444300013669817 0 0.032071787069821417 -0.24054619649286721 0 0.03069464768829987 -0.25176037071845259 0 0.016145176335298529 -0.25210595968411048 0 0.022195152742869501 -0.2444300013669817 0 0.016145176335298529 -0.25210595968411048 0 0.011589873569895199 -0.24127835128668559 0 0.022195152742869501 -0.2444300013669817 0 0.011589873569895199 -0.24127835128668559 0 0.022195152742869501 -0.2444300013669817 0 0.020574075722817331 -0.2351284197632682 0 -0.003739977245034012 -0.19168309442994089 0 0.010514116253606281 -0.1925853606064957 0 0.01016515501406726 -0.20926501301563591 0 0.010514116253606281 -0.1925853606064957 0 0.01016515501406726 -0.20926501301563591 0 0.018596641755985681 -0.20049862993462389 0 0.02170661161633574 -0.22145314359659171 0 0.01016515501406726 -0.20926501301563591 0 0.028304225500431591 -0.20785134554231141 0 0.01016515501406726 -0.20926501301563591 0 0.028304225500431591 -0.20785134554231141 0 0.018596641755985681 -0.20049862993462389 0 0.02170661161633574 -0.22145314359659171 0 0.028304225500431591 -0.20785134554231141 0 0.036392787169896093 -0.22322562645731159 0 0.028304225500431591 -0.20785134554231141 0 0.018596641755985681 -0.20049862993462389 0 0.02540307025583758 -0.19229280057405279 0 0.010514116253606281 -0.1925853606064957 0 0.018596641755985681 -0.20049862993462389 0 0.02540307025583758 -0.19229280057405279 0 0.010514116253606281 -0.1925853606064957 0 0.02540307025583758 -0.19229280057405279 0 0.015764016274472759 -0.1812646672695073 0 0.02540307025583758 -0.19229280057405279 0 0.041440672425083092 -0.19607701236864419 0 0.030421272951226121 -0.1778391783376792 0 0.028304225500431591 -0.20785134554231141 0 0.02540307025583758 -0.19229280057405279 0 0.041440672425083092 -0.19607701236864419 0 0.041440672425083092 -0.19607701236864419 0 0.042310424588804782 -0.2140630995529598 0 0.055497750511994078 -0.2086068857692274 0 0.028304225500431591 -0.20785134554231141 0 0.041440672425083092 -0.19607701236864419 0 0.042310424588804782 -0.2140630995529598 0 0.028304225500431591 -0.20785134554231141 0 0.042310424588804782 -0.2140630995529598 0 0.036392787169896093 -0.22322562645731159 0 0.042310424588804782 -0.2140630995529598 0 0.055497750511994078 -0.2086068857692274 0 0.052955454276687589 -0.2198291654371925 0 0.062338921595789062 -0.21792006704763969 0 0.055497750511994078 -0.2086068857692274 0 0.052955454276687589 -0.2198291654371925 0 0.062338921595789062 -0.21792006704763969 0 0.055497750511994078 -0.2086068857692274 0 0.067863046951983474 -0.20503048868511209 0 0.055497750511994078 -0.2086068857692274 0 0.056257937900538298 -0.19577788601322099 0 0.067863046951983474 -0.20503048868511209 0 0.041440672425083092 -0.19607701236864419 0 0.056257937900538298 -0.19577788601322099 0 0.051449240160577621 -0.1762857105508405 0 0.041440672425083092 -0.19607701236864419 0 0.055497750511994078 -0.2086068857692274 0 0.056257937900538298 -0.19577788601322099 0 0.040491861427302538 -0.2355872617630255 0 0.042588116356466379 -0.2448823624008481 0 0.052307832003780613 -0.23884346229351339 0 0.040491861427302538 -0.2355872617630255 0 0.045866106706223042 -0.22907627795895011 0 0.052307832003780613 -0.23884346229351339 0 0.03069464768829987 -0.25176037071845259 0 0.042588116356466379 -0.2448823624008481 0 0.032071787069821417 -0.24054619649286721 0 0.040491861427302538 -0.2355872617630255 0 0.042588116356466379 -0.2448823624008481 0 0.032071787069821417 -0.24054619649286721 0 0.02866695829179056 -0.22960637228307629 0 0.040491861427302538 -0.2355872617630255 0 0.032071787069821417 -0.24054619649286721 0 0.02866695829179056 -0.22960637228307629 0 0.040491861427302538 -0.2355872617630255 0 0.036392787169896093 -0.22322562645731159 0 0.042310424588804782 -0.2140630995529598 0 0.036392787169896093 -0.22322562645731159 0 0.045866106706223042 -0.22907627795895011 0 0.040491861427302538 -0.2355872617630255 0 0.036392787169896093 -0.22322562645731159 0 0.045866106706223042 -0.22907627795895011 0 0.045866106706223042 -0.22907627795895011 0 0.058764067980626958 -0.22947949685718549 0 0.052307832003780613 -0.23884346229351339 0 0.045866106706223042 -0.22907627795895011 0 0.052955454276687589 -0.2198291654371925 0 0.058764067980626958 -0.22947949685718549 0 0.042310424588804782 -0.2140630995529598 0 0.045866106706223042 -0.22907627795895011 0 0.052955454276687589 -0.2198291654371925 0 0.062338921595789062 -0.21792006704763969 0 0.058764067980626958 -0.22947949685718549 0 0.065719467571416057 -0.22489822263154319 0 0.062338921595789062 -0.21792006704763969 0 0.052955454276687589 -0.2198291654371925 0 0.058764067980626958 -0.22947949685718549 0 0.058764067980626958 -0.22947949685718549 0 0.062159259289524899 -0.2368834247622158 0 0.052307832003780613 -0.23884346229351339 0 0.062159259289524899 -0.2368834247622158 0 0.052307832003780613 -0.23884346229351339 0 0.061229972926465738 -0.2445427902389527 0 0.045372505498807933 -0.25408090721008542 0 0.042588116356466379 -0.2448823624008481 0 0.05268811686830014 -0.24901610311096159 0 0.042588116356466379 -0.2448823624008481 0 0.052307832003780613 -0.23884346229351339 0 0.05268811686830014 -0.24901610311096159 0 0.061490933840310687 -0.25382890142296882 0 0.05268811686830014 -0.24901610311096159 0 0.061229972926465738 -0.2445427902389527 0 0.052307832003780613 -0.23884346229351339 0 0.05268811686830014 -0.24901610311096159 0 0.061229972926465738 -0.2445427902389527 0 0.061490933840310687 -0.25382890142296882 0 0.061229972926465738 -0.2445427902389527 0 0.070069103552599196 -0.24823964670048029 0 0.061229972926465738 -0.2445427902389527 0 0.070069103552599196 -0.24823964670048029 0 0.069856411684105391 -0.23913895996007839 0 0.062159259289524899 -0.2368834247622158 0 0.061229972926465738 -0.2445427902389527 0 0.069856411684105391 -0.23913895996007839 0 0.062159259289524899 -0.2368834247622158 0 0.069856411684105391 -0.23913895996007839 0 0.067142239376285745 -0.23139328163069281 0 0.069856411684105391 -0.23913895996007839 0 0.077788170153509889 -0.24196191377257101 0 0.076767606518392539 -0.23187249677345001 0 0.080071368274292315 -0.25145738896057979 0 0.070069103552599196 -0.24823964670048029 0 0.077788170153509889 -0.24196191377257101 0 0.070069103552599196 -0.24823964670048029 0 0.069856411684105391 -0.23913895996007839 0 0.077788170153509889 -0.24196191377257101 0 0.080071368274292315 -0.25145738896057979 0 0.090706365013478091 -0.25245448435890872 0 0.085906732882507178 -0.24385162082211831 0 0.080071368274292315 -0.25145738896057979 0 0.077788170153509889 -0.24196191377257101 0 0.085906732882507178 -0.24385162082211831 0 0.077788170153509889 -0.24196191377257101 0 0.085906732882507178 -0.24385162082211831 0 0.083256636250354649 -0.23616880796388259 0 0.077788170153509889 -0.24196191377257101 0 0.083256636250354649 -0.23616880796388259 0 0.076767606518392539 -0.23187249677345001 0 0.085906732882507178 -0.24385162082211831 0 0.089657973372422345 -0.23730775202069579 0 0.094006026236525903 -0.2441335510050745 0 0.085906732882507178 -0.24385162082211831 0 0.083256636250354649 -0.23616880796388259 0 0.089657973372422345 -0.23730775202069579 0 0.083256636250354649 -0.23616880796388259 0 0.089657973372422345 -0.23730775202069579 0 0.089763789457938253 -0.2306791647953326 0 0.089657973372422345 -0.23730775202069579 0 0.089763789457938253 -0.2306791647953326 0 0.096012267649498176 -0.23702186761809721 0 0.089657973372422345 -0.23730775202069579 0 0.094006026236525903 -0.2441335510050745 0 0.096012267649498176 -0.23702186761809721 0 0.090706365013478091 -0.25245448435890872 0 0.085906732882507178 -0.24385162082211831 0 0.094006026236525903 -0.2441335510050745 0 0.086446736705125371 -0.22420087797706609 0 0.091303359373345411 -0.22339335178318359 0 0.089763789457938253 -0.2306791647953326 0 0.086446736705125371 -0.22420087797706609 0 0.091303359373345411 -0.22339335178318359 0 0.086853981468707001 -0.2185547472363609 0 0.091303359373345411 -0.22339335178318359 0 0.086853981468707001 -0.2185547472363609 0 0.09077468002378962 -0.21857675351640271 0 0.091303359373345411 -0.22339335178318359 0 0.09077468002378962 -0.21857675351640271 0 0.094530837428433365 -0.22086489816084981 0 0.091303359373345411 -0.22339335178318359 0 0.089763789457938253 -0.2306791647953326 0 0.098670227838192195 -0.22970514568366851 0 0.086446736705125371 -0.22420087797706609 0 0.089763789457938253 -0.2306791647953326 0 0.083020570332336119 -0.22791650227557511 0 0.083256636250354649 -0.23616880796388259 0 0.083020570332336119 -0.22791650227557511 0 0.076767606518392539 -0.23187249677345001 0 0.083256636250354649 -0.23616880796388259 0 0.089763789457938253 -0.2306791647953326 0 0.083020570332336119 -0.22791650227557511 0 0.083020570332336119 -0.22791650227557511 0 0.077930889523722374 -0.22519622511208121 0 0.076767606518392539 -0.23187249677345001 0 0.083020570332336119 -0.22791650227557511 0 0.081291982893300085 -0.22046062379487821 0 0.077930889523722374 -0.22519622511208121 0 0.086446736705125371 -0.22420087797706609 0 0.083020570332336119 -0.22791650227557511 0 0.081291982893300085 -0.22046062379487821 0 0.086446736705125371 -0.22420087797706609 0 0.081291982893300085 -0.22046062379487821 0 0.086853981468707001 -0.2185547472363609 0 0.081291982893300085 -0.22046062379487821 0 0.077930889523722374 -0.22519622511208121 0 0.073706539318973169 -0.21796036257100029 0 0.072234091795087663 -0.22574485878751241 0 0.065719467571416057 -0.22489822263154319 0 0.073706539318973169 -0.21796036257100029 0 0.077930889523722374 -0.22519622511208121 0 0.072234091795087663 -0.22574485878751241 0 0.073706539318973169 -0.21796036257100029 0 0.069856411684105391 -0.23913895996007839 0 0.076767606518392539 -0.23187249677345001 0 0.067142239376285745 -0.23139328163069281 0 0.072234091795087663 -0.22574485878751241 0 0.076767606518392539 -0.23187249677345001 0 0.067142239376285745 -0.23139328163069281 0 0.077930889523722374 -0.22519622511208121 0 0.072234091795087663 -0.22574485878751241 0 0.076767606518392539 -0.23187249677345001 0 0.058764067980626958 -0.22947949685718549 0 0.062159259289524899 -0.2368834247622158 0 0.067142239376285745 -0.23139328163069281 0 0.058764067980626958 -0.22947949685718549 0 0.067142239376285745 -0.23139328163069281 0 0.065719467571416057 -0.22489822263154319 0 0.072234091795087663 -0.22574485878751241 0 0.067142239376285745 -0.23139328163069281 0 0.065719467571416057 -0.22489822263154319 0 0.062338921595789062 -0.21792006704763969 0 0.065719467571416057 -0.22489822263154319 0 0.073706539318973169 -0.21796036257100029 0 0.062338921595789062 -0.21792006704763969 0 0.067863046951983474 -0.20503048868511209 0 0.073706539318973169 -0.21796036257100029 0 0.067863046951983474 -0.20503048868511209 0 0.073706539318973169 -0.21796036257100029 0 0.079094442607528917 -0.20913243433380641 0 0.067863046951983474 -0.20503048868511209 0 0.081482512553192915 -0.1953056794767786 0 0.079094442607528917 -0.20913243433380641 0 0.056257937900538298 -0.19577788601322099 0 0.067863046951983474 -0.20503048868511209 0 0.066040058368007956 -0.18964665730407451 0 0.067863046951983474 -0.20503048868511209 0 0.066040058368007956 -0.18964665730407451 0 0.081482512553192915 -0.1953056794767786 0 0.081482512553192915 -0.1953056794767786 0 0.095454742848087734 -0.19451486061966669 0 0.093505174579280592 -0.1731787749771625 0 0.081482512553192915 -0.1953056794767786 0 0.08833530696517819 -0.21036332105093219 0 0.095454742848087734 -0.19451486061966669 0 0.08833530696517819 -0.21036332105093219 0 0.097404311116896569 -0.21585094626217091 0 0.095454742848087734 -0.19451486061966669 0 0.081291982893300085 -0.22046062379487821 0 0.073706539318973169 -0.21796036257100029 0 0.082946926161669862 -0.2149195339015407 0 0.082946926161669862 -0.2149195339015407 0 0.079094442607528917 -0.20913243433380641 0 0.08833530696517819 -0.21036332105093219 0 0.073706539318973169 -0.21796036257100029 0 0.082946926161669862 -0.2149195339015407 0 0.079094442607528917 -0.20913243433380641 0 0.081291982893300085 -0.22046062379487821 0 0.082946926161669862 -0.2149195339015407 0 0.086853981468707001 -0.2185547472363609 0 0.081482512553192915 -0.1953056794767786 0 0.079094442607528917 -0.20913243433380641 0 0.08833530696517819 -0.21036332105093219 0 0.082946926161669862 -0.2149195339015407 0 0.08833530696517819 -0.21036332105093219 0 0.086853981468707001 -0.2185547472363609 0 0.08833530696517819 -0.21036332105093219 0 0.086853981468707001 -0.2185547472363609 0 0.09077468002378962 -0.21857675351640271 0 0.08833530696517819 -0.21036332105093219 0 0.09077468002378962 -0.21857675351640271 0 0.092213447725184278 -0.21529843562297729 0 0.08833530696517819 -0.21036332105093219 0 0.092213447725184278 -0.21529843562297729 0 0.097404311116896569 -0.21585094626217091 0 0.09077468002378962 -0.21857675351640271 0 0.094501608789943028 -0.21679829355882299 0 0.094530837428433365 -0.22086489816084981 0 0.09077468002378962 -0.21857675351640271 0 0.092213447725184278 -0.21529843562297729 0 0.094501608789943028 -0.21679829355882299 0 0.094501608789943028 -0.21679829355882299 0 0.097404311116896569 -0.21585094626217091 0 0.094530837428433365 -0.22086489816084981 0 0.092213447725184278 -0.21529843562297729 0 0.094501608789943028 -0.21679829355882299 0 0.097404311116896569 -0.21585094626217091 0 0.097404311116896569 -0.21585094626217091 0 0.095454742848087734 -0.19451486061966669 0 0.097404311116896569 -0.21585094626217091 0 0.1059898830346106 -0.20430933332548051 0 0.095454742848087734 -0.19451486061966669 0 0.097404311116896569 -0.21585094626217091 0 0.1089347031997706 -0.21297733173581901 0 0.1146171121197104 -0.21980430615730401 0 0.097404311116896569 -0.21585094626217091 0 0.1059898830346106 -0.20430933332548051 0 0.1089347031997706 -0.21297733173581901 0 0.095454742848087734 -0.19451486061966669 0 0.1128143282819509 -0.19216489626002589 0 0.10772522460311169 -0.17968171223372481 0 0.1059898830346106 -0.20430933332548051 0 0.095454742848087734 -0.19451486061966669 0 0.1128143282819509 -0.19216489626002589 0 0.1128143282819509 -0.19216489626002589 0 0.1237689835273371 -0.19605207676116951 0 0.1178461100078927 -0.20838697738218431 0 0.1059898830346106 -0.20430933332548051 0 0.1128143282819509 -0.19216489626002589 0 0.1178461100078927 -0.20838697738218431 0 0.1128143282819509 -0.19216489626002589 0 0.1237689835273371 -0.19605207676116951 0 0.1232013989280239 -0.1819146573535104 0 0.1089347031997706 -0.21297733173581901 0 0.1178461100078927 -0.20838697738218431 0 0.1146171121197104 -0.21980430615730401 0 0.1059898830346106 -0.20430933332548051 0 0.1089347031997706 -0.21297733173581901 0 0.1178461100078927 -0.20838697738218431 0 0.1178461100078927 -0.20838697738218431 0 0.1146171121197104 -0.21980430615730401 0 0.12895394136930069 -0.22163642029703709 0 0.1146171121197104 -0.21980430615730401 0 0.12018370186474731 -0.23305432747703519 0 0.12895394136930069 -0.22163642029703709 0 0.097404311116896569 -0.21585094626217091 0 0.1146171121197104 -0.21980430615730401 0 0.12018370186474731 -0.23305432747703519 0 0.1212054647883809 -0.25073068226796852 0 0.12018370186474731 -0.23305432747703519 0 0.1059281586602189 -0.23527494890652931 0 0.13217397618885759 -0.25462043987800831 0 0.1212054647883809 -0.25073068226796852 0 0.12018370186474731 -0.23305432747703519 0 0.1212054647883809 -0.25073068226796852 0 0.1059281586602189 -0.23527494890652931 0 0.1078238037173969 -0.24832262031645649 0 0.1212054647883809 -0.25073068226796852 0 0.1059281586602189 -0.23527494890652931 0 0.099550463170151926 -0.25262580003909579 0 0.1078238037173969 -0.24832262031645649 0 0.10103467245524091 -0.24298905409433241 0 0.1059281586602189 -0.23527494890652931 0 0.1078238037173969 -0.24832262031645649 0 0.10103467245524091 -0.24298905409433241 0 0.099550463170151926 -0.25262580003909579 0 0.10103467245524091 -0.24298905409433241 0 0.094006026236525903 -0.2441335510050745 0 0.090706365013478091 -0.25245448435890872 0 0.099550463170151926 -0.25262580003909579 0 0.094006026236525903 -0.2441335510050745 0 0.1059281586602189 -0.23527494890652931 0 0.10103467245524091 -0.24298905409433241 0 0.096012267649498176 -0.23702186761809721 0 0.10103467245524091 -0.24298905409433241 0 0.094006026236525903 -0.2441335510050745 0 0.096012267649498176 -0.23702186761809721 0 0.1059281586602189 -0.23527494890652931 0 0.096012267649498176 -0.23702186761809721 0 0.098670227838192195 -0.22970514568366851 0 0.089763789457938253 -0.2306791647953326 0 0.096012267649498176 -0.23702186761809721 0 0.098670227838192195 -0.22970514568366851 0 0.097404311116896569 -0.21585094626217091 0 0.12018370186474731 -0.23305432747703519 0 0.097404311116896569 -0.21585094626217091 0 0.12018370186474731 -0.23305432747703519 0 0.1059281586602189 -0.23527494890652931 0 0.097404311116896569 -0.21585094626217091 0 0.1059281586602189 -0.23527494890652931 0 0.098670227838192195 -0.22970514568366851 0 0.091303359373345411 -0.22339335178318359 0 0.098670227838192195 -0.22970514568366851 0 0.094530837428433365 -0.22086489816084981 0 0.097404311116896569 -0.21585094626217091 0 0.098670227838192195 -0.22970514568366851 0 0.094530837428433365 -0.22086489816084981 0 0.097404311116896569 -0.21585094626217091 0 0.098670227838192195 -0.22970514568366851 0 0.1071373084330472 -0.14482826815459701 0 0.1035248479174861 -0.15311019857333261 0 0.098760878024456711 -0.14050656481393209 0 0.1071373084330472 -0.14482826815459701 0 0.1035248479174861 -0.15311019857333261 0 0.1121477659277255 -0.1503271840913511 0 0.1035248479174861 -0.15311019857333261 0 0.098760878024456711 -0.14050656481393209 0 0.091560400862706559 -0.15189516094014111 0 0.098760878024456711 -0.14050656481393209 0 0.099399694252258627 -0.1328638184600745 0 0.089615627146132512 -0.13061154690311971 0 0.099399694252258627 -0.1328638184600745 0 0.099525338641528904 -0.12611341339503321 0 0.089615627146132512 -0.13061154690311971 0 0.099525338641528904 -0.12611341339503321 0 0.1096969331969164 -0.13422374872821319 0 0.1121708616464093 -0.1216807098986791 0 0.099399694252258627 -0.1328638184600745 0 0.099525338641528904 -0.12611341339503321 0 0.1096969331969164 -0.13422374872821319 0 0.098760878024456711 -0.14050656481393209 0 0.099399694252258627 -0.1328638184600745 0 0.1096969331969164 -0.13422374872821319 0 0.1071373084330472 -0.14482826815459701 0 0.098760878024456711 -0.14050656481393209 0 0.1096969331969164 -0.13422374872821319 0 0.1096969331969164 -0.13422374872821319 0 0.1155243526086871 -0.14484298486410191 0 0.12532898621889721 -0.13663811256420449 0 0.1096969331969164 -0.13422374872821319 0 0.11997683785091839 -0.1276371159963853 0 0.12532898621889721 -0.13663811256420449 0 0.1096969331969164 -0.13422374872821319 0 0.11997683785091839 -0.1276371159963853 0 0.1121708616464093 -0.1216807098986791 0 0.1217036921304827 -0.1482443959076799 0 0.1155243526086871 -0.14484298486410191 0 0.12532898621889721 -0.13663811256420449 0 0.1217036921304827 -0.1482443959076799 0 0.1155243526086871 -0.14484298486410191 0 0.1179114041550178 -0.15136128022523329 0 0.1071373084330472 -0.14482826815459701 0 0.1155243526086871 -0.14484298486410191 0 0.1121477659277255 -0.1503271840913511 0 0.1071373084330472 -0.14482826815459701 0 0.1096969331969164 -0.13422374872821319 0 0.1155243526086871 -0.14484298486410191 0 0.1035248479174861 -0.15311019857333261 0 0.1121477659277255 -0.1503271840913511 0 0.1169082366172023 -0.15609331882735419 0 0.1155243526086871 -0.14484298486410191 0 0.1121477659277255 -0.1503271840913511 0 0.1179114041550178 -0.15136128022523329 0 0.1121477659277255 -0.1503271840913511 0 0.1169082366172023 -0.15609331882735419 0 0.1179114041550178 -0.15136128022523329 0 0.1169082366172023 -0.15609331882735419 0 0.1179114041550178 -0.15136128022523329 0 0.12324902196630889 -0.15465793599018671 0 0.1217036921304827 -0.1482443959076799 0 0.1179114041550178 -0.15136128022523329 0 0.12324902196630889 -0.15465793599018671 0 0.1217036921304827 -0.1482443959076799 0 0.12324902196630889 -0.15465793599018671 0 0.12831016946945831 -0.1492440347933528 0 0.1035248479174861 -0.15311019857333261 0 0.12443417021765769 -0.1709717485187108 0 0.1227471198665283 -0.15880086614903269 0 0.12098675462827781 -0.16200852072179159 0 0.1290045142054978 -0.1612372837293575 0 0.1035248479174861 -0.15311019857333261 0 0.12443417021765769 -0.1709717485187108 0 0.12083528946942131 -0.1711597280255607 0 0.1035248479174861 -0.15311019857333261 0 0.12098675462827781 -0.16200852072179159 0 0.12443417021765769 -0.1709717485187108 0 0.1035248479174861 -0.15311019857333261 0 0.1169082366172023 -0.15609331882735419 0 0.12098675462827781 -0.16200852072179159 0 0.1169082366172023 -0.15609331882735419 0 0.1227471198665283 -0.15880086614903269 0 0.12098675462827781 -0.16200852072179159 0 0.1169082366172023 -0.15609331882735419 0 0.12324902196630889 -0.15465793599018671 0 0.1227471198665283 -0.15880086614903269 0 0.12098675462827781 -0.16200852072179159 0 0.12443417021765769 -0.1709717485187108 0 0.12715697753007521 -0.16591248018761531 0 0.1128143282819509 -0.19216489626002589 0 0.1232013989280239 -0.1819146573535104 0 0.1157139550245927 -0.18029465614444529 0 0.12083528946942131 -0.1711597280255607 0 0.1232013989280239 -0.1819146573535104 0 0.1157139550245927 -0.18029465614444529 0 0.12443417021765769 -0.1709717485187108 0 0.12083528946942131 -0.1711597280255607 0 0.1232013989280239 -0.1819146573535104 0 0.12083528946942131 -0.1711597280255607 0 0.1157139550245927 -0.18029465614444529 0 0.10772522460311169 -0.17968171223372481 0 0.1128143282819509 -0.19216489626002589 0 0.1157139550245927 -0.18029465614444529 0 0.10772522460311169 -0.17968171223372481 0 0.095454742848087734 -0.19451486061966669 0 0.10772522460311169 -0.17968171223372481 0 0.093505174579280592 -0.1731787749771625 0 0.12083528946942131 -0.1711597280255607 0 0.093505174579280592 -0.1731787749771625 0 0.095454742848087734 -0.19451486061966669 0 0.093505174579280592 -0.1731787749771625 0 0.12083528946942131 -0.1711597280255607 0 0.10772522460311169 -0.17968171223372481 0 0.093505174579280592 -0.1731787749771625 0 0.1035248479174861 -0.15311019857333261 0 0.093505174579280592 -0.1731787749771625 0 0.091560400862706559 -0.15189516094014111 0 0.1035248479174861 -0.15311019857333261 0 0.12083528946942131 -0.1711597280255607 0 0.093505174579280592 -0.1731787749771625 0 0.078133883947979807 -0.15717501910519549 0 0.093505174579280592 -0.1731787749771625 0 0.091560400862706559 -0.15189516094014111 0 0.078133883947979807 -0.15717501910519549 0 0.093505174579280592 -0.1731787749771625 0 0.072477207369929117 -0.17473224276400179 0 0.093505174579280592 -0.1731787749771625 0 0.091560400862706559 -0.15189516094014111 0 0.081482512553192915 -0.1953056794767786 0 0.093505174579280592 -0.1731787749771625 0 0.072477207369929117 -0.17473224276400179 0 0.093505174579280592 -0.1731787749771625 0 0.072477207369929117 -0.17473224276400179 0 0.066040058368007956 -0.18964665730407451 0 0.072477207369929117 -0.17473224276400179 0 0.051449240160577621 -0.1762857105508405 0 0.066040058368007956 -0.18964665730407451 0 0.081482512553192915 -0.1953056794767786 0 0.072477207369929117 -0.17473224276400179 0 0.078133883947979807 -0.15717501910519549 0 0.072477207369929117 -0.17473224276400179 0 0.063878974636528515 -0.16401540189567099 0 0.072477207369929117 -0.17473224276400179 0 0.063878974636528515 -0.16401540189567099 0 0.051449240160577621 -0.1762857105508405 0 0.078133883947979807 -0.15717501910519549 0 0.063878974636528515 -0.16401540189567099 0 0.06522271263887458 -0.15305574504012881 0 0.06522271263887458 -0.15305574504012881 0 0.069316279952888193 -0.14186668388360371 0 0.075278834721760557 -0.14616760919767161 0 0.06522271263887458 -0.15305574504012881 0 0.069316279952888193 -0.14186668388360371 0 0.05757515479497001 -0.1486962131740798 0 0.069316279952888193 -0.14186668388360371 0 0.075278834721760557 -0.14616760919767161 0 0.079765110473415279 -0.13788087003968491 0 0.078133883947979807 -0.15717501910519549 0 0.06522271263887458 -0.15305574504012881 0 0.075278834721760557 -0.14616760919767161 0 0.098760878024456711 -0.14050656481393209 0 0.091560400862706559 -0.15189516094014111 0 0.089615627146132512 -0.13061154690311971 0 0.078133883947979807 -0.15717501910519549 0 0.083611330147541921 -0.14459745320402559 0 0.091560400862706559 -0.15189516094014111 0 0.091560400862706559 -0.15189516094014111 0 0.089615627146132512 -0.13061154690311971 0 0.078133883947979807 -0.15717501910519549 0 0.075278834721760557 -0.14616760919767161 0 0.083611330147541921 -0.14459745320402559 0 0.083611330147541921 -0.14459745320402559 0 0.091560400862706559 -0.15189516094014111 0 0.089615627146132512 -0.13061154690311971 0 0.075278834721760557 -0.14616760919767161 0 0.083611330147541921 -0.14459745320402559 0 0.079765110473415279 -0.13788087003968491 0 0.099525338641528904 -0.12611341339503321 0 0.089615627146132512 -0.13061154690311971 0 0.081894058627025895 -0.12584863130967919 0 0.083611330147541921 -0.14459745320402559 0 0.089615627146132512 -0.13061154690311971 0 0.079765110473415279 -0.13788087003968491 0 0.089615627146132512 -0.13061154690311971 0 0.079765110473415279 -0.13788087003968491 0 0.081894058627025895 -0.12584863130967919 0 0.081894058627025895 -0.12584863130967919 0 0.065576399090336079 -0.13067912082877309 0 0.057907204523981459 -0.13951585418161591 0 0.081894058627025895 -0.12584863130967919 0 0.057907204523981459 -0.13951585418161591 0 0.069316279952888193 -0.14186668388360371 0 0.081894058627025895 -0.12584863130967919 0 0.057907204523981459 -0.13951585418161591 0 0.081894058627025895 -0.12584863130967919 0 0.068207364780656948 -0.12563827965844471 0 0.065576399090336079 -0.13067912082877309 0 0.069316279952888193 -0.14186668388360371 0 0.079765110473415279 -0.13788087003968491 0 0.081894058627025895 -0.12584863130967919 0 0.068207364780656948 -0.12563827965844471 0 0.065576399090336079 -0.13067912082877309 0 0.054296968429680029 -0.13171371816535249 0 0.054296968429680029 -0.13171371816535249 0 0.057907204523981459 -0.13951585418161591 0 0.034849001543539322 -0.1503583031021323 0 0.054296968429680029 -0.13171371816535249 0 0.045553716665441668 -0.12681104972785159 0 0.052448498866582129 -0.1166826243517366 0 0.065576399090336079 -0.13067912082877309 0 0.054296968429680029 -0.13171371816535249 0 0.057907204523981459 -0.13951585418161591 0 0.069316279952888193 -0.14186668388360371 0 0.057907204523981459 -0.13951585418161591 0 0.05757515479497001 -0.1486962131740798 0 0.06522271263887458 -0.15305574504012881 0 0.05757515479497001 -0.1486962131740798 0 0.052111829065281459 -0.15882829201818821 0 0.046808539919221563 -0.15014413002933799 0 0.052111829065281459 -0.15882829201818821 0 0.043031393960321331 -0.1571354857308308 0 0.05757515479497001 -0.1486962131740798 0 0.046808539919221563 -0.15014413002933799 0 0.052111829065281459 -0.15882829201818821 0 0.057907204523981459 -0.13951585418161591 0 0.05757515479497001 -0.1486962131740798 0 0.046808539919221563 -0.15014413002933799 0 0.057907204523981459 -0.13951585418161591 0 0.046808539919221563 -0.15014413002933799 0 0.033920350420936912 -0.1531830770535528 0 0.057907204523981459 -0.13951585418161591 0 0.034849001543539322 -0.1503583031021323 0 0.033920350420936912 -0.1531830770535528 0 0.054296968429680029 -0.13171371816535249 0 0.034849001543539322 -0.1503583031021323 0 0.038558521200612962 -0.14006542407622449 0 0.054296968429680029 -0.13171371816535249 0 0.034849001543539322 -0.1503583031021323 0 0.057907204523981459 -0.13951585418161591 0 0.033920350420936912 -0.1531830770535528 0 0.046808539919221563 -0.15014413002933799 0 0.040219483271594643 -0.15466785876887121 0 0.033920350420936912 -0.1531830770535528 0 0.046808539919221563 -0.15014413002933799 0 0.040219483271594643 -0.15466785876887121 0 0.043031393960321331 -0.1571354857308308 0 0.040219483271594643 -0.15466785876887121 0 0.033920350420936912 -0.1531830770535528 0 0.037117648785898759 -0.15820874226176301 0 0.034849001543539322 -0.1503583031021323 0 0.031672068294339203 -0.14528428076340441 0 0.030051573782975471 -0.15027594372919439 0 0.034849001543539322 -0.1503583031021323 0 0.033920350420936912 -0.1531830770535528 0 0.030051573782975471 -0.15027594372919439 0 0.034849001543539322 -0.1503583031021323 0 0.031672068294339203 -0.14528428076340441 0 0.038558521200612962 -0.14006542407622449 0 0.031672068294339203 -0.14528428076340441 0 0.038558521200612962 -0.14006542407622449 0 0.030566093298411881 -0.13865773310914861 0 0.054296968429680029 -0.13171371816535249 0 0.038558521200612962 -0.14006542407622449 0 0.040644455285911409 -0.1338393175667463 0 0.038558521200612962 -0.14006542407622449 0 0.040644455285911409 -0.1338393175667463 0 0.030566093298411881 -0.13865773310914861 0 0.034824944079593127 -0.12500853882757099 0 0.040644455285911409 -0.1338393175667463 0 0.030566093298411881 -0.13865773310914861 0 0.034824944079593127 -0.12500853882757099 0 0.045553716665441668 -0.12681104972785159 0 0.040644455285911409 -0.1338393175667463 0 0.054296968429680029 -0.13171371816535249 0 0.045553716665441668 -0.12681104972785159 0 0.040644455285911409 -0.1338393175667463 0 0.072477207369929117 -0.17473224276400179 0 0.051449240160577621 -0.1762857105508405 0 0.056257937900538298 -0.19577788601322099 0 0.066040058368007956 -0.18964665730407451 0 0.051449240160577621 -0.1762857105508405 0 0.063878974636528515 -0.16401540189567099 0 0.051449240160577621 -0.1762857105508405 0 0.052111829065281459 -0.15882829201818821 0 0.051449240160577621 -0.1762857105508405 0 0.052111829065281459 -0.15882829201818821 0 0.040502396519655252 -0.1663673850483231 0 0.063878974636528515 -0.16401540189567099 0 0.06522271263887458 -0.15305574504012881 0 0.052111829065281459 -0.15882829201818821 0 0.043031393960321331 -0.1571354857308308 0 0.037117648785898759 -0.15820874226176301 0 0.040502396519655252 -0.1663673850483231 0 0.052111829065281459 -0.15882829201818821 0 0.043031393960321331 -0.1571354857308308 0 0.040502396519655252 -0.1663673850483231 0 0.040219483271594643 -0.15466785876887121 0 0.043031393960321331 -0.1571354857308308 0 0.037117648785898759 -0.15820874226176301 0 0.033920350420936912 -0.1531830770535528 0 0.033509818979212957 -0.15868168045615499 0 0.027465449436243041 -0.1628752445715565 0 0.037117648785898759 -0.15820874226176301 0 0.034071859908748191 -0.1623715567021686 0 0.040502396519655252 -0.1663673850483231 0 0.033920350420936912 -0.1531830770535528 0 0.037117648785898759 -0.15820874226176301 0 0.033509818979212957 -0.15868168045615499 0 0.037117648785898759 -0.15820874226176301 0 0.033509818979212957 -0.15868168045615499 0 0.034071859908748191 -0.1623715567021686 0 0.033509818979212957 -0.15868168045615499 0 0.034071859908748191 -0.1623715567021686 0 0.027465449436243041 -0.1628752445715565 0 0.031586668938662611 -0.1691709391612749 0 0.040502396519655252 -0.1663673850483231 0 0.030421272951226121 -0.1778391783376792 0 0.034071859908748191 -0.1623715567021686 0 0.031586668938662611 -0.1691709391612749 0 0.040502396519655252 -0.1663673850483231 0 0.051449240160577621 -0.1762857105508405 0 0.040502396519655252 -0.1663673850483231 0 0.030421272951226121 -0.1778391783376792 0 0.041440672425083092 -0.19607701236864419 0 0.051449240160577621 -0.1762857105508405 0 0.030421272951226121 -0.1778391783376792 0 0.051449240160577621 -0.1762857105508405 0 0.030421272951226121 -0.1778391783376792 0 0.02540307025583758 -0.19229280057405279 0 0.015764016274472759 -0.1812646672695073 0 0.030421272951226121 -0.1778391783376792 0 0.031586668938662611 -0.1691709391612749 0 0.030421272951226121 -0.1778391783376792 0 0.021575687727073561 -0.1734893605992324 0 0.015764016274472759 -0.1812646672695073 0 0.021575687727073561 -0.1734893605992324 0 0.012676990919703311 -0.16924925594887871 0 0.015764016274472759 -0.1812646672695073 0 0.030421272951226121 -0.1778391783376792 0 0.021575687727073561 -0.1734893605992324 0 0.033920350420936912 -0.1531830770535528 0 0.009933496317892726 -0.16685029992549011 0 0.02294500892830088 -0.1542832107784407 0 0.033920350420936912 -0.1531830770535528 0 0.027465449436243041 -0.1628752445715565 0 0.009933496317892726 -0.16685029992549011 0 0.019596439448784399 -0.16744493330375371 0 0.027465449436243041 -0.1628752445715565 0 0.009933496317892726 -0.16685029992549011 0 0.033920350420936912 -0.1531830770535528 0 0.009933496317892726 -0.16685029992549011 0 0.021575687727073561 -0.1734893605992324 0 0.019596439448784399 -0.16744493330375371 0 0.012676990919703311 -0.16924925594887871 0 0.021575687727073561 -0.1734893605992324 0 0.019596439448784399 -0.16744493330375371 0 0.025540403417393751 -0.1677775419388785 0 0.031586668938662611 -0.1691709391612749 0 0.021575687727073561 -0.1734893605992324 0 0.025540403417393751 -0.1677775419388785 0 0.019596439448784399 -0.16744493330375371 0 0.025540403417393751 -0.1677775419388785 0 0.027465449436243041 -0.1628752445715565 0 0.034071859908748191 -0.1623715567021686 0 0.031586668938662611 -0.1691709391612749 0 0.027465449436243041 -0.1628752445715565 0 0.031586668938662611 -0.1691709391612749 0 0.025540403417393751 -0.1677775419388785 0 0.027465449436243041 -0.1628752445715565 0 0.009933496317892726 -0.16685029992549011 0 0.01648447247354291 -0.15404273338364399 0 0.02294500892830088 -0.1542832107784407 0 0.009933496317892726 -0.16685029992549011 0 0.01648447247354291 -0.15404273338364399 0 0.0068311679390763679 -0.1533437069849535 0 0.019596439448784399 -0.16744493330375371 0 0.009933496317892726 -0.16685029992549011 0 0.012676990919703311 -0.16924925594887871 0 0.009933496317892726 -0.16685029992549011 0 0.012676990919703311 -0.16924925594887871 0 0.0034571977838801569 -0.17702496179755631 0 0.009933496317892726 -0.16685029992549011 0 0.012676990919703311 -0.16924925594887871 0 -0.0085976242789068957 -0.177408956520272 0 0.009933496317892726 -0.16685029992549011 0 -0.0085976242789068957 -0.177408956520272 0 0.009933496317892726 -0.16685029992549011 0 0.0034571977838801569 -0.17702496179755631 0 0.015764016274472759 -0.1812646672695073 0 0.012676990919703311 -0.16924925594887871 0 0.0034571977838801569 -0.17702496179755631 0 -0.003739977245034012 -0.19168309442994089 0 0.010514116253606281 -0.1925853606064957 0 0.0034571977838801569 -0.17702496179755631 0 0.010514116253606281 -0.1925853606064957 0 0.015764016274472759 -0.1812646672695073 0 0.0034571977838801569 -0.17702496179755631 0 0.02166725362828328 -0.1398342401410575 0 0.019282665512654749 -0.1297026577714144 0 0.01241268948209219 -0.14437852502616319 0 0.034824944079593127 -0.12500853882757099 0 0.019282665512654749 -0.1297026577714144 0 0.030566093298411881 -0.13865773310914861 0 0.02166725362828328 -0.1398342401410575 0 0.019282665512654749 -0.1297026577714144 0 0.030566093298411881 -0.13865773310914861 0 0.031672068294339203 -0.14528428076340441 0 0.030566093298411881 -0.13865773310914861 0 0.024335151646156381 -0.14706399980032239 0 0.02166725362828328 -0.1398342401410575 0 0.030566093298411881 -0.13865773310914861 0 0.024335151646156381 -0.14706399980032239 0 0.031672068294339203 -0.14528428076340441 0 0.024335151646156381 -0.14706399980032239 0 0.030051573782975471 -0.15027594372919439 0 0.033920350420936912 -0.1531830770535528 0 0.030051573782975471 -0.15027594372919439 0 0.02294500892830088 -0.1542832107784407 0 0.024335151646156381 -0.14706399980032239 0 0.030051573782975471 -0.15027594372919439 0 0.02294500892830088 -0.1542832107784407 0 0.024335151646156381 -0.14706399980032239 0 0.01648447247354291 -0.15404273338364399 0 0.01241268948209219 -0.14437852502616319 0 0.024335151646156381 -0.14706399980032239 0 0.01648447247354291 -0.15404273338364399 0 0.02294500892830088 -0.1542832107784407 0 0.02166725362828328 -0.1398342401410575 0 0.024335151646156381 -0.14706399980032239 0 0.01241268948209219 -0.14437852502616319 0 -0.011505986517222349 -0.14810326960451681 0 0.01241268948209219 -0.14437852502616319 0 0.0068311679390763679 -0.1533437069849535 0 -0.011505986517222349 -0.14810326960451681 0 0.009933496317892726 -0.16685029992549011 0 0.0068311679390763679 -0.1533437069849535 0 -0.011505986517222349 -0.14810326960451681 0 0.01241268948209219 -0.14437852502616319 0 0.0027021066240326768 -0.1317064378292063 0 0.01648447247354291 -0.15404273338364399 0 0.01241268948209219 -0.14437852502616319 0 0.0068311679390763679 -0.1533437069849535 0 0.019282665512654749 -0.1297026577714144 0 0.01241268948209219 -0.14437852502616319 0 0.0027021066240326768 -0.1317064378292063 0 0.019282665512654749 -0.1297026577714144 0 0.0027021066240326768 -0.1317064378292063 0 0.005085065621477718 -0.1151057880332567 0 0.019282665512654749 -0.1297026577714144 0 0.005085065621477718 -0.1151057880332567 0 0.024129304522527751 -0.1089818526354679 0 0.034824944079593127 -0.12500853882757099 0 0.019282665512654749 -0.1297026577714144 0 0.024129304522527751 -0.1089818526354679 0 0.024129304522527751 -0.1089818526354679 0 0.01380815825635252 -0.094132232187142617 0 0.031293966725895003 -0.08518965294817829 0 -0.00044729776891663488 -0.1011528385718463 0 0.005085065621477718 -0.1151057880332567 0 0.01380815825635252 -0.094132232187142617 0 0.005085065621477718 -0.1151057880332567 0 0.024129304522527751 -0.1089818526354679 0 0.01380815825635252 -0.094132232187142617 0 0.01380815825635252 -0.094132232187142617 0 0.0042106568376920582 -0.081118225430045127 0 0.020039989671696231 -0.071989185162356889 0 -0.00044729776891663488 -0.1011528385718463 0 0.01380815825635252 -0.094132232187142617 0 0.0042106568376920582 -0.081118225430045127 0 0.0042106568376920582 -0.081118225430045127 0 0.0052181775422467033 -0.064346337314722044 0 0.020039989671696231 -0.071989185162356889 0 -0.0043762627118289626 -0.071729097412358583 0 0.0042106568376920582 -0.081118225430045127 0 0.0052181775422467033 -0.064346337314722044 0 0.0052181775422467033 -0.064346337314722044 0 0.020039989671696231 -0.071989185162356889 0 0.0052181775422467033 -0.064346337314722044 0 0.020039989671696231 -0.071989185162356889 0 0.017880224012190679 -0.058506375123621113 0 0.020039989671696231 -0.071989185162356889 0 0.017880224012190679 -0.058506375123621113 0 0.035073137211611732 -0.060365082031122411 0 0.020039989671696231 -0.071989185162356889 0 0.031293966725895003 -0.08518965294817829 0 0.035073137211611732 -0.060365082031122411 0 0.01380815825635252 -0.094132232187142617 0 0.020039989671696231 -0.071989185162356889 0 0.031293966725895003 -0.08518965294817829 0 0.031293966725895003 -0.08518965294817829 0 0.050629459546369923 -0.074776417317023003 0 0.042727201812981508 -0.099892478072297022 0 0.050629459546369923 -0.074776417317023003 0 0.042727201812981508 -0.099892478072297022 0 0.031293966725895003 -0.08518965294817829 0 0.050629459546369923 -0.074776417317023003 0 0.035073137211611732 -0.060365082031122411 0 0.050629459546369923 -0.074776417317023003 0 0.058531717279758283 -0.049660356561749108 0 0.072219385832792832 -0.066659644627356851 0 0.050629459546369923 -0.074776417317023003 0 0.042727201812981508 -0.099892478072297022 0 0.069701838591585213 -0.089386546866783212 0 0.059655618646742382 -0.10475769562984739 0 0.052448498866582129 -0.1166826243517366 0 0.042727201812981508 -0.099892478072297022 0 0.059655618646742382 -0.10475769562984739 0 0.042727201812981508 -0.099892478072297022 0 0.069701838591585213 -0.089386546866783212 0 0.054296968429680029 -0.13171371816535249 0 0.052448498866582129 -0.1166826243517366 0 0.073744935315820714 -0.1130691332285727 0 0.059655618646742382 -0.10475769562984739 0 0.052448498866582129 -0.1166826243517366 0 0.073744935315820714 -0.1130691332285727 0 0.034824944079593127 -0.12500853882757099 0 0.045553716665441668 -0.12681104972785159 0 0.052448498866582129 -0.1166826243517366 0 0.034824944079593127 -0.12500853882757099 0 0.052448498866582129 -0.1166826243517366 0 0.042727201812981508 -0.099892478072297022 0 0.034824944079593127 -0.12500853882757099 0 0.024129304522527751 -0.1089818526354679 0 0.042727201812981508 -0.099892478072297022 0 0.034824944079593127 -0.12500853882757099 0 0.042727201812981508 -0.099892478072297022 0 0.024129304522527751 -0.1089818526354679 0 0.031293966725895003 -0.08518965294817829 0 0.042727201812981508 -0.099892478072297022 0 0.034885408484197772 0.0062912350017927032 0 0.01265631079038235 -0.01012693536007268 0 0.042517259973231587 -0.011683923625132649 0 -0.00118246574067416 -0.01324232368796026 0 0.0012074066645448821 -0.00065723147797176382 0 0.01265631079038235 -0.01012693536007268 0 0.01265631079038235 -0.01012693536007268 0 0.02406773205363014 -0.026959444655171291 0 0.0015263381015913891 -0.033415212413580753 0 0.01265631079038235 -0.01012693536007268 0 0.0015263381015913891 -0.033415212413580753 0 -0.00118246574067416 -0.01324232368796026 0 0.01265631079038235 -0.01012693536007268 0 0.0015263381015913891 -0.033415212413580753 0 0.01265631079038235 -0.01012693536007268 0 0.02406773205363014 -0.026959444655171291 0 0.042517259973231587 -0.011683923625132649 0 0.02406773205363014 -0.026959444655171291 0 0.021771409900077709 -0.044354063799483319 0 0.04186734150286768 -0.035217088077587062 0 0.02406773205363014 -0.026959444655171291 0 0.021771409900077709 -0.044354063799483319 0 0.0015263381015913891 -0.033415212413580753 0 0.021771409900077709 -0.044354063799483319 0 0.0015263381015913891 -0.033415212413580753 0 0.007298405735321048 -0.051477207310420908 0 -0.0096036345872028556 -0.056703489467087059 0 0.0052181775422467033 -0.064346337314722044 0 0.007298405735321048 -0.051477207310420908 0 0.0052181775422467033 -0.064346337314722044 0 0.007298405735321048 -0.051477207310420908 0 0.017880224012190679 -0.058506375123621113 0 0.021771409900077709 -0.044354063799483319 0 0.017880224012190679 -0.058506375123621113 0 0.035073137211611732 -0.060365082031122411 0 0.021771409900077709 -0.044354063799483319 0 0.007298405735321048 -0.051477207310420908 0 0.017880224012190679 -0.058506375123621113 0 0.035073137211611732 -0.060365082031122411 0 0.058531717279758283 -0.049660356561749108 0 0.04186734150286768 -0.035217088077587062 0 0.050629459546369923 -0.074776417317023003 0 0.058531717279758283 -0.049660356561749108 0 0.050629459546369923 -0.074776417317023003 0 0.035073137211611732 -0.060365082031122411 0 0.058531717279758283 -0.049660356561749108 0 0.058531717279758283 -0.049660356561749108 0 0.066433975013146629 -0.02454429580647528 0 0.058531717279758283 -0.049660356561749108 0 0.04186734150286768 -0.035217088077587062 0 0.066433975013146629 -0.02454429580647528 0 0.021771409900077709 -0.044354063799483319 0 0.035073137211611732 -0.060365082031122411 0 0.04186734150286768 -0.035217088077587062 0 0.02406773205363014 -0.026959444655171291 0 0.04186734150286768 -0.035217088077587062 0 0.042517259973231587 -0.011683923625132649 0 0.04186734150286768 -0.035217088077587062 0 0.042517259973231587 -0.011683923625132649 0 0.066433975013146629 -0.02454429580647528 0 0.052968053050369737 0.0090809173488315582 0 0.042517259973231587 -0.011683923625132649 0 0.067492943165135169 -0.0019794682467893379 0 0.042517259973231587 -0.011683923625132649 0 0.067492943165135169 -0.0019794682467893379 0 0.066433975013146629 -0.02454429580647528 0 0.087040675587819916 -0.0096101539263870796 0 0.066433975013146629 -0.02454429580647528 0 0.098032226742104309 -0.02831505409649597 0 0.083930998993742512 0.0059737405228527038 0 0.087040675587819916 -0.0096101539263870796 0 0.067492943165135169 -0.0019794682467893379 0 0.083930998993742512 0.0059737405228527038 0 0.098495163759696414 0.0029673617968291321 0 0.087040675587819916 -0.0096101539263870796 0 0.087040675587819916 -0.0096101539263870796 0 0.067492943165135169 -0.0019794682467893379 0 0.066433975013146629 -0.02454429580647528 0 0.066433975013146629 -0.02454429580647528 0 0.080663194565618018 -0.042742664855397232 0 0.098032226742104309 -0.02831505409649597 0 0.080663194565618018 -0.042742664855397232 0 0.099119978598511321 -0.045144617550746849 0 0.098032226742104309 -0.02831505409649597 0 0.058531717279758283 -0.049660356561749108 0 0.066433975013146629 -0.02454429580647528 0 0.080663194565618018 -0.042742664855397232 0 0.058531717279758283 -0.049660356561749108 0 0.080663194565618018 -0.042742664855397232 0 0.072219385832792832 -0.066659644627356851 0 0.080663194565618018 -0.042742664855397232 0 0.091985945990252393 -0.059557823171565508 0 0.072219385832792832 -0.066659644627356851 0 0.080663194565618018 -0.042742664855397232 0 0.091985945990252393 -0.059557823171565508 0 0.099119978598511321 -0.045144617550746849 0 0.091985945990252393 -0.059557823171565508 0 0.109385226414503 -0.056941989317685793 0 0.099119978598511321 -0.045144617550746849 0 0.109385226414503 -0.056941989317685793 0 0.1174221699598199 -0.069046986946925279 0 0.12664898879935529 -0.055605769639440771 0 0.109385226414503 -0.056941989317685793 0 0.1155332992800789 -0.038165556312589707 0 0.12664898879935529 -0.055605769639440771 0 0.1155332992800789 -0.038165556312589707 0 0.12954193793015309 -0.041748568408345607 0 0.12664898879935529 -0.055605769639440771 0 0.1155332992800789 -0.038165556312589707 0 0.1294320674019063 -0.023146095115484211 0 0.12954193793015309 -0.041748568408345607 0 0.109385226414503 -0.056941989317685793 0 0.1155332992800789 -0.038165556312589707 0 0.099119978598511321 -0.045144617550746849 0 0.1155332992800789 -0.038165556312589707 0 0.099119978598511321 -0.045144617550746849 0 0.098032226742104309 -0.02831505409649597 0 0.1155332992800789 -0.038165556312589707 0 0.098032226742104309 -0.02831505409649597 0 0.1112777463759113 -0.012222875866518469 0 0.087040675587819916 -0.0096101539263870796 0 0.098032226742104309 -0.02831505409649597 0 0.1112777463759113 -0.012222875866518469 0 0.1155332992800789 -0.038165556312589707 0 0.1112777463759113 -0.012222875866518469 0 0.1294320674019063 -0.023146095115484211 0 0.1158546052028349 0.0064685721448778594 0 0.13464870039648349 0.00080453217212592717 0 0.1112777463759113 -0.012222875866518469 0 0.098495163759696414 0.0029673617968291321 0 0.087040675587819916 -0.0096101539263870796 0 0.1112777463759113 -0.012222875866518469 0 0.1158546052028349 0.0064685721448778594 0 0.098495163759696414 0.0029673617968291321 0 0.1112777463759113 -0.012222875866518469 0 0.093192902201961414 -0.094424548291792879 0 0.088899626305776192 -0.1113374325741409 0 0.073744935315820714 -0.1130691332285727 0 0.093192902201961414 -0.094424548291792879 0 0.073744935315820714 -0.1130691332285727 0 0.069701838591585213 -0.089386546866783212 0 0.093192902201961414 -0.094424548291792879 0 0.073744935315820714 -0.1130691332285727 0 0.081894058627025895 -0.12584863130967919 0 0.088899626305776192 -0.1113374325741409 0 0.09397493983509804 -0.11322330148444169 0 0.081894058627025895 -0.12584863130967919 0 0.079920122843727764 -0.11786127252462281 0 0.075141871126288284 -0.1211898929860986 0 0.081894058627025895 -0.12584863130967919 0 0.088899626305776192 -0.1113374325741409 0 0.079920122843727764 -0.11786127252462281 0 0.088899626305776192 -0.1113374325741409 0 0.079920122843727764 -0.11786127252462281 0 0.073744935315820714 -0.1130691332285727 0 0.068207364780656948 -0.12563827965844471 0 0.054296968429680029 -0.13171371816535249 0 0.073744935315820714 -0.1130691332285727 0 0.054296968429680029 -0.13171371816535249 0 0.073744935315820714 -0.1130691332285727 0 0.068207364780656948 -0.12563827965844471 0 0.073744935315820714 -0.1130691332285727 0 0.075141871126288284 -0.1211898929860986 0 0.079920122843727764 -0.11786127252462281 0 0.073744935315820714 -0.1130691332285727 0 0.075141871126288284 -0.1211898929860986 0 0.081894058627025895 -0.12584863130967919 0 0.068207364780656948 -0.12563827965844471 0 0.075141871126288284 -0.1211898929860986 0 0.059655618646742382 -0.10475769562984739 0 0.073744935315820714 -0.1130691332285727 0 0.069701838591585213 -0.089386546866783212 0 0.050629459546369923 -0.074776417317023003 0 0.069701838591585213 -0.089386546866783212 0 0.072219385832792832 -0.066659644627356851 0 0.069701838591585213 -0.089386546866783212 0 0.072219385832792832 -0.066659644627356851 0 0.089711563165187497 -0.078251462936863553 0 0.091985945990252393 -0.059557823171565508 0 0.072219385832792832 -0.066659644627356851 0 0.089711563165187497 -0.078251462936863553 0 0.093192902201961414 -0.094424548291792879 0 0.069701838591585213 -0.089386546866783212 0 0.089711563165187497 -0.078251462936863553 0 0.093192902201961414 -0.094424548291792879 0 0.089711563165187497 -0.078251462936863553 0 0.1048667032735431 -0.089595599910983495 0 0.089711563165187497 -0.078251462936863553 0 0.1048667032735431 -0.089595599910983495 0 0.1056935618466131 -0.072691272791708894 0 0.1048667032735431 -0.089595599910983495 0 0.1056935618466131 -0.072691272791708894 0 0.11564058922802831 -0.08068930143821873 0 0.091985945990252393 -0.059557823171565508 0 0.089711563165187497 -0.078251462936863553 0 0.1056935618466131 -0.072691272791708894 0 0.091985945990252393 -0.059557823171565508 0 0.109385226414503 -0.056941989317685793 0 0.1056935618466131 -0.072691272791708894 0 0.1174221699598199 -0.069046986946925279 0 0.12840026197867099 -0.078951386265116219 0 0.12664898879935529 -0.055605769639440771 0 0.109385226414503 -0.056941989317685793 0 0.1056935618466131 -0.072691272791708894 0 0.1174221699598199 -0.069046986946925279 0 0.1056935618466131 -0.072691272791708894 0 0.1174221699598199 -0.069046986946925279 0 0.11564058922802831 -0.08068930143821873 0 0.1174221699598199 -0.069046986946925279 0 0.11564058922802831 -0.08068930143821873 0 0.12840026197867099 -0.078951386265116219 0 0.1048667032735431 -0.089595599910983495 0 0.11564058922802831 -0.08068930143821873 0 0.1191358060176364 -0.092450830711447801 0 0.1191358060176364 -0.092450830711447801 0 0.12840026197867099 -0.078951386265116219 0 0.11564058922802831 -0.08068930143821873 0 0.1191358060176364 -0.092450830711447801 0 0.12840026197867099 -0.078951386265116219 0 0.1058809127300703 -0.11218140843774239 0 0.12023297736745781 -0.1110263554770618 0 0.12986776683311119 -0.098514185565799078 0 0.1058809127300703 -0.11218140843774239 0 0.12986776683311119 -0.098514185565799078 0 0.1048667032735431 -0.089595599910983495 0 0.1191358060176364 -0.092450830711447801 0 0.10987135005660249 -0.1059502751577799 0 0.10987135005660249 -0.1059502751577799 0 0.1058809127300703 -0.11218140843774239 0 0.12986776683311119 -0.098514185565799078 0 0.1191358060176364 -0.092450830711447801 0 0.10987135005660249 -0.1059502751577799 0 0.12986776683311119 -0.098514185565799078 0 0.1191358060176364 -0.092450830711447801 0 0.10987135005660249 -0.1059502751577799 0 0.093192902201961414 -0.094424548291792879 0 0.088899626305776192 -0.1113374325741409 0 0.099225161677519755 -0.1035257336162041 0 0.1048667032735431 -0.089595599910983495 0 0.10987135005660249 -0.1059502751577799 0 0.099225161677519755 -0.1035257336162041 0 0.10987135005660249 -0.1059502751577799 0 0.099225161677519755 -0.1035257336162041 0 0.1058809127300703 -0.11218140843774239 0 0.088899626305776192 -0.1113374325741409 0 0.099225161677519755 -0.1035257336162041 0 0.09397493983509804 -0.11322330148444169 0 0.093192902201961414 -0.094424548291792879 0 0.1048667032735431 -0.089595599910983495 0 0.099225161677519755 -0.1035257336162041 0 0.081894058627025895 -0.12584863130967919 0 0.1058809127300703 -0.11218140843774239 0 0.099525338641528904 -0.12611341339503321 0 0.081894058627025895 -0.12584863130967919 0 0.1058809127300703 -0.11218140843774239 0 0.081894058627025895 -0.12584863130967919 0 0.09397493983509804 -0.11322330148444169 0 0.1058809127300703 -0.11218140843774239 0 0.099225161677519755 -0.1035257336162041 0 0.09397493983509804 -0.11322330148444169 0 0.1058809127300703 -0.11218140843774239 0 0.099525338641528904 -0.12611341339503321 0 0.1058809127300703 -0.11218140843774239 0 0.1121708616464093 -0.1216807098986791 0 0.1058809127300703 -0.11218140843774239 0 0.1121708616464093 -0.1216807098986791 0 0.12023297736745781 -0.1110263554770618 0 0.11997683785091839 -0.1276371159963853 0 0.121067612134044 -0.1214532534018402 0 0.13188977167139071 -0.12546883223523481 0 0.12023297736745781 -0.1110263554770618 0 0.121067612134044 -0.1214532534018402 0 0.13188977167139071 -0.12546883223523481 0 0.11997683785091839 -0.1276371159963853 0 0.1121708616464093 -0.1216807098986791 0 0.121067612134044 -0.1214532534018402 0 0.1121708616464093 -0.1216807098986791 0 0.12023297736745781 -0.1110263554770618 0 0.121067612134044 -0.1214532534018402 0 0.12023297736745781 -0.1110263554770618 0 0.12986776683311119 -0.098514185565799078 0 0.13188977167139071 -0.12546883223523481 0 0.12986776683311119 -0.098514185565799078 0 0.13188977167139071 -0.12546883223523481 0 0.14925441928633251 -0.10969288085116551 0 0.13995942417209239 -0.1034127274713456 0 0.13188977167139071 -0.12546883223523481 0 0.14724036225017881 -0.1245170930860646 0 0.14925441928633251 -0.10969288085116551 0 0.13188977167139071 -0.12546883223523481 0 0.14925441928633251 -0.10969288085116551 0 0.15485465026004211 -0.11932571079310079 0 0.15999890680388329 -0.1096406796162286 0 0.14724036225017881 -0.1245170930860646 0 0.15485465026004211 -0.11932571079310079 0 0.15557261582888751 -0.13003178131142151 0 0.14724036225017881 -0.1245170930860646 0 0.14925441928633251 -0.10969288085116551 0 0.15485465026004211 -0.11932571079310079 0 0.14925441928633251 -0.10969288085116551 0 0.14348993397904131 -0.092765062884646393 0 0.1620153957752187 -0.097165399419701551 0 0.14348993397904131 -0.092765062884646393 0 0.1620153957752187 -0.097165399419701551 0 0.14925441928633251 -0.10969288085116551 0 0.13995942417209239 -0.1034127274713456 0 0.14348993397904131 -0.092765062884646393 0 0.13995942417209239 -0.1034127274713456 0 0.12986776683311119 -0.098514185565799078 0 0.13188977167139071 -0.12546883223523481 0 0.13995942417209239 -0.1034127274713456 0 0.12986776683311119 -0.098514185565799078 0 0.14348993397904131 -0.092765062884646393 0 0.12986776683311119 -0.098514185565799078 0 0.12840026197867099 -0.078951386265116219 0 0.1428482005174804 -0.076716741777837147 0 0.1191358060176364 -0.092450830711447801 0 0.12986776683311119 -0.098514185565799078 0 0.12840026197867099 -0.078951386265116219 0 0.12986776683311119 -0.098514185565799078 0 0.12840026197867099 -0.078951386265116219 0 0.12840026197867099 -0.078951386265116219 0 0.12664898879935529 -0.055605769639440771 0 0.12840026197867099 -0.078951386265116219 0 0.12664898879935529 -0.055605769639440771 0 0.14464694777039611 -0.055277979731059648 0 0.12840026197867099 -0.078951386265116219 0 0.1428482005174804 -0.076716741777837147 0 0.14464694777039611 -0.055277979731059648 0 0.12840026197867099 -0.078951386265116219 0 0.14464694777039611 -0.055277979731059648 0 0.1428482005174804 -0.076716741777837147 0 0.15680899227989839 -0.06637062400294011 0 0.14464694777039611 -0.055277979731059648 0 0.1428482005174804 -0.076716741777837147 0 0.15451703372532541 -0.084469533324270707 0 0.15680899227989839 -0.06637062400294011 0 0.12986776683311119 -0.098514185565799078 0 0.15451703372532541 -0.084469533324270707 0 0.12986776683311119 -0.098514185565799078 0 0.14348993397904131 -0.092765062884646393 0 0.15451703372532541 -0.084469533324270707 0 0.14348993397904131 -0.092765062884646393 0 0.15451703372532541 -0.084469533324270707 0 0.1620153957752187 -0.097165399419701551 0 0.12986776683311119 -0.098514185565799078 0 0.1428482005174804 -0.076716741777837147 0 0.15451703372532541 -0.084469533324270707 0 0.15451703372532541 -0.084469533324270707 0 0.1674193516126988 -0.088794767656503876 0 0.1620153957752187 -0.097165399419701551 0 0.15451703372532541 -0.084469533324270707 0 0.1674193516126988 -0.088794767656503876 0 0.16389165652408541 -0.076485311925560115 0 0.1674193516126988 -0.088794767656503876 0 0.16389165652408541 -0.076485311925560115 0 0.17613181446746839 -0.084287857658230353 0 0.15451703372532541 -0.084469533324270707 0 0.15680899227989839 -0.06637062400294011 0 0.16389165652408541 -0.076485311925560115 0 0.16389165652408541 -0.076485311925560115 0 0.1717227713635387 -0.067009979361705274 0 0.17613181446746839 -0.084287857658230353 0 0.15680899227989839 -0.06637062400294011 0 0.16389165652408541 -0.076485311925560115 0 0.1717227713635387 -0.067009979361705274 0 0.15680899227989839 -0.06637062400294011 0 0.1717227713635387 -0.067009979361705274 0 0.1652446184022294 -0.054500080927008407 0 0.1717227713635387 -0.067009979361705274 0 0.17613181446746839 -0.084287857658230353 0 0.1717227713635387 -0.067009979361705274 0 0.18346211879182289 -0.064955309332027283 0 0.18137547142311691 -0.085525622921553163 0 0.18346211879182289 -0.064955309332027283 0 0.18137547142311691 -0.085525622921553163 0 0.1952329782378138 -0.068464889048657496 0 0.1717227713635387 -0.067009979361705274 0 0.18137547142311691 -0.085525622921553163 0 0.1717227713635387 -0.067009979361705274 0 0.18346211879182289 -0.064955309332027283 0 0.1746283364613696 -0.057560297553190053 0 0.18137547142311691 -0.085525622921553163 0 0.17613181446746839 -0.084287857658230353 0 0.18054085757139629 -0.1015657359547559 0 0.17613181446746839 -0.084287857658230353 0 0.18054085757139629 -0.1015657359547559 0 0.1674193516126988 -0.088794767656503876 0 0.17613181446746839 -0.084287857658230353 0 0.18054085757139629 -0.1015657359547559 0 0.1717227713635387 -0.067009979361705274 0 0.18137547142311691 -0.085525622921553163 0 0.17613181446746839 -0.084287857658230353 0 0.18137547142311691 -0.085525622921553163 0 0.19100769245097829 -0.1040519139747048 0 0.18137547142311691 -0.085525622921553163 0 0.18054085757139629 -0.1015657359547559 0 0.19100769245097829 -0.1040519139747048 0 0.18054085757139629 -0.1015657359547559 0 0.1749190978293893 -0.1165979942053425 0 0.16884250162088479 -0.1080310140379921 0 0.18054085757139629 -0.1015657359547559 0 0.19100769245097829 -0.1040519139747048 0 0.18054085757139629 -0.1015657359547559 0 0.1862357176231304 -0.1238823921021804 0 0.1749190978293893 -0.1165979942053425 0 0.18054085757139629 -0.1015657359547559 0 0.1862357176231304 -0.1238823921021804 0 0.19100769245097829 -0.1040519139747048 0 0.18054085757139629 -0.1015657359547559 0 0.1862357176231304 -0.1238823921021804 0 0.1862357176231304 -0.1238823921021804 0 0.1749190978293893 -0.1165979942053425 0 0.17324983187337631 -0.13165498831909611 0 0.1749190978293893 -0.1165979942053425 0 0.16471491079178111 -0.1205264202314431 0 0.16884250162088479 -0.1080310140379921 0 0.16471491079178111 -0.1205264202314431 0 0.15999890680388329 -0.1096406796162286 0 0.16884250162088479 -0.1080310140379921 0 0.1749190978293893 -0.1165979942053425 0 0.16471491079178111 -0.1205264202314431 0 0.17324983187337631 -0.13165498831909611 0 0.15485465026004211 -0.11932571079310079 0 0.16471491079178111 -0.1205264202314431 0 0.15557261582888751 -0.13003178131142151 0 0.15485465026004211 -0.11932571079310079 0 0.16471491079178111 -0.1205264202314431 0 0.15999890680388329 -0.1096406796162286 0 0.18054085757139629 -0.1015657359547559 0 0.1620153957752187 -0.097165399419701551 0 0.1674193516126988 -0.088794767656503876 0 0.18054085757139629 -0.1015657359547559 0 0.1620153957752187 -0.097165399419701551 0 0.14925441928633251 -0.10969288085116551 0 0.15999890680388329 -0.1096406796162286 0 0.1620153957752187 -0.097165399419701551 0 0.15999890680388329 -0.1096406796162286 0 0.1620153957752187 -0.097165399419701551 0 0.16884250162088479 -0.1080310140379921 0 0.18054085757139629 -0.1015657359547559 0 0.1620153957752187 -0.097165399419701551 0 0.16884250162088479 -0.1080310140379921 0 0.13464870039648349 0.00080453217212592717 0 0.15480995508657039 -0.001084596553268768 0 0.14892696920713289 -0.018041582065753459 0 0.13464870039648349 0.00080453217212592717 0 0.1294320674019063 -0.023146095115484211 0 0.14892696920713289 -0.018041582065753459 0 0.13464870039648349 0.00080453217212592717 0 0.1112777463759113 -0.012222875866518469 0 0.1294320674019063 -0.023146095115484211 0 0.1294320674019063 -0.023146095115484211 0 0.14892696920713289 -0.018041582065753459 0 0.14270131340979469 -0.036531096068384838 0 0.14892696920713289 -0.018041582065753459 0 0.14270131340979469 -0.036531096068384838 0 0.16089363356212191 -0.031604573197003549 0 0.14270131340979469 -0.036531096068384838 0 0.14464694777039611 -0.055277979731059648 0 0.16089363356212191 -0.031604573197003549 0 0.14464694777039611 -0.055277979731059648 0 0.15561449558007559 -0.051164132387281437 0 0.16089363356212191 -0.031604573197003549 0 0.14464694777039611 -0.055277979731059648 0 0.16089363356212191 -0.031604573197003549 0 0.14270131340979469 -0.036531096068384838 0 0.12954193793015309 -0.041748568408345607 0 0.14464694777039611 -0.055277979731059648 0 0.1294320674019063 -0.023146095115484211 0 0.14270131340979469 -0.036531096068384838 0 0.12954193793015309 -0.041748568408345607 0 0.12954193793015309 -0.041748568408345607 0 0.12664898879935529 -0.055605769639440771 0 0.14464694777039611 -0.055277979731059648 0 0.15680899227989839 -0.06637062400294011 0 0.14464694777039611 -0.055277979731059648 0 0.15561449558007559 -0.051164132387281437 0 0.15680899227989839 -0.06637062400294011 0 0.15561449558007559 -0.051164132387281437 0 0.1652446184022294 -0.054500080927008407 0 0.15561449558007559 -0.051164132387281437 0 0.1652446184022294 -0.054500080927008407 0 0.1617942405007988 -0.043199732881276223 0 0.1652446184022294 -0.054500080927008407 0 0.1746283364613696 -0.057560297553190053 0 0.1617942405007988 -0.043199732881276223 0 0.1717227713635387 -0.067009979361705274 0 0.1652446184022294 -0.054500080927008407 0 0.1717227713635387 -0.067009979361705274 0 0.1652446184022294 -0.054500080927008407 0 0.1746283364613696 -0.057560297553190053 0 0.1746283364613696 -0.057560297553190053 0 0.1828119860636557 -0.050363577362968731 0 0.1617942405007988 -0.043199732881276223 0 0.18346211879182289 -0.064955309332027283 0 0.1746283364613696 -0.057560297553190053 0 0.1828119860636557 -0.050363577362968731 0 0.18346211879182289 -0.064955309332027283 0 0.1828119860636557 -0.050363577362968731 0 0.19188844298534441 -0.056659859735039647 0 0.1617942405007988 -0.043199732881276223 0 0.18853740735089011 -0.033706188378118708 0 0.1828119860636557 -0.050363577362968731 0 0.1617942405007988 -0.043199732881276223 0 0.18853740735089011 -0.033706188378118708 0 0.15561449558007559 -0.051164132387281437 0 0.16089363356212191 -0.031604573197003549 0 0.1617942405007988 -0.043199732881276223 0 0.16089363356212191 -0.031604573197003549 0 0.1617942405007988 -0.043199732881276223 0 0.18853740735089011 -0.033706188378118708 0 0.16089363356212191 -0.031604573197003549 0 0.17714031935384769 -0.0079311666629475405 0 0.14892696920713289 -0.018041582065753459 0 0.16089363356212191 -0.031604573197003549 0 0.17714031935384769 -0.0079311666629475405 0 0.16089363356212191 -0.031604573197003549 0 0.17714031935384769 -0.0079311666629475405 0 0.18853740735089011 -0.033706188378118708 0 0.1657030786406338 0.0084270166623369204 0 0.15480995508657039 -0.001084596553268768 0 0.17714031935384769 -0.0079311666629475405 0 0.15480995508657039 -0.001084596553268768 0 0.14892696920713289 -0.018041582065753459 0 0.17714031935384769 -0.0079311666629475405 0 0.21351355446813719 -0.0021103410187178909 0 0.2110126965438916 -0.012672932103663791 0 0.2228246624943325 -0.0092295053444410857 0 0.2110126965438916 -0.012672932103663791 0 0.21911622703360889 -0.015650702578479541 0 0.2228246624943325 -0.0092295053444410857 0 0.21351355446813719 -0.0021103410187178909 0 0.2110126965438916 -0.012672932103663791 0 0.19836939172364151 -0.01016904411482358 0 0.1998105265397013 0.00335350757378736 0 0.21351355446813719 -0.0021103410187178909 0 0.19836939172364151 -0.01016904411482358 0 0.1998105265397013 0.00335350757378736 0 0.17714031935384769 -0.0079311666629475405 0 0.19836939172364151 -0.01016904411482358 0 0.17714031935384769 -0.0079311666629475405 0 0.19836939172364151 -0.01016904411482358 0 0.18853740735089011 -0.033706188378118708 0 0.2110126965438916 -0.012672932103663791 0 0.19836939172364151 -0.01016904411482358 0 0.18853740735089011 -0.033706188378118708 0 0.21528057420098159 -0.024212643874961401 0 0.18853740735089011 -0.033706188378118708 0 0.2110126965438916 -0.012672932103663791 0 0.21528057420098159 -0.024212643874961401 0 0.18853740735089011 -0.033706188378118708 0 0.21528057420098159 -0.024212643874961401 0 0.20886364623554921 -0.031523512657201581 0 0.18853740735089011 -0.033706188378118708 0 0.2110126965438916 -0.012672932103663791 0 0.21528057420098159 -0.024212643874961401 0 0.21911622703360889 -0.015650702578479541 0 0.21528057420098159 -0.024212643874961401 0 0.2158000993154765 -0.027276596113623111 0 0.21360323626451261 -0.02858374534336202 0 0.21528057420098159 -0.024212643874961401 0 0.2158000993154765 -0.027276596113623111 0 0.21995729679401421 -0.029331280632926501 0 0.2158000993154765 -0.027276596113623111 0 0.21503400689837671 -0.030930810510401429 0 0.21995729679401421 -0.029331280632926501 0 0.2158000993154765 -0.027276596113623111 0 0.21503400689837671 -0.030930810510401429 0 0.21360323626451261 -0.02858374534336202 0 0.21528057420098159 -0.024212643874961401 0 0.21360323626451261 -0.02858374534336202 0 0.20886364623554921 -0.031523512657201581 0 0.21503400689837671 -0.030930810510401429 0 0.21360323626451261 -0.02858374534336202 0 0.20886364623554921 -0.031523512657201581 0 0.2128060919330283 -0.035124071741943173 0 0.2180191377477218 -0.035203133534298187 0 0.2167024847658664 -0.043974661413588162 0 0.21503400689837671 -0.030930810510401429 0 0.2128060919330283 -0.035124071741943173 0 0.20886364623554921 -0.031523512657201581 0 0.21503400689837671 -0.030930810510401429 0 0.2128060919330283 -0.035124071741943173 0 0.2180191377477218 -0.035203133534298187 0 0.21503400689837671 -0.030930810510401429 0 0.2180191377477218 -0.035203133534298187 0 0.21995729679401421 -0.029331280632926501 0 0.2167024847658664 -0.043974661413588162 0 0.20890374551960481 -0.040729144831228678 0 0.20897987019450001 -0.050060865146210963 0 0.2128060919330283 -0.035124071741943173 0 0.2167024847658664 -0.043974661413588162 0 0.20890374551960481 -0.040729144831228678 0 0.20890374551960481 -0.040729144831228678 0 0.19655169947710091 -0.043788383486002072 0 0.20897987019450001 -0.050060865146210963 0 0.2128060919330283 -0.035124071741943173 0 0.20890374551960481 -0.040729144831228678 0 0.20886364623554921 -0.031523512657201581 0 0.20890374551960481 -0.040729144831228678 0 0.20886364623554921 -0.031523512657201581 0 0.19655169947710091 -0.043788383486002072 0 0.1828119860636557 -0.050363577362968731 0 0.18853740735089011 -0.033706188378118708 0 0.19655169947710091 -0.043788383486002072 0 0.20886364623554921 -0.031523512657201581 0 0.18853740735089011 -0.033706188378118708 0 0.19655169947710091 -0.043788383486002072 0 0.19655169947710091 -0.043788383486002072 0 0.20138343235632811 -0.055727139445542639 0 0.20897987019450001 -0.050060865146210963 0 0.19655169947710091 -0.043788383486002072 0 0.19188844298534441 -0.056659859735039647 0 0.20138343235632811 -0.055727139445542639 0 0.1828119860636557 -0.050363577362968731 0 0.19655169947710091 -0.043788383486002072 0 0.19188844298534441 -0.056659859735039647 0 0.19188844298534441 -0.056659859735039647 0 0.20138343235632811 -0.055727139445542639 0 0.1952329782378138 -0.068464889048657496 0 0.20138343235632811 -0.055727139445542639 0 0.22670270369963491 -0.067064047377793826 0 0.20138343235632811 -0.055727139445542639 0 0.21577564808412511 -0.056666161138016313 0 0.22670270369963491 -0.067064047377793826 0 0.20138343235632811 -0.055727139445542639 0 0.20897987019450001 -0.050060865146210963 0 0.21577564808412511 -0.056666161138016313 0 0.2167024847658664 -0.043974661413588162 0 0.20897987019450001 -0.050060865146210963 0 0.21577564808412511 -0.056666161138016313 0 0.21577564808412511 -0.056666161138016313 0 0.23694359709532001 -0.061394592404840097 0 0.22670270369963491 -0.067064047377793826 0 0.21577564808412511 -0.056666161138016313 0 0.22648325856373289 -0.049317463857355977 0 0.23694359709532001 -0.061394592404840097 0 0.21577564808412511 -0.056666161138016313 0 0.23694359709532001 -0.061394592404840097 0 0.2167024847658664 -0.043974661413588162 0 0.21577564808412511 -0.056666161138016313 0 0.22648325856373289 -0.049317463857355977 0 0.22648325856373289 -0.049317463857355977 0 0.23694359709532001 -0.061394592404840097 0 0.23716366819637241 -0.046229271507985323 0 0.25811154610651499 -0.066123023671663908 0 0.23694359709532001 -0.061394592404840097 0 0.24870160087168189 -0.052882304334001928 0 0.23694359709532001 -0.061394592404840097 0 0.24870160087168189 -0.052882304334001928 0 0.23716366819637241 -0.046229271507985323 0 0.24870160087168189 -0.052882304334001928 0 0.23716366819637241 -0.046229271507985323 0 0.24731406762381819 -0.035960341631652723 0 0.23716366819637241 -0.046229271507985323 0 0.24731406762381819 -0.035960341631652723 0 0.23342582712955959 -0.033308149953783547 0 0.23342582712955959 -0.033308149953783547 0 0.2258308946769807 -0.038322632822349968 0 0.22548915127375299 -0.027513718828695861 0 0.22648325856373289 -0.049317463857355977 0 0.23716366819637241 -0.046229271507985323 0 0.2258308946769807 -0.038322632822349968 0 0.23716366819637241 -0.046229271507985323 0 0.23342582712955959 -0.033308149953783547 0 0.2258308946769807 -0.038322632822349968 0 0.2180191377477218 -0.035203133534298187 0 0.2167024847658664 -0.043974661413588162 0 0.2258308946769807 -0.038322632822349968 0 0.2167024847658664 -0.043974661413588162 0 0.22648325856373289 -0.049317463857355977 0 0.2258308946769807 -0.038322632822349968 0 0.2180191377477218 -0.035203133534298187 0 0.2258308946769807 -0.038322632822349968 0 0.21995729679401421 -0.029331280632926501 0 0.2258308946769807 -0.038322632822349968 0 0.22548915127375299 -0.027513718828695861 0 0.21995729679401421 -0.029331280632926501 0 0.21528057420098159 -0.024212643874961401 0 0.2313313538768734 -0.018514784978234038 0 0.22829619310998309 -0.01520182636873813 0 0.21528057420098159 -0.024212643874961401 0 0.2313313538768734 -0.018514784978234038 0 0.21528057420098159 -0.024212643874961401 0 0.22548915127375299 -0.027513718828695861 0 0.2313313538768734 -0.018514784978234038 0 0.21528057420098159 -0.024212643874961401 0 0.22548915127375299 -0.027513718828695861 0 0.21995729679401421 -0.029331280632926501 0 0.21528057420098159 -0.024212643874961401 0 0.22829619310998309 -0.01520182636873813 0 0.21528057420098159 -0.024212643874961401 0 0.21911622703360889 -0.015650702578479541 0 0.22829619310998309 -0.01520182636873813 0 0.2313313538768734 -0.018514784978234038 0 0.22829619310998309 -0.01520182636873813 0 0.23342582712955959 -0.033308149953783547 0 0.22548915127375299 -0.027513718828695861 0 0.2313313538768734 -0.018514784978234038 0 0.25508119948702751 -0.010083838205662381 0 0.2313313538768734 -0.018514784978234038 0 0.2482857443068576 -0.021714794414400052 0 0.24731406762381819 -0.035960341631652723 0 0.2313313538768734 -0.018514784978234038 0 0.2482857443068576 -0.021714794414400052 0 0.24731406762381819 -0.035960341631652723 0 0.23342582712955959 -0.033308149953783547 0 0.2313313538768734 -0.018514784978234038 0 0.24731406762381819 -0.035960341631652723 0 0.2313313538768734 -0.018514784978234038 0 0.25508119948702751 -0.010083838205662381 0 0.2313313538768734 -0.018514784978234038 0 0.24138147174972829 -0.0061427828714447699 0 0.25508119948702751 -0.010083838205662381 0 0.2313313538768734 -0.018514784978234038 0 0.24138147174972829 -0.0061427828714447699 0 0.22829619310998309 -0.01520182636873813 0 0.25446675038947358 0.0029162606258486688 0 0.2541426920980116 -0.0036136263454906951 0 0.24138147174972829 -0.0061427828714447699 0 0.25446675038947358 0.0029162606258486688 0 0.24138147174972829 -0.0061427828714447699 0 0.22999165343287109 0.0038227322559807589 0 0.24138147174972829 -0.0061427828714447699 0 0.23189167676904729 -0.0064153040848911828 0 0.22999165343287109 0.0038227322559807589 0 0.23189167676904729 -0.0064153040848911828 0 0.2228246624943325 -0.0092295053444410857 0 0.22999165343287109 0.0038227322559807589 0 0.21351355446813719 -0.0021103410187178909 0 0.2228246624943325 -0.0092295053444410857 0 0.23189167676904729 -0.0064153040848911828 0 0.22829619310998309 -0.01520182636873813 0 0.2228246624943325 -0.0092295053444410857 0 0.2313313538768734 -0.018514784978234038 0 0.24138147174972829 -0.0061427828714447699 0 0.22829619310998309 -0.01520182636873813 0 0.24138147174972829 -0.0061427828714447699 0 0.23189167676904729 -0.0064153040848911828 0 0.22829619310998309 -0.01520182636873813 0 0.21911622703360889 -0.015650702578479541 0 0.22829619310998309 -0.01520182636873813 0 0.2228246624943325 -0.0092295053444410857 0 0.22829619310998309 -0.01520182636873813 0 0.2228246624943325 -0.0092295053444410857 0 0.2084634723971549 -0.097930235578601213 0 0.21737999015654699 -0.1103161024944793 0 0.2275791846540145 -0.10054182369239011 0 0.21737999015654699 -0.1103161024944793 0 0.19100769245097829 -0.1040519139747048 0 0.2084634723971549 -0.097930235578601213 0 0.21140608144591419 -0.084503356370523836 0 0.2275791846540145 -0.10054182369239011 0 0.2084634723971549 -0.097930235578601213 0 0.21737999015654699 -0.1103161024944793 0 0.19100769245097829 -0.1040519139747048 0 0.21737999015654699 -0.1103161024944793 0 0.21277072480774051 -0.1248863227998855 0 0.20025029595199689 -0.1218288277367077 0 0.21737999015654699 -0.1103161024944793 0 0.21277072480774051 -0.1248863227998855 0 0.2239597136694004 -0.1277946194696456 0 0.1862357176231304 -0.1238823921021804 0 0.20025029595199689 -0.1218288277367077 0 0.19100769245097829 -0.1040519139747048 0 0.21737999015654699 -0.1103161024944793 0 0.20025029595199689 -0.1218288277367077 0 0.19100769245097829 -0.1040519139747048 0 0.20025029595199689 -0.1218288277367077 0 0.19100769245097829 -0.1040519139747048 0 0.2084634723971549 -0.097930235578601213 0 0.19100769245097829 -0.1040519139747048 0 0.19624682445825681 -0.08914472739044943 0 0.18137547142311691 -0.085525622921553163 0 0.19100769245097829 -0.1040519139747048 0 0.19624682445825681 -0.08914472739044943 0 0.19624682445825681 -0.08914472739044943 0 0.1952329782378138 -0.068464889048657496 0 0.21140608144591419 -0.084503356370523836 0 0.18137547142311691 -0.085525622921553163 0 0.19624682445825681 -0.08914472739044943 0 0.1952329782378138 -0.068464889048657496 0 0.20138343235632811 -0.055727139445542639 0 0.1952329782378138 -0.068464889048657496 0 0.21149591893834541 -0.070957707586151192 0 0.18346211879182289 -0.064955309332027283 0 0.19188844298534441 -0.056659859735039647 0 0.1952329782378138 -0.068464889048657496 0 0.1952329782378138 -0.068464889048657496 0 0.21140608144591419 -0.084503356370523836 0 0.20138343235632811 -0.055727139445542639 0 0.21149591893834541 -0.070957707586151192 0 0.22670270369963491 -0.067064047377793826 0 0.1952329782378138 -0.068464889048657496 0 0.21149591893834541 -0.070957707586151192 0 0.21140608144591419 -0.084503356370523836 0 0.2084634723971549 -0.097930235578601213 0 0.19624682445825681 -0.08914472739044943 0 0.21140608144591419 -0.084503356370523836 0 0.21149591893834541 -0.070957707586151192 0 0.21140608144591419 -0.084503356370523836 0 0.2227543989520358 -0.079029105688238177 0 0.21140608144591419 -0.084503356370523836 0 0.2275791846540145 -0.10054182369239011 0 0.2227543989520358 -0.079029105688238177 0 0.23449163343577681 -0.083610487294907485 0 0.2275791846540145 -0.10054182369239011 0 0.21140608144591419 -0.084503356370523836 0 0.2227543989520358 -0.079029105688238177 0 0.2275791846540145 -0.10054182369239011 0 0.2227543989520358 -0.079029105688238177 0 0.22670270369963491 -0.067064047377793826 0 0.23449163343577681 -0.083610487294907485 0 0.21149591893834541 -0.070957707586151192 0 0.2227543989520358 -0.079029105688238177 0 0.22670270369963491 -0.067064047377793826 0 0.25202197504294188 -0.078400955310045109 0 0.25811154610651499 -0.066123023671663908 0 0.23694359709532001 -0.061394592404840097 0 0.25202197504294188 -0.078400955310045109 0 0.22670270369963491 -0.067064047377793826 0 0.25202197504294188 -0.078400955310045109 0 0.22670270369963491 -0.067064047377793826 0 0.23449163343577681 -0.083610487294907485 0 0.25202197504294188 -0.078400955310045109 0 0.23694359709532001 -0.061394592404840097 0 0.22670270369963491 -0.067064047377793826 0 0.25811154610651499 -0.066123023671663908 0 0.23694359709532001 -0.061394592404840097 0 0.25202197504294188 -0.078400955310045109 0 0.23449163343577681 -0.083610487294907485 0 0.24624903761231479 -0.086847438891893419 0 0.23449163343577681 -0.083610487294907485 0 0.24292322406264641 -0.096552741650977186 0 0.2275791846540145 -0.10054182369239011 0 0.23449163343577681 -0.083610487294907485 0 0.24624903761231479 -0.086847438891893419 0 0.24292322406264641 -0.096552741650977186 0 0.25304747237378489 -0.090741332181114118 0 0.24624903761231479 -0.086847438891893419 0 0.24292322406264641 -0.096552741650977186 0 0.2275791846540145 -0.10054182369239011 0 0.24375228786211539 -0.116580291014256 0 0.24292322406264641 -0.096552741650977186 0 0.2275791846540145 -0.10054182369239011 0 0.24375228786211539 -0.116580291014256 0 0.25771864553297669 -0.099620140202181948 0 0.24292322406264641 -0.096552741650977186 0 0.24375228786211539 -0.116580291014256 0 0.21737999015654699 -0.1103161024944793 0 0.2275791846540145 -0.10054182369239011 0 0.24375228786211539 -0.116580291014256 0 0.21737999015654699 -0.1103161024944793 0 0.24375228786211539 -0.116580291014256 0 0.2239597136694004 -0.1277946194696456 0 0.21737999015654699 -0.1103161024944793 0 0.24375228786211539 -0.116580291014256 0 0.24375228786211539 -0.116580291014256 0 0.235054631712311 -0.13955626642273861 0 0.24955680073527009 -0.143898101237383 0 0.235054631712311 -0.13955626642273861 0 0.24955680073527009 -0.143898101237383 0 0.23627457688356679 -0.15840319400941011 0 0.25449645062408999 -0.16331052089379791 0 0.24955680073527009 -0.143898101237383 0 0.23627457688356679 -0.15840319400941011 0 0.235054631712311 -0.13955626642273861 0 0.22199130801810529 -0.1478171468904442 0 0.23627457688356679 -0.15840319400941011 0 0.24375228786211539 -0.116580291014256 0 0.235054631712311 -0.13955626642273861 0 0.2239597136694004 -0.1277946194696456 0 0.235054631712311 -0.13955626642273861 0 0.22199130801810529 -0.1478171468904442 0 0.2239597136694004 -0.1277946194696456 0 0.20025029595199689 -0.1218288277367077 0 0.20949289945301761 -0.1396057414987095 0 0.22199130801810529 -0.1478171468904442 0 0.2239597136694004 -0.1277946194696456 0 0.20949289945301761 -0.1396057414987095 0 0.21277072480774051 -0.1248863227998855 0 0.20025029595199689 -0.1218288277367077 0 0.20949289945301761 -0.1396057414987095 0 0.21277072480774051 -0.1248863227998855 0 0.2239597136694004 -0.1277946194696456 0 0.20949289945301761 -0.1396057414987095 0 0.22199130801810529 -0.1478171468904442 0 0.20949289945301761 -0.1396057414987095 0 0.2069794531536403 -0.1537888919124783 0 0.20949289945301761 -0.1396057414987095 0 0.2069794531536403 -0.1537888919124783 0 0.1919305776748628 -0.1461990482496055 0 0.2069794531536403 -0.1537888919124783 0 0.1919305776748628 -0.1461990482496055 0 0.19225769977326759 -0.16432491474026781 0 0.1862357176231304 -0.1238823921021804 0 0.1919305776748628 -0.1461990482496055 0 0.19714487019074359 -0.1333469628700395 0 0.20025029595199689 -0.1218288277367077 0 0.20949289945301761 -0.1396057414987095 0 0.19714487019074359 -0.1333469628700395 0 0.20949289945301761 -0.1396057414987095 0 0.1919305776748628 -0.1461990482496055 0 0.19714487019074359 -0.1333469628700395 0 0.1862357176231304 -0.1238823921021804 0 0.1919305776748628 -0.1461990482496055 0 0.1862357176231304 -0.1238823921021804 0 0.20025029595199689 -0.1218288277367077 0 0.19714487019074359 -0.1333469628700395 0 0.19629081049063871 -0.1815365299480412 0 0.19225769977326759 -0.16432491474026781 0 0.17982600751226671 -0.1762593337595659 0 0.19629081049063871 -0.1815365299480412 0 0.19225769977326759 -0.16432491474026781 0 0.22018657323669569 -0.16775416802968299 0 0.2069794531536403 -0.1537888919124783 0 0.19225769977326759 -0.16432491474026781 0 0.22018657323669569 -0.16775416802968299 0 0.22199130801810529 -0.1478171468904442 0 0.2069794531536403 -0.1537888919124783 0 0.22018657323669569 -0.16775416802968299 0 0.19629081049063871 -0.1815365299480412 0 0.22018657323669569 -0.16775416802968299 0 0.21237941264848451 -0.18810475376770611 0 0.22018657323669569 -0.16775416802968299 0 0.23934418379307471 -0.18436482883247621 0 0.22018657323669569 -0.16775416802968299 0 0.23934418379307471 -0.18436482883247621 0 0.21237941264848451 -0.18810475376770611 0 0.22018657323669569 -0.16775416802968299 0 0.23627457688356679 -0.15840319400941011 0 0.23934418379307471 -0.18436482883247621 0 0.22199130801810529 -0.1478171468904442 0 0.22018657323669569 -0.16775416802968299 0 0.23627457688356679 -0.15840319400941011 0 0.25449645062408999 -0.16331052089379791 0 0.23627457688356679 -0.15840319400941011 0 0.23934418379307471 -0.18436482883247621 0 0.25850179434945381 -0.20097548963526929 0 0.23934418379307471 -0.18436482883247621 0 0.25850179434945381 -0.20097548963526929 0 0.23934418379307471 -0.18436482883247621 0 0.23907695871134879 -0.21289681242661959 0 0.23907695871134879 -0.21289681242661959 0 0.22308479462261119 -0.20217133576560289 0 0.21722062693650279 -0.2226466586169516 0 0.23934418379307471 -0.18436482883247621 0 0.22308479462261119 -0.20217133576560289 0 0.21237941264848451 -0.18810475376770611 0 0.23934418379307471 -0.18436482883247621 0 0.23907695871134879 -0.21289681242661959 0 0.22308479462261119 -0.20217133576560289 0 0.25037283077400019 -0.2416092145933311 0 0.23239962387573149 -0.2337287944253621 0 0.2339549802858914 -0.24933471903745599 0 0.25658827463044448 -0.2222138965281123 0 0.23907695871134879 -0.21289681242661959 0 0.2446094219978813 -0.2276121794933563 0 0.25037283077400019 -0.2416092145933311 0 0.2446094219978813 -0.2276121794933563 0 0.23239962387573149 -0.2337287944253621 0 0.23907695871134879 -0.21289681242661959 0 0.2446094219978813 -0.2276121794933563 0 0.23239962387573149 -0.2337287944253621 0 0.23907695871134879 -0.21289681242661959 0 0.23239962387573149 -0.2337287944253621 0 0.21722062693650279 -0.2226466586169516 0 0.23239962387573149 -0.2337287944253621 0 0.2194561222393229 -0.23682627783696539 0 0.21722062693650279 -0.2226466586169516 0 0.23239962387573149 -0.2337287944253621 0 0.22502312889380549 -0.2426362774769398 0 0.2339549802858914 -0.24933471903745599 0 0.2194561222393229 -0.23682627783696539 0 0.22502312889380549 -0.2426362774769398 0 0.21456577207223029 -0.24270171036535029 0 0.23239962387573149 -0.2337287944253621 0 0.2194561222393229 -0.23682627783696539 0 0.22502312889380549 -0.2426362774769398 0 0.22331750647786899 -0.25281133177650322 0 0.22502312889380549 -0.2426362774769398 0 0.21456577207223029 -0.24270171036535029 0 0.22331750647786899 -0.25281133177650322 0 0.22502312889380549 -0.2426362774769398 0 0.2339549802858914 -0.24933471903745599 0 0.2084475354763706 -0.25511513831035743 0 0.2080714594183444 -0.2424179483002232 0 0.21336353465090491 -0.24693864317134839 0 0.2080714594183444 -0.2424179483002232 0 0.21336353465090491 -0.24693864317134839 0 0.2080714594183444 -0.2424179483002232 0 0.21336353465090491 -0.24693864317134839 0 0.21456577207223029 -0.24270171036535029 0 0.2194561222393229 -0.23682627783696539 0 0.2080714594183444 -0.2424179483002232 0 0.21456577207223029 -0.24270171036535029 0 0.21722062693650279 -0.2226466586169516 0 0.20244123733496699 -0.2260211367091485 0 0.19848523837712481 -0.2136299623964425 0 0.2080714594183444 -0.2424179483002232 0 0.21722062693650279 -0.2226466586169516 0 0.2194561222393229 -0.23682627783696539 0 0.2080714594183444 -0.2424179483002232 0 0.21722062693650279 -0.2226466586169516 0 0.2080714594183444 -0.2424179483002232 0 0.21722062693650279 -0.2226466586169516 0 0.20244123733496699 -0.2260211367091485 0 0.2080714594183444 -0.2424179483002232 0 0.18716213711817259 -0.22455639835484539 0 0.2080714594183444 -0.2424179483002232 0 0.20244123733496699 -0.2260211367091485 0 0.18716213711817259 -0.22455639835484539 0 0.20244123733496699 -0.2260211367091485 0 0.19848523837712481 -0.2136299623964425 0 0.18716213711817259 -0.22455639835484539 0 0.2080714594183444 -0.2424179483002232 0 0.19254414318066221 -0.24961624770678509 0 0.1866817818972302 -0.23981118877977231 0 0.2080714594183444 -0.2424179483002232 0 0.1866817818972302 -0.23981118877977231 0 0.18716213711817259 -0.22455639835484539 0 0.19254414318066221 -0.24961624770678509 0 0.18399505531774341 -0.24981832115951039 0 0.1866817818972302 -0.23981118877977231 0 0.21237941264848451 -0.18810475376770611 0 0.20793523744788639 -0.20366419955677639 0 0.19447652973028121 -0.19759128756789451 0 0.22308479462261119 -0.20217133576560289 0 0.21237941264848451 -0.18810475376770611 0 0.20793523744788639 -0.20366419955677639 0 0.22308479462261119 -0.20217133576560289 0 0.21722062693650279 -0.2226466586169516 0 0.20793523744788639 -0.20366419955677639 0 0.21722062693650279 -0.2226466586169516 0 0.20793523744788639 -0.20366419955677639 0 0.19848523837712481 -0.2136299623964425 0 0.19848523837712481 -0.2136299623964425 0 0.19447652973028121 -0.19759128756789451 0 0.1831457957419608 -0.2071674304332729 0 0.20793523744788639 -0.20366419955677639 0 0.19848523837712481 -0.2136299623964425 0 0.19447652973028121 -0.19759128756789451 0 0.19848523837712481 -0.2136299623964425 0 0.1831457957419608 -0.2071674304332729 0 0.18716213711817259 -0.22455639835484539 0 0.19629081049063871 -0.1815365299480412 0 0.19447652973028121 -0.19759128756789451 0 0.1840061663436266 -0.1900566622106199 0 0.19629081049063871 -0.1815365299480412 0 0.21237941264848451 -0.18810475376770611 0 0.19447652973028121 -0.19759128756789451 0 0.19447652973028121 -0.19759128756789451 0 0.1840061663436266 -0.1900566622106199 0 0.1831457957419608 -0.2071674304332729 0 0.1840061663436266 -0.1900566622106199 0 0.1831457957419608 -0.2071674304332729 0 0.16486725365112659 -0.18785963188663279 0 0.1831457957419608 -0.2071674304332729 0 0.16486725365112659 -0.18785963188663279 0 0.1831457957419608 -0.2071674304332729 0 0.16625281481800089 -0.2066948484094672 0 0.18716213711817259 -0.22455639835484539 0 0.16625281481800089 -0.2066948484094672 0 0.18716213711817259 -0.22455639835484539 0 0.16625281481800089 -0.2066948484094672 0 0.18716213711817259 -0.22455639835484539 0 0.16937657335138201 -0.22198425569814831 0 0.16625281481800089 -0.2066948484094672 0 0.15661990237239229 -0.21733625041789439 0 0.14909823278687431 -0.20687378182447139 0 0.16625281481800089 -0.2066948484094672 0 0.15661990237239229 -0.21733625041789439 0 0.16937657335138201 -0.22198425569814831 0 0.1831457957419608 -0.2071674304332729 0 0.16625281481800089 -0.2066948484094672 0 0.16486725365112659 -0.18785963188663279 0 0.16625281481800089 -0.2066948484094672 0 0.16486725365112659 -0.18785963188663279 0 0.14534349251782941 -0.188833298464089 0 0.17619278994504239 -0.24587918172992959 0 0.18399505531774341 -0.24981832115951039 0 0.1866817818972302 -0.23981118877977231 0 0.17619278994504239 -0.24587918172992959 0 0.17450151464944069 -0.23276490516368609 0 0.16609645978724119 -0.24143951784646769 0 0.17619278994504239 -0.24587918172992959 0 0.1866817818972302 -0.23981118877977231 0 0.17450151464944069 -0.23276490516368609 0 0.17450151464944069 -0.23276490516368609 0 0.18716213711817259 -0.22455639835484539 0 0.16937657335138201 -0.22198425569814831 0 0.1866817818972302 -0.23981118877977231 0 0.17450151464944069 -0.23276490516368609 0 0.18716213711817259 -0.22455639835484539 0 0.15661990237239229 -0.21733625041789439 0 0.1623464977989032 -0.22856887614484861 0 0.15090654410468329 -0.22688320449844629 0 0.15661990237239229 -0.21733625041789439 0 0.16937657335138201 -0.22198425569814831 0 0.1623464977989032 -0.22856887614484861 0 0.17450151464944069 -0.23276490516368609 0 0.1623464977989032 -0.22856887614484861 0 0.16609645978724119 -0.24143951784646769 0 0.17450151464944069 -0.23276490516368609 0 0.16937657335138201 -0.22198425569814831 0 0.1623464977989032 -0.22856887614484861 0 0.1623464977989032 -0.22856887614484861 0 0.16609645978724119 -0.24143951784646769 0 0.1528270009437688 -0.23836283418195289 0 0.16001236861667459 -0.2513654190734112 0 0.16609645978724119 -0.24143951784646769 0 0.1528270009437688 -0.23836283418195289 0 0.16978669848249819 -0.25098739912941831 0 0.17619278994504239 -0.24587918172992959 0 0.16609645978724119 -0.24143951784646769 0 0.16001236861667459 -0.2513654190734112 0 0.16978669848249819 -0.25098739912941831 0 0.16609645978724119 -0.24143951784646769 0 0.1429630926125974 -0.2502577086919005 0 0.16001236861667459 -0.2513654190734112 0 0.1528270009437688 -0.23836283418195289 0 0.1429630926125974 -0.2502577086919005 0 0.1528270009437688 -0.23836283418195289 0 0.13988621804673579 -0.23152362256679451 0 0.1528270009437688 -0.23836283418195289 0 0.15090654410468329 -0.22688320449844629 0 0.13988621804673579 -0.23152362256679451 0 0.1623464977989032 -0.22856887614484861 0 0.1528270009437688 -0.23836283418195289 0 0.15090654410468329 -0.22688320449844629 0 0.15661990237239229 -0.21733625041789439 0 0.15090654410468329 -0.22688320449844629 0 0.1428531013616163 -0.21862443918074129 0 0.15090654410468329 -0.22688320449844629 0 0.13988621804673579 -0.23152362256679451 0 0.1428531013616163 -0.21862443918074129 0 0.12018370186474731 -0.23305432747703519 0 0.12895394136930069 -0.22163642029703709 0 0.13988621804673579 -0.23152362256679451 0 0.12895394136930069 -0.22163642029703709 0 0.13988621804673579 -0.23152362256679451 0 0.1428531013616163 -0.21862443918074129 0 0.1429630926125974 -0.2502577086919005 0 0.12018370186474731 -0.23305432747703519 0 0.1429630926125974 -0.2502577086919005 0 0.12018370186474731 -0.23305432747703519 0 0.13988621804673579 -0.23152362256679451 0 0.13217397618885759 -0.25462043987800831 0 0.1429630926125974 -0.2502577086919005 0 0.12018370186474731 -0.23305432747703519 0 0.16625281481800089 -0.2066948484094672 0 0.14534349251782941 -0.188833298464089 0 0.16625281481800089 -0.2066948484094672 0 0.14534349251782941 -0.188833298464089 0 0.14909823278687431 -0.20687378182447139 0 0.14534349251782941 -0.188833298464089 0 0.14909823278687431 -0.20687378182447139 0 0.1346280568372662 -0.20359450925845249 0 0.15661990237239229 -0.21733625041789439 0 0.14909823278687431 -0.20687378182447139 0 0.1428531013616163 -0.21862443918074129 0 0.14909823278687431 -0.20687378182447139 0 0.1428531013616163 -0.21862443918074129 0 0.1346280568372662 -0.20359450925845249 0 0.1178461100078927 -0.20838697738218431 0 0.12895394136930069 -0.22163642029703709 0 0.1346280568372662 -0.20359450925845249 0 0.12895394136930069 -0.22163642029703709 0 0.1428531013616163 -0.21862443918074129 0 0.1346280568372662 -0.20359450925845249 0 0.14534349251782941 -0.188833298464089 0 0.1346280568372662 -0.20359450925845249 0 0.13128332926409281 -0.18787359724935929 0 0.1237689835273371 -0.19605207676116951 0 0.1178461100078927 -0.20838697738218431 0 0.1346280568372662 -0.20359450925845249 0 0.1237689835273371 -0.19605207676116951 0 0.1346280568372662 -0.20359450925845249 0 0.13128332926409281 -0.18787359724935929 0 0.1237689835273371 -0.19605207676116951 0 0.1232013989280239 -0.1819146573535104 0 0.13128332926409281 -0.18787359724935929 0 0.12443417021765769 -0.1709717485187108 0 0.14534349251782941 -0.188833298464089 0 0.12443417021765769 -0.1709717485187108 0 0.1232013989280239 -0.1819146573535104 0 0.13128332926409281 -0.18787359724935929 0 0.12443417021765769 -0.1709717485187108 0 0.14534349251782941 -0.188833298464089 0 0.13128332926409281 -0.18787359724935929 0 0.12443417021765769 -0.1709717485187108 0 0.14534349251782941 -0.188833298464089 0 0.13540865390058859 -0.1688207667960602 0 0.14534349251782941 -0.188833298464089 0 0.14658871156029241 -0.16855183333999291 0 0.13540865390058859 -0.1688207667960602 0 0.16486725365112659 -0.18785963188663279 0 0.14658871156029241 -0.16855183333999291 0 0.16486725365112659 -0.18785963188663279 0 0.14534349251782941 -0.188833298464089 0 0.14658871156029241 -0.16855183333999291 0 0.14658871156029241 -0.16855183333999291 0 0.13391177650968769 -0.15242347890466901 0 0.14971917460686079 -0.1530450482394467 0 0.14658871156029241 -0.16855183333999291 0 0.14971917460686079 -0.1530450482394467 0 0.16192904395431579 -0.15800089119817939 0 0.14658871156029241 -0.16855183333999291 0 0.13391177650968769 -0.15242347890466901 0 0.12831016946945831 -0.1492440347933528 0 0.14658871156029241 -0.16855183333999291 0 0.12831016946945831 -0.1492440347933528 0 0.14658871156029241 -0.16855183333999291 0 0.13540865390058859 -0.1688207667960602 0 0.1290045142054978 -0.1612372837293575 0 0.14658871156029241 -0.16855183333999291 0 0.1290045142054978 -0.1612372837293575 0 0.12831016946945831 -0.1492440347933528 0 0.13540865390058859 -0.1688207667960602 0 0.12715697753007521 -0.16591248018761531 0 0.1290045142054978 -0.1612372837293575 0 0.12443417021765769 -0.1709717485187108 0 0.13540865390058859 -0.1688207667960602 0 0.12715697753007521 -0.16591248018761531 0 0.12098675462827781 -0.16200852072179159 0 0.12715697753007521 -0.16591248018761531 0 0.1290045142054978 -0.1612372837293575 0 0.12324902196630889 -0.15465793599018671 0 0.1227471198665283 -0.15880086614903269 0 0.1290045142054978 -0.1612372837293575 0 0.13391177650968769 -0.15242347890466901 0 0.12831016946945831 -0.1492440347933528 0 0.12532898621889721 -0.13663811256420449 0 0.12324902196630889 -0.15465793599018671 0 0.1290045142054978 -0.1612372837293575 0 0.12831016946945831 -0.1492440347933528 0 0.1217036921304827 -0.1482443959076799 0 0.12831016946945831 -0.1492440347933528 0 0.12532898621889721 -0.13663811256420449 0 0.13391177650968769 -0.15242347890466901 0 0.13188977167139071 -0.12546883223523481 0 0.13391177650968769 -0.15242347890466901 0 0.13188977167139071 -0.12546883223523481 0 0.1446303542042412 -0.1380662602394005 0 0.13391177650968769 -0.15242347890466901 0 0.13188977167139071 -0.12546883223523481 0 0.12532898621889721 -0.13663811256420449 0 0.11997683785091839 -0.1276371159963853 0 0.13188977167139071 -0.12546883223523481 0 0.12532898621889721 -0.13663811256420449 0 0.1446303542042412 -0.1380662602394005 0 0.15557261582888751 -0.13003178131142151 0 0.1621281360659286 -0.14191921566573409 0 0.14724036225017881 -0.1245170930860646 0 0.13188977167139071 -0.12546883223523481 0 0.1446303542042412 -0.1380662602394005 0 0.14724036225017881 -0.1245170930860646 0 0.1446303542042412 -0.1380662602394005 0 0.15557261582888751 -0.13003178131142151 0 0.13391177650968769 -0.15242347890466901 0 0.1446303542042412 -0.1380662602394005 0 0.14971917460686079 -0.1530450482394467 0 0.1446303542042412 -0.1380662602394005 0 0.14971917460686079 -0.1530450482394467 0 0.1621281360659286 -0.14191921566573409 0 0.1621281360659286 -0.14191921566573409 0 0.17324983187337631 -0.13165498831909611 0 0.17651024624945799 -0.1485415537171802 0 0.14971917460686079 -0.1530450482394467 0 0.1621281360659286 -0.14191921566573409 0 0.16192904395431579 -0.15800089119817939 0 0.1621281360659286 -0.14191921566573409 0 0.17651024624945799 -0.1485415537171802 0 0.16192904395431579 -0.15800089119817939 0 0.16471491079178111 -0.1205264202314431 0 0.15557261582888751 -0.13003178131142151 0 0.1639163736399934 -0.1310331013819237 0 0.15557261582888751 -0.13003178131142151 0 0.1621281360659286 -0.14191921566573409 0 0.1639163736399934 -0.1310331013819237 0 0.1621281360659286 -0.14191921566573409 0 0.1639163736399934 -0.1310331013819237 0 0.17324983187337631 -0.13165498831909611 0 0.16471491079178111 -0.1205264202314431 0 0.1639163736399934 -0.1310331013819237 0 0.17324983187337631 -0.13165498831909611 0 0.1862357176231304 -0.1238823921021804 0 0.1919305776748628 -0.1461990482496055 0 0.17324983187337631 -0.13165498831909611 0 0.1919305776748628 -0.1461990482496055 0 0.17324983187337631 -0.13165498831909611 0 0.17651024624945799 -0.1485415537171802 0 0.1919305776748628 -0.1461990482496055 0 0.19225769977326759 -0.16432491474026781 0 0.17651024624945799 -0.1485415537171802 0 0.19225769977326759 -0.16432491474026781 0 0.17526083145963689 -0.16308053239281189 0 0.17982600751226671 -0.1762593337595659 0 0.19225769977326759 -0.16432491474026781 0 0.17651024624945799 -0.1485415537171802 0 0.17526083145963689 -0.16308053239281189 0 0.17526083145963689 -0.16308053239281189 0 0.17982600751226671 -0.1762593337595659 0 0.16627328335530381 -0.17069773137902189 0 0.1840061663436266 -0.1900566622106199 0 0.16486725365112659 -0.18785963188663279 0 0.17982600751226671 -0.1762593337595659 0 0.19629081049063871 -0.1815365299480412 0 0.1840061663436266 -0.1900566622106199 0 0.17982600751226671 -0.1762593337595659 0 0.16486725365112659 -0.18785963188663279 0 0.14658871156029241 -0.16855183333999291 0 0.16627328335530381 -0.17069773137902189 0 0.16486725365112659 -0.18785963188663279 0 0.17982600751226671 -0.1762593337595659 0 0.16627328335530381 -0.17069773137902189 0 0.14658871156029241 -0.16855183333999291 0 0.16192904395431579 -0.15800089119817939 0 0.16627328335530381 -0.17069773137902189 0 0.17526083145963689 -0.16308053239281189 0 0.16192904395431579 -0.15800089119817939 0 0.16627328335530381 -0.17069773137902189 0 0.17651024624945799 -0.1485415537171802 0 0.17526083145963689 -0.16308053239281189 0 0.16192904395431579 -0.15800089119817939 0 
</DataArray>
</Points>
<Cells>
<DataArray type="UInt32" Name="connectivity" format="ascii">
0 1 2 3 4 5 6 7 8 9 10 11 12 13 14 15 16 17 18 19 20 21 22 23 24 25 26 27 28 29 30 31 32 33 34 35 36 37 38 39 40 41 42 43 44 45 46 47 48 49 50 51 52 53 54 55 56 57 58 59 60 61 62 63 64 65 66 67 68 69 70 71 72 73 74 75 76 77 78 79 80 81 82 83 84 85 86 87 88 89 90 91 92 93 94 95 96 97 98 99 100 101 102 103 104 105 106 107 108 109 110 111 112 113 114 115 116 117 118 119 120 121 122 123 124 125 126 127 128 129 130 131 132 133 134 135 136 137 138 139 140 141 142 143 144 145 146 147 148 149 150 151 152 153 154 155 156 157 158 159 160 161 162 163 164 165 166 167 168 169 170 171 172 173 174 175 176 177 178 179 180 181 182 183 184 185 186 187 188 189 190 191 192 193 194 195 196 197 198 199 200 201 202 203 204 205 206 207 208 209 210 211 212 213 214 215 216 217 218 219 220 221 222 223 224 225 226 227 228 229 230 231 232 233 234 235 236 237 238 239 240 241 242 243 244 245 246 247 248 249 250 251 252 253 254 255 256 257 258 259 260 261 262 263 264 265 266 267 268 269 270 271 272 273 274 275 276 277 278 279 280 281 282 283 284 285 286 287 288 289 290 291 292 293 294 295 296 297 298 299 300 301 302 303 304 305 306 307 308 309 310 311 312 313 314 315 316 317 318 319 320 321 322 323 324 325 326 327 328 329 330 331 332 333 334 335 336 337 338 339 340 341 342 343 344 345 346 347 348 349 350 351 352 353 354 355 356 357 358 359 360 361 362 363 364 365 366 367 368 369 370 371 372 373 374 375 376 377 378 379 380 381 382 383 384 385 386 387 388 389 390 391 392 393 394 395 396 397 398 399 400 401 402 403 404 405 406 407 408 409 410 411 412 413 414 415 416 417 418 419 420 421 422 423 424 425 426 427 428 429 430 431 432 433 434 435 436 437 438 439 440 441 442 443 444 445 446 447 448 449 450 451 452 453 454 455 456 457 458 459 460 461 462 463 464 465 466 467 468 469 470 471 472 473 474 475 476 477 478 479 480 481 482 483 484 485 486 487 488 489 490 491 492 493 494 495 496 497 498 499 500 501 502 503 504 505 506 507 508 509 510 511 512 513 514 515 516 517 518 519 520 521 522 523 524 525 526 527 528 529 530 531 532 533 534 535 536 537 538 539 540 541 542 543 544 545 546 547 548 549 550 551 552 553 554 555 556 557 558 559 560 561 562 563 564 565 566 567 568 569 570 571 572 573 574 575 576 577 578 579 580 581 582 583 584 585 586 587 588 589 590 591 592 593 594 595 596 597 598 599 600 601 602 603 604 605 606 607 608 609 610 611 612 613 614 615 616 617 618 619 620 621 622 623 624 625 626 627 628 629 630 631 632 633 634 635 636 637 638 639 640 641 642 643 644 645 646 647 648 649 650 651 652 653 654 655 656 657 658 659 660 661 662 663 664 665 666 667 668 669 670 671 672 673 674 675 676 677 678 679 680 681 682 683 684 685 686 687 688 689 690 691 692 693 694 695 696 697 698 699 700 701 702 703 704 705 706 707 708 709 710 711 712 713 714 715 716 717 718 719 720 721 722 723 724 725 726 727 728 729 730 731 732 733 734 735 736 737 738 739 740 741 742 743 744 745 746 747 748 749 750 751 752 753 754 755 756 757 758 759 760 761 762 763 764 765 766 767 768 769 770 771 772 773 774 775 776 777 778 779 780 781 782 783 784 785 786 787 788 789 790 791 792 793 794 795 796 797 798 799 800 801 802 803 804 805 806 807 808 809 810 811 812 813 814 815 816 817 818 819 820 821 822 823 824 825 826 827 828 829 830 831 832 833 834 835 836 837 838 839 840 841 842 843 844 845 846 847 848 849 850 851 852 853 854 855 856 857 858 859 860 861 862 863 864 865 866 867 868 869 870 871 872 873 874 875 876 877 878 879 880 881 882 883 884 885 886 887 888 889 890 891 892 893 894 895 896 897 898 899 900 901 902 903 904 905 906 907 908 909 910 911 912 913 914 915 916 917 918 919 920 921 922 923 924 925 926 927 928 929 930 931 932 933 934 935 936 937 938 939 940 941 942 943 944 945 946 947 948 949 950 951 952 953 954 955 956 957 958 959 960 961 962 963 964 965 966 967 968 969 970 971 972 973 974 975 976 977 978 979 980 981 982 983 984 985 986 987 988 989 990 991 992 993 994 995 996 997 998 999 1000 1001 1002 1003 1004 1005 1006 1007 1008 1009 1010 1011 1012 1013 1014 1015 1016 1017 1018 1019 1020 1021 1022 1023 1024 1025 1026 1027 1028 1029 1030 1031 1032 1033 1034 1035 1036 1037 1038 1039 1040 1041 1042 1043 1044 1045 1046 1047 1048 1049 1050 1051 1052 1053 1054 1055 1056 1057 1058 1059 1060 1061 1062 1063 1064 1065 1066 1067 1068 1069 1070 1071 1072 1073 1074 1075 1076 1077 1078 1079 1080 1081 1082 1083 1084 1085 1086 1087 1088 1089 1090 1091 1092 1093 1094 1095 1096 1097 1098 1099 1100 1101 1102 1103 1104 1105 1106 1107 1108 1109 1110 1111 1112 1113 1114 1115 1116 1117 1118 1119 1120 1121 1122 1123 1124 1125 1126 1127 1128 1129 1130 1131 1132 1133 1134 1135 1136 1137 1138 1139 1140 1141 1142 1143 1144 1145 1146 1147 1148 1149 1150 1151 1152 1153 1154 1155 1156 1157 1158 1159 1160 1161 1162 1163 1164 1165 1166 1167 1168 1169 1170 1171 1172 1173 1174 1175 1176 1177 1178 1179 1180 1181 1182 1183 1184 1185 1186 1187 1188 1189 1190 1191 1192 1193 1194 1195 1196 1197 1198 1199 1200 1201 1202 1203 1204 1205 1206 1207 1208 1209 1210 1211 1212 1213 1214 1215 1216 1217 1218 1219 1220 1221 1222 1223 1224 1225 1226 1227 1228 1229 1230 1231 1232 1233 1234 1235 1236 1237 1238 1239 1240 1241 1242 1243 1244 1245 1246 1247 1248 1249 1250 1251 1252 1253 1254 1255 1256 1257 1258 1259 1260 1261 1262 1263 1264 1265 1266 1267 1268 1269 1270 1271 1272 1273 1274 1275 1276 1277 1278 1279 1280 1281 1282 1283 1284 1285 1286 1287 1288 1289 1290 1291 1292 1293 1294 1295 1296 1297 1298 1299 1300 1301 1302 1303 1304 1305 1306 1307 1308 1309 1310 1311 1312 1313 1314 1315 1316 1317 1318 1319 1320 1321 1322 1323 1324 1325 1326 1327 1328 1329 1330 1331 1332 1333 1334 1335 1336 1337 1338 1339 1340 1341 1342 1343 1344 1345 1346 1347 1348 1349 1350 1351 1352 1353 1354 1355 1356 1357 1358 1359 1360 1361 1362 1363 1364 1365 1366 1367 1368 1369 1370 1371 1372 1373 1374 1375 1376 1377 1378 1379 1380 1381 1382 1383 1384 1385 1386 1387 1388 1389 1390 1391 1392 1393 1394 1395 1396 1397 1398 1399 1400 1401 1402 1403 1404 1405 1406 1407 1408 1409 1410 1411 1412 1413 1414 1415 1416 1417 1418 1419 1420 1421 1422 1423 1424 1425 1426 1427 1428 1429 1430 1431 1432 1433 1434 1435 1436 1437 1438 1439 1440 1441 1442 1443 1444 1445 1446 1447 1448 1449 1450 1451 1452 1453 1454 1455 1456 1457 1458 1459 1460 1461 1462 1463 1464 1465 1466 1467 1468 1469 1470 1471 1472 1473 1474 1475 1476 1477 1478 1479 1480 1481 1482 1483 1484 1485 1486 1487 1488 1489 1490 1491 1492 1493 1494 1495 1496 1497 1498 1499 1500 1501 1502 1503 1504 1505 1506 1507 1508 1509 1510 1511 1512 1513 1514 1515 1516 1517 1518 1519 1520 1521 1522 1523 1524 1525 1526 1527 1528 1529 1530 1531 1532 1533 1534 1535 1536 1537 1538 1539 1540 1541 1542 1543 1544 1545 1546 1547 1548 1549 1550 1551 1552 1553 1554 1555 1556 1557 1558 1559 1560 1561 1562 1563 1564 1565 1566 1567 1568 1569 1570 1571 1572 1573 1574 1575 1576 1577 1578 1579 1580 1581 1582 1583 1584 1585 1586 1587 1588 1589 1590 1591 1592 1593 1594 1595 1596 1597 1598 1599 1600 1601 1602 1603 1604 1605 1606 1607 1608 1609 1610 1611 1612 1613 1614 1615 1616 1617 1618 1619 1620 1621 1622 1623 1624 1625 1626 1627 1628 1629 1630 1631 1632 1633 1634 1635 1636 1637 1638 1639 1640 1641 1642 1643 1644 1645 1646 1647 1648 1649 1650 1651 1652 1653 1654 1655 1656 1657 1658 1659 1660 1661 1662 1663 1664 1665 1666 1667 1668 1669 1670 1671 1672 1673 1674 1675 1676 1677 1678 1679 1680 1681 1682 1683 1684 1685 1686 1687 1688 1689 1690 1691 1692 1693 1694 1695 1696 1697 1698 1699 1700 1701 1702 1703 1704 1705 1706 1707 1708 1709 1710 1711 1712 1713 1714 1715 1716 1717 1718 1719 1720 1721 1722 1723 1724 1725 1726 1727 1728 1729 1730 1731 1732 1733 1734 1735 1736 1737 1738 1739 1740 1741 1742 1743 1744 1745 1746 1747 1748 1749 1750 1751 1752 1753 1754 1755 1756 1757 1758 1759 1760 1761 1762 1763 1764 1765 1766 1767 1768 1769 1770 1771 1772 1773 1774 1775 1776 1777 1778 1779 1780 1781 1782 1783 1784 1785 1786 1787 1788 1789 1790 1791 1792 1793 1794 1795 1796 1797 1798 1799 1800 1801 1802 1803 1804 1805 1806 1807 1808 1809 1810 1811 1812 1813 1814 1815 1816 1817 1818 1819 1820 1821 1822 1823 1824 1825 1826 1827 1828 1829 1830 1831 1832 1833 1834 1835 1836 1837 1838 1839 1840 1841 1842 1843 1844 1845 1846 1847 1848 1849 1850 1851 1852 1853 1854 1855 1856 1857 1858 1859 1860 1861 1862 1863 1864 1865 1866 1867 1868 1869 1870 1871 1872 1873 1874 1875 1876 1877 1878 1879 1880 1881 1882 1883 1884 1885 1886 1887 1888 1889 1890 1891 1892 1893 1894 1895 1896 1897 1898 1899 1900 1901 1902 1903 1904 1905 1906 1907 1908 1909 1910 1911 1912 1913 1914 1915 1916 1917 1918 1919 1920 1921 1922 1923 1924 1925 1926 1927 1928 1929 1930 1931 1932 1933 1934 1935 1936 1937 1938 1939 1940 1941 1942 1943 1944 1945 1946 1947 1948 1949 1950 1951 1952 1953 1954 1955 1956 1957 1958 1959 1960 1961 1962 1963 1964 1965 1966 1967 1968 1969 1970 1971 1972 1973 1974 1975 1976 1977 1978 1979 1980 1981 1982 1983 1984 1985 1986 1987 1988 1989 1990 1991 1992 1993 1994 1995 1996 1997 1998 1999 2000 2001 2002 2003 2004 2005 2006 2007 2008 2009 2010 2011 2012 2013 2014 2015 2016 2017 2018 2019 2020 2021 2022 2023 2024 2025 2026 2027 2028 2029 2030 2031 2032 2033 2034 2035 2036 2037 2038 2039 2040 2041 2042 2043 2044 2045 2046 2047 2048 2049 2050 2051 2052 2053 2054 2055 2056 2057 2058 2059 2060 2061 2062 2063 2064 2065 2066 2067 2068 2069 2070 2071 2072 2073 2074 2075 2076 2077 2078 2079 2080 2081 2082 2083 2084 2085 2086 2087 2088 2089 2090 2091 2092 2093 2094 2095 2096 2097 2098 2099 2100 2101 2102 2103 2104 2105 2106 2107 2108 2109 2110 2111 2112 2113 2114 2115 2116 2117 2118 2119 2120 2121 2122 2123 2124 2125 2126 2127 2128 2129 2130 2131 2132 2133 2134 2135 2136 2137 2138 2139 2140 2141 2142 2143 2144 2145 2146 2147 2148 2149 2150 2151 2152 2153 2154 2155 2156 2157 2158 2159 2160 2161 2162 2163 2164 2165 2166 2167 2168 2169 2170 2171 2172 2173 2174 2175 2176 2177 2178 2179 2180 2181 2182 2183 2184 2185 2186 2187 2188 2189 2190 2191 2192 2193 2194 2195 2196 2197 2198 2199 2200 2201 2202 2203 2204 2205 2206 2207 2208 2209 2210 2211 2212 2213 2214 2215 2216 2217 2218 2219 2220 2221 2222 2223 2224 2225 2226 2227 2228 2229 2230 2231 2232 2233 2234 2235 2236 2237 2238 2239 2240 2241 2242 2243 2244 2245 2246 2247 2248 2249 2250 2251 2252 2253 2254 2255 2256 2257 2258 2259 2260 2261 2262 2263 2264 2265 2266 2267 2268 2269 2270 2271 2272 2273 2274 2275 2276 2277 2278 2279 2280 2281 2282 2283 2284 2285 2286 2287 2288 2289 2290 2291 2292 2293 2294 2295 2296 2297 2298 2299 2300 2301 2302 2303 2304 2305 2306 2307 2308 2309 2310 2311 2312 2313 2314 2315 2316 2317 2318 2319 2320 2321 2322 2323 2324 2325 2326 2327 2328 2329 2330 2331 2332 2333 2334 2335 2336 2337 2338 2339 2340 2341 2342 2343 2344 2345 2346 2347 2348 2349 2350 2351 2352 2353 2354 2355 2356 2357 2358 2359 2360 2361 2362 2363 2364 2365 2366 2367 2368 2369 2370 2371 2372 2373 2374 2375 2376 2377 2378 2379 2380 2381 2382 2383 2384 2385 2386 2387 2388 2389 2390 2391 2392 2393 2394 2395 2396 2397 2398 2399 2400 2401 2402 2403 2404 2405 2406 2407 2408 2409 2410 2411 2412 2413 2414 2415 2416 2417 2418 2419 2420 2421 2422 2423 2424 2425 2426 2427 2428 2429 2430 2431 2432 2433 2434 2435 2436 2437 2438 2439 2440 2441 2442 2443 2444 2445 2446 2447 2448 2449 2450 2451 2452 2453 2454 2455 2456 2457 2458 2459 2460 2461 2462 2463 2464 2465 2466 2467 2468 2469 2470 2471 2472 2473 2474 2475 2476 2477 2478 2479 2480 2481 2482 2483 2484 2485 2486 2487 2488 2489 2490 2491 2492 2493 2494 2495 2496 2497 2498 2499 2500 2501 2502 2503 2504 2505 2506 2507 2508 2509 2510 2511 2512 2513 2514 2515 2516 2517 2518 2519 2520 2521 2522 2523 2524 2525 2526 2527 2528 2529 2530 2531 2532 2533 2534 2535 2536 2537 2538 2539 2540 2541 2542 2543 2544 2545 2546 2547 2548 2549 2550 2551 2552 2553 2554 2555 2556 2557 2558 2559 2560 2561 2562 2563 2564 2565 2566 2567 2568 2569 2570 2571 2572 2573 2574 2575 2576 2577 2578 2579 2580 2581 2582 2583 2584 2585 2586 2587 2588 2589 2590 2591 2592 2593 2594 2595 2596 2597 2598 2599 2600 2601 2602 2603 2604 2605 2606 2607 2608 2609 2610 2611 2612 2613 2614 2615 2616 2617 2618 2619 2620 2621 2622 2623 2624 2625 2626 2627 2628 2629 2630 2631 2632 2633 2634 2635 2636 2637 2638 2639 2640 2641 2642 2643 2644 2645 2646 2647 2648 2649 2650 2651 2652 2653 2654 2655 2656 2657 2658 2659 2660 2661 2662 2663 2664 2665 2666 2667 2668 2669 2670 2671 2672 2673 2674 2675 2676 2677 2678 2679 2680 2681 2682 2683 2684 2685 2686 2687 2688 2689 2690 2691 2692 2693 2694 2695 2696 2697 2698 2699 2700 2701 2702 2703 2704 2705 2706 2707 2708 2709 2710 2711 2712 2713 2714 2715 2716 2717 2718 2719 2720 2721 2722 2723 2724 2725 2726 2727 2728 2729 2730 2731 2732 2733 2734 2735 2736 2737 2738 2739 2740 2741 2742 2743 2744 2745 2746 2747 2748 2749 2750 2751 2752 2753 2754 2755 2756 2757 2758 2759 2760 2761 2762 2763 2764 2765 2766 2767 2768 2769 2770 2771 2772 2773 2774 2775 2776 2777 2778 2779 2780 2781 2782 2783 2784 2785 2786 2787 2788 2789 2790 2791 2792 2793 2794 2795 2796 2797 2798 2799 2800 2801 2802 2803 2804 2805 2806 2807 2808 2809 2810 2811 2812 2813 2814 2815 2816 2817 2818 2819 2820 2821 2822 2823 2824 2825 2826 2827 2828 2829 2830 2831 2832 2833 2834 2835 2836 2837 2838 2839 2840 2841 2842 2843 2844 2845 2846 2847 2848 2849 2850 2851 2852 2853 2854 2855 2856 2857 2858 2859 2860 2861 2862 2863 2864 2865 2866 2867 2868 2869 2870 2871 2872 2873 2874 2875 2876 2877 2878 2879 2880 2881 2882 2883 2884 2885 2886 2887 2888 2889 2890 2891 2892 2893 2894 2895 2896 2897 2898 2899 2900 2901 2902 2903 2904 2905 2906 2907 2908 2909 2910 2911 2912 2913 2914 2915 2916 2917 2918 2919 2920 2921 2922 2923 2924 2925 2926 2927 2928 2929 2930 2931 2932 2933 2934 2935 2936 2937 2938 2939 2940 2941 2942 2943 2944 2945 2946 2947 2948 2949 2950 2951 2952 2953 2954 2955 2956 2957 2958 2959 2960 2961 2962 2963 2964 2965 2966 2967 2968 2969 2970 2971 2972 2973 2974 2975 2976 2977 2978 2979 2980 2981 2982 2983 2984 2985 2986 2987 2988 2989 2990 2991 2992 2993 2994 2995 2996 2997 2998 2999 3000 3001 3002 3003 3004 3005 3006 3007 3008 3009 3010 3011 3012 3013 3014 3015 3016 3017 3018 3019 3020 3021 3022 3023 3024 3025 3026 3027 3028 3029 3030 3031 3032 3033 3034 3035 3036 3037 3038 3039 3040 3041 3042 3043 3044 3045 3046 3047 3048 3049 3050 3051 3052 3053 3054 3055 3056 3057 3058 3059 3060 3061 3062 3063 3064 3065 3066 3067 3068 3069 3070 3071 3072 3073 3074 3075 3076 3077 3078 3079 3080 3081 3082 3083 3084 3085 3086 3087 3088 3089 3090 3091 3092 3093 3094 3095 3096 3097 3098 3099 3100 3101 3102 3103 3104 3105 3106 3107 3108 3109 3110 3111 3112 3113 3114 3115 3116 3117 3118 3119 3120 3121 3122 3123 3124 3125 3126 3127 3128 3129 3130 3131 3132 3133 3134 3135 3136 3137 3138 3139 3140 3141 3142 3143 3144 3145 3146 3147 3148 3149 3150 3151 3152 3153 3154 3155 3156 3157 3158 3159 3160 3161 3162 3163 3164 3165 3166 3167 3168 3169 3170 3171 3172 3173 3174 3175 3176 3177 3178 3179 3180 3181 3182 3183 3184 3185 3186 3187 3188 3189 3190 3191 3192 3193 3194 3195 3196 3197 3198 3199 3200 3201 3202 3203 3204 3205 3206 3207 3208 3209 3210 3211 3212 3213 3214 3215 3216 3217 3218 3219 3220 3221 3222 3223 3224 3225 3226 3227 3228 3229 3230 3231 3232 3233 3234 3235 3236 3237 3238 3239 3240 3241 3242 3243 3244 3245 3246 3247 3248 3249 3250 3251 3252 3253 3254 3255 3256 3257 3258 3259 3260 3261 3262 3263 3264 3265 3266 3267 3268 3269 3270 3271 3272 3273 3274 3275 3276 3277 3278 3279 3280 3281 3282 3283 3284 3285 3286 3287 3288 3289 3290 3291 3292 3293 3294 3295 3296 3297 3298 3299 3300 3301 3302 3303 3304 3305 3306 3307 3308 3309 3310 3311 3312 3313 3314 3315 3316 3317 3318 3319 3320 3321 3322 3323 3324 3325 3326 3327 3328 3329 3330 3331 3332 3333 3334 3335 3336 3337 3338 3339 3340 3341 3342 3343 3344 3345 3346 3347 3348 3349 3350 3351 3352 3353 3354 3355 3356 3357 3358 3359 3360 3361 3362 3363 3364 3365 3366 3367 3368 3369 3370 3371 3372 3373 3374 3375 3376 3377 3378 3379 3380 3381 3382 3383 3384 3385 3386 3387 3388 3389 3390 3391 3392 3393 3394 3395 3396 3397 3398 3399 3400 3401 3402 3403 3404 3405 3406 3407 3408 3409 3410 3411 3412 3413 3414 3415 3416 3417 3418 3419 3420 3421 3422 3423 3424 3425 3426 3427 3428 3429 3430 3431 3432 3433 3434 3435 3436 3437 3438 3439 3440 3441 3442 3443 3444 3445 3446 3447 3448 3449 3450 3451 3452 3453 3454 3455 3456 3457 3458 3459 3460 3461 3462 3463 3464 3465 3466 3467 3468 3469 3470 3471 3472 3473 3474 3475 3476 3477 3478 3479 3480 3481 3482 3483 3484 3485 3486 3487 3488 3489 3490 3491 3492 3493 3494 3495 3496 3497 3498 3499 3500 3501 3502 3503 3504 3505 3506 3507 3508 3509 3510 3511 3512 3513 3514 3515 3516 3517 3518 3519 3520 3521 3522 3523 3524 3525 3526 3527 3528 3529 3530 3531 3532 3533 3534 3535 3536 3537 3538 3539 3540 3541 3542 3543 3544 3545 3546 3547 3548 3549 3550 3551 3552 3553 3554 3555 3556 3557 3558 3559 3560 3561 3562 3563 3564 3565 3566 3567 3568 3569 3570 3571 3572 3573 3574 3575 3576 3577 3578 3579 3580 3581 3582 3583 3584 3585 3586 3587 3588 3589 3590 3591 3592 3593 3594 3595 3596 3597 3598 3599 3600 3601 3602 3603 3604 3605 3606 3607 3608 3609 3610 3611 3612 3613 3614 3615 3616 3617 3618 3619 3620 3621 3622 3623 3624 3625 3626 3627 3628 3629 3630 3631 3632 3633 3634 3635 3636 3637 3638 3639 3640 3641 3642 3643 3644 3645 3646 3647 3648 3649 3650 3651 3652 3653 3654 3655 3656 3657 3658 3659 3660 3661 3662 3663 3664 3665 3666 3667 3668 3669 3670 3671 3672 3673 3674 3675 3676 3677 3678 3679 3680 3681 3682 3683 3684 3685 3686 3687 3688 3689 3690 3691 3692 3693 3694 3695 3696 3697 3698 3699 3700 3701 3702 3703 3704 3705 3706 3707 3708 3709 3710 3711 3712 3713 3714 3715 3716 3717 3718 3719 3720 3721 3722 3723 3724 3725 3726 3727 3728 3729 3730 3731 3732 3733 3734 3735 3736 3737 3738 3739 3740 3741 3742 3743 3744 3745 3746 3747 3748 3749 3750 3751 3752 3753 3754 3755 3756 3757 3758 3759 3760 3761 3762 3763 3764 3765 3766 3767 3768 3769 3770 3771 3772 3773 3774 3775 3776 3777 3778 3779 3780 3781 3782 3783 3784 3785 3786 3787 3788 3789 3790 3791 3792 3793 3794 3795 3796 3797 3798 3799 3800 3801 3802 3803 3804 3805 3806 3807 3808 3809 3810 3811 3812 3813 3814 3815 3816 3817 3818 3819 3820 3821 3822 3823 3824 3825 3826 3827 3828 3829 3830 3831 3832 3833 3834 3835 3836 3837 3838 3839 3840 3841 3842 3843 3844 3845 3846 3847 3848 3849 3850 3851 3852 3853 3854 3855 3856 3857 3858 3859 3860 3861 3862 3863 3864 3865 3866 3867 3868 3869 3870 3871 3872 3873 3874 3875 3876 3877 3878 3879 3880 3881 3882 3883 3884 3885 3886 3887 3888 3889 3890 3891 3892 3893 3894 3895 3896 3897 3898 3899 3900 3901 3902 3903 3904 3905 3906 3907 3908 3909 3910 3911 3912 3913 3914 3915 3916 3917 3918 3919 3920 3921 3922 3923 3924 3925 3926 3927 3928 3929 3930 3931 3932 3933 3934 3935 3936 3937 3938 3939 3940 3941 3942 3943 3944 3945 3946 3947 3948 3949 3950 3951 3952 3953 3954 3955 3956 3957 3958 3959 3960 3961 3962 3963 3964 3965 3966 3967 3968 3969 3970 3971 3972 3973 3974 3975 3976 3977 3978 3979 3980 3981 3982 3983 3984 3985 3986 3987 3988 3989 3990 3991 3992 3993 3994 3995 3996 3997 3998 3999 4000 4001 4002 4003 4004 4005 4006 4007 4008 4009 4010 4011 4012 4013 4014 4015 4016 4017 4018 4019 4020 4021 4022 4023 4024 4025 4026 4027 4028 4029 4030 4031 4032 4033 4034 4035 4036 4037 4038 4039 4040 4041 4042 4043 4044 4045 4046 4047 4048 4049 4050 4051 4052 4053 4054 4055 4056 4057 4058 4059 4060 4061 4062 4063 4064 4065 4066 4067 4068 4069 4070 4071 4072 4073 4074 4075 4076 4077 4078 4079 4080 4081 4082 4083 4084 4085 4086 4087 4088 4089 4090 4091 4092 4093 4094 4095 4096 4097 4098 4099 4100 4101 4102 4103 4104 4105 4106 4107 4108 4109 4110 4111 4112 4113 4114 4115 4116 4117 4118 4119 4120 4121 4122 4123 4124 4125 4126 4127 4128 4129 4130 4131 4132 4133 4134 4135 4136 4137 4138 4139 4140 4141 4142 4143 4144 4145 4146 4147 4148 4149 4150 4151 4152 4153 4154 4155 4156 4157 4158 4159 4160 4161 4162 4163 4164 4165 4166 4167 4168 4169 4170 4171 4172 4173 4174 4175 4176 4177 4178 4179 4180 4181 4182 4183 4184 4185 4186 4187 4188 4189 4190 4191 4192 4193 4194 4195 4196 4197 4198 4199 4200 4201 4202 4203 4204 4205 4206 4207 4208 4209 4210 4211 4212 4213 4214 4215 4216 4217 4218 4219 4220 4221 4222 4223 4224 4225 4226 4227 4228 4229 4230 4231 4232 4233 4234 4235 4236 4237 4238 4239 4240 4241 4242 4243 4244 4245 4246 4247 4248 4249 4250 4251 4252 4253 4254 4255 4256 4257 4258 4259 4260 4261 4262 4263 4264 4265 4266 4267 4268 4269 4270 4271 4272 4273 4274 4275 4276 4277 4278 4279 4280 4281 4282 4283 4284 4285 4286 4287 4288 4289 4290 4291 4292 4293 4294 4295 4296 4297 4298 4299 4300 4301 4302 4303 4304 4305 4306 4307 4308 4309 4310 4311 4312 4313 4314 4315 4316 4317 4318 4319 4320 4321 4322 4323 4324 4325 4326 4327 4328 4329 4330 4331 4332 4333 4334 4335 4336 4337 4338 4339 4340 4341 4342 4343 4344 4345 4346 4347 4348 4349 4350 4351 4352 4353 4354 4355 4356 4357 4358 4359 4360 4361 4362 4363 4364 4365 4366 4367 4368 4369 4370 4371 4372 4373 4374 4375 4376 4377 4378 4379 4380 4381 4382 4383 4384 4385 4386 4387 4388 4389 4390 4391 4392 4393 4394 4395 4396 4397 4398 4399 4400 4401 4402 4403 4404 4405 4406 4407 4408 4409 4410 4411 4412 4413 4414 4415 4416 4417 4418 4419 4420 4421 4422 4423 4424 4425 4426 4427 4428 4429 4430 4431 4432 4433 4434 4435 4436 4437 4438 4439 4440 4441 4442 4443 4444 4445 4446 4447 4448 4449 4450 4451 4452 4453 4454 4455 4456 4457 4458 4459 4460 4461 4462 4463 4464 4465 4466 4467 4468 4469 4470 4471 4472 4473 4474 4475 4476 4477 4478 4479 4480 4481 4482 4483 4484 4485 4486 4487 4488 4489 4490 4491 4492 4493 4494 4495 4496 4497 4498 4499 4500 4501 4502 4503 4504 4505 4506 4507 4508 4509 4510 4511 4512 4513 4514 4515 4516 4517 4518 4519 4520 4521 4522 4523 4524 4525 4526 4527 4528 4529 4530 4531 4532 4533 4534 4535 4536 4537 4538 4539 4540 4541 4542 4543 4544 4545 4546 4547 4548 4549 4550 4551 4552 4553 4554 4555 4556 4557 4558 4559 4560 4561 4562 4563 4564 4565 4566 4567 4568 4569 4570 4571 4572 4573 4574 4575 4576 4577 4578 4579 4580 4581 4582 4583 4584 4585 4586 4587 4588 4589 4590 4591 4592 4593 4594 4595 4596 4597 4598 4599 4600 4601 4602 4603 4604 4605 4606 4607 4608 4609 4610 4611 4612 4613 4614 4615 4616 4617 4618 4619 4620 4621 4622 4623 4624 4625 4626 4627 4628 4629 4630 4631 4632 4633 4634 4635 4636 4637 4638 4639 4640 4641 4642 4643 4644 4645 4646 4647 4648 4649 4650 4651 4652 4653 4654 4655 4656 4657 4658 4659 4660 4661 4662 4663 4664 4665 4666 4667 4668 4669 4670 4671 4672 4673 4674 4675 4676 4677 4678 4679 4680 4681 4682 4683 4684 4685 4686 4687 4688 4689 4690 4691 4692 4693 4694 4695 4696 4697 4698 4699 4700 4701 4702 4703 4704 4705 4706 4707 4708 4709 4710 4711 4712 4713 4714 4715 4716 4717 4718 4719 4720 4721 4722 4723 4724 4725 4726 4727 4728 4729 4730 4731 4732 4733 4734 4735 4736 4737 4738 4739 4740 4741 4742 4743 4744 4745 4746 4747 4748 4749 4750 4751 4752 4753 4754 4755 4756 4757 4758 4759 4760 4761 4762 4763 4764 4765 4766 4767 4768 4769 4770 4771 4772 4773 4774 4775 4776 4777 4778 4779 4780 4781 4782 4783 4784 4785 4786 4787 4788 4789 4790 4791 4792 4793 4794 4795 4796 4797 4798 4799 4800 4801 4802 4803 4804 4805 4806 4807 4808 4809 4810 4811 4812 4813 4814 4815 4816 4817 4818 4819 4820 4821 4822 4823 4824 4825 4826 4827 4828 4829 4830 4831 4832 4833 4834 4835 4836 4837 4838 4839 4840 4841 4842 4843 4844 4845 4846 4847 4848 4849 4850 4851 4852 4853 4854 4855 4856 4857 4858 4859 4860 4861 4862 4863 4864 4865 4866 4867 4868 4869 4870 4871 4872 4873 4874 4875 4876 4877 4878 4879 4880 4881 4882 4883 4884 4885 4886 4887 4888 4889 4890 4891 4892 4893 4894 4895 4896 4897 4898 4899 4900 4901 4902 4903 4904 4905 4906 4907 4908 4909 4910 4911 4912 4913 4914 4915 4916 4917 4918 4919 4920 4921 4922 4923 4924 4925 4926 4927 4928 4929 4930 4931 4932 4933 4934 4935 4936 4937 4938 4939 4940 4941 4942 4943 4944 4945 4946 4947 4948 4949 4950 4951 4952 4953 4954 4955 4956 4957 4958 4959 4960 4961 4962 4963 4964 4965 4966 4967 4968 4969 4970 4971 4972 4973 4974 4975 4976 4977 4978 4979 4980 4981 4982 4983 4984 4985 4986 4987 4988 4989 4990 4991 4992 4993 4994 4995 4996 4997 4998 4999 5000 5001 5002 5003 5004 5005 5006 5007 5008 5009 5010 5011 5012 5013 5014 5015 5016 5017 5018 5019 5020 5021 5022 5023 5024 5025 5026 5027 5028 5029 5030 5031 5032 5033 5034 5035 5036 5037 5038 5039 5040 5041 5042 5043 5044 5045 5046 5047 5048 5049 5050 5051 5052 5053 5054 5055 5056 5057 5058 5059 5060 5061 5062 5063 5064 5065 5066 5067 5068 5069 5070 5071 5072 5073 5074 5075 5076 5077 5078 5079 5080 5081 5082 5083 5084 5085 5086 5087 5088 5089 5090 5091 5092 5093 5094 5095 5096 5097 5098 5099 5100 5101 5102 5103 5104 5105 5106 5107 5108 5109 5110 5111 5112 5113 5114 5115 5116 5117 5118 5119 5120 5121 5122 5123 5124 5125 5126 5127 5128 5129 5130 5131 5132 5133 5134 5135 5136 5137 5138 5139 5140 5141 5142 5143 5144 5145 5146 5147 5148 5149 5150 5151 5152 5153 5154 5155 5156 5157 5158 5159 5160 5161 5162 5163 5164 5165 5166 5167 5168 5169 5170 5171 5172 5173 5174 5175 5176 5177 5178 5179 5180 5181 5182 5183 5184 5185 5186 5187 5188 5189 5190 5191 5192 5193 5194 5195 5196 5197 5198 5199 5200 5201 5202 5203 5204 5205 5206 5207 5208 5209 5210 5211 5212 5213 5214 5215 5216 5217 5218 5219 5220 5221 5222 5223 5224 5225 5226 5227 5228 5229 5230 5231 5232 5233 5234 5235 5236 5237 5238 5239 5240 5241 5242 5243 5244 5245 5246 5247 5248 5249 5250 5251 5252 5253 5254 5255 5256 5257 5258 5259 5260 5261 5262 5263 5264 5265 5266 5267 5268 5269 5270 5271 5272 5273 5274 5275 5276 5277 5278 5279 5280 5281 5282 5283 5284 5285 5286 5287 5288 5289 5290 5291 5292 5293 5294 5295 5296 5297 5298 5299 5300 5301 5302 5303 5304 5305 5306 5307 5308 5309 5310 5311 5312 5313 5314 5315 5316 5317 5318 5319 5320 5321 5322 5323 5324 5325 5326 5327 5328 5329 5330 5331 5332 5333 5334 5335 5336 5337 5338 5339 5340 5341 5342 5343 5344 5345 5346 5347 5348 5349 5350 5351 5352 5353 5354 5355 5356 5357 5358 5359 5360 5361 5362 5363 5364 5365 5366 5367 5368 5369 5370 5371 5372 5373 5374 5375 5376 5377 5378 5379 5380 5381 5382 5383 5384 5385 5386 5387 5388 5389 5390 5391 5392 5393 5394 5395 5396 5397 5398 5399 5400 5401 5402 5403 5404 5405 5406 5407 5408 5409 5410 5411 5412 5413 5414 5415 5416 5417 5418 5419 5420 5421 5422 5423 5424 5425 5426 5427 5428 5429 5430 5431 5432 5433 5434 5435 5436 5437 5438 5439 5440 5441 5442 5443 5444 5445 5446 5447 5448 5449 5450 5451 5452 5453 5454 5455 5456 5457 5458 5459 5460 5461 5462 5463 5464 5465 5466 5467 5468 5469 5470 5471 5472 5473 5474 5475 5476 5477 5478 5479 5480 5481 5482 5483 5484 5485 5486 5487 5488 5489 5490 5491 5492 5493 5494 5495 5496 5497 5498 5499 5500 5501 5502 5503 5504 5505 5506 5507 5508 5509 5510 5511 5512 5513 5514 5515 5516 5517 5518 5519 5520 5521 5522 5523 5524 5525 5526 5527 5528 5529 5530 5531 5532 5533 5534 5535 5536 5537 5538 5539 5540 5541 5542 5543 5544 5545 5546 5547 5548 5549 5550 5551 5552 5553 5554 5555 5556 5557 5558 5559 5560 5561 5562 5563 5564 5565 5566 5567 5568 5569 5570 5571 5572 5573 5574 5575 5576 5577 5578 5579 5580 5581 5582 5583 5584 5585 5586 5587 5588 5589 5590 5591 5592 5593 5594 5595 5596 5597 5598 5599 5600 5601 5602 5603 5604 5605 5606 5607 5608 5609 5610 5611 5612 5613 5614 5615 5616 5617 5618 5619 5620 5621 5622 5623 5624 5625 5626 5627 5628 5629 5630 5631 5632 5633 5634 5635 5636 5637 5638 5639 5640 5641 5642 5643 5644 5645 5646 5647 5648 5649 5650 5651 5652 5653 5654 5655 5656 5657 5658 5659 5660 5661 5662 5663 5664 5665 5666 5667 5668 5669 5670 5671 5672 5673 5674 5675 5676 5677 5678 5679 5680 5681 5682 5683 5684 5685 5686 5687 5688 5689 5690 5691 5692 5693 5694 5695 5696 5697 5698 5699 5700 5701 5702 5703 5704 5705 5706 5707 5708 5709 5710 5711 5712 5713 5714 5715 5716 5717 5718 5719 5720 5721 5722 5723 5724 5725 5726 5727 5728 5729 5730 5731 5732 5733 5734 5735 5736 5737 5738 5739 5740 5741 5742 5743 5744 5745 5746 5747 5748 5749 5750 5751 5752 5753 5754 5755 5756 5757 5758 5759 5760 5761 5762 5763 5764 5765 5766 5767 5768 5769 5770 5771 5772 5773 5774 5775 5776 5777 5778 5779 5780 5781 5782 5783 5784 5785 5786 5787 5788 5789 5790 5791 5792 5793 5794 5795 5796 5797 5798 5799 5800 5801 5802 5803 5804 5805 5806 5807 5808 5809 5810 5811 5812 5813 5814 5815 5816 5817 5818 5819 5820 5821 5822 5823 5824 5825 5826 5827 5828 5829 5830 5831 5832 5833 5834 5835 5836 5837 5838 5839 5840 5841 5842 5843 5844 5845 5846 5847 5848 5849 5850 5851 5852 5853 5854 5855 5856 5857 5858 5859 5860 5861 5862 5863 5864 5865 5866 5867 5868 5869 5870 5871 5872 5873 5874 5875 5876 5877 5878 5879 5880 5881 5882 5883 5884 5885 5886 5887 5888 5889 5890 5891 5892 5893 5894 5895 5896 5897 5898 5899 5900 5901 5902 5903 5904 5905 5906 5907 5908 5909 5910 5911 5912 5913 5914 5915 5916 5917 5918 5919 5920 5921 5922 5923 5924 5925 5926 5927 5928 5929 5930 5931 5932 5933 5934 5935 5936 5937 5938 5939 5940 5941 5942 5943 5944 5945 5946 5947 5948 5949 5950 5951 5952 5953 5954 5955 5956 5957 5958 5959 5960 5961 5962 5963 5964 5965 5966 5967 5968 5969 5970 5971 5972 5973 5974 5975 5976 5977 5978 5979 5980 5981 5982 5983 5984 5985 5986 5987 5988 5989 5990 5991 5992 5993 5994 5995 5996 5997 5998 5999 6000 6001 6002 6003 6004 6005 6006 6007 6008 6009 6010 6011 6012 6013 6014 6015 6016 6017 6018 6019 6020 6021 6022 6023 6024 6025 6026 6027 6028 6029 6030 6031 6032 6033 6034 6035 6036 6037 6038 6039 6040 6041 6042 6043 6044 6045 6046 6047 6048 6049 6050 6051 6052 6053 6054 6055 6056 6057 6058 6059 6060 6061 6062 6063 6064 6065 6066 6067 6068 6069 6070 6071 6072 6073 6074 6075 6076 6077 6078 6079 6080 6081 6082 6083 6084 6085 6086 6087 6088 6089 6090 6091 6092 6093 6094 6095 6096 6097 6098 6099 6100 6101 6102 6103 6104 6105 6106 6107 6108 6109 6110 6111 6112 6113 6114 6115 6116 6117 6118 6119 6120 6121 6122 6123 6124 6125 6126 6127 6128 6129 6130 6131 6132 6133 6134 6135 6136 6137 6138 6139 6140 6141 6142 6143 6144 6145 6146 6147 6148 6149 6150 6151 6152 6153 6154 6155 6156 6157 6158 6159 6160 6161 6162 6163 6164 6165 6166 6167 6168 6169 6170 6171 6172 6173 6174 6175 6176 6177 6178 6179 6180 6181 6182 6183 6184 6185 6186 6187 6188 6189 6190 6191 6192 6193 6194 6195 6196 6197 6198 6199 6200 6201 6202 6203 6204 6205 6206 6207 6208 6209 6210 6211 6212 6213 6214 6215 6216 6217 6218 6219 6220 6221 6222 6223 6224 6225 6226 6227 6228 6229 6230 6231 6232 6233 6234 6235 6236 6237 6238 6239 6240 6241 6242 6243 6244 6245 6246 6247 6248 6249 6250 6251 6252 6253 6254 6255 6256 6257 6258 6259 6260 6261 6262 6263 6264 6265 6266 6267 6268 6269 6270 6271 6272 6273 6274 6275 6276 6277 6278 6279 6280 6281 6282 6283 6284 6285 6286 6287 6288 6289 6290 6291 6292 6293 6294 6295 6296 6297 6298 6299 6300 6301 6302 6303 6304 6305 6306 6307 6308 6309 6310 6311 6312 6313 6314 6315 6316 6317 6318 6319 6320 6321 6322 6323 6324 6325 6326 6327 6328 6329 6330 6331 6332 6333 6334 6335 6336 6337 6338 6339 6340 6341 6342 6343 6344 6345 6346 6347 6348 6349 6350 6351 6352 6353 6354 6355 6356 6357 6358 6359 6360 6361 6362 6363 6364 6365 6366 6367 6368 6369 6370 6371 6372 6373 6374 6375 6376 6377 6378 6379 6380 6381 6382 6383 6384 6385 6386 6387 6388 6389 6390 6391 6392 6393 6394 6395 6396 6397 6398 6399 6400 6401 6402 6403 6404 6405 6406 6407 6408 6409 6410 6411 6412 6413 6414 6415 6416 6417 6418 6419 6420 6421 6422 6423 6424 6425 6426 6427 6428 6429 6430 6431 6432 6433 6434 6435 6436 6437 6438 6439 6440 6441 6442 6443 6444 6445 6446 6447 6448 6449 6450 6451 6452 6453 6454 6455 6456 6457 6458 6459 6460 6461 6462 6463 6464 6465 6466 6467 6468 6469 6470 6471 6472 6473 6474 6475 6476 6477 6478 6479 6480 6481 6482 6483 6484 6485 6486 6487 6488 6489 6490 6491 6492 6493 6494 6495 6496 6497 6498 6499 6500 6501 6502 6503 6504 6505 6506 6507 6508 6509 6510 6511 6512 6513 6514 6515 6516 6517 6518 6519 6520 6521 6522 6523 6524 6525 6526 6527 6528 6529 6530 6531 6532 6533 6534 6535 6536 6537 6538 6539 6540 6541 6542 6543 6544 6545 6546 6547 6548 6549 6550 6551 6552 6553 6554 6555 6556 6557 6558 6559 6560 6561 6562 6563 6564 6565 6566 6567 6568 6569 6570 6571 6572 6573 6574 6575 6576 6577 6578 6579 6580 6581 6582 6583 6584 6585 6586 6587 6588 6589 6590 6591 6592 6593 6594 6595 6596 6597 6598 6599 6600 6601 6602 6603 6604 6605 6606 6607 6608 6609 6610 6611 6612 6613 6614 6615 6616 6617 6618 6619 6620 6621 6622 6623 6624 6625 6626 6627 6628 6629 6630 6631 6632 6633 6634 6635 6636 6637 6638 6639 6640 6641 6642 6643 6644 6645 6646 6647 6648 6649 6650 6651 6652 6653 6654 6655 6656 6657 6658 6659 6660 6661 6662 6663 6664 6665 6666 6667 6668 6669 6670 6671 6672 6673 6674 6675 6676 6677 6678 6679 6680 6681 6682 6683 6684 6685 6686 6687 6688 6689 6690 6691 6692 6693 6694 6695 6696 6697 6698 6699 6700 6701 6702 6703 6704 6705 6706 6707 6708 6709 6710 6711 6712 6713 6714 6715 6716 6717 6718 6719 6720 6721 6722 6723 6724 6725 6726 6727 6728 6729 6730 6731 6732 6733 6734 6735 6736 6737 6738 6739 6740 6741 6742 6743 6744 6745 6746 6747 6748 6749 6750 6751 6752 6753 6754 6755 6756 6757 6758 6759 6760 6761 6762 6763 6764 6765 6766 6767 6768 6769 6770 6771 6772 6773 6774 6775 6776 6777 6778 6779 6780 6781 6782 6783 6784 6785 6786 6787 6788 6789 6790 6791 6792 6793 6794 6795 6796 6797 6798 6799 6800 6801 6802 6803 6804 6805 6806 6807 6808 6809 6810 6811 6812 6813 6814 6815 6816 6817 6818 6819 6820 6821 6822 6823 6824 6825 6826 6827 6828 6829 6830 6831 6832 6833 6834 6835 6836 6837 6838 6839 6840 6841 6842 6843 6844 6845 6846 6847 6848 6849 6850 6851 6852 6853 6854 6855 6856 6857 6858 6859 6860 6861 6862 6863 6864 6865 6866 6867 6868 6869 6870 6871 6872 6873 6874 6875 6876 6877 6878 6879 6880 6881 6882 6883 6884 6885 6886 6887 6888 6889 6890 6891 6892 6893 6894 6895 6896 6897 6898 6899 6900 6901 6902 6903 6904 6905 6906 6907 6908 6909 6910 6911 6912 6913 6914 6915 6916 6917 6918 6919 6920 6921 6922 6923 6924 6925 6926 6927 6928 6929 6930 6931 6932 6933 6934 6935 6936 6937 6938 6939 6940 6941 6942 6943 6944 6945 6946 6947 6948 6949 6950 6951 6952 6953 6954 6955 6956 6957 6958 6959 6960 6961 6962 6963 6964 6965 6966 6967 6968 6969 6970 6971 6972 6973 6974 6975 6976 6977 6978 6979 6980 6981 6982 6983 6984 6985 6986 6987 6988 6989 6990 6991 6992 6993 6994 6995 6996 6997 6998 6999 7000 7001 7002 7003 7004 7005 7006 7007 7008 7009 7010 7011 7012 7013 7014 7015 7016 7017 7018 7019 7020 7021 7022 7023 7024 7025 7026 7027 7028 7029 7030 7031 7032 7033 7034 7035 7036 7037 7038 7039 7040 7041 7042 7043 7044 7045 7046 7047 7048 7049 7050 7051 7052 7053 7054 7055 7056 7057 7058 7059 7060 7061 7062 7063 7064 7065 7066 7067 7068 7069 7070 7071 7072 7073 7074 7075 7076 7077 7078 7079 7080 7081 7082 7083 7084 7085 7086 7087 7088 7089 7090 7091 7092 7093 7094 7095 7096 7097 7098 7099 7100 7101 7102 7103 7104 7105 7106 7107 7108 7109 7110 7111 7112 7113 7114 7115 7116 7117 7118 7119 7120 7121 7122 7123 7124 7125 7126 7127 7128 7129 7130 7131 7132 7133 7134 7135 7136 7137 7138 7139 7140 7141 7142 7143 7144 7145 7146 7147 7148 7149 7150 7151 7152 7153 7154 7155 7156 7157 7158 7159 7160 7161 7162 7163 7164 7165 7166 7167 7168 7169 7170 7171 7172 7173 7174 7175 7176 7177 7178 7179 7180 7181 7182 7183 7184 7185 7186 7187 7188 7189 7190 7191 7192 7193 7194 7195 7196 7197 7198 7199 7200 7201 7202 7203 7204 7205 7206 7207 7208 7209 7210 7211 7212 7213 7214 7215 7216 7217 7218 7219 7220 7221 7222 7223 7224 7225 7226 7227 7228 7229 7230 7231 7232 7233 7234 7235 7236 7237 7238 7239 7240 7241 7242 7243 7244 7245 7246 7247 7248 7249 7250 7251 7252 7253 7254 7255 7256 7257 7258 7259 7260 7261 7262 7263 7264 7265 7266 7267 7268 7269 7270 7271 7272 7273 7274 7275 7276 7277 7278 7279 7280 7281 7282 7283 7284 7285 7286 7287 7288 7289 7290 7291 7292 7293 7294 7295 7296 7297 7298 7299 7300 7301 7302 7303 7304 7305 7306 7307 7308 7309 7310 7311 7312 7313 7314 7315 7316 7317 7318 7319 7320 7321 7322 7323 7324 7325 7326 7327 7328 7329 7330 7331 7332 7333 7334 7335 7336 7337 7338 7339 7340 7341 7342 7343 7344 7345 7346 7347 7348 7349 7350 7351 7352 7353 7354 7355 7356 7357 7358 7359 7360 7361 7362 7363 7364 7365 7366 7367 7368 7369 7370 7371 7372 7373 7374 7375 7376 7377 7378 7379 7380 7381 7382 7383 7384 7385 7386 7387 7388 7389 7390 7391 7392 7393 7394 7395 7396 7397 7398 7399 7400 7401 7402 7403 7404 7405 7406 7407 7408 7409 7410 7411 7412 7413 7414 7415 7416 7417 7418 7419 7420 7421 7422 7423 7424 7425 7426 7427 7428 7429 7430 7431 7432 7433 7434 7435 7436 7437 7438 7439 7440 7441 7442 7443 7444 7445 7446 7447 7448 7449 7450 7451 7452 7453 7454 7455 7456 7457 7458 7459 7460 7461 7462 7463 7464 7465 7466 7467 7468 7469 7470 7471 7472 7473 7474 7475 7476 7477 7478 7479 7480 7481 7482 7483 7484 7485 7486 7487 7488 7489 7490 7491 7492 7493 7494 7495 7496 7497 7498 7499 7500 7501 7502 7503 7504 7505 7506 7507 7508 7509 7510 7511 7512 7513 7514 7515 7516 7517 7518 7519 7520 7521 7522 7523 7524 7525 7526 7527 7528 7529 7530 7531 7532 7533 7534 7535 7536 7537 7538 7539 7540 7541 7542 7543 7544 7545 7546 7547 7548 7549 7550 7551 7552 7553 7554 7555 7556 7557 7558 7559 7560 7561 7562 7563 7564 7565 7566 7567 7568 7569 7570 7571 7572 7573 7574 7575 7576 7577 7578 7579 7580 7581 7582 7583 7584 7585 7586 7587 7588 7589 7590 7591 7592 7593 7594 7595 7596 7597 7598 7599 7600 7601 7602 7603 7604 7605 7606 7607 7608 7609 7610 7611 7612 7613 7614 7615 7616 7617 7618 7619 7620 7621 7622 7623 7624 7625 7626 7627 7628 7629 7630 7631 7632 7633 7634 7635 7636 7637 7638 7639 7640 7641 7642 7643 7644 7645 7646 7647 7648 7649 7650 7651 7652 7653 7654 7655 7656 7657 7658 7659 7660 7661 7662 7663 7664 7665 7666 7667 7668 7669 7670 7671 7672 7673 7674 7675 7676 7677 7678 7679 7680 7681 7682 7683 7684 7685 7686 7687 7688 7689 7690 7691 7692 7693 7694 7695 7696 7697 7698 7699 7700 7701 7702 7703 7704 7705 7706 7707 7708 7709 7710 7711 7712 7713 7714 7715 7716 7717 7718 7719 7720 7721 7722 7723 7724 7725 7726 7727 7728 7729 7730 7731 7732 7733 7734 7735 7736 7737 7738 7739 7740 7741 7742 7743 7744 7745 7746 7747 7748 7749 7750 7751 7752 7753 7754 7755 7756 7757 7758 7759 7760 7761 7762 7763 7764 7765 7766 7767 7768 7769 7770 7771 7772 7773 7774 7775 7776 7777 7778 7779 7780 7781 7782 7783 7784 7785 7786 7787 7788 7789 7790 7791 7792 7793 7794 7795 7796 7797 7798 7799 7800 7801 7802 7803 7804 7805 7806 7807 7808 7809 7810 7811 7812 7813 7814 7815 7816 7817 7818 7819 7820 7821 7822 7823 7824 7825 7826 7827 7828 7829 7830 7831 7832 7833 7834 7835 7836 7837 7838 7839 7840 7841 7842 7843 7844 7845 7846 7847 7848 7849 7850 7851 7852 7853 7854 7855 7856 7857 7858 7859 7860 7861 7862 7863 7864 7865 7866 7867 7868 7869 7870 7871 7872 7873 7874 7875 7876 7877 7878 7879 7880 7881 7882 7883 7884 7885 7886 7887 7888 7889 7890 7891 7892 7893 7894 7895 7896 7897 7898 7899 7900 7901 7902 7903 7904 7905 7906 7907 7908 7909 7910 7911 7912 7913 7914 7915 7916 7917 7918 7919 7920 7921 7922 7923 7924 7925 7926 7927 7928 7929 7930 7931 7932 7933 7934 7935 7936 7937 7938 7939 7940 7941 7942 7943 7944 7945 7946 7947 7948 7949 7950 7951 7952 7953 7954 7955 7956 7957 7958 7959 7960 7961 7962 7963 7964 7965 7966 7967 7968 7969 7970 7971 7972 7973 7974 7975 7976 7977 7978 7979 7980 7981 7982 7983 7984 7985 7986 7987 7988 7989 7990 7991 7992 7993 7994 7995 7996 7997 7998 7999 8000 8001 8002 8003 8004 8005 8006 8007 8008 8009 8010 8011 8012 8013 8014 8015 8016 8017 8018 8019 8020 8021 8022 8023 8024 8025 8026 8027 8028 8029 8030 8031 8032 8033 8034 8035 8036 8037 8038 8039 8040 8041 8042 8043 8044 8045 8046 8047 8048 8049 8050 8051 8052 8053 8054 8055 8056 8057 8058 8059 8060 8061 8062 8063 8064 8065 8066 8067 8068 8069 8070 8071 8072 8073 8074 8075 8076 8077 8078 8079 8080 8081 8082 8083 8084 8085 8086 8087 8088 8089 8090 8091 8092 8093 8094 8095 8096 8097 8098 8099 8100 8101 8102 8103 8104 8105 8106 8107 8108 8109 8110 8111 8112 8113 8114 8115 8116 8117 8118 8119 8120 8121 8122 8123 8124 8125 8126 8127 8128 8129 8130 8131 8132 8133 8134 8135 8136 8137 8138 8139 8140 8141 8142 8143 8144 8145 8146 8147 8148 8149 8150 8151 8152 8153 8154 8155 8156 8157 8158 8159 8160 8161 8162 8163 8164 8165 8166 8167 8168 8169 8170 8171 8172 8173 8174 8175 8176 8177 8178 8179 8180 8181 8182 8183 8184 8185 8186 8187 8188 8189 8190 8191 8192 8193 8194 8195 8196 8197 8198 8199 8200 8201 8202 8203 8204 8205 8206 8207 8208 8209 8210 8211 8212 8213 8214 8215 8216 8217 8218 8219 8220 8221 8222 8223 8224 8225 8226 8227 8228 8229 8230 8231 8232 8233 8234 8235 8236 8237 8238 8239 8240 8241 8242 8243 8244 8245 8246 8247 8248 8249 8250 8251 8252 8253 8254 8255 8256 8257 8258 8259 8260 8261 8262 8263 8264 8265 8266 8267 8268 8269 8270 8271 8272 8273 8274 8275 8276 8277 8278 8279 8280 8281 8282 8283 8284 8285 8286 8287 8288 8289 8290 8291 8292 8293 8294 8295 8296 8297 8298 8299 8300 8301 8302 8303 8304 8305 8306 8307 8308 8309 8310 8311 8312 8313 8314 8315 8316 8317 8318 8319 8320 8321 8322 8323 8324 8325 8326 8327 8328 8329 8330 8331 8332 8333 8334 8335 8336 8337 8338 8339 8340 8341 8342 8343 8344 8345 8346 8347 8348 8349 8350 8351 8352 8353 8354 8355 8356 8357 8358 8359 8360 8361 8362 8363 8364 8365 8366 8367 8368 8369 8370 8371 8372 8373 8374 8375 8376 8377 8378 8379 8380 8381 8382 8383 8384 8385 8386 8387 8388 8389 8390 8391 8392 8393 8394 8395 8396 8397 8398 8399 8400 8401 8402 8403 8404 8405 8406 8407 8408 8409 8410 8411 8412 8413 8414 8415 8416 8417 8418 8419 8420 8421 8422 8423 8424 8425 8426 8427 8428 8429 8430 8431 8432 8433 8434 8435 8436 8437 8438 8439 8440 8441 8442 8443 8444 8445 8446 8447 8448 8449 8450 8451 8452 8453 8454 8455 8456 8457 8458 8459 8460 8461 8462 8463 8464 8465 8466 8467 8468 8469 8470 8471 8472 8473 8474 8475 8476 8477 8478 8479 8480 8481 8482 8483 8484 8485 8486 8487 8488 8489 8490 8491 8492 8493 8494 8495 8496 8497 8498 8499 8500 8501 8502 8503 8504 8505 8506 8507 8508 8509 8510 8511 8512 8513 8514 8515 8516 8517 8518 8519 8520 8521 8522 8523 8524 8525 8526 8527 8528 8529 8530 8531 8532 8533 8534 8535 8536 8537 8538 8539 8540 8541 8542 8543 8544 8545 8546 8547 8548 8549 8550 8551 8552 8553 8554 8555 8556 8557 8558 8559 8560 8561 8562 8563 8564 8565 8566 8567 8568 8569 8570 8571 8572 8573 8574 8575 8576 8577 8578 8579 8580 8581 8582 8583 8584 8585 8586 8587 8588 8589 8590 8591 8592 8593 8594 8595 8596 8597 8598 8599 8600 8601 8602 8603 8604 8605 8606 8607 8608 8609 8610 8611 8612 8613 8614 8615 8616 8617 8618 8619 8620 8621 8622 8623 8624 8625 8626 8627 8628 8629 8630 8631 8632 8633 8634 8635 8636 8637 8638 8639 8640 8641 8642 8643 8644 8645 8646 8647 8648 8649 8650 8651 8652 8653 8654 8655 8656 8657 8658 8659 8660 8661 8662 8663 8664 8665 8666 8667 8668 8669 8670 8671 8672 8673 8674 8675 8676 8677 8678 8679 8680 8681 8682 8683 8684 8685 8686 8687 8688 8689 8690 8691 8692 8693 8694 8695 8696 8697 8698 8699 8700 8701 8702 8703 8704 8705 8706 8707 8708 8709 8710 8711 8712 8713 8714 8715 8716 8717 8718 8719 8720 8721 8722 8723 8724 8725 8726 8727 8728 8729 8730 8731 8732 8733 8734 8735 8736 8737 8738 8739 8740 8741 8742 8743 8744 8745 8746 8747 8748 8749 8750 8751 8752 8753 8754 8755 8756 8757 8758 8759 8760 8761 8762 8763 8764 8765 8766 8767 8768 8769 8770 8771 8772 8773 8774 8775 8776 8777 8778 8779 8780 8781 8782 8783 8784 8785 8786 8787 8788 8789 8790 8791 8792 8793 8794 8795 8796 8797 8798 8799 8800 8801 8802 8803 8804 8805 8806 8807 8808 8809 8810 8811 8812 8813 8814 8815 8816 8817 8818 8819 8820 8821 8822 8823 8824 8825 8826 8827 8828 8829 8830 8831 8832 8833 8834 8835 8836 8837 8838 8839 8840 8841 8842 8843 8844 8845 8846 8847 8848 8849 8850 8851 8852 8853 8854 8855 8856 8857 8858 8859 8860 8861 8862 8863 8864 8865 8866 8867 8868 8869 8870 8871 8872 8873 8874 8875 8876 8877 8878 8879 8880 8881 8882 8883 8884 8885 8886 8887 8888 8889 8890 8891 8892 8893 8894 8895 8896 8897 8898 8899 8900 8901 8902 8903 8904 8905 8906 8907 8908 8909 8910 8911 8912 8913 8914 8915 8916 8917 8918 8919 8920 8921 8922 8923 8924 8925 8926 8927 8928 8929 8930 8931 8932 8933 8934 8935 8936 8937 8938 8939 8940 8941 8942 8943 8944 8945 8946 8947 8948 8949 8950 8951 8952 8953 8954 8955 8956 8957 8958 8959 8960 8961 8962 8963 8964 8965 8966 8967 8968 8969 8970 8971 8972 8973 8974 8975 8976 8977 8978 8979 8980 8981 8982 8983 8984 8985 8986 8987 8988 8989 8990 8991 8992 8993 8994 8995 8996 8997 8998 8999 9000 9001 9002 9003 9004 9005 9006 9007 9008 9009 9010 9011 9012 9013 9014 9015 9016 9017 9018 9019 9020 9021 9022 9023 9024 9025 9026 9027 9028 9029 9030 9031 9032 9033 9034 9035 9036 9037 9038 9039 9040 9041 9042 9043 9044 9045 9046 9047 9048 9049 9050 9051 9052 9053 9054 9055 9056 9057 9058 9059 9060 9061 9062 9063 9064 9065 9066 9067 9068 9069 9070 9071 9072 9073 9074 9075 9076 9077 9078 9079 9080 9081 9082 9083 9084 9085 9086 9087 9088 9089 9090 9091 9092 9093 9094 9095 9096 9097 9098 9099 9100 9101 9102 9103 9104 9105 9106 9107 9108 9109 9110 9111 9112 9113 9114 9115 9116 9117 9118 9119 9120 9121 9122 9123 9124 9125 9126 9127 9128 9129 9130 9131 9132 9133 9134 9135 9136 9137 9138 9139 9140 9141 9142 9143 9144 9145 9146 9147 9148 9149 9150 9151 9152 9153 9154 9155 9156 9157 9158 9159 9160 9161 9162 9163 9164 9165 9166 9167 9168 9169 9170 9171 9172 9173 9174 9175 9176 9177 9178 9179 9180 9181 9182 9183 9184 9185 9186 9187 9188 9189 9190 9191 9192 9193 9194 9195 9196 9197 9198 9199 9200 9201 9202 9203 9204 9205 9206 9207 9208 9209 9210 9211 9212 9213 9214 9215 9216 9217 9218 9219 9220 9221 9222 9223 9224 9225 9226 9227 9228 9229 9230 9231 9232 9233 9234 9235 9236 9237 9238 9239 9240 9241 9242 9243 9244 9245 9246 9247 9248 9249 9250 9251 9252 9253 9254 9255 9256 9257 9258 9259 9260 9261 9262 9263 9264 9265 9266 9267 9268 9269 9270 9271 9272 9273 9274 9275 9276 9277 9278 9279 9280 9281 9282 9283 9284 9285 9286 9287 9288 9289 9290 9291 9292 9293 9294 9295 9296 9297 9298 9299 9300 9301 9302 9303 9304 9305 9306 9307 9308 9309 9310 9311 9312 9313 9314 9315 9316 9317 9318 9319 9320 9321 9322 9323 9324 9325 9326 9327 9328 9329 9330 9331 9332 9333 9334 9335 9336 9337 9338 9339 9340 9341 9342 9343 9344 9345 9346 9347 9348 9349 9350 9351 9352 9353 9354 9355 9356 9357 9358 9359 9360 9361 9362 9363 9364 9365 9366 9367 9368 9369 9370 9371 9372 9373 9374 9375 9376 9377 9378 9379 9380 9381 9382 9383 9384 9385 9386 9387 9388 9389 9390 9391 9392 9393 9394 9395 9396 9397 9398 9399 9400 9401 9402 9403 9404 9405 9406 9407 9408 9409 9410 9411 9412 9413 9414 9415 9416 9417 9418 9419 9420 9421 9422 9423 9424 9425 9426 9427 9428 9429 9430 9431 9432 9433 9434 9435 9436 9437 9438 9439 9440 9441 9442 9443 9444 9445 9446 9447 9448 9449 9450 9451 9452 9453 9454 9455 9456 9457 9458 9459 9460 9461 9462 9463 9464 9465 9466 9467 9468 9469 9470 9471 9472 9473 9474 9475 9476 9477 9478 9479 9480 9481 9482 9483 9484 9485 9486 9487 9488 9489 9490 9491 9492 9493 9494 9495 9496 9497 9498 9499 9500 9501 9502 9503 9504 9505 9506 9507 9508 9509 9510 9511 9512 9513 9514 9515 9516 9517 9518 9519 9520 9521 9522 9523 9524 9525 9526 9527 9528 9529 9530 9531 9532 9533 9534 9535 9536 9537 9538 9539 9540 9541 9542 9543 9544 9545 9546 9547 9548 9549 9550 9551 9552 9553 9554 9555 9556 9557 9558 9559 9560 9561 9562 9563 9564 9565 9566 9567 9568 9569 9570 9571 9572 9573 9574 9575 9576 9577 9578 9579 9580 9581 9582 9583 9584 9585 9586 9587 9588 9589 9590 9591 9592 9593 9594 9595 9596 9597 9598 9599 9600 9601 9602 9603 9604 9605 9606 9607 9608 9609 9610 9611 9612 9613 9614 9615 9616 9617 9618 9619 9620 9621 9622 9623 9624 9625 9626 9627 9628 9629 9630 9631 9632 9633 9634 9635 9636 9637 9638 9639 9640 9641 9642 9643 9644 9645 9646 9647 9648 9649 9650 9651 9652 9653 9654 9655 9656 9657 9658 9659 9660 9661 9662 9663 9664 9665 9666 9667 9668 9669 9670 9671 9672 9673 9674 9675 9676 9677 9678 9679 9680 9681 9682 9683 9684 9685 9686 9687 9688 9689 9690 9691 9692 9693 9694 9695 9696 9697 9698 9699 9700 9701 9702 9703 9704 9705 9706 9707 9708 9709 9710 9711 9712 9713 9714 9715 9716 9717 9718 9719 9720 9721 9722 9723 9724 9725 9726 9727 9728 9729 9730 9731 9732 9733 9734 9735 9736 9737 9738 9739 9740 9741 9742 9743 9744 9745 9746 9747 9748 9749 9750 9751 9752 9753 9754 9755 9756 9757 9758 9759 9760 9761 9762 9763 9764 9765 9766 9767 9768 9769 9770 9771 9772 9773 9774 9775 9776 9777 9778 9779 9780 9781 9782 9783 9784 9785 9786 9787 9788 9789 9790 9791 9792 9793 9794 9795 9796 9797 9798 9799 9800 9801 9802 9803 9804 9805 9806 9807 9808 9809 9810 9811 9812 9813 9814 9815 9816 9817 9818 9819 9820 9821 9822 9823 9824 9825 9826 9827 9828 9829 9830 9831 9832 9833 9834 9835 9836 9837 9838 9839 9840 9841 9842 9843 9844 9845 9846 9847 9848 9849 9850 9851 9852 9853 9854 9855 9856 9857 9858 9859 9860 9861 9862 9863 9864 9865 9866 9867 9868 9869 9870 9871 9872 9873 9874 9875 9876 9877 9878 9879 9880 9881 9882 9883 9884 9885 9886 9887 9888 9889 9890 9891 9892 9893 9894 9895 9896 9897 9898 9899 9900 9901 9902 9903 9904 9905 9906 9907 9908 9909 9910 9911 9912 9913 9914 9915 9916 9917 9918 9919 9920 9921 9922 9923 9924 9925 9926 9927 9928 9929 9930 9931 9932 9933 9934 9935 9936 9937 9938 9939 9940 9941 9942 9943 9944 9945 9946 9947 9948 9949 9950 9951 9952 9953 9954 9955 9956 9957 9958 9959 9960 9961 9962 9963 9964 9965 9966 9967 9968 9969 9970 9971 9972 9973 9974 9975 9976 9977 9978 9979 9980 9981 9982 9983 9984 9985 9986 9987 9988 9989 9990 9991 9992 9993 9994 9995 9996 9997 9998 9999 10000 10001 10002 10003 10004 10005 10006 10007 10008 10009 10010 10011 10012 10013 10014 10015 10016 10017 10018 10019 10020 10021 10022 10023 10024 10025 10026 10027 10028 10029 10030 10031 10032 10033 10034 10035 10036 10037 10038 10039 10040 10041 10042 10043 10044 10045 10046 10047 10048 10049 10050 10051 10052 10053 10054 10055 10056 10057 10058 10059 10060 10061 10062 10063 10064 10065 10066 10067 10068 10069 10070 10071 10072 10073 10074 10075 10076 10077 10078 10079 10080 10081 10082 10083 10084 10085 10086 10087 10088 10089 10090 10091 10092 10093 10094 10095 10096 10097 10098 10099 10100 10101 10102 10103 10104 10105 10106 10107 10108 10109 10110 10111 10112 10113 10114 10115 10116 10117 10118 10119 10120 10121 10122 10123 10124 10125 10126 10127 10128 10129 10130 10131 10132 10133 10134 10135 10136 10137 10138 10139 10140 10141 10142 10143 10144 10145 10146 10147 10148 10149 10150 10151 10152 10153 10154 10155 10156 10157 10158 10159 10160 10161 10162 10163 10164 10165 10166 10167 10168 10169 10170 10171 10172 10173 10174 10175 10176 10177 10178 10179 10180 10181 10182 10183 10184 10185 10186 10187 10188 10189 10190 10191 10192 10193 10194 10195 10196 10197 10198 10199 10200 10201 10202 10203 10204 10205 10206 10207 10208 10209 10210 10211 10212 10213 10214 10215 10216 10217 10218 10219 10220 10221 10222 10223 10224 10225 10226 10227 10228 10229 10230 10231 10232 10233 10234 10235 10236 10237 10238 10239 10240 10241 10242 10243 10244 10245 10246 10247 10248 10249 10250 10251 10252 10253 10254 10255 10256 10257 10258 10259 10260 10261 10262 10263 10264 10265 10266 10267 10268 10269 10270 10271 10272 10273 10274 10275 10276 10277 10278 10279 10280 10281 10282 10283 10284 10285 10286 10287 10288 10289 10290 10291 10292 10293 10294 10295 10296 10297 10298 10299 10300 10301 10302 10303 10304 10305 10306 10307 10308 10309 10310 10311 10312 10313 10314 10315 10316 10317 10318 10319 10320 10321 10322 10323 10324 10325 10326 10327 10328 10329 10330 10331 10332 10333 10334 10335 10336 10337 10338 10339 10340 10341 10342 10343 10344 10345 10346 10347 10348 10349 10350 10351 10352 10353 10354 10355 10356 10357 10358 10359 10360 10361 10362 10363 10364 10365 10366 10367 10368 10369 10370 10371 10372 10373 10374 10375 10376 10377 10378 10379 10380 10381 10382 10383 10384 10385 10386 10387 10388 10389 10390 10391 10392 10393 10394 10395 10396 10397 10398 10399 10400 10401 10402 10403 10404 10405 10406 10407 10408 10409 10410 10411 10412 10413 10414 10415 10416 10417 10418 10419 10420 10421 10422 10423 10424 10425 10426 10427 10428 10429 10430 10431 10432 10433 10434 10435 10436 10437 10438 10439 10440 10441 10442 10443 10444 10445 10446 10447 10448 10449 10450 10451 10452 10453 10454 10455 10456 10457 10458 10459 10460 10461 10462 10463 10464 10465 10466 10467 10468 10469 10470 10471 10472 10473 10474 10475 10476 10477 10478 10479 10480 10481 10482 10483 10484 10485 10486 10487 10488 10489 10490 10491 10492 10493 10494 10495 10496 10497 10498 10499 10500 10501 10502 10503 10504 10505 10506 10507 10508 10509 10510 10511 10512 10513 10514 10515 10516 10517 10518 10519 10520 10521 10522 10523 10524 10525 10526 10527 10528 10529 10530 10531 10532 10533 10534 10535 10536 10537 10538 10539 10540 10541 10542 10543 10544 10545 10546 10547 10548 10549 10550 10551 10552 10553 10554 10555 10556 10557 10558 10559 10560 10561 10562 10563 10564 10565 10566 10567 10568 10569 10570 10571 10572 10573 10574 10575 10576 10577 10578 10579 10580 10581 10582 10583 10584 10585 10586 10587 10588 10589 10590 10591 10592 10593 10594 10595 10596 10597 10598 10599 10600 10601 10602 10603 10604 10605 10606 10607 10608 10609 10610 10611 10612 10613 10614 10615 10616 10617 10618 10619 10620 10621 10622 10623 10624 10625 10626 10627 10628 10629 10630 10631 10632 10633 10634 10635 10636 10637 10638 10639 10640 10641 10642 10643 10644 10645 10646 10647 10648 10649 10650 10651 10652 10653 10654 10655 10656 10657 10658 10659 10660 10661 10662 10663 10664 10665 10666 10667 10668 10669 10670 10671 10672 10673 10674 10675 10676 10677 10678 10679 10680 10681 10682 10683 10684 10685 10686 10687 10688 10689 10690 10691 10692 10693 10694 10695 10696 10697 10698 10699 10700 10701 10702 10703 10704 10705 10706 10707 10708 10709 10710 10711 10712 10713 10714 10715 10716 10717 10718 10719 10720 10721 10722 10723 10724 10725 10726 10727 10728 10729 10730 10731 10732 10733 10734 10735 10736 10737 10738 10739 10740 10741 10742 10743 10744 10745 10746 10747 10748 10749 10750 10751 10752 10753 10754 10755 10756 10757 10758 10759 10760 10761 10762 10763 10764 10765 10766 10767 10768 10769 10770 10771 10772 10773 10774 10775 10776 10777 10778 10779 10780 10781 10782 10783 10784 10785 10786 10787 10788 10789 10790 10791 10792 10793 10794 10795 10796 10797 10798 10799 10800 10801 10802 10803 10804 10805 10806 10807 10808 10809 10810 10811 10812 10813 10814 10815 10816 10817 10818 10819 10820 10821 10822 10823 10824 10825 10826 10827 10828 10829 10830 10831 10832 10833 10834 10835 10836 10837 10838 10839 10840 10841 10842 10843 10844 10845 10846 10847 10848 10849 10850 10851 10852 10853 10854 10855 10856 10857 10858 10859 10860 10861 10862 10863 10864 10865 10866 10867 10868 10869 10870 10871 10872 10873 10874 10875 10876 10877 10878 10879 10880 10881 10882 10883 10884 10885 10886 10887 10888 10889 10890 10891 10892 10893 10894 10895 10896 10897 10898 10899 10900 10901 10902 10903 10904 10905 10906 10907 10908 10909 10910 10911 10912 10913 10914 10915 10916 10917 10918 10919 10920 10921 10922 10923 10924 10925 10926 10927 10928 10929 10930 10931 10932 10933 10934 10935 10936 10937 10938 10939 10940 10941 10942 10943 10944 10945 10946 10947 10948 10949 10950 10951 10952 10953 10954 10955 10956 10957 10958 10959 10960 10961 10962 10963 10964 10965 10966 10967 10968 10969 10970 10971 10972 10973 10974 10975 10976 10977 10978 10979 10980 10981 10982 10983 10984 10985 10986 10987 10988 10989 10990 10991 10992 10993 10994 10995 10996 10997 10998 10999 11000 11001 11002 11003 11004 11005 11006 11007 11008 11009 11010 11011 11012 11013 11014 11015 11016 11017 11018 11019 11020 11021 11022 11023 11024 11025 11026 11027 11028 11029 11030 11031 11032 11033 11034 11035 11036 11037 11038 11039 11040 11041 11042 11043 11044 11045 11046 11047 11048 11049 11050 11051 11052 11053 11054 11055 11056 11057 11058 11059 11060 11061 11062 11063 11064 11065 11066 11067 11068 11069 11070 11071 11072 11073 11074 11075 11076 11077 11078 11079 11080 11081 11082 11083 11084 11085 11086 11087 11088 11089 11090 11091 11092 11093 11094 11095 11096 11097 11098 11099 11100 11101 11102 11103 11104 11105 11106 11107 11108 11109 11110 11111 11112 11113 11114 11115 11116 11117 11118 11119 11120 11121 11122 11123 11124 11125 11126 11127 11128 11129 11130 11131 11132 11133 11134 11135 11136 11137 11138 11139 11140 11141 11142 11143 11144 11145 11146 11147 11148 11149 11150 11151 11152 11153 11154 11155 11156 11157 11158 11159 11160 11161 11162 11163 11164 11165 11166 11167 11168 11169 11170 11171 11172 11173 11174 11175 11176 11177 11178 11179 11180 11181 11182 11183 11184 11185 11186 11187 11188 11189 11190 11191 11192 11193 11194 11195 11196 11197 11198 11199 11200 11201 11202 11203 11204 11205 11206 11207 11208 11209 11210 11211 11212 11213 11214 11215 11216 11217 11218 11219 11220 11221 11222 11223 11224 11225 11226 11227 11228 11229 11230 11231 11232 11233 11234 11235 11236 11237 11238 11239 11240 11241 11242 11243 11244 11245 11246 11247 11248 11249 11250 11251 11252 11253 11254 11255 11256 11257 11258 11259 11260 11261 11262 11263 11264 11265 11266 11267 11268 11269 11270 11271 11272 11273 11274 11275 11276 11277 11278 11279 11280 11281 11282 11283 11284 11285 11286 11287 11288 11289 11290 11291 11292 11293 11294 11295 11296 11297 11298 11299 11300 11301 11302 11303 11304 11305 11306 11307 11308 11309 11310 11311 11312 11313 11314 11315 11316 11317 11318 11319 11320 11321 11322 11323 11324 11325 11326 11327 11328 11329 11330 11331 11332 11333 11334 11335 11336 11337 11338 11339 11340 11341 11342 11343 11344 11345 11346 11347 11348 11349 11350 11351 11352 11353 11354 11355 11356 11357 11358 11359 11360 11361 11362 11363 11364 11365 11366 11367 11368 11369 11370 11371 11372 11373 11374 11375 11376 11377 11378 11379 11380 11381 11382 11383 11384 11385 11386 11387 11388 11389 11390 11391 11392 11393 11394 11395 11396 11397 11398 11399 11400 11401 11402 11403 11404 11405 11406 11407 11408 11409 11410 11411 11412 11413 11414 11415 11416 11417 11418 11419 11420 11421 11422 11423 11424 11425 11426 11427 11428 11429 11430 11431 11432 11433 11434 11435 11436 11437 11438 11439 11440 11441 11442 11443 11444 11445 11446 11447 11448 11449 11450 11451 11452 11453 11454 11455 11456 11457 11458 11459 11460 11461 11462 11463 11464 11465 11466 11467 11468 11469 11470 11471 11472 11473 11474 11475 11476 11477 11478 11479 11480 11481 11482 11483 11484 11485 11486 11487 11488 11489 11490 11491 11492 11493 11494 11495 11496 11497 11498 11499 11500 11501 11502 11503 11504 11505 11506 11507 11508 11509 11510 11511 11512 11513 11514 11515 11516 11517 11518 11519 11520 11521 11522 11523 11524 11525 11526 11527 11528 11529 11530 11531 11532 11533 11534 11535 11536 11537 11538 11539 11540 11541 11542 11543 11544 11545 11546 11547 11548 11549 11550 11551 11552 11553 11554 11555 11556 11557 11558 11559 11560 11561 11562 11563 11564 11565 11566 11567 11568 11569 11570 11571 11572 11573 11574 11575 11576 11577 11578 11579 11580 11581 11582 11583 11584 11585 11586 11587 11588 11589 11590 11591 11592 11593 11594 11595 11596 11597 11598 11599 11600 11601 11602 11603 11604 11605 11606 11607 11608 11609 11610 11611 11612 11613 11614 11615 11616 11617 11618 11619 11620 11621 11622 11623 11624 11625 11626 11627 11628 11629 11630 11631 11632 11633 11634 11635 11636 11637 11638 11639 11640 11641 11642 11643 11644 11645 11646 11647 11648 11649 11650 11651 11652 11653 11654 11655 11656 11657 11658 11659 11660 11661 11662 11663 11664 11665 11666 11667 11668 11669 11670 11671 11672 11673 11674 11675 11676 11677 11678 11679 11680 11681 11682 11683 11684 11685 11686 11687 11688 11689 11690 11691 11692 11693 11694 11695 11696 11697 11698 11699 11700 11701 11702 11703 11704 11705 11706 11707 11708 11709 11710 11711 11712 11713 11714 11715 11716 11717 11718 11719 11720 11721 11722 11723 11724 11725 11726 11727 11728 11729 11730 11731 11732 11733 11734 11735 11736 11737 11738 11739 11740 11741 11742 11743 11744 11745 11746 11747 11748 11749 11750 11751 11752 11753 11754 11755 11756 11757 11758 11759 11760 11761 11762 11763 11764 11765 11766 11767 11768 11769 11770 11771 11772 11773 11774 11775 11776 11777 11778 11779 11780 11781 11782 11783 11784 11785 11786 11787 11788 11789 11790 11791 11792 11793 11794 11795 11796 11797 11798 11799 11800 11801 11802 11803 11804 11805 11806 11807 11808 11809 11810 11811 11812 11813 11814 11815 11816 11817 11818 11819 11820 11821 11822 11823 11824 11825 11826 11827 11828 11829 11830 11831 11832 11833 11834 11835 11836 11837 11838 11839 11840 11841 11842 11843 11844 11845 11846 11847 11848 11849 11850 11851 11852 11853 11854 11855 11856 11857 11858 11859 11860 11861 11862 11863 11864 11865 11866 11867 11868 11869 11870 11871 11872 11873 11874 11875 11876 11877 11878 11879 11880 11881 11882 11883 11884 11885 11886 11887 11888 11889 11890 11891 11892 11893 11894 11895 11896 11897 11898 11899 11900 11901 11902 11903 11904 11905 11906 11907 11908 11909 11910 11911 11912 11913 11914 11915 11916 11917 11918 11919 11920 11921 11922 11923 11924 11925 11926 11927 11928 11929 11930 11931 11932 11933 11934 11935 11936 11937 11938 11939 11940 11941 11942 11943 11944 11945 11946 11947 11948 11949 11950 11951 11952 11953 11954 11955 11956 11957 11958 11959 11960 11961 11962 11963 11964 11965 11966 11967 11968 11969 11970 11971 11972 11973 11974 11975 11976 11977 11978 11979 11980 11981 11982 11983 11984 11985 11986 11987 11988 11989 11990 11991 11992 11993 11994 11995 11996 11997 11998 11999 12000 12001 12002 12003 12004 12005 12006 12007 12008 12009 12010 12011 12012 12013 12014 12015 12016 12017 12018 12019 12020 12021 12022 12023 12024 12025 12026 12027 12028 12029 12030 12031 12032 12033 12034 12035 12036 12037 12038 12039 12040 12041 12042 12043 12044 12045 12046 12047 12048 12049 12050 12051 12052 12053 12054 12055 12056 12057 12058 12059 12060 12061 12062 12063 12064 12065 12066 12067 12068 12069 12070 12071 12072 12073 12074 12075 12076 12077 12078 12079 12080 12081 12082 12083 12084 12085 12086 12087 12088 12089 12090 12091 12092 12093 12094 12095 12096 12097 12098 12099 12100 12101 12102 12103 12104 12105 12106 12107 12108 12109 12110 12111 12112 12113 12114 12115 12116 12117 12118 12119 12120 12121 12122 12123 12124 12125 12126 12127 12128 12129 12130 12131 12132 12133 12134 12135 12136 12137 12138 12139 12140 12141 12142 12143 12144 12145 12146 12147 12148 12149 12150 12151 12152 12153 12154 12155 12156 12157 12158 12159 12160 12161 12162 12163 12164 12165 12166 12167 12168 12169 12170 12171 12172 12173 12174 12175 12176 12177 12178 12179 12180 12181 12182 12183 12184 12185 12186 12187 12188 12189 12190 12191 12192 12193 12194 12195 12196 12197 12198 12199 12200 12201 12202 12203 12204 12205 12206 12207 12208 12209 12210 12211 12212 12213 12214 12215 12216 12217 12218 12219 12220 12221 12222 12223 12224 12225 12226 12227 12228 12229 12230 12231 12232 12233 12234 12235 12236 12237 12238 12239 12240 12241 12242 12243 12244 12245 12246 12247 12248 12249 12250 12251 12252 12253 12254 12255 12256 12257 12258 12259 12260 12261 12262 12263 12264 12265 12266 12267 12268 12269 12270 12271 12272 12273 12274 12275 12276 12277 12278 12279 12280 12281 12282 12283 12284 12285 12286 12287 12288 12289 12290 12291 12292 12293 12294 12295 12296 12297 12298 12299 12300 12301 12302 12303 12304 12305 12306 12307 12308 12309 12310 12311 12312 12313 12314 12315 12316 12317 12318 12319 12320 12321 12322 12323 12324 12325 12326 12327 12328 12329 12330 12331 12332 12333 12334 12335 12336 12337 12338 12339 12340 12341 12342 12343 12344 12345 12346 12347 12348 12349 12350 12351 12352 12353 12354 12355 12356 12357 12358 12359 12360 12361 12362 12363 12364 12365 12366 12367 12368 12369 12370 12371 12372 12373 12374 12375 12376 12377 12378 12379 12380 12381 12382 12383 12384 12385 12386 12387 12388 12389 12390 12391 12392 12393 12394 12395 12396 12397 12398 12399 12400 12401 12402 12403 12404 12405 12406 12407 12408 12409 12410 12411 12412 12413 12414 12415 12416 12417 12418 12419 12420 12421 12422 12423 12424 12425 12426 12427 12428 12429 12430 12431 12432 12433 12434 12435 12436 12437 12438 12439 12440 12441 12442 12443 12444 12445 12446 12447 12448 12449 12450 12451 12452 12453 12454 12455 12456 12457 12458 12459 12460 12461 12462 12463 12464 12465 12466 12467 12468 12469 12470 12471 12472 12473 12474 12475 12476 12477 12478 12479 12480 12481 12482 12483 12484 12485 12486 12487 12488 12489 12490 12491 12492 12493 12494 12495 12496 12497 12498 12499 12500 12501 12502 12503 12504 12505 12506 12507 12508 12509 12510 12511 12512 12513 12514 12515 12516 12517 12518 12519 12520 12521 12522 12523 12524 12525 12526 12527 12528 12529 12530 12531 12532 12533 12534 12535 12536 12537 12538 12539 12540 12541 12542 12543 12544 12545 12546 12547 12548 12549 12550 12551 12552 12553 12554 12555 12556 12557 12558 12559 12560 12561 12562 12563 12564 12565 12566 12567 12568 12569 12570 12571 12572 12573 12574 12575 12576 12577 12578 12579 12580 12581 12582 12583 12584 12585 12586 12587 12588 12589 12590 12591 12592 12593 12594 12595 12596 12597 12598 12599 12600 12601 12602 12603 12604 12605 12606 12607 12608 12609 12610 12611 12612 12613 12614 12615 12616 12617 12618 12619 12620 12621 12622 12623 12624 12625 12626 12627 12628 12629 12630 12631 12632 12633 12634 12635 12636 12637 12638 12639 12640 12641 12642 12643 12644 12645 12646 12647 12648 12649 12650 12651 12652 12653 12654 12655 12656 12657 12658 12659 12660 12661 12662 12663 12664 12665 12666 12667 12668 12669 12670 12671 12672 12673 12674 12675 12676 12677 12678 12679 12680 12681 12682 12683 12684 12685 12686 12687 12688 12689 12690 12691 12692 12693 12694 12695 12696 12697 12698 12699 12700 12701 12702 12703 12704 12705 12706 12707 12708 12709 12710 12711 12712 12713 12714 12715 12716 12717 12718 12719 12720 12721 12722 12723 12724 12725 12726 12727 12728 12729 12730 12731 12732 12733 12734 12735 12736 12737 12738 12739 12740 12741 12742 12743 12744 12745 12746 12747 12748 12749 12750 12751 12752 12753 12754 12755 12756 12757 12758 12759 12760 12761 12762 12763 12764 12765 12766 12767 12768 12769 12770 12771 12772 12773 12774 12775 12776 12777 12778 12779 12780 12781 12782 12783 12784 12785 12786 12787 12788 12789 12790 12791 12792 12793 12794 12795 12796 12797 12798 12799 12800 12801 12802 12803 12804 12805 12806 12807 12808 12809 12810 12811 12812 12813 12814 12815 12816 12817 12818 12819 12820 12821 12822 12823 12824 12825 12826 12827 12828 12829 12830 12831 12832 12833 12834 12835 12836 12837 12838 12839 12840 12841 12842 12843 12844 12845 12846 12847 12848 12849 12850 12851 12852 12853 12854 12855 12856 12857 12858 12859 12860 12861 12862 12863 12864 12865 12866 12867 12868 12869 12870 12871 12872 12873 12874 12875 12876 12877 12878 12879 12880 12881 12882 12883 12884 12885 12886 12887 12888 12889 12890 12891 12892 12893 12894 12895 12896 12897 12898 12899 12900 12901 12902 12903 12904 12905 12906 12907 12908 12909 12910 12911 12912 12913 12914 12915 12916 12917 12918 12919 12920 12921 12922 12923 12924 12925 12926 12927 12928 12929 12930 12931 12932 12933 12934 12935 12936 12937 12938 12939 12940 12941 12942 12943 12944 12945 12946 12947 12948 12949 12950 12951 12952 12953 12954 12955 12956 12957 12958 12959 12960 12961 12962 12963 12964 12965 12966 12967 12968 12969 12970 12971 12972 12973 12974 12975 12976 12977 12978 12979 12980 12981 12982 12983 12984 12985 12986 12987 12988 12989 12990 12991 12992 12993 12994 12995 12996 12997 12998 12999 13000 13001 13002 13003 13004 13005 13006 13007 13008 13009 13010 13011 13012 13013 13014 13015 13016 13017 13018 13019 13020 13021 13022 13023 13024 13025 13026 13027 13028 13029 13030 13031 13032 13033 13034 13035 13036 13037 13038 13039 13040 13041 13042 13043 13044 13045 13046 13047 13048 13049 13050 13051 13052 13053 13054 13055 13056 13057 13058 13059 13060 13061 13062 13063 13064 13065 13066 13067 13068 13069 13070 13071 13072 13073 13074 13075 13076 13077 13078 13079 13080 13081 13082 13083 13084 13085 13086 13087 13088 13089 13090 13091 13092 13093 13094 13095 13096 13097 13098 13099 13100 13101 13102 13103 13104 13105 13106 13107 13108 13109 13110 13111 13112 13113 13114 13115 13116 13117 13118 13119 13120 13121 13122 13123 13124 13125 13126 13127 13128 13129 13130 13131 13132 13133 13134 13135 13136 13137 13138 13139 13140 13141 13142 13143 13144 13145 13146 13147 13148 13149 13150 13151 13152 13153 13154 13155 13156 13157 13158 13159 13160 13161 13162 13163 13164 13165 13166 13167 13168 13169 13170 13171 13172 13173 13174 13175 13176 13177 13178 13179 13180 13181 13182 13183 13184 13185 13186 13187 13188 13189 13190 13191 13192 13193 13194 13195 13196 13197 13198 13199 13200 13201 13202 13203 13204 13205 13206 13207 13208 13209 13210 13211 13212 13213 13214 13215 13216 13217 13218 13219 13220 13221 13222 13223 13224 13225 13226 13227 13228 13229 13230 13231 13232 13233 13234 13235 13236 13237 13238 13239 13240 13241 13242 13243 13244 13245 13246 13247 13248 13249 13250 13251 13252 13253 13254 13255 13256 13257 13258 13259 13260 13261 13262 13263 13264 13265 13266 13267 13268 13269 13270 13271 13272 13273 13274 13275 13276 13277 13278 13279 13280 13281 13282 13283 13284 13285 13286 13287 13288 13289 13290 13291 13292 13293 13294 13295 13296 13297 13298 13299 13300 13301 13302 13303 13304 13305 13306 13307 13308 13309 13310 13311 13312 13313 13314 13315 13316 13317 13318 13319 13320 13321 13322 13323 13324 13325 13326 13327 13328 13329 13330 13331 13332 13333 13334 13335 13336 13337 13338 13339 13340 13341 13342 13343 13344 13345 13346 13347 13348 13349 13350 13351 13352 13353 13354 13355 13356 13357 13358 13359 13360 13361 13362 13363 13364 13365 13366 13367 13368 13369 13370 13371 13372 13373 13374 13375 13376 13377 13378 13379 13380 13381 13382 13383 13384 13385 13386 13387 13388 13389 13390 13391 13392 13393 13394 13395 13396 13397 13398 13399 13400 13401 13402 13403 13404 13405 13406 13407 13408 13409 13410 13411 13412 13413 13414 13415 13416 13417 13418 13419 13420 13421 13422 13423 13424 13425 13426 13427 13428 13429 13430 13431 13432 13433 13434 13435 13436 13437 13438 13439 13440 13441 13442 13443 13444 13445 13446 13447 13448 13449 13450 13451 13452 13453 13454 13455 13456 13457 13458 13459 13460 13461 13462 13463 13464 13465 13466 13467 13468 13469 13470 13471 13472 13473 13474 13475 13476 13477 13478 13479 13480 13481 13482 13483 13484 13485 13486 13487 13488 13489 13490 13491 13492 13493 13494 13495 13496 13497 13498 13499 13500 13501 13502 13503 13504 13505 13506 13507 13508 13509 13510 13511 13512 13513 13514 13515 13516 13517 13518 13519 13520 13521 13522 13523 13524 13525 13526 13527 13528 13529 13530 13531 13532 13533 13534 13535 13536 13537 13538 13539 13540 13541 13542 13543 13544 13545 13546 13547 13548 13549 13550 13551 13552 13553 13554 13555 13556 13557 13558 13559 13560 13561 13562 13563 13564 13565 13566 13567 13568 13569 13570 13571 13572 13573 13574 13575 13576 13577 13578 13579 13580 13581 13582 13583 13584 13585 13586 13587 13588 13589 13590 13591 13592 13593 13594 13595 13596 13597 13598 13599 13600 13601 13602 13603 13604 13605 13606 13607 13608 13609 13610 13611 13612 13613 13614 13615 13616 13617 13618 13619 13620 13621 13622 13623 13624 13625 13626 13627 13628 13629 13630 13631 13632 13633 13634 13635 13636 13637 13638 13639 13640 13641 13642 13643 13644 13645 13646 13647 13648 13649 13650 13651 13652 13653 13654 13655 13656 13657 13658 13659 13660 13661 13662 13663 13664 13665 13666 13667 13668 13669 13670 13671 13672 13673 13674 13675 13676 13677 13678 13679 13680 13681 13682 13683 13684 13685 13686 13687 13688 13689 13690 13691 13692 13693 13694 13695 13696 13697 13698 13699 13700 13701 13702 13703 13704 13705 13706 13707 13708 13709 13710 13711 13712 13713 13714 13715 13716 13717 13718 13719 13720 13721 13722 13723 13724 13725 13726 13727 13728 13729 13730 13731 13732 13733 13734 13735 13736 13737 13738 13739 13740 13741 13742 13743 13744 13745 13746 13747 13748 13749 13750 13751 13752 13753 13754 13755 13756 13757 13758 13759 13760 13761 13762 13763 13764 13765 13766 13767 13768 13769 13770 13771 13772 13773 13774 13775 13776 13777 13778 13779 13780 13781 13782 13783 13784 13785 13786 13787 13788 13789 13790 13791 13792 13793 13794 13795 13796 13797 13798 13799 13800 13801 13802 13803 13804 13805 13806 13807 13808 13809 13810 13811 13812 13813 13814 13815 13816 13817 13818 13819 13820 13821 13822 13823 13824 13825 13826 13827 13828 13829 13830 13831 13832 13833 13834 13835 13836 13837 13838 13839 13840 13841 13842 13843 13844 13845 13846 13847 13848 13849 13850 13851 13852 13853 13854 13855 13856 13857 13858 13859 13860 13861 13862 13863 13864 13865 13866 13867 13868 13869 13870 13871 13872 13873 13874 13875 13876 13877 13878 13879 13880 13881 13882 13883 13884 13885 13886 13887 13888 13889 13890 13891 13892 13893 13894 13895 13896 13897 13898 13899 13900 13901 13902 13903 13904 13905 13906 13907 13908 13909 13910 13911 13912 13913 13914 13915 13916 13917 13918 13919 13920 13921 13922 13923 13924 13925 13926 13927 13928 13929 13930 13931 13932 13933 13934 13935 13936 13937 13938 13939 13940 13941 13942 13943 13944 13945 13946 13947 13948 13949 13950 13951 13952 13953 13954 13955 13956 13957 13958 13959 13960 13961 13962 13963 13964 13965 13966 13967 13968 13969 13970 13971 13972 13973 13974 13975 13976 13977 13978 13979 13980 13981 13982 13983 13984 13985 13986 13987 13988 13989 13990 13991 13992 13993 13994 13995 13996 13997 13998 13999 14000 14001 14002 14003 14004 14005 14006 14007 14008 14009 14010 14011 14012 14013 14014 14015 14016 14017 14018 14019 14020 14021 14022 14023 14024 14025 14026 14027 14028 14029 14030 14031 14032 14033 14034 14035 14036 14037 14038 14039 14040 14041 14042 14043 14044 14045 14046 14047 14048 14049 14050 14051 14052 14053 14054 14055 14056 14057 14058 14059 14060 14061 14062 14063 14064 14065 14066 14067 14068 14069 14070 14071 14072 14073 14074 14075 14076 14077 14078 14079 14080 14081 14082 14083 14084 14085 14086 14087 14088 14089 14090 14091 14092 14093 14094 14095 14096 14097 14098 14099 14100 14101 14102 14103 14104 14105 14106 14107 14108 14109 14110 14111 14112 14113 14114 14115 14116 14117 14118 14119 14120 14121 14122 14123 14124 14125 14126 14127 14128 14129 14130 14131 14132 14133 14134 14135 14136 14137 14138 14139 14140 14141 14142 14143 14144 14145 14146 14147 14148 14149 14150 14151 14152 14153 14154 14155 14156 14157 14158 14159 14160 14161 14162 14163 14164 14165 14166 14167 14168 14169 14170 14171 14172 14173 14174 14175 14176 14177 14178 14179 14180 14181 14182 14183 14184 14185 14186 14187 14188 14189 14190 14191 14192 14193 14194 14195 14196 14197 14198 14199 14200 14201 14202 14203 14204 14205 14206 14207 14208 14209 14210 14211 14212 14213 14214 14215 14216 14217 14218 14219 14220 14221 14222 14223 14224 14225 14226 14227 14228 14229 14230 14231 14232 14233 14234 14235 14236 14237 14238 14239 14240 14241 14242 14243 14244 14245 14246 14247 14248 14249 14250 14251 14252 14253 14254 14255 14256 14257 14258 14259 14260 14261 14262 14263 14264 14265 14266 14267 14268 14269 14270 14271 14272 14273 14274 14275 14276 14277 14278 14279 14280 14281 14282 14283 14284 14285 14286 14287 14288 14289 14290 14291 14292 14293 14294 14295 14296 14297 14298 14299 14300 14301 14302 14303 14304 14305 14306 14307 14308 14309 14310 14311 14312 14313 14314 14315 14316 14317 14318 14319 14320 14321 14322 14323 14324 14325 14326 14327 14328 14329 14330 14331 14332 14333 14334 14335 14336 14337 14338 14339 14340 14341 14342 14343 14344 14345 14346 14347 14348 14349 14350 14351 14352 14353 14354 14355 14356 14357 14358 14359 14360 14361 14362 14363 14364 14365 14366 14367 14368 14369 14370 14371 14372 14373 14374 14375 14376 14377 14378 14379 14380 14381 14382 14383 14384 14385 14386 14387 14388 14389 14390 14391 14392 14393 14394 14395 14396 14397 14398 14399 14400 14401 14402 14403 14404 14405 14406 14407 14408 14409 14410 14411 14412 14413 14414 14415 14416 14417 14418 14419 14420 14421 14422 14423 14424 14425 14426 14427 14428 14429 14430 14431 14432 14433 14434 14435 14436 14437 14438 14439 14440 14441 14442 14443 14444 14445 14446 14447 14448 14449 14450 14451 14452 14453 14454 14455 14456 14457 14458 14459 14460 14461 14462 14463 14464 14465 14466 14467 14468 14469 14470 14471 14472 14473 14474 14475 14476 14477 14478 14479 14480 14481 14482 14483 14484 14485 14486 14487 14488 14489 14490 14491 14492 14493 14494 14495 14496 14497 14498 14499 14500 14501 14502 14503 14504 14505 14506 14507 14508 14509 14510 14511 14512 14513 14514 14515 14516 14517 14518 14519 14520 14521 14522 14523 14524 14525 14526 14527 14528 14529 14530 14531 14532 14533 14534 14535 14536 14537 14538 14539 14540 14541 14542 14543 14544 14545 14546 14547 14548 14549 14550 14551 14552 14553 14554 14555 14556 14557 14558 14559 14560 14561 14562 14563 14564 14565 14566 14567 14568 14569 14570 14571 14572 14573 14574 14575 14576 14577 14578 14579 14580 14581 14582 14583 14584 14585 14586 14587 14588 14589 14590 14591 14592 14593 14594 14595 14596 14597 14598 14599 14600 14601 14602 14603 14604 14605 14606 14607 14608 14609 14610 14611 14612 14613 14614 14615 14616 14617 14618 14619 14620 14621 14622 14623 14624 14625 14626 14627 14628 14629 14630 14631 14632 14633 14634 14635 14636 14637 14638 14639 14640 14641 14642 14643 14644 14645 14646 14647 14648 14649 14650 14651 14652 14653 14654 14655 14656 14657 14658 14659 14660 14661 14662 14663 14664 14665 14666 14667 14668 14669 14670 14671 14672 14673 14674 14675 14676 14677 14678 14679 14680 14681 14682 14683 14684 14685 14686 14687 14688 14689 14690 14691 14692 14693 14694 14695 14696 14697 14698 14699 14700 14701 14702 14703 14704 14705 14706 14707 14708 14709 14710 14711 14712 14713 14714 14715 14716 14717 14718 14719 14720 14721 14722 14723 14724 14725 14726 14727 14728 14729 14730 14731 14732 14733 14734 14735 14736 14737 14738 14739 14740 14741 14742 14743 14744 14745 14746 14747 14748 14749 14750 14751 14752 14753 14754 14755 14756 14757 14758 14759 14760 14761 14762 14763 14764 14765 14766 14767 14768 14769 14770 14771 14772 14773 14774 14775 14776 14777 14778 14779 14780 14781 14782 14783 14784 14785 14786 14787 14788 14789 14790 14791 14792 14793 14794 14795 14796 14797 14798 14799 14800 14801 14802 14803 14804 14805 14806 14807 14808 14809 14810 14811 14812 14813 14814 14815 14816 14817 14818 14819 14820 14821 14822 14823 14824 14825 14826 14827 14828 14829 14830 14831 14832 14833 14834 14835 14836 14837 14838 14839 14840 14841 14842 14843 14844 14845 14846 14847 14848 14849 14850 14851 14852 14853 14854 14855 14856 14857 14858 14859 14860 14861 14862 14863 14864 14865 14866 14867 14868 14869 14870 14871 14872 14873 14874 14875 14876 14877 14878 14879 14880 14881 14882 14883 14884 14885 14886 14887 14888 14889 14890 14891 14892 14893 14894 14895 14896 14897 14898 14899 14900 14901 14902 14903 14904 14905 14906 14907 14908 14909 14910 14911 14912 14913 14914 14915 14916 14917 14918 14919 14920 14921 14922 14923 14924 14925 14926 14927 14928 14929 14930 14931 14932 14933 14934 14935 14936 14937 14938 14939 14940 14941 14942 14943 14944 14945 14946 14947 14948 14949 14950 14951 14952 14953 14954 14955 14956 14957 14958 14959 14960 14961 14962 14963 14964 14965 14966 14967 14968 14969 14970 14971 14972 14973 14974 14975 14976 14977 14978 14979 14980 14981 14982 14983 14984 14985 14986 14987 14988 14989 14990 14991 14992 14993 14994 14995 14996 14997 14998 14999 15000 15001 15002 15003 15004 15005 15006 15007 15008 15009 15010 15011 15012 15013 15014 15015 15016 15017 15018 15019 15020 15021 15022 15023 15024 15025 15026 15027 15028 15029 15030 15031 15032 15033 15034 15035 15036 15037 15038 15039 15040 15041 15042 15043 15044 15045 15046 15047 15048 15049 15050 15051 15052 15053 15054 15055 15056 15057 15058 15059 15060 15061 15062 15063 15064 15065 15066 15067 15068 15069 15070 15071 15072 15073 15074 15075 15076 15077 15078 15079 15080 15081 15082 15083 15084 15085 15086 15087 15088 15089 15090 15091 15092 15093 15094 15095 15096 15097 15098 15099 15100 15101 15102 15103 15104 15105 15106 15107 15108 15109 15110 15111 15112 15113 15114 15115 15116 15117 15118 15119 15120 15121 15122 15123 15124 15125 15126 15127 15128 15129 15130 15131 15132 15133 15134 15135 15136 15137 15138 15139 15140 15141 15142 15143 15144 15145 15146 15147 15148 15149 15150 15151 15152 15153 15154 15155 15156 15157 15158 15159 15160 15161 15162 15163 15164 15165 15166 15167 15168 15169 15170 15171 15172 15173 15174 15175 15176 15177 15178 15179 15180 15181 15182 15183 15184 15185 15186 15187 15188 15189 15190 15191 15192 15193 15194 15195 15196 15197 15198 15199 15200 15201 15202 15203 15204 15205 15206 15207 15208 15209 15210 15211 15212 15213 15214 15215 15216 15217 15218 15219 15220 15221 15222 15223 15224 15225 15226 15227 15228 15229 15230 15231 15232 15233 15234 15235 15236 15237 15238 15239 15240 15241 15242 15243 15244 15245 15246 15247 15248 15249 15250 15251 15252 15253 15254 15255 15256 15257 15258 15259 15260 15261 15262 15263 15264 15265 15266 15267 15268 15269 15270 15271 15272 15273 15274 15275 15276 15277 15278 15279 15280 15281 15282 15283 15284 15285 15286 15287 15288 15289 15290 15291 15292 15293 15294 15295 15296 15297 15298 15299 15300 15301 15302 15303 15304 15305 15306 15307 15308 15309 15310 15311 15312 15313 15314 15315 15316 15317 15318 15319 15320 15321 15322 15323 15324 15325 15326 15327 15328 15329 15330 15331 15332 15333 15334 15335 15336 15337 15338 15339 15340 15341 15342 15343 15344 15345 15346 15347 15348 15349 15350 15351 15352 15353 15354 15355 15356 15357 15358 15359 15360 15361 15362 15363 15364 15365 15366 15367 15368 15369 15370 15371 15372 15373 15374 15375 15376 15377 15378 15379 15380 15381 15382 15383 15384 15385 15386 15387 15388 15389 15390 15391 15392 15393 15394 15395 15396 15397 15398 15399 15400 15401 15402 15403 15404 15405 15406 15407 15408 15409 15410 15411 15412 15413 15414 15415 15416 15417 15418 15419 15420 15421 15422 15423 15424 15425 15426 15427 15428 15429 15430 15431 15432 15433 15434 15435 15436 15437 15438 15439 15440 15441 15442 15443 15444 15445 15446 15447 15448 15449 15450 15451 15452 15453 15454 15455 15456 15457 15458 15459 15460 15461 15462 15463 15464 15465 15466 15467 15468 15469 15470 15471 15472 15473 15474 15475 15476 15477 15478 15479 15480 15481 15482 15483 15484 15485 15486 15487 15488 15489 15490 15491 15492 15493 15494 15495 15496 15497 15498 15499 15500 15501 15502 15503 15504 15505 15506 15507 15508 15509 15510 15511 15512 15513 15514 15515 15516 15517 15518 15519 15520 15521 15522 15523 15524 15525 15526 15527 15528 15529 15530 15531 15532 15533 15534 15535 15536 15537 15538 15539 15540 15541 15542 15543 15544 15545 15546 15547 15548 15549 15550 15551 15552 15553 15554 15555 15556 15557 15558 15559 15560 15561 15562 15563 15564 15565 15566 15567 15568 15569 15570 15571 15572 15573 15574 15575 15576 15577 15578 15579 15580 15581 15582 15583 15584 15585 15586 15587 15588 15589 15590 15591 15592 15593 15594 15595 15596 15597 15598 15599 15600 15601 15602 15603 15604 15605 15606 15607 15608 15609 15610 15611 15612 15613 15614 15615 15616 15617 15618 15619 15620 15621 15622 15623 15624 15625 15626 15627 15628 15629 15630 15631 15632 15633 15634 15635 15636 15637 15638 15639 15640 15641 15642 15643 15644 15645 15646 15647 15648 15649 15650 15651 15652 15653 15654 15655 15656 15657 15658 15659 15660 15661 15662 15663 15664 15665 15666 15667 15668 15669 15670 15671 15672 15673 15674 15675 15676 15677 15678 15679 15680 15681 15682 15683 15684 15685 15686 15687 15688 15689 15690 15691 15692 15693 15694 15695 15696 15697 15698 15699 15700 15701 15702 15703 15704 15705 15706 15707 15708 15709 15710 15711 15712 15713 15714 15715 15716 15717 15718 15719 15720 15721 15722 15723 15724 15725 15726 15727 15728 15729 15730 15731 15732 15733 15734 15735 15736 15737 15738 15739 15740 15741 15742 15743 15744 15745 15746 15747 15748 15749 15750 15751 15752 15753 15754 15755 15756 15757 15758 15759 15760 15761 15762 15763 15764 15765 15766 15767 15768 15769 15770 15771 15772 15773 15774 15775 15776 15777 15778 15779 15780 15781 15782 15783 15784 15785 15786 15787 15788 15789 15790 15791 15792 15793 15794 15795 15796 15797 15798 15799 15800 15801 15802 15803 15804 15805 15806 15807 15808 15809 15810 15811 15812 15813 15814 15815 15816 15817 15818 15819 15820 15821 15822 15823 15824 15825 15826 15827 15828 15829 15830 15831 15832 15833 15834 15835 15836 15837 15838 15839 15840 15841 15842 15843 15844 15845 15846 15847 15848 15849 15850 15851 15852 15853 15854 15855 15856 15857 15858 15859 15860 15861 15862 15863 15864 15865 15866 15867 15868 15869 15870 15871 15872 15873 15874 15875 15876 15877 15878 15879 15880 15881 15882 15883 15884 15885 15886 15887 15888 15889 15890 15891 15892 15893 15894 15895 15896 15897 15898 15899 15900 15901 15902 15903 15904 15905 15906 15907 15908 15909 15910 15911 15912 15913 15914 15915 15916 15917 15918 15919 15920 15921 15922 15923 15924 15925 15926 15927 15928 15929 15930 15931 15932 15933 15934 15935 15936 15937 15938 15939 15940 15941 15942 15943 15944 15945 15946 15947 15948 15949 15950 15951 15952 15953 15954 15955 15956 15957 15958 15959 15960 15961 15962 15963 15964 15965 15966 15967 15968 15969 15970 15971 15972 15973 15974 15975 15976 15977 15978 15979 15980 15981 15982 15983 15984 15985 15986 15987 15988 15989 15990 15991 15992 15993 15994 15995 15996 15997 15998 15999 16000 16001 16002 16003 16004 16005 16006 16007 16008 16009 16010 16011 16012 16013 16014 16015 16016 16017 16018 16019 16020 16021 16022 16023 16024 16025 16026 16027 16028 16029 16030 16031 16032 16033 16034 16035 16036 16037 16038 16039 16040 16041 16042 16043 16044 16045 16046 16047 16048 16049 16050 16051 16052 16053 16054 16055 16056 16057 16058 16059 16060 16061 16062 16063 16064 16065 16066 16067 16068 16069 16070 16071 16072 16073 16074 16075 16076 16077 16078 16079 16080 16081 16082 16083 16084 16085 16086 16087 16088 16089 16090 16091 16092 16093 16094 16095 16096 16097 16098 16099 16100 16101 16102 16103 16104 16105 16106 16107 16108 16109 16110 16111 16112 16113 16114 16115 16116 16117 16118 16119 16120 16121 16122 16123 16124 16125 16126 16127 16128 16129 16130 16131 16132 16133 16134 16135 16136 16137 16138 16139 16140 16141 16142 16143 16144 16145 16146 16147 16148 16149 16150 16151 16152 16153 16154 16155 16156 16157 16158 16159 16160 16161 16162 16163 16164 16165 16166 16167 16168 16169 16170 16171 16172 16173 16174 16175 16176 16177 16178 16179 16180 16181 16182 16183 16184 16185 16186 16187 16188 16189 16190 16191 16192 16193 16194 16195 16196 16197 16198 16199 16200 16201 16202 16203 16204 16205 16206 16207 16208 16209 16210 16211 16212 16213 16214 16215 16216 16217 16218 16219 16220 16221 16222 16223 16224 16225 16226 16227 16228 16229 16230 16231 16232 16233 16234 16235 16236 16237 16238 16239 16240 16241 16242 16243 16244 16245 16246 16247 16248 16249 16250 16251 16252 16253 16254 16255 16256 16257 16258 16259 16260 16261 16262 16263 16264 16265 16266 16267 16268 16269 16270 16271 16272 16273 16274 16275 16276 16277 16278 16279 16280 16281 16282 16283 16284 16285 16286 16287 16288 16289 16290 16291 16292 16293 16294 16295 16296 16297 16298 16299 16300 16301 16302 16303 16304 16305 16306 16307 16308 16309 16310 16311 16312 16313 16314 16315 16316 16317 16318 16319 16320 16321 16322 16323 16324 16325 16326 16327 16328 16329 16330 16331 16332 16333 16334 16335 16336 16337 16338 16339 16340 16341 16342 16343 16344 16345 16346 16347 16348 16349 16350 16351 16352 16353 16354 16355 16356 16357 16358 16359 16360 16361 16362 16363 16364 16365 16366 16367 16368 16369 16370 16371 16372 16373 16374 16375 16376 16377 16378 16379 16380 16381 16382 16383 16384 16385 16386 16387 16388 16389 16390 16391 16392 16393 16394 16395 16396 16397 16398 16399 16400 16401 16402 16403 16404 16405 16406 16407 16408 16409 16410 16411 16412 16413 16414 16415 16416 16417 16418 16419 16420 16421 16422 16423 16424 16425 16426 16427 16428 16429 16430 16431 16432 16433 16434 16435 16436 16437 16438 16439 16440 16441 16442 16443 16444 16445 16446 16447 16448 16449 16450 16451 16452 16453 16454 16455 16456 16457 16458 16459 16460 16461 16462 16463 16464 16465 16466 16467 16468 16469 16470 16471 16472 16473 16474 16475 16476 16477 16478 16479 16480 16481 16482 16483 16484 16485 16486 16487 16488 16489 16490 16491 16492 16493 16494 16495 16496 16497 16498 16499 16500 16501 16502 16503 16504 16505 16506 16507 16508 16509 16510 16511 16512 16513 16514 16515 16516 16517 16518 16519 16520 16521 16522 16523 16524 16525 16526 16527 16528 16529 16530 16531 16532 16533 16534 16535 16536 16537 16538 16539 16540 16541 16542 16543 16544 16545 16546 16547 16548 16549 16550 16551 16552 16553 16554 16555 16556 16557 16558 16559 16560 16561 16562 16563 16564 16565 16566 16567 16568 16569 16570 16571 16572 16573 16574 16575 16576 16577 16578 16579 16580 16581 16582 16583 16584 16585 16586 16587 16588 16589 16590 16591 16592 16593 16594 16595 16596 16597 16598 16599 16600 16601 16602 16603 16604 16605 16606 16607 16608 16609 16610 16611 16612 16613 16614 16615 16616 16617 16618 16619 16620 16621 16622 16623 16624 16625 16626 16627 16628 16629 16630 16631 16632 16633 16634 16635 16636 16637 16638 16639 16640 16641 16642 16643 16644 16645 16646 16647 16648 16649 16650 16651 16652 16653 16654 16655 16656 16657 16658 16659 16660 16661 16662 16663 16664 16665 16666 16667 16668 16669 16670 16671 16672 16673 16674 16675 16676 16677 16678 16679 16680 16681 16682 16683 16684 16685 16686 16687 16688 16689 16690 16691 16692 16693 16694 16695 16696 16697 16698 16699 16700 16701 16702 16703 16704 16705 16706 16707 16708 16709 16710 16711 16712 16713 16714 16715 16716 16717 16718 16719 16720 16721 16722 16723 16724 16725 16726 16727 16728 16729 16730 16731 16732 16733 16734 16735 16736 16737 16738 16739 16740 16741 16742 16743 16744 16745 16746 16747 16748 16749 16750 16751 16752 16753 16754 16755 16756 16757 16758 16759 16760 16761 16762 16763 16764 16765 16766 16767 16768 16769 16770 16771 16772 16773 16774 16775 16776 16777 16778 16779 16780 16781 16782 16783 16784 16785 16786 16787 16788 16789 16790 16791 16792 16793 16794 16795 16796 16797 16798 16799 16800 16801 16802 16803 16804 16805 16806 16807 16808 16809 16810 16811 16812 16813 16814 16815 16816 16817 16818 16819 16820 16821 16822 16823 16824 16825 16826 16827 16828 16829 16830 16831 16832 16833 16834 16835 16836 16837 16838 16839 16840 16841 16842 16843 16844 16845 16846 16847 16848 16849 16850 16851 16852 16853 16854 16855 16856 16857 16858 16859 16860 16861 16862 16863 16864 16865 16866 16867 16868 16869 16870 16871 16872 16873 16874 16875 16876 16877 16878 16879 16880 16881 16882 16883 16884 16885 16886 16887 16888 16889 16890 16891 16892 16893 16894 16895 16896 16897 16898 16899 16900 16901 16902 16903 16904 16905 16906 16907 16908 16909 16910 16911 16912 16913 16914 16915 16916 16917 16918 16919 16920 16921 16922 16923 16924 16925 16926 16927 16928 16929 16930 16931 16932 16933 16934 16935 16936 16937 16938 16939 16940 16941 16942 16943 16944 16945 16946 16947 16948 16949 16950 16951 16952 16953 16954 16955 16956 16957 16958 16959 16960 16961 16962 16963 16964 16965 16966 16967 16968 16969 16970 16971 16972 16973 16974 16975 16976 16977 16978 16979 16980 16981 16982 16983 16984 16985 16986 16987 16988 16989 16990 16991 16992 16993 16994 16995 16996 16997 16998 16999 17000 17001 17002 17003 17004 17005 17006 17007 17008 17009 17010 17011 17012 17013 17014 17015 17016 17017 17018 17019 17020 17021 17022 17023 17024 17025 17026 17027 17028 17029 17030 17031 17032 17033 17034 17035 17036 17037 17038 17039 17040 17041 17042 17043 17044 17045 17046 17047 17048 17049 17050 17051 17052 17053 17054 17055 17056 17057 17058 17059 17060 17061 17062 17063 17064 17065 17066 17067 17068 17069 17070 17071 17072 17073 17074 17075 17076 17077 17078 17079 17080 17081 17082 17083 17084 17085 17086 17087 17088 17089 17090 17091 17092 17093 17094 17095 17096 17097 17098 17099 17100 17101 17102 17103 17104 17105 17106 17107 17108 17109 17110 17111 17112 17113 17114 17115 17116 17117 17118 17119 17120 17121 17122 17123 17124 17125 17126 17127 17128 17129 17130 17131 17132 17133 17134 17135 17136 17137 17138 17139 17140 17141 17142 17143 17144 17145 17146 17147 17148 17149 17150 17151 17152 17153 17154 17155 17156 17157 17158 17159 17160 17161 17162 17163 17164 17165 17166 17167 17168 17169 17170 17171 17172 17173 17174 17175 17176 17177 17178 17179 17180 17181 17182 17183 17184 17185 17186 17187 17188 17189 17190 17191 17192 17193 17194 17195 17196 17197 17198 17199 17200 17201 17202 17203 17204 17205 17206 17207 17208 17209 17210 17211 17212 17213 17214 17215 17216 17217 17218 17219 17220 17221 17222 17223 17224 17225 17226 17227 17228 17229 17230 17231 17232 17233 17234 17235 17236 17237 17238 17239 17240 17241 17242 17243 17244 17245 17246 17247 17248 17249 17250 17251 17252 17253 17254 17255 17256 17257 17258 17259 17260 17261 17262 17263 17264 17265 17266 17267 17268 17269 17270 17271 17272 17273 17274 17275 17276 17277 17278 17279 17280 17281 17282 17283 17284 17285 17286 17287 17288 17289 17290 17291 17292 17293 17294 17295 17296 17297 17298 17299 17300 17301 17302 17303 17304 17305 17306 17307 17308 17309 17310 17311 17312 17313 17314 17315 17316 17317 17318 17319 17320 17321 17322 17323 17324 17325 17326 17327 17328 17329 17330 17331 17332 17333 17334 17335 17336 17337 17338 17339 17340 17341 17342 17343 17344 17345 17346 17347 17348 17349 17350 17351 17352 17353 17354 17355 17356 17357 17358 17359 17360 17361 17362 17363 17364 17365 17366 17367 17368 17369 17370 17371 17372 17373 17374 17375 17376 17377 17378 17379 17380 17381 17382 17383 17384 17385 17386 17387 17388 17389 17390 17391 17392 17393 17394 17395 17396 17397 17398 17399 17400 17401 17402 17403 17404 17405 17406 17407 17408 17409 17410 17411 17412 17413 17414 17415 17416 17417 17418 17419 17420 17421 17422 17423 17424 17425 17426 17427 17428 17429 17430 17431 17432 17433 17434 17435 17436 17437 17438 17439 17440 17441 17442 17443 17444 17445 17446 17447 17448 17449 17450 17451 17452 17453 17454 17455 17456 17457 17458 17459 17460 17461 17462 17463 17464 17465 17466 17467 17468 17469 17470 17471 17472 17473 17474 17475 17476 17477 17478 17479 17480 17481 17482 17483 17484 17485 17486 17487 17488 17489 17490 17491 17492 17493 17494 17495 17496 17497 17498 17499 17500 17501 17502 17503 17504 17505 17506 17507 17508 17509 17510 17511 17512 17513 17514 17515 17516 17517 17518 17519 17520 17521 17522 17523 17524 17525 17526 17527 17528 17529 17530 17531 17532 17533 17534 17535 17536 17537 17538 17539 17540 17541 17542 17543 17544 17545 17546 17547 17548 17549 17550 17551 17552 17553 17554 17555 17556 17557 17558 17559 17560 17561 17562 17563 17564 17565 17566 17567 17568 17569 17570 17571 17572 17573 17574 17575 17576 17577 17578 17579 17580 17581 17582 17583 17584 17585 17586 17587 17588 17589 17590 17591 17592 17593 17594 17595 17596 17597 17598 17599 17600 17601 17602 17603 17604 17605 17606 17607 17608 17609 17610 17611 17612 17613 17614 17615 17616 17617 17618 17619 17620 17621 17622 17623 17624 17625 17626 17627 17628 17629 17630 17631 17632 17633 17634 17635 17636 17637 17638 17639 17640 17641 17642 17643 17644 17645 17646 17647 17648 17649 17650 17651 17652 17653 17654 17655 17656 17657 17658 17659 17660 17661 17662 17663 17664 17665 17666 17667 17668 17669 17670 17671 17672 17673 17674 17675 17676 17677 17678 17679 17680 17681 17682 17683 17684 17685 17686 17687 17688 17689 17690 17691 17692 17693 17694 17695 17696 17697 17698 17699 17700 17701 17702 17703 17704 17705 17706 17707 17708 17709 17710 17711 17712 17713 17714 17715 17716 17717 17718 17719 17720 17721 17722 17723 17724 17725 17726 17727 17728 17729 17730 17731 17732 17733 17734 17735 17736 17737 17738 17739 17740 17741 17742 17743 17744 17745 17746 17747 17748 17749 17750 17751 17752 17753 17754 17755 17756 17757 17758 17759 17760 17761 17762 17763 17764 17765 17766 17767 17768 17769 17770 17771 17772 17773 17774 17775 17776 17777 17778 17779 17780 17781 17782 17783 17784 17785 17786 17787 17788 17789 17790 17791 17792 17793 17794 17795 17796 17797 17798 17799 17800 17801 17802 17803 17804 17805 17806 17807 17808 17809 17810 17811 17812 17813 17814 17815 17816 17817 17818 17819 17820 17821 17822 17823 17824 17825 17826 17827 17828 17829 17830 17831 17832 17833 17834 17835 17836 17837 17838 17839 17840 17841 17842 17843 17844 17845 17846 17847 17848 17849 17850 17851 17852 17853 17854 17855 17856 17857 17858 17859 17860 17861 17862 17863 17864 17865 17866 17867 17868 17869 17870 17871 17872 17873 17874 17875 17876 17877 17878 17879 17880 17881 17882 17883 17884 17885 17886 17887 17888 17889 17890 17891 17892 17893 17894 17895 17896 17897 17898 17899 17900 17901 17902 17903 17904 17905 17906 17907 17908 17909 17910 17911 17912 17913 17914 17915 17916 17917 17918 17919 17920 17921 17922 17923 17924 17925 17926 17927 17928 17929 17930 17931 17932 17933 17934 17935 17936 17937 17938 17939 17940 17941 17942 17943 17944 17945 17946 17947 17948 17949 17950 17951 17952 17953 17954 17955 17956 17957 17958 17959 17960 17961 17962 17963 17964 17965 17966 17967 17968 17969 17970 17971 17972 17973 17974 17975 17976 17977 17978 17979 17980 17981 17982 17983 17984 17985 17986 17987 17988 17989 17990 17991 17992 17993 17994 17995 17996 17997 17998 17999 18000 18001 18002 18003 18004 18005 18006 18007 18008 18009 18010 18011 18012 18013 18014 18015 18016 18017 18018 18019 18020 18021 18022 18023 18024 18025 18026 18027 18028 18029 18030 18031 18032 18033 18034 18035 18036 18037 18038 18039 18040 18041 18042 18043 18044 18045 18046 18047 18048 18049 18050 18051 18052 18053 18054 18055 18056 18057 18058 18059 18060 18061 18062 18063 18064 18065 18066 18067 18068 18069 18070 18071 18072 18073 18074 18075 18076 18077 18078 18079 18080 18081 18082 18083 18084 18085 18086 18087 18088 18089 18090 18091 18092 18093 18094 18095 18096 18097 18098 18099 18100 18101 18102 18103 18104 18105 18106 18107 18108 18109 18110 18111 18112 18113 18114 18115 18116 18117 18118 18119 18120 18121 18122 18123 18124 18125 18126 18127 18128 18129 18130 18131 18132 18133 18134 18135 18136 18137 18138 18139 18140 18141 18142 18143 18144 18145 18146 18147 18148 18149 18150 18151 18152 18153 18154 18155 18156 18157 18158 18159 18160 18161 18162 18163 18164 18165 18166 18167 18168 18169 18170 18171 18172 18173 18174 18175 18176 18177 18178 18179 18180 18181 18182 18183 18184 18185 18186 18187 18188 18189 18190 18191 18192 18193 18194 18195 18196 18197 18198 18199 18200 18201 18202 18203 18204 18205 18206 18207 18208 18209 18210 18211 18212 18213 18214 18215 18216 18217 18218 18219 18220 18221 18222 18223 18224 18225 18226 18227 18228 18229 18230 18231 18232 18233 18234 18235 18236 18237 18238 18239 18240 18241 18242 18243 18244 18245 18246 18247 18248 18249 18250 18251 18252 18253 18254 18255 18256 18257 18258 18259 18260 18261 18262 18263 18264 18265 18266 18267 18268 18269 18270 18271 18272 18273 18274 18275 18276 18277 18278 18279 18280 18281 18282 18283 18284 18285 18286 18287 18288 18289 18290 18291 18292 18293 18294 18295 18296 18297 18298 18299 18300 18301 18302 18303 18304 18305 18306 18307 18308 18309 18310 18311 18312 18313 18314 18315 18316 18317 18318 18319 18320 18321 18322 18323 18324 18325 18326 18327 18328 18329 18330 18331 18332 18333 18334 18335 18336 18337 18338 18339 18340 18341 18342 18343 18344 18345 18346 18347 18348 18349 18350 18351 18352 18353 18354 18355 18356 18357 18358 18359 18360 18361 18362 18363 18364 18365 18366 18367 18368 18369 18370 18371 18372 18373 18374 18375 18376 18377 18378 18379 18380 18381 18382 18383 18384 18385 18386 18387 18388 18389 18390 18391 18392 18393 18394 18395 18396 18397 18398 18399 18400 18401 18402 18403 18404 18405 18406 18407 18408 18409 18410 18411 18412 18413 18414 18415 18416 18417 18418 18419 18420 18421 18422 18423 18424 18425 18426 18427 18428 18429 18430 18431 18432 18433 18434 18435 18436 18437 18438 18439 18440 18441 18442 18443 18444 18445 18446 18447 18448 18449 18450 18451 18452 18453 18454 18455 18456 18457 18458 18459 18460 18461 18462 18463 18464 18465 18466 18467 18468 18469 18470 18471 18472 18473 18474 18475 18476 18477 18478 18479 18480 18481 18482 18483 18484 18485 18486 18487 18488 18489 18490 18491 18492 18493 18494 18495 18496 18497 18498 18499 18500 18501 18502 18503 18504 18505 18506 18507 18508 18509 18510 18511 18512 18513 18514 18515 18516 18517 18518 18519 18520 18521 18522 18523 18524 18525 18526 18527 18528 18529 18530 18531 18532 18533 18534 18535 18536 18537 18538 18539 18540 18541 18542 18543 18544 18545 18546 18547 18548 18549 18550 18551 18552 18553 18554 18555 18556 18557 18558 18559 18560 18561 18562 18563 18564 18565 18566 18567 18568 18569 18570 18571 18572 18573 18574 18575 18576 18577 18578 18579 18580 18581 18582 18583 18584 18585 18586 18587 18588 18589 18590 18591 18592 18593 18594 18595 18596 18597 18598 18599 18600 18601 18602 18603 18604 18605 18606 18607 18608 18609 18610 18611 18612 18613 18614 18615 18616 18617 18618 18619 18620 18621 18622 18623 18624 18625 18626 18627 18628 18629 18630 18631 18632 18633 18634 18635 18636 18637 18638 18639 18640 18641 18642 18643 18644 18645 18646 18647 18648 18649 18650 18651 18652 18653 18654 18655 18656 18657 18658 18659 18660 18661 18662 18663 18664 18665 18666 18667 18668 18669 18670 18671 18672 18673 18674 18675 18676 18677 18678 18679 18680 18681 18682 18683 18684 18685 18686 18687 18688 18689 18690 18691 18692 18693 18694 18695 18696 18697 18698 18699 18700 18701 18702 18703 18704 18705 18706 18707 18708 18709 18710 18711 18712 18713 18714 18715 18716 18717 18718 18719 18720 18721 18722 18723 18724 18725 18726 18727 18728 18729 18730 18731 18732 18733 18734 18735 18736 18737 18738 18739 18740 18741 18742 18743 18744 18745 18746 18747 18748 18749 18750 18751 18752 18753 18754 18755 18756 18757 18758 18759 18760 18761 18762 18763 18764 18765 18766 18767 18768 18769 18770 18771 18772 18773 18774 18775 18776 18777 18778 18779 18780 18781 18782 18783 18784 18785 18786 18787 18788 18789 18790 18791 18792 18793 18794 18795 18796 18797 18798 18799 18800 18801 18802 18803 18804 18805 18806 18807 18808 18809 18810 18811 18812 18813 18814 18815 18816 18817 18818 18819 18820 18821 18822 18823 18824 18825 18826 18827 18828 18829 18830 18831 18832 18833 18834 18835 18836 18837 18838 18839 18840 18841 18842 18843 18844 18845 18846 18847 18848 18849 18850 18851 18852 18853 18854 18855 18856 18857 18858 18859 18860 18861 18862 18863 18864 18865 18866 18867 18868 18869 18870 18871 18872 18873 18874 18875 18876 18877 18878 18879 18880 18881 18882 18883 18884 18885 18886 18887 18888 18889 18890 18891 18892 18893 18894 18895 18896 18897 18898 18899 18900 18901 18902 18903 18904 18905 18906 18907 18908 18909 18910 18911 18912 18913 18914 18915 18916 18917 18918 18919 18920 18921 18922 18923 18924 18925 18926 18927 18928 18929 18930 18931 18932 18933 18934 18935 18936 18937 18938 18939 18940 18941 18942 18943 18944 18945 18946 18947 18948 18949 18950 18951 18952 18953 18954 18955 18956 18957 18958 18959 18960 18961 18962 18963 18964 18965 18966 18967 18968 18969 18970 18971 18972 18973 18974 18975 18976 18977 18978 18979 18980 18981 18982 18983 18984 18985 18986 18987 18988 18989 18990 18991 18992 18993 18994 18995 18996 18997 18998 18999 19000 19001 19002 19003 19004 19005 19006 19007 19008 19009 19010 19011 19012 19013 19014 19015 19016 19017 19018 19019 19020 19021 19022 19023 19024 19025 19026 19027 19028 19029 19030 19031 19032 19033 19034 19035 19036 19037 19038 19039 19040 19041 19042 19043 19044 19045 19046 19047 19048 19049 19050 19051 19052 19053 19054 19055 19056 19057 19058 19059 19060 19061 19062 19063 19064 19065 19066 19067 19068 19069 19070 19071 19072 19073 19074 19075 19076 19077 19078 19079 19080 19081 19082 19083 19084 19085 19086 19087 19088 19089 19090 19091 19092 19093 19094 19095 19096 19097 19098 19099 19100 19101 19102 19103 19104 19105 19106 19107 19108 19109 19110 19111 19112 19113 19114 19115 19116 19117 19118 19119 19120 19121 19122 19123 19124 19125 19126 19127 19128 19129 19130 19131 19132 19133 19134 19135 19136 19137 19138 19139 19140 19141 19142 19143 19144 19145 19146 19147 19148 19149 19150 19151 19152 19153 19154 19155 19156 19157 19158 19159 19160 19161 19162 19163 19164 19165 19166 19167 19168 19169 19170 19171 19172 19173 19174 19175 19176 19177 19178 19179 19180 19181 19182 19183 19184 19185 19186 19187 19188 19189 19190 19191 19192 19193 19194 19195 19196 19197 19198 19199 19200 19201 19202 19203 19204 19205 19206 19207 19208 19209 19210 19211 19212 19213 19214 19215 19216 19217 19218 19219 19220 19221 19222 19223 19224 19225 19226 19227 19228 19229 19230 19231 19232 19233 19234 19235 19236 19237 19238 19239 19240 19241 19242 19243 19244 19245 19246 19247 19248 19249 19250 19251 19252 19253 19254 19255 19256 19257 19258 19259 19260 19261 19262 19263 19264 19265 19266 19267 19268 19269 19270 19271 19272 19273 19274 19275 19276 19277 19278 19279 19280 19281 19282 19283 19284 19285 19286 19287 19288 19289 19290 19291 19292 19293 19294 19295 19296 19297 19298 19299 19300 19301 19302 19303 19304 19305 19306 19307 19308 19309 19310 19311 19312 19313 19314 19315 19316 19317 19318 19319 19320 19321 19322 19323 19324 19325 19326 19327 19328 19329 19330 19331 19332 19333 19334 19335 19336 19337 19338 19339 19340 19341 19342 19343 19344 19345 19346 19347 19348 19349 19350 19351 19352 19353 19354 19355 19356 19357 19358 19359 19360 19361 19362 19363 19364 19365 19366 19367 19368 19369 19370 19371 19372 19373 19374 19375 19376 19377 19378 19379 19380 19381 19382 19383 19384 19385 19386 19387 19388 19389 19390 19391 19392 19393 19394 19395 19396 19397 19398 19399 19400 19401 19402 19403 19404 19405 19406 19407 19408 19409 19410 19411 19412 19413 19414 19415 19416 19417 19418 19419 19420 19421 19422 19423 19424 19425 19426 19427 19428 19429 19430 19431 19432 19433 19434 19435 19436 19437 19438 19439 19440 19441 19442 19443 19444 19445 19446 19447 19448 19449 19450 19451 19452 19453 19454 19455 19456 19457 19458 19459 19460 19461 19462 19463 19464 19465 19466 19467 19468 19469 19470 19471 19472 19473 19474 19475 19476 19477 19478 19479 19480 19481 19482 19483 19484 19485 19486 19487 19488 19489 19490 19491 19492 19493 19494 19495 19496 19497 19498 19499 19500 19501 19502 19503 19504 19505 19506 19507 19508 19509 19510 19511 19512 19513 19514 19515 19516 19517 19518 19519 19520 19521 19522 19523 19524 19525 19526 19527 19528 19529 19530 19531 19532 19533 19534 19535 19536 19537 19538 19539 19540 19541 19542 19543 19544 19545 19546 19547 19548 19549 19550 19551 19552 19553 19554 19555 19556 19557 19558 19559 19560 19561 19562 19563 19564 19565 19566 19567 19568 19569 19570 19571 19572 19573 19574 19575 19576 19577 19578 19579 19580 19581 19582 19583 19584 19585 19586 19587 19588 19589 19590 19591 19592 19593 19594 19595 19596 19597 19598 19599 19600 19601 19602 19603 19604 19605 19606 19607 19608 19609 19610 19611 19612 19613 19614 19615 19616 19617 19618 19619 19620 19621 19622 19623 19624 19625 19626 19627 19628 19629 19630 19631 19632 19633 19634 19635 19636 19637 19638 19639 19640 19641 19642 19643 19644 19645 19646 19647 19648 19649 19650 19651 19652 19653 19654 19655 19656 19657 19658 19659 19660 19661 19662 19663 19664 19665 19666 19667 19668 19669 19670 19671 19672 19673 19674 19675 19676 19677 19678 19679 19680 19681 19682 19683 19684 19685 19686 19687 19688 19689 19690 19691 19692 19693 19694 19695 19696 19697 19698 19699 19700 19701 19702 19703 19704 19705 19706 19707 19708 19709 19710 19711 19712 19713 19714 19715 19716 19717 19718 19719 19720 19721 19722 19723 19724 19725 19726 19727 19728 19729 19730 19731 19732 19733 19734 19735 19736 19737 19738 19739 19740 19741 19742 19743 19744 19745 19746 19747 19748 19749 19750 19751 19752 19753 19754 19755 19756 19757 19758 19759 19760 19761 19762 19763 19764 19765 19766 19767 19768 19769 19770 19771 19772 19773 19774 19775 19776 19777 19778 19779 19780 19781 19782 19783 19784 19785 19786 19787 19788 19789 19790 19791 19792 19793 19794 19795 19796 19797 19798 19799 19800 19801 19802 19803 19804 19805 19806 19807 19808 19809 19810 19811 19812 19813 19814 19815 19816 19817 19818 19819 19820 19821 19822 19823 19824 19825 19826 19827 19828 19829 19830 19831 19832 19833 19834 19835 19836 19837 19838 19839 19840 19841 19842 19843 19844 19845 19846 19847 19848 19849 19850 19851 19852 19853 19854 19855 19856 19857 19858 19859 19860 19861 19862 19863 19864 19865 19866 19867 19868 19869 19870 19871 19872 19873 19874 19875 19876 19877 19878 19879 19880 19881 19882 19883 19884 19885 19886 19887 19888 19889 19890 19891 19892 19893 19894 19895 19896 19897 19898 19899 19900 19901 19902 19903 19904 19905 19906 19907 19908 19909 19910 19911 19912 19913 19914 19915 19916 19917 19918 19919 19920 19921 19922 19923 19924 19925 19926 19927 19928 19929 19930 19931 19932 19933 19934 19935 19936 19937 19938 19939 19940 19941 19942 19943 19944 19945 19946 19947 19948 19949 19950 19951 19952 19953 19954 19955 19956 19957 19958 19959 19960 19961 19962 19963 19964 19965 19966 19967 19968 19969 19970 19971 19972 19973 19974 19975 19976 19977 19978 19979 19980 19981 19982 19983 19984 19985 19986 19987 19988 19989 19990 19991 19992 19993 19994 19995 19996 19997 19998 19999 20000 20001 20002 20003 20004 20005 20006 20007 20008 20009 20010 20011 20012 20013 20014 20015 20016 20017 20018 20019 20020 20021 20022 20023 20024 20025 20026 20027 20028 20029 20030 20031 20032 20033 20034 20035 20036 20037 20038 20039 20040 20041 20042 20043 20044 20045 20046 20047 20048 20049 20050 20051 20052 20053 20054 20055 20056 20057 20058 20059 20060 20061 20062 20063 20064 20065 20066 20067 20068 20069 20070 20071 20072 20073 20074 20075 20076 20077 20078 20079 20080 20081 20082 20083 20084 20085 20086 20087 20088 20089 20090 20091 20092 20093 20094 20095 20096 20097 20098 20099 20100 20101 20102 20103 20104 20105 20106 20107 20108 20109 20110 20111 20112 20113 20114 20115 20116 20117 20118 20119 20120 20121 20122 20123 20124 20125 20126 20127 20128 20129 20130 20131 20132 20133 20134 20135 20136 20137 20138 20139 20140 20141 20142 20143 20144 20145 20146 20147 20148 20149 20150 20151 20152 20153 20154 20155 20156 20157 20158 20159 20160 20161 20162 20163 20164 20165 20166 20167 20168 20169 20170 20171 20172 20173 20174 20175 20176 20177 20178 20179 20180 20181 20182 20183 20184 20185 20186 20187 20188 20189 20190 20191 20192 20193 20194 20195 20196 20197 20198 20199 20200 20201 20202 20203 20204 20205 20206 20207 20208 20209 20210 20211 20212 20213 20214 20215 20216 20217 20218 20219 20220 20221 20222 20223 20224 20225 20226 20227 20228 20229 20230 20231 20232 20233 20234 20235 20236 20237 20238 20239 20240 20241 20242 20243 20244 20245 20246 20247 20248 20249 20250 20251 20252 20253 20254 20255 20256 20257 20258 20259 20260 20261 20262 20263 20264 20265 20266 20267 20268 20269 20270 20271 20272 20273 20274 20275 20276 20277 20278 20279 20280 20281 20282 20283 20284 20285 20286 20287 20288 20289 20290 20291 20292 20293 20294 20295 20296 20297 20298 20299 20300 20301 20302 20303 20304 20305 20306 20307 20308 20309 20310 20311 20312 20313 20314 20315 20316 20317 20318 20319 20320 20321 20322 20323 20324 20325 20326 20327 20328 20329 20330 20331 20332 20333 20334 20335 20336 20337 20338 20339 20340 20341 20342 20343 20344 20345 20346 20347 20348 20349 20350 20351 20352 20353 20354 20355 20356 20357 20358 20359 20360 20361 20362 20363 20364 20365 20366 20367 20368 20369 20370 20371 20372 20373 20374 20375 20376 20377 20378 20379 20380 20381 20382 20383 20384 20385 20386 20387 20388 20389 20390 20391 20392 20393 20394 20395 20396 20397 20398 20399 20400 20401 20402 20403 20404 20405 20406 20407 20408 20409 20410 20411 20412 20413 20414 20415 20416 20417 20418 20419 20420 20421 20422 20423 20424 20425 20426 20427 20428 20429 20430 20431 20432 20433 20434 20435 20436 20437 20438 20439 20440 20441 20442 20443 20444 20445 20446 20447 20448 20449 20450 20451 20452 20453 20454 20455 20456 20457 20458 20459 20460 20461 20462 20463 20464 20465 20466 20467 20468 20469 20470 20471 20472 20473 20474 20475 20476 20477 20478 20479 20480 20481 20482 20483 20484 20485 20486 20487 20488 20489 20490 20491 20492 20493 20494 20495 20496 20497 20498 20499 20500 20501 20502 20503 20504 20505 20506 20507 20508 20509 20510 20511 20512 20513 20514 20515 20516 20517 20518 20519 20520 20521 20522 20523 20524 20525 20526 20527 20528 20529 20530 20531 20532 20533 20534 20535 20536 20537 20538 20539 20540 20541 20542 20543 20544 20545 20546 20547 20548 20549 20550 20551 20552 20553 20554 20555 20556 20557 20558 20559 20560 20561 20562 20563 20564 20565 20566 20567 20568 20569 20570 20571 20572 20573 20574 20575 20576 20577 20578 20579 20580 20581 20582 20583 20584 20585 20586 20587 20588 20589 20590 20591 20592 20593 20594 20595 20596 20597 20598 20599 20600 20601 20602 20603 20604 20605 20606 20607 20608 20609 20610 20611 20612 20613 20614 20615 20616 20617 20618 20619 20620 20621 20622 20623 20624 20625 20626 20627 20628 20629 20630 20631 20632 20633 20634 20635 20636 20637 20638 20639 20640 20641 20642 20643 20644 20645 20646 20647 20648 20649 20650 20651 20652 20653 20654 20655 20656 20657 20658 20659 20660 20661 20662 20663 20664 20665 20666 20667 20668 20669 20670 20671 20672 20673 20674 20675 20676 20677 20678 20679 20680 20681 20682 20683 20684 20685 20686 20687 20688 20689 20690 20691 20692 20693 20694 20695 20696 20697 20698 20699 20700 20701 20702 20703 20704 20705 20706 20707 20708 20709 20710 20711 20712 20713 20714 20715 20716 20717 20718 20719 20720 20721 20722 20723 20724 20725 20726 20727 20728 20729 20730 20731 20732 20733 20734 20735 20736 20737 20738 20739 20740 20741 20742 20743 20744 20745 20746 20747 20748 20749 20750 20751 20752 20753 20754 20755 20756 20757 20758 20759 20760 20761 20762 20763 20764 20765 20766 20767 20768 20769 20770 20771 20772 20773 20774 20775 20776 20777 20778 20779 20780 20781 20782 20783 20784 20785 20786 20787 20788 20789 20790 20791 20792 20793 20794 20795 20796 20797 20798 20799 20800 20801 20802 20803 20804 20805 20806 20807 20808 20809 20810 20811 20812 20813 20814 20815 20816 20817 20818 20819 20820 20821 20822 20823 20824 20825 20826 20827 20828 20829 20830 20831 20832 20833 20834 20835 20836 20837 20838 20839 20840 20841 20842 20843 20844 20845 20846 20847 20848 20849 20850 20851 20852 20853 20854 20855 20856 20857 20858 20859 20860 20861 20862 20863 20864 20865 20866 20867 20868 20869 20870 20871 20872 20873 20874 20875 20876 20877 20878 20879 20880 20881 20882 20883 20884 20885 20886 20887 20888 20889 20890 20891 20892 20893 20894 20895 20896 20897 20898 20899 20900 20901 20902 20903 20904 20905 20906 20907 20908 20909 20910 20911 20912 20913 20914 20915 20916 20917 20918 20919 20920 20921 20922 20923 20924 20925 20926 20927 20928 20929 20930 20931 20932 20933 20934 20935 20936 20937 20938 20939 20940 20941 20942 20943 20944 20945 20946 20947 20948 20949 20950 20951 20952 20953 20954 20955 20956 20957 20958 20959 20960 20961 20962 20963 20964 20965 20966 20967 20968 20969 20970 20971 20972 20973 20974 20975 20976 20977 20978 20979 20980 20981 20982 20983 20984 20985 20986 20987 20988 20989 20990 20991 20992 20993 20994 20995 20996 20997 20998 20999 21000 21001 21002 21003 21004 21005 21006 21007 21008 21009 21010 21011 21012 21013 21014 21015 21016 21017 21018 21019 21020 21021 21022 21023 21024 21025 21026 21027 21028 21029 21030 21031 21032 21033 21034 21035 21036 21037 21038 21039 21040 21041 21042 21043 21044 21045 21046 21047 21048 21049 21050 21051 21052 21053 21054 21055 21056 21057 21058 21059 21060 21061 21062 21063 21064 21065 21066 21067 21068 21069 21070 21071 21072 21073 21074 21075 21076 21077 21078 21079 21080 21081 21082 21083 21084 21085 21086 21087 21088 21089 21090 21091 21092 21093 21094 21095 21096 21097 21098 21099 21100 21101 21102 21103 21104 21105 21106 21107 21108 21109 21110 21111 21112 21113 21114 21115 21116 21117 21118 21119 21120 21121 21122 21123 21124 21125 21126 21127 21128 21129 21130 21131 21132 21133 21134 21135 21136 21137 21138 21139 21140 21141 21142 21143 21144 21145 21146 21147 21148 21149 21150 21151 21152 21153 21154 21155 21156 21157 21158 21159 21160 21161 21162 21163 21164 21165 21166 21167 21168 21169 21170 21171 21172 21173 21174 21175 21176 21177 21178 21179 21180 21181 21182 21183 21184 21185 21186 21187 21188 21189 21190 21191 21192 21193 21194 21195 21196 21197 21198 21199 21200 21201 21202 21203 21204 21205 21206 21207 21208 21209 21210 21211 21212 21213 21214 21215 21216 21217 21218 21219 21220 21221 21222 21223 21224 21225 21226 21227 21228 21229 21230 21231 21232 21233 21234 21235 21236 21237 21238 21239 21240 21241 21242 21243 21244 21245 21246 21247 21248 21249 21250 21251 21252 21253 21254 21255 21256 21257 21258 21259 21260 21261 21262 21263 21264 21265 21266 21267 21268 21269 21270 21271 21272 21273 21274 21275 21276 21277 21278 21279 21280 21281 21282 21283 21284 21285 21286 21287 21288 21289 21290 21291 21292 21293 21294 21295 21296 21297 21298 21299 21300 21301 21302 21303 21304 21305 21306 21307 21308 21309 21310 21311 21312 21313 21314 21315 21316 21317 21318 21319 21320 21321 21322 21323 21324 21325 21326 21327 21328 21329 21330 21331 21332 21333 21334 21335 21336 21337 21338 21339 21340 21341 21342 21343 21344 21345 21346 21347 21348 21349 21350 21351 21352 21353 21354 21355 21356 21357 21358 21359 21360 21361 21362 21363 21364 21365 21366 21367 21368 21369 21370 21371 21372 21373 21374 21375 21376 21377 21378 21379 21380 21381 21382 21383 21384 21385 21386 21387 21388 21389 21390 21391 21392 21393 21394 21395 21396 21397 21398 21399 21400 21401 21402 21403 21404 21405 21406 21407 21408 21409 21410 21411 21412 21413 21414 21415 21416 21417 21418 21419 21420 21421 21422 21423 21424 21425 21426 21427 21428 21429 21430 21431 21432 21433 21434 21435 21436 21437 21438 21439 21440 21441 21442 21443 21444 21445 21446 21447 21448 21449 21450 21451 21452 21453 21454 21455 21456 21457 21458 21459 21460 21461 21462 21463 21464 21465 21466 21467 21468 21469 21470 21471 21472 21473 21474 21475 21476 21477 21478 21479 21480 21481 21482 21483 21484 21485 21486 21487 21488 21489 21490 21491 21492 21493 21494 21495 21496 21497 21498 21499 21500 21501 21502 21503 21504 21505 21506 21507 21508 21509 21510 21511 21512 21513 21514 21515 21516 21517 21518 21519 21520 21521 21522 21523 21524 21525 21526 21527 21528 21529 21530 21531 21532 21533 21534 21535 21536 21537 21538 21539 21540 21541 21542 21543 21544 21545 21546 21547 21548 21549 21550 21551 21552 21553 21554 21555 21556 21557 21558 21559 21560 21561 21562 21563 21564 21565 21566 21567 21568 21569 21570 21571 21572 21573 21574 21575 21576 21577 21578 21579 21580 21581 21582 21583 21584 21585 21586 21587 21588 21589 21590 21591 21592 21593 21594 21595 21596 21597 21598 21599 21600 21601 21602 21603 21604 21605 21606 21607 21608 21609 21610 21611 21612 21613 21614 21615 21616 21617 21618 21619 21620 21621 21622 21623 21624 21625 21626 21627 21628 21629 21630 21631 21632 21633 21634 21635 21636 21637 21638 21639 21640 21641 21642 21643 21644 21645 21646 21647 21648 21649 21650 21651 21652 21653 21654 21655 21656 21657 21658 21659 21660 21661 21662 21663 21664 21665 21666 21667 21668 21669 21670 21671 21672 21673 21674 21675 21676 21677 21678 21679 21680 21681 21682 21683 21684 21685 21686 21687 21688 21689 21690 21691 21692 21693 21694 21695 21696 21697 21698 21699 21700 21701 21702 21703 21704 21705 21706 21707 21708 21709 21710 21711 21712 21713 21714 21715 21716 21717 21718 21719 21720 21721 21722 21723 21724 21725 21726 21727 21728 21729 21730 21731 21732 21733 21734 21735 21736 21737 21738 21739 21740 21741 21742 21743 21744 21745 21746 21747 21748 21749 21750 21751 21752 21753 21754 21755 21756 21757 21758 21759 21760 21761 21762 21763 21764 21765 21766 21767 21768 21769 21770 21771 21772 21773 21774 21775 21776 21777 21778 21779 21780 21781 21782 21783 21784 21785 21786 21787 21788 21789 21790 21791 21792 21793 21794 21795 21796 21797 21798 21799 21800 21801 21802 21803 21804 21805 21806 21807 21808 21809 21810 21811 21812 21813 21814 21815 21816 21817 21818 21819 21820 21821 21822 21823 21824 21825 21826 21827 21828 21829 21830 21831 21832 21833 21834 21835 21836 21837 21838 21839 21840 21841 21842 21843 21844 21845 21846 21847 21848 21849 21850 21851 21852 21853 21854 21855 21856 21857 21858 21859 21860 21861 21862 21863 21864 21865 21866 21867 21868 21869 21870 21871 21872 21873 21874 21875 21876 21877 21878 21879 21880 21881 21882 21883 21884 21885 21886 21887 21888 21889 21890 21891 21892 21893 21894 21895 21896 21897 21898 21899 21900 21901 21902 21903 21904 21905 21906 21907 21908 21909 21910 21911 21912 21913 21914 21915 21916 21917 21918 21919 21920 21921 21922 21923 21924 21925 21926 21927 21928 21929 21930 21931 21932 21933 21934 21935 21936 21937 21938 21939 21940 21941 21942 21943 21944 21945 21946 21947 21948 21949 21950 21951 21952 21953 21954 21955 21956 21957 21958 21959 21960 21961 21962 21963 21964 21965 21966 21967 21968 21969 21970 21971 21972 21973 21974 21975 21976 21977 21978 21979 21980 21981 21982 21983 21984 21985 21986 21987 21988 21989 21990 21991 21992 21993 21994 21995 21996 21997 21998 21999 22000 22001 22002 22003 22004 22005 22006 22007 22008 22009 22010 22011 22012 22013 22014 22015 22016 22017 22018 22019 22020 22021 22022 22023 22024 22025 22026 22027 22028 22029 22030 22031 22032 22033 22034 22035 22036 22037 22038 22039 22040 22041 22042 22043 22044 22045 22046 22047 22048 22049 22050 22051 22052 22053 22054 22055 22056 22057 22058 22059 22060 22061 22062 22063 22064 22065 22066 22067 22068 22069 22070 22071 22072 22073 22074 22075 22076 22077 22078 22079 22080 22081 22082 22083 22084 22085 22086 22087 22088 22089 22090 22091 22092 22093 22094 22095 22096 22097 22098 22099 22100 22101 22102 22103 22104 22105 22106 22107 22108 22109 22110 22111 22112 22113 22114 22115 22116 22117 22118 22119 22120 22121 22122 22123 22124 22125 22126 22127 22128 22129 22130 22131 22132 22133 22134 22135 22136 22137 22138 22139 22140 22141 22142 22143 22144 22145 22146 22147 22148 22149 22150 22151 22152 22153 22154 22155 22156 22157 22158 22159 22160 22161 22162 22163 22164 22165 22166 22167 22168 22169 22170 22171 22172 22173 22174 22175 22176 22177 22178 22179 22180 22181 22182 22183 22184 22185 22186 22187 22188 22189 22190 22191 22192 22193 22194 22195 22196 22197 22198 22199 22200 22201 22202 22203 22204 22205 22206 22207 22208 22209 22210 22211 22212 22213 22214 22215 22216 22217 22218 22219 22220 22221 22222 22223 22224 22225 22226 22227 22228 22229 22230 22231 22232 22233 22234 22235 22236 22237 22238 22239 22240 22241 22242 22243 22244 22245 22246 22247 22248 22249 22250 22251 22252 22253 22254 22255 22256 22257 22258 22259 22260 22261 22262 22263 22264 22265 22266 22267 22268 22269 22270 22271 22272 22273 22274 22275 22276 22277 22278 22279 22280 22281 22282 22283 22284 22285 22286 22287 22288 22289 22290 22291 22292 22293 22294 22295 22296 22297 22298 22299 22300 22301 22302 22303 22304 22305 22306 22307 22308 22309 22310 22311 22312 22313 22314 22315 22316 22317 22318 22319 22320 22321 22322 22323 22324 22325 22326 22327 22328 22329 22330 22331 22332 22333 22334 22335 22336 22337 22338 22339 22340 22341 22342 22343 22344 22345 22346 22347 22348 22349 22350 22351 22352 22353 22354 22355 22356 22357 22358 22359 22360 22361 22362 22363 22364 22365 22366 22367 22368 22369 22370 22371 22372 22373 22374 22375 22376 22377 22378 22379 22380 22381 22382 22383 22384 22385 22386 22387 22388 22389 22390 22391 22392 22393 22394 22395 22396 22397 22398 22399 22400 22401 22402 22403 22404 22405 22406 22407 22408 22409 22410 22411 22412 22413 22414 22415 22416 22417 22418 22419 22420 22421 22422 22423 22424 22425 22426 22427 22428 22429 22430 22431 22432 22433 22434 22435 22436 22437 22438 22439 22440 22441 22442 22443 22444 22445 22446 22447 22448 22449 22450 22451 22452 22453 22454 22455 22456 22457 22458 22459 22460 22461 22462 22463 22464 22465 22466 22467 22468 22469 22470 22471 22472 22473 22474 22475 22476 22477 22478 22479 22480 22481 22482 22483 22484 22485 22486 22487 22488 22489 22490 22491 22492 22493 22494 22495 22496 22497 22498 22499 22500 22501 22502 22503 22504 22505 22506 22507 22508 22509 22510 22511 22512 22513 22514 22515 22516 22517 22518 22519 22520 22521 22522 22523 22524 22525 22526 22527 22528 22529 22530 22531 22532 22533 22534 22535 22536 22537 22538 22539 22540 22541 22542 22543 22544 22545 22546 22547 22548 22549 22550 22551 22552 22553 22554 22555 22556 22557 22558 22559 22560 22561 22562 22563 22564 22565 22566 22567 22568 22569 22570 22571 22572 22573 22574 22575 22576 22577 22578 22579 22580 22581 22582 22583 22584 22585 22586 22587 22588 22589 22590 22591 22592 22593 22594 22595 22596 22597 22598 22599 22600 22601 22602 22603 22604 22605 22606 22607 22608 22609 22610 22611 22612 22613 22614 22615 22616 22617 22618 22619 22620 22621 22622 22623 22624 22625 22626 22627 22628 22629 22630 22631 22632 22633 22634 22635 22636 22637 22638 22639 22640 22641 22642 22643 22644 22645 22646 22647 22648 22649 22650 22651 22652 22653 22654 22655 22656 22657 22658 22659 22660 22661 22662 22663 22664 22665 22666 22667 22668 22669 22670 22671 22672 22673 22674 22675 22676 22677 22678 22679 22680 22681 22682 22683 22684 22685 22686 22687 22688 22689 22690 22691 22692 22693 22694 22695 22696 22697 22698 22699 22700 22701 22702 22703 22704 22705 22706 22707 22708 22709 22710 22711 22712 22713 22714 22715 22716 22717 22718 22719 22720 22721 22722 22723 22724 22725 22726 22727 22728 22729 22730 22731 22732 22733 22734 22735 22736 22737 22738 22739 22740 22741 22742 22743 22744 22745 22746 22747 22748 22749 22750 22751 22752 22753 22754 22755 22756 22757 22758 22759 22760 22761 22762 22763 22764 22765 22766 22767 22768 22769 22770 22771 22772 22773 22774 22775 22776 22777 22778 22779 22780 22781 22782 22783 22784 22785 22786 22787 22788 22789 22790 22791 22792 22793 22794 22795 22796 22797 22798 22799 22800 22801 22802 22803 22804 22805 22806 22807 22808 22809 22810 22811 22812 22813 22814 22815 22816 22817 22818 22819 22820 22821 22822 22823 22824 22825 22826 22827 22828 22829 22830 22831 22832 22833 22834 22835 22836 22837 22838 22839 22840 22841 22842 22843 22844 22845 22846 22847 22848 22849 22850 22851 22852 22853 22854 22855 22856 22857 22858 22859 22860 22861 22862 22863 22864 22865 22866 22867 22868 22869 22870 22871 22872 22873 22874 22875 22876 22877 22878 22879 22880 22881 22882 22883 22884 22885 22886 22887 22888 22889 22890 22891 22892 22893 22894 22895 22896 22897 22898 22899 22900 22901 22902 22903 22904 22905 22906 22907 22908 22909 22910 22911 22912 22913 22914 22915 22916 22917 22918 22919 22920 22921 22922 22923 22924 22925 22926 22927 22928 22929 22930 22931 22932 22933 22934 22935 22936 22937 22938 22939 22940 22941 22942 22943 22944 22945 22946 22947 22948 22949 22950 22951 22952 22953 22954 22955 22956 22957 22958 22959 22960 22961 22962 22963 22964 22965 22966 22967 22968 22969 22970 22971 22972 22973 22974 22975 22976 22977 22978 22979 22980 22981 22982 22983 22984 22985 22986 22987 22988 22989 22990 22991 22992 22993 22994 22995 22996 22997 22998 22999 23000 23001 23002 23003 23004 23005 23006 23007 23008 23009 23010 23011 23012 23013 23014 23015 23016 23017 23018 23019 23020 23021 23022 23023 23024 23025 23026 23027 23028 23029 23030 23031 23032 23033 23034 23035 23036 23037 23038 23039 23040 23041 23042 23043 23044 23045 23046 23047 23048 23049 23050 23051 23052 23053 23054 23055 23056 23057 23058 23059 23060 23061 23062 23063 23064 23065 23066 23067 23068 23069 23070 23071 23072 23073 23074 23075 23076 23077 23078 23079 23080 23081 23082 23083 23084 23085 23086 23087 23088 23089 23090 23091 23092 23093 23094 23095 23096 23097 23098 23099 23100 23101 23102 23103 23104 23105 23106 23107 23108 23109 23110 23111 23112 23113 23114 23115 23116 23117 23118 23119 23120 23121 23122 23123 23124 23125 23126 23127 23128 23129 23130 23131 23132 23133 23134 23135 23136 23137 23138 23139 23140 23141 23142 23143 23144 23145 23146 23147 23148 23149 23150 23151 23152 23153 23154 23155 23156 23157 23158 23159 23160 23161 23162 23163 23164 23165 23166 23167 23168 23169 23170 23171 23172 23173 23174 23175 23176 23177 23178 23179 23180 23181 23182 23183 23184 23185 23186 23187 23188 23189 23190 23191 23192 23193 23194 23195 23196 23197 23198 23199 23200 23201 23202 23203 23204 23205 23206 23207 23208 23209 23210 23211 23212 23213 23214 23215 23216 23217 23218 23219 23220 23221 23222 23223 23224 23225 23226 23227 23228 23229 23230 23231 23232 23233 23234 23235 23236 23237 23238 23239 23240 23241 23242 23243 23244 23245 23246 23247 23248 23249 23250 23251 23252 23253 23254 23255 23256 23257 23258 23259 23260 23261 23262 23263 23264 23265 23266 23267 23268 23269 23270 23271 23272 23273 23274 23275 23276 23277 23278 23279 23280 23281 23282 23283 23284 23285 23286 23287 23288 23289 23290 23291 23292 23293 23294 23295 23296 23297 23298 23299 23300 23301 23302 23303 23304 23305 23306 23307 23308 23309 23310 23311 23312 23313 23314 23315 23316 23317 23318 23319 23320 23321 23322 23323 23324 23325 23326 23327 23328 23329 23330 23331 23332 23333 23334 23335 23336 23337 23338 23339 23340 23341 23342 23343 23344 23345 23346 23347 23348 23349 23350 23351 23352 23353 23354 23355 23356 23357 23358 23359 23360 23361 23362 23363 23364 23365 23366 23367 23368 23369 23370 23371 23372 23373 23374 23375 23376 23377 23378 23379 23380 23381 23382 23383 23384 23385 23386 23387 23388 23389 23390 23391 23392 23393 23394 23395 23396 23397 23398 23399 23400 23401 23402 23403 23404 23405 23406 23407 23408 23409 23410 23411 23412 23413 23414 23415 23416 23417 23418 23419 23420 23421 23422 23423 23424 23425 23426 23427 23428 23429 23430 23431 23432 23433 23434 23435 23436 23437 23438 23439 23440 23441 23442 23443 23444 23445 23446 23447 23448 23449 23450 23451 23452 23453 23454 23455 23456 23457 23458 23459 23460 23461 23462 23463 23464 23465 23466 23467 23468 23469 23470 23471 23472 23473 23474 23475 23476 23477 23478 23479 23480 23481 23482 23483 23484 23485 23486 23487 23488 23489 23490 23491 23492 23493 23494 23495 23496 23497 23498 23499 23500 23501 23502 23503 23504 23505 23506 23507 23508 23509 23510 23511 23512 23513 23514 23515 23516 23517 23518 23519 23520 23521 23522 23523 23524 23525 23526 23527 23528 23529 23530 23531 23532 23533 23534 23535 23536 23537 23538 23539 23540 23541 23542 23543 23544 23545 23546 23547 23548 23549 23550 23551 23552 23553 23554 23555 23556 23557 23558 23559 23560 23561 23562 23563 23564 23565 23566 23567 23568 23569 23570 23571 23572 23573 23574 23575 23576 23577 23578 23579 23580 23581 23582 23583 23584 23585 23586 23587 23588 23589 23590 23591 23592 23593 23594 23595 23596 23597 23598 23599 23600 23601 23602 23603 23604 23605 23606 23607 23608 23609 23610 23611 23612 23613 23614 23615 23616 23617 23618 23619 23620 23621 23622 23623 23624 23625 23626 23627 23628 23629 23630 23631 23632 23633 23634 23635 23636 23637 23638 23639 23640 23641 23642 23643 23644 23645 23646 23647 23648 23649 23650 23651 23652 23653 23654 23655 23656 23657 23658 23659 23660 23661 23662 23663 23664 23665 23666 23667 23668 23669 23670 23671 23672 23673 23674 23675 23676 23677 23678 23679 23680 23681 23682 23683 23684 23685 23686 23687 23688 23689 23690 23691 23692 23693 23694 23695 23696 23697 23698 23699 23700 23701 23702 23703 23704 23705 23706 23707 23708 23709 23710 23711 23712 23713 23714 23715 23716 23717 23718 23719 23720 23721 23722 23723 23724 23725 23726 23727 23728 23729 23730 23731 23732 23733 23734 23735 23736 23737 23738 23739 23740 23741 23742 23743 23744 23745 23746 23747 23748 23749 23750 23751 23752 23753 23754 23755 23756 23757 23758 23759 23760 23761 23762 23763 23764 23765 23766 23767 23768 23769 23770 23771 23772 23773 23774 23775 23776 23777 23778 23779 23780 23781 23782 23783 23784 23785 23786 23787 23788 23789 23790 23791 23792 23793 23794 23795 23796 23797 23798 23799 23800 23801 23802 23803 23804 23805 23806 23807 23808 23809 23810 23811 23812 23813 23814 23815 23816 23817 23818 23819 23820 23821 23822 23823 23824 23825 23826 23827 23828 23829 23830 23831 23832 23833 23834 23835 23836 23837 23838 23839 23840 23841 23842 23843 23844 23845 23846 23847 23848 23849 23850 23851 23852 23853 23854 23855 23856 23857 23858 23859 23860 23861 23862 23863 23864 23865 23866 23867 23868 23869 23870 23871 23872 23873 23874 23875 23876 23877 23878 23879 23880 23881 23882 23883 23884 23885 23886 23887 23888 23889 23890 23891 23892 23893 23894 23895 23896 23897 23898 23899 23900 23901 23902 23903 23904 23905 23906 23907 23908 23909 23910 23911 23912 23913 23914 23915 23916 23917 23918 23919 23920 23921 23922 23923 23924 23925 23926 23927 23928 23929 23930 23931 23932 23933 23934 23935 23936 23937 23938 23939 23940 23941 23942 23943 23944 23945 23946 23947 23948 23949 23950 23951 23952 23953 23954 23955 23956 23957 23958 23959 23960 23961 23962 23963 23964 23965 23966 23967 23968 23969 23970 23971 23972 23973 23974 23975 23976 23977 23978 23979 23980 23981 23982 23983 23984 23985 23986 23987 23988 23989 23990 23991 23992 23993 23994 23995 23996 23997 23998 23999 24000 24001 24002 24003 24004 24005 24006 24007 24008 24009 24010 24011 24012 24013 24014 24015 24016 24017 24018 24019 24020 24021 24022 24023 24024 24025 24026 24027 24028 24029 24030 24031 24032 24033 24034 24035 24036 24037 24038 24039 24040 24041 24042 24043 24044 24045 24046 24047 24048 24049 24050 24051 24052 24053 24054 24055 24056 24057 24058 24059 24060 24061 24062 24063 24064 24065 24066 24067 24068 24069 24070 24071 24072 24073 24074 24075 24076 24077 24078 24079 24080 24081 24082 24083 24084 24085 24086 24087 24088 24089 24090 24091 24092 24093 24094 24095 24096 24097 24098 24099 24100 24101 24102 24103 24104 24105 24106 24107 24108 24109 24110 24111 24112 24113 24114 24115 24116 24117 24118 24119 24120 24121 24122 24123 24124 24125 24126 24127 24128 24129 24130 24131 24132 24133 24134 24135 24136 24137 24138 24139 24140 24141 24142 24143 24144 24145 24146 24147 24148 24149 24150 24151 24152 24153 24154 24155 24156 24157 24158 24159 24160 24161 24162 24163 24164 24165 24166 24167 24168 24169 24170 24171 24172 24173 24174 24175 24176 24177 24178 24179 24180 24181 24182 24183 24184 24185 24186 24187 24188 24189 24190 24191 24192 24193 24194 24195 24196 24197 24198 24199 24200 24201 24202 24203 24204 24205 24206 24207 24208 24209 24210 24211 24212 24213 24214 24215 24216 24217 24218 24219 24220 24221 24222 24223 24224 24225 24226 24227 24228 24229 24230 24231 24232 24233 24234 24235 24236 24237 24238 24239 24240 24241 24242 24243 24244 24245 24246 24247 24248 24249 24250 24251 24252 24253 24254 24255 24256 24257 24258 24259 24260 24261 24262 24263 24264 24265 24266 24267 24268 24269 24270 24271 24272 24273 24274 24275 24276 24277 24278 24279 24280 24281 24282 24283 24284 24285 24286 24287 24288 24289 24290 24291 24292 24293 24294 24295 24296 24297 24298 24299 24300 24301 24302 24303 24304 24305 24306 24307 24308 24309 24310 24311 24312 24313 24314 24315 24316 24317 24318 24319 24320 24321 24322 24323 24324 24325 24326 24327 24328 24329 24330 24331 24332 24333 24334 24335 24336 24337 24338 24339 24340 24341 24342 24343 24344 24345 24346 24347 24348 24349 24350 24351 24352 24353 24354 24355 24356 24357 24358 24359 24360 24361 24362 24363 24364 24365 24366 24367 24368 24369 24370 24371 24372 24373 24374 24375 24376 24377 24378 24379 24380 24381 24382 24383 24384 24385 24386 24387 24388 24389 24390 24391 24392 24393 24394 24395 24396 24397 24398 24399 24400 24401 24402 24403 24404 24405 24406 24407 24408 24409 24410 24411 24412 24413 24414 24415 24416 24417 24418 24419 24420 24421 24422 24423 24424 24425 24426 24427 24428 24429 24430 24431 24432 24433 24434 24435 24436 24437 24438 24439 24440 24441 24442 24443 24444 24445 24446 24447 24448 24449 24450 24451 24452 24453 24454 24455 24456 24457 24458 24459 24460 24461 24462 24463 24464 24465 24466 24467 24468 24469 24470 24471 24472 24473 24474 24475 24476 24477 24478 24479 24480 24481 24482 24483 24484 24485 24486 24487 24488 24489 24490 24491 24492 24493 24494 24495 24496 24497 24498 24499 24500 24501 24502 24503 24504 24505 24506 24507 24508 24509 24510 24511 24512 24513 24514 24515 24516 24517 24518 24519 24520 24521 24522 24523 24524 24525 24526 24527 24528 24529 24530 24531 24532 24533 24534 24535 24536 24537 24538 24539 24540 24541 24542 24543 24544 24545 24546 24547 24548 24549 24550 24551 24552 24553 24554 24555 24556 24557 24558 24559 24560 24561 24562 24563 24564 24565 24566 24567 24568 24569 24570 24571 24572 24573 24574 24575 24576 24577 24578 24579 24580 24581 24582 24583 24584 24585 24586 24587 24588 24589 24590 24591 24592 24593 24594 24595 24596 24597 24598 24599 24600 24601 24602 24603 24604 24605 24606 24607 24608 24609 24610 24611 24612 24613 24614 24615 24616 24617 24618 24619 24620 24621 24622 24623 24624 24625 24626 24627 24628 24629 24630 24631 24632 24633 24634 24635 24636 24637 24638 24639 24640 24641 24642 24643 24644 24645 24646 24647 24648 24649 24650 24651 24652 24653 24654 24655 24656 24657 24658 24659 24660 24661 24662 24663 24664 24665 24666 24667 24668 24669 24670 24671 24672 24673 24674 24675 24676 24677 24678 24679 24680 24681 24682 24683 24684 24685 24686 24687 24688 24689 24690 24691 24692 24693 24694 24695 24696 24697 24698 24699 24700 24701 24702 24703 24704 24705 24706 24707 24708 24709 24710 24711 24712 24713 24714 24715 24716 24717 24718 24719 24720 24721 24722 24723 24724 24725 24726 24727 24728 24729 24730 24731 24732 24733 24734 24735 24736 24737 24738 24739 24740 24741 24742 24743 24744 24745 24746 24747 24748 24749 24750 24751 24752 24753 24754 24755 24756 24757 24758 24759 24760 24761 24762 24763 24764 24765 24766 24767 24768 24769 24770 24771 24772 24773 24774 24775 24776 24777 24778 24779 24780 24781 24782 24783 24784 24785 24786 24787 24788 24789 24790 24791 24792 24793 24794 24795 24796 24797 24798 24799 24800 24801 24802 24803 24804 24805 24806 24807 24808 24809 24810 24811 24812 24813 24814 24815 24816 24817 24818 24819 24820 24821 24822 24823 24824 24825 24826 24827 24828 24829 24830 24831 24832 24833 24834 24835 24836 24837 24838 24839 24840 24841 24842 24843 24844 24845 24846 24847 24848 24849 24850 24851 24852 24853 24854 24855 24856 24857 24858 24859 24860 24861 24862 24863 24864 24865 24866 24867 24868 24869 24870 24871 24872 24873 24874 24875 24876 24877 24878 24879 24880 24881 24882 24883 24884 24885 24886 24887 24888 24889 24890 24891 24892 24893 24894 24895 24896 24897 24898 24899 24900 24901 24902 24903 24904 24905 24906 24907 24908 24909 24910 24911 24912 24913 24914 24915 24916 24917 24918 24919 24920 24921 24922 24923 24924 24925 24926 24927 24928 24929 24930 24931 24932 24933 24934 24935 24936 24937 24938 24939 24940 24941 24942 24943 24944 24945 24946 24947 24948 24949 24950 24951 24952 24953 24954 24955 24956 24957 24958 24959 24960 24961 24962 24963 24964 24965 24966 24967 24968 24969 24970 24971 24972 24973 24974 24975 24976 24977 24978 24979 24980 24981 24982 24983 24984 24985 24986 24987 24988 24989 24990 24991 24992 24993 24994 24995 24996 24997 24998 24999 25000 25001 25002 25003 25004 25005 25006 25007 25008 25009 25010 25011 25012 25013 25014 25015 25016 25017 25018 25019 25020 25021 25022 25023 25024 25025 25026 25027 25028 25029 25030 25031 25032 25033 25034 25035 25036 25037 25038 25039 25040 25041 25042 25043 25044 25045 25046 25047 25048 25049 25050 25051 25052 25053 25054 25055 25056 25057 25058 25059 25060 25061 25062 25063 25064 25065 25066 25067 25068 25069 25070 25071 25072 25073 25074 25075 25076 25077 25078 25079 25080 25081 25082 25083 25084 25085 25086 25087 25088 25089 25090 25091 25092 25093 25094 25095 25096 25097 25098 25099 25100 25101 25102 25103 25104 25105 25106 25107 25108 25109 25110 25111 25112 25113 25114 25115 25116 25117 25118 25119 25120 25121 25122 25123 25124 25125 25126 25127 25128 25129 25130 25131 25132 25133 25134 25135 25136 25137 25138 25139 25140 25141 25142 25143 25144 25145 25146 25147 25148 25149 25150 25151 25152 25153 25154 25155 25156 25157 25158 25159 25160 25161 25162 25163 25164 25165 25166 25167 25168 25169 25170 25171 25172 25173 25174 25175 25176 25177 25178 25179 25180 25181 25182 25183 25184 25185 25186 25187 25188 25189 25190 25191 25192 25193 25194 25195 25196 25197 25198 25199 25200 25201 25202 25203 25204 25205 25206 25207 25208 25209 25210 25211 25212 25213 25214 25215 25216 25217 25218 25219 25220 25221 25222 25223 25224 25225 25226 25227 25228 25229 25230 25231 25232 25233 25234 25235 25236 25237 25238 25239 25240 25241 25242 25243 25244 25245 25246 25247 25248 25249 25250 25251 25252 25253 25254 25255 25256 25257 25258 25259 25260 25261 25262 25263 25264 25265 25266 25267 25268 25269 25270 25271 25272 25273 25274 25275 25276 25277 25278 25279 25280 25281 25282 25283 25284 25285 25286 25287 25288 25289 25290 25291 25292 25293 25294 25295 25296 25297 25298 25299 25300 25301 25302 25303 25304 25305 25306 25307 25308 25309 25310 25311 25312 25313 25314 25315 25316 25317 25318 25319 25320 25321 25322 25323 25324 25325 25326 25327 25328 25329 25330 25331 25332 25333 25334 25335 25336 25337 25338 25339 25340 25341 25342 25343 25344 25345 25346 25347 25348 25349 25350 25351 25352 25353 25354 25355 25356 25357 25358 25359 25360 25361 25362 25363 25364 25365 25366 25367 25368 25369 25370 25371 25372 25373 25374 25375 25376 25377 25378 25379 25380 25381 25382 25383 25384 25385 25386 25387 25388 25389 25390 25391 25392 25393 25394 25395 25396 25397 25398 25399 25400 25401 25402 25403 25404 25405 25406 25407 25408 25409 25410 25411 25412 25413 25414 25415 25416 25417 25418 25419 25420 25421 25422 25423 25424 25425 25426 25427 25428 25429 25430 25431 25432 25433 25434 25435 25436 25437 25438 25439 25440 25441 25442 25443 25444 25445 25446 25447 25448 25449 25450 25451 25452 25453 25454 25455 25456 25457 25458 25459 25460 25461 25462 25463 25464 25465 25466 25467 25468 25469 25470 25471 25472 25473 25474 25475 25476 25477 25478 25479 25480 25481 25482 25483 25484 25485 25486 25487 25488 25489 25490 25491 25492 25493 25494 25495 25496 25497 25498 25499 25500 25501 25502 25503 25504 25505 25506 25507 25508 25509 25510 25511 25512 25513 25514 25515 25516 25517 25518 25519 25520 25521 25522 25523 25524 25525 25526 25527 25528 25529 25530 25531 25532 25533 25534 25535 25536 25537 25538 25539 25540 25541 25542 25543 25544 25545 25546 25547 25548 25549 25550 25551 25552 25553 25554 25555 25556 25557 25558 25559 25560 25561 25562 25563 25564 25565 25566 25567 25568 25569 25570 25571 25572 25573 25574 25575 25576 25577 25578 25579 25580 25581 25582 25583 25584 25585 25586 25587 25588 25589 25590 25591 25592 25593 25594 25595 25596 25597 25598 25599 25600 25601 25602 25603 25604 25605 25606 25607 25608 25609 25610 25611 25612 25613 25614 25615 25616 25617 25618 25619 25620 25621 25622 25623 25624 25625 25626 25627 25628 25629 25630 25631 25632 25633 25634 25635 25636 25637 25638 25639 25640 25641 25642 25643 25644 25645 25646 25647 25648 25649 25650 25651 25652 25653 25654 25655 25656 25657 25658 25659 25660 25661 25662 25663 25664 25665 25666 25667 25668 25669 25670 25671 25672 25673 25674 25675 25676 25677 25678 25679 25680 25681 25682 25683 25684 25685 25686 25687 25688 25689 25690 25691 25692 25693 25694 25695 25696 25697 25698 25699 25700 25701 25702 25703 25704 25705 25706 25707 25708 25709 25710 25711 25712 25713 25714 25715 25716 25717 25718 25719 25720 25721 25722 25723 25724 25725 25726 25727 25728 25729 25730 25731 25732 25733 25734 25735 25736 25737 25738 25739 25740 25741 25742 25743 25744 25745 25746 25747 25748 25749 25750 25751 25752 25753 25754 25755 25756 25757 25758 25759 25760 25761 25762 25763 25764 25765 25766 25767 25768 25769 25770 25771 25772 25773 25774 25775 25776 25777 25778 25779 25780 25781 25782 25783 25784 25785 25786 25787 25788 25789 25790 25791 25792 25793 25794 25795 25796 25797 25798 25799 25800 25801 25802 25803 25804 25805 25806 25807 25808 25809 25810 25811 25812 25813 25814 25815 25816 25817 25818 25819 25820 25821 25822 25823 25824 25825 25826 25827 25828 25829 25830 25831 25832 25833 25834 25835 25836 25837 25838 25839 25840 25841 25842 25843 25844 25845 25846 25847 25848 25849 25850 25851 25852 25853 25854 25855 25856 25857 25858 25859 25860 25861 25862 25863 25864 25865 25866 25867 25868 25869 25870 25871 25872 25873 25874 25875 25876 25877 25878 25879 25880 25881 25882 25883 25884 25885 25886 25887 25888 25889 25890 25891 25892 25893 25894 25895 25896 25897 25898 25899 25900 25901 25902 25903 25904 25905 25906 25907 25908 25909 25910 25911 25912 25913 25914 25915 25916 25917 25918 25919 25920 25921 25922 25923 25924 25925 25926 25927 25928 25929 25930 25931 25932 25933 25934 25935 25936 25937 25938 25939 25940 25941 25942 25943 25944 25945 25946 25947 25948 25949 25950 25951 25952 25953 25954 25955 25956 25957 25958 25959 25960 25961 25962 25963 25964 25965 25966 25967 25968 25969 25970 25971 25972 25973 25974 25975 25976 25977 25978 25979 25980 25981 25982 25983 25984 25985 25986 25987 25988 25989 25990 25991 25992 25993 25994 25995 25996 25997 25998 25999 26000 26001 26002 26003 26004 26005 26006 26007 26008 26009 26010 26011 26012 26013 26014 26015 26016 26017 26018 26019 26020 26021 26022 26023 26024 26025 26026 26027 26028 26029 26030 26031 26032 26033 26034 26035 26036 26037 26038 26039 26040 26041 26042 26043 26044 26045 26046 26047 26048 26049 26050 26051 26052 26053 26054 26055 26056 26057 26058 26059 26060 26061 26062 26063 26064 26065 26066 26067 26068 26069 26070 26071 26072 26073 26074 26075 26076 26077 26078 26079 26080 26081 26082 26083 26084 26085 26086 26087 26088 26089 26090 26091 26092 26093 26094 26095 26096 26097 26098 26099 26100 26101 26102 26103 26104 26105 26106 26107 26108 26109 26110 26111 26112 26113 26114 26115 26116 26117 26118 26119 26120 26121 26122 26123 26124 26125 26126 26127 26128 26129 26130 26131 26132 26133 26134 26135 26136 26137 26138 26139 26140 26141 26142 26143 26144 26145 26146 26147 26148 26149 26150 26151 26152 26153 26154 26155 26156 26157 26158 26159 26160 26161 26162 26163 26164 26165 26166 26167 26168 26169 26170 26171 26172 26173 26174 26175 26176 26177 26178 26179 26180 26181 26182 26183 26184 26185 26186 26187 26188 26189 26190 26191 26192 26193 26194 26195 26196 26197 26198 26199 26200 26201 26202 26203 26204 26205 26206 26207 26208 26209 26210 26211 26212 26213 26214 26215 26216 26217 26218 26219 26220 26221 26222 26223 26224 26225 26226 26227 26228 26229 26230 26231 26232 26233 26234 26235 26236 26237 26238 26239 26240 26241 26242 26243 26244 26245 26246 26247 26248 26249 26250 26251 26252 26253 26254 26255 26256 26257 26258 26259 26260 26261 26262 26263 26264 26265 26266 26267 26268 26269 26270 26271 26272 26273 26274 26275 26276 26277 26278 26279 26280 26281 26282 26283 26284 26285 26286 26287 26288 26289 26290 26291 26292 26293 26294 26295 26296 26297 26298 26299 26300 26301 26302 26303 26304 26305 26306 26307 26308 26309 26310 26311 26312 26313 26314 26315 26316 26317 26318 26319 26320 26321 26322 26323 26324 26325 26326 26327 26328 26329 26330 26331 26332 26333 26334 26335 26336 26337 26338 26339 26340 26341 26342 26343 26344 26345 26346 26347 26348 26349 26350 26351 26352 26353 26354 26355 26356 26357 26358 26359 26360 26361 26362 26363 26364 26365 26366 26367 26368 26369 26370 26371 26372 26373 26374 26375 26376 26377 26378 26379 26380 26381 26382 26383 26384 26385 26386 26387 26388 26389 26390 26391 26392 26393 26394 26395 26396 26397 26398 26399 26400 26401 26402 26403 26404 26405 26406 26407 26408 26409 26410 26411 26412 26413 26414 26415 26416 26417 26418 26419 26420 26421 26422 26423 26424 26425 26426 26427 26428 26429 26430 26431 26432 26433 26434 26435 26436 26437 26438 26439 26440 26441 26442 26443 26444 26445 26446 26447 26448 26449 26450 26451 26452 26453 26454 26455 26456 26457 26458 26459 26460 26461 26462 26463 26464 26465 26466 26467 26468 26469 26470 26471 26472 26473 26474 26475 26476 26477 26478 26479 26480 26481 26482 26483 26484 26485 26486 26487 26488 26489 26490 26491 26492 26493 26494 26495 26496 26497 26498 26499 26500 26501 26502 26503 26504 26505 26506 26507 26508 26509 26510 26511 26512 26513 26514 26515 26516 26517 26518 26519 26520 26521 26522 26523 26524 26525 26526 26527 26528 26529 26530 26531 26532 26533 26534 26535 26536 26537 26538 26539 26540 26541 26542 26543 26544 26545 26546 26547 26548 26549 26550 26551 26552 26553 26554 26555 26556 26557 26558 26559 26560 26561 26562 26563 26564 26565 26566 26567 26568 26569 26570 26571 26572 26573 26574 26575 26576 26577 26578 26579 26580 26581 26582 26583 26584 26585 26586 26587 26588 26589 26590 26591 26592 26593 26594 26595 26596 26597 26598 26599 26600 26601 26602 26603 26604 26605 26606 26607 26608 26609 26610 26611 26612 26613 26614 26615 26616 26617 26618 26619 26620 26621 26622 26623 26624 26625 26626 26627 26628 26629 26630 26631 26632 26633 26634 26635 26636 26637 26638 26639 26640 26641 26642 26643 26644 26645 26646 26647 26648 26649 26650 26651 26652 26653 26654 26655 26656 26657 26658 26659 26660 26661 26662 26663 26664 26665 26666 26667 26668 26669 26670 26671 26672 26673 26674 26675 26676 26677 26678 26679 26680 26681 26682 26683 26684 26685 26686 26687 26688 26689 26690 26691 26692 26693 26694 26695 26696 26697 26698 26699 26700 26701 26702 26703 26704 26705 26706 26707 26708 26709 26710 26711 26712 26713 26714 26715 26716 26717 26718 26719 26720 26721 26722 26723 26724 26725 26726 26727 26728 26729 26730 26731 26732 26733 26734 26735 26736 26737 26738 26739 26740 26741 26742 26743 26744 26745 26746 26747 26748 26749 26750 26751 26752 26753 26754 26755 26756 26757 26758 26759 26760 26761 26762 26763 26764 26765 26766 26767 26768 26769 26770 26771 26772 26773 26774 26775 26776 26777 26778 26779 26780 26781 26782 26783 26784 26785 26786 26787 26788 26789 26790 26791 26792 26793 26794 26795 26796 26797 26798 26799 26800 26801 26802 26803 26804 26805 26806 26807 26808 26809 26810 26811 26812 26813 26814 26815 26816 26817 26818 26819 26820 26821 26822 26823 26824 26825 26826 26827 26828 26829 26830 26831 26832 26833 26834 26835 26836 26837 26838 26839 26840 26841 26842 26843 26844 26845 26846 26847 26848 26849 26850 26851 26852 26853 26854 26855 26856 26857 26858 26859 26860 26861 26862 26863 26864 26865 26866 26867 26868 26869 26870 26871 26872 26873 26874 26875 26876 26877 26878 26879 26880 26881 26882 26883 26884 26885 26886 26887 26888 26889 26890 26891 26892 26893 26894 26895 26896 26897 26898 26899 26900 26901 26902 26903 26904 26905 26906 26907 26908 26909 26910 26911 26912 26913 26914 26915 26916 26917 26918 26919 26920 26921 26922 26923 26924 26925 26926 26927 26928 26929 26930 26931 26932 26933 26934 26935 26936 26937 26938 26939 26940 26941 26942 26943 26944 26945 26946 26947 26948 26949 26950 26951 26952 26953 26954 26955 26956 26957 26958 26959 26960 26961 26962 26963 26964 26965 26966 26967 26968 26969 26970 26971 26972 26973 26974 26975 26976 26977 26978 26979 26980 26981 26982 26983 26984 26985 26986 26987 26988 26989 26990 26991 26992 26993 26994 26995 26996 26997 26998 26999 27000 27001 27002 27003 27004 27005 27006 27007 27008 27009 27010 27011 27012 27013 27014 27015 27016 27017 27018 27019 27020 27021 27022 27023 27024 27025 27026 27027 27028 27029 27030 27031 27032 27033 27034 27035 27036 27037 27038 27039 27040 27041 27042 27043 27044 27045 27046 27047 27048 27049 27050 27051 27052 27053 27054 27055 27056 27057 27058 27059 27060 27061 27062 27063 27064 27065 27066 27067 27068 27069 27070 27071 27072 27073 27074 27075 27076 27077 27078 27079 27080 27081 27082 27083 27084 27085 27086 27087 27088 27089 27090 27091 27092 27093 27094 27095 27096 27097 27098 27099 27100 27101 27102 27103 27104 27105 27106 27107 27108 27109 27110 27111 27112 27113 27114 27115 27116 27117 27118 27119 27120 27121 27122 27123 27124 27125 27126 27127 27128 27129 27130 27131 27132 27133 27134 27135 27136 27137 27138 27139 27140 27141 27142 27143 27144 27145 27146 27147 27148 27149 27150 27151 27152 27153 27154 27155 27156 27157 27158 27159 27160 27161 27162 27163 27164 27165 27166 27167 27168 27169 27170 27171 27172 27173 27174 27175 27176 27177 27178 27179 27180 27181 27182 27183 27184 27185 27186 27187 27188 27189 27190 27191 27192 27193 27194 27195 27196 27197 27198 27199 27200 27201 27202 27203 27204 27205 27206 27207 27208 27209 27210 27211 27212 27213 27214 27215 27216 27217 27218 27219 27220 27221 27222 27223 27224 27225 27226 27227 27228 27229 27230 27231 27232 27233 27234 27235 27236 27237 27238 27239 27240 27241 27242 27243 27244 27245 27246 27247 27248 27249 27250 27251 27252 27253 27254 27255 27256 27257 27258 27259 27260 27261 27262 27263 27264 27265 27266 27267 27268 27269 27270 27271 27272 27273 27274 27275 27276 27277 27278 27279 27280 27281 27282 27283 27284 27285 27286 27287 27288 27289 27290 27291 27292 27293 27294 27295 27296 27297 27298 27299 27300 27301 27302 27303 27304 27305 27306 27307 27308 27309 27310 27311 27312 27313 27314 27315 27316 27317 27318 27319 27320 27321 27322 27323 27324 27325 27326 27327 27328 27329 27330 27331 27332 27333 27334 27335 27336 27337 27338 27339 27340 27341 27342 27343 27344 27345 27346 27347 27348 27349 27350 27351 27352 27353 27354 27355 27356 27357 27358 27359 27360 27361 27362 27363 27364 27365 27366 27367 27368 27369 27370 27371 27372 27373 27374 27375 27376 27377 27378 27379 27380 27381 27382 27383 27384 27385 27386 27387 27388 27389 27390 27391 27392 27393 27394 27395 27396 27397 27398 27399 27400 27401 27402 27403 27404 27405 27406 27407 27408 27409 27410 27411 27412 27413 27414 27415 27416 27417 27418 27419 27420 27421 27422 27423 27424 27425 27426 27427 27428 27429 27430 27431 27432 27433 27434 27435 27436 27437 27438 27439 27440 27441 27442 27443 27444 27445 27446 27447 27448 27449 27450 27451 27452 27453 27454 27455 27456 27457 27458 27459 27460 27461 27462 27463 27464 27465 27466 27467 27468 27469 27470 27471 27472 27473 27474 27475 27476 27477 27478 27479 27480 27481 27482 27483 27484 27485 27486 27487 27488 27489 27490 27491 27492 27493 27494 27495 27496 27497 27498 27499 27500 27501 27502 27503 27504 27505 27506 27507 27508 27509 27510 27511 27512 27513 27514 27515 27516 27517 27518 27519 27520 27521 27522 27523 27524 27525 27526 27527 27528 27529 27530 27531 27532 27533 27534 27535 27536 27537 27538 27539 27540 27541 27542 27543 27544 27545 27546 27547 27548 27549 27550 27551 27552 27553 27554 27555 27556 27557 27558 27559 27560 27561 27562 27563 27564 27565 27566 27567 27568 27569 27570 27571 27572 27573 27574 27575 27576 27577 27578 27579 27580 27581 27582 27583 27584 27585 27586 27587 27588 27589 27590 27591 27592 27593 27594 27595 27596 27597 27598 27599 27600 27601 27602 27603 27604 27605 27606 27607 27608 27609 27610 27611 27612 27613 27614 27615 27616 27617 27618 27619 27620 27621 27622 27623 27624 27625 27626 27627 27628 27629 27630 27631 27632 27633 27634 27635 27636 27637 27638 27639 27640 27641 27642 27643 27644 27645 27646 27647 27648 27649 27650 27651 27652 27653 27654 27655 27656 27657 27658 27659 27660 27661 27662 27663 27664 27665 27666 27667 27668 27669 27670 27671 27672 27673 27674 27675 27676 27677 27678 27679 27680 27681 27682 27683 27684 27685 27686 27687 27688 27689 27690 27691 27692 27693 27694 27695 27696 27697 27698 27699 27700 27701 27702 27703 27704 27705 27706 27707 27708 27709 27710 27711 27712 27713 27714 27715 27716 27717 27718 27719 27720 27721 27722 27723 27724 27725 27726 27727 27728 27729 27730 27731 27732 27733 27734 27735 27736 27737 27738 27739 27740 27741 27742 27743 27744 27745 27746 27747 27748 27749 27750 27751 27752 27753 27754 27755 27756 27757 27758 27759 27760 27761 27762 27763 27764 27765 27766 27767 27768 27769 27770 27771 27772 27773 27774 27775 27776 27777 27778 27779 27780 27781 27782 27783 27784 27785 27786 27787 27788 27789 27790 27791 27792 27793 27794 27795 27796 27797 27798 27799 27800 27801 27802 27803 27804 27805 27806 27807 27808 27809 27810 27811 27812 27813 27814 27815 27816 27817 27818 27819 27820 27821 27822 27823 27824 27825 27826 27827 27828 27829 27830 27831 27832 27833 27834 27835 27836 27837 27838 27839 27840 27841 27842 27843 27844 27845 27846 27847 27848 27849 27850 27851 27852 27853 27854 27855 27856 27857 27858 27859 27860 27861 27862 27863 27864 27865 27866 27867 27868 27869 27870 27871 27872 27873 27874 27875 27876 27877 27878 27879 27880 27881 27882 27883 27884 27885 27886 27887 27888 27889 27890 27891 27892 27893 27894 27895 27896 27897 27898 27899 27900 27901 27902 27903 27904 27905 27906 27907 27908 27909 27910 27911 27912 27913 27914 27915 27916 27917 27918 27919 27920 27921 27922 27923 27924 27925 27926 27927 27928 27929 27930 27931 27932 27933 27934 27935 27936 27937 27938 27939 27940 27941 27942 27943 27944 27945 27946 27947 27948 27949 27950 27951 27952 27953 27954 27955 27956 27957 27958 27959 27960 27961 27962 27963 27964 27965 27966 27967 27968 27969 27970 27971 27972 27973 27974 27975 27976 27977 27978 27979 27980 27981 27982 27983 27984 27985 27986 27987 27988 27989 27990 27991 27992 27993 27994 27995 27996 27997 27998 27999 28000 28001 28002 28003 28004 28005 28006 28007 28008 28009 28010 28011 28012 28013 28014 28015 28016 28017 28018 28019 28020 28021 28022 28023 28024 28025 28026 28027 28028 28029 28030 28031 28032 28033 28034 28035 28036 28037 28038 28039 28040 28041 28042 28043 28044 28045 28046 28047 28048 28049 28050 28051 28052 28053 28054 28055 28056 28057 28058 28059 28060 28061 28062 28063 28064 28065 28066 28067 28068 28069 28070 28071 28072 28073 28074 28075 28076 28077 28078 28079 28080 28081 28082 28083 28084 28085 28086 28087 28088 28089 28090 28091 28092 28093 28094 28095 28096 28097 28098 28099 28100 28101 28102 28103 28104 28105 28106 28107 28108 28109 28110 28111 28112 28113 28114 28115 28116 28117 28118 28119 28120 28121 28122 28123 28124 28125 28126 28127 28128 28129 28130 28131 28132 28133 28134 28135 28136 28137 28138 28139 28140 28141 28142 28143 28144 28145 28146 28147 28148 28149 28150 28151 28152 28153 28154 28155 28156 28157 28158 28159 28160 28161 28162 28163 28164 28165 28166 28167 28168 28169 28170 28171 28172 28173 28174 28175 28176 28177 28178 28179 28180 28181 28182 28183 28184 28185 28186 28187 28188 28189 28190 28191 28192 28193 28194 28195 28196 28197 28198 28199 28200 28201 28202 28203 28204 28205 28206 28207 28208 28209 28210 28211 28212 28213 28214 28215 28216 28217 28218 28219 28220 28221 28222 28223 28224 28225 28226 28227 28228 28229 28230 28231 28232 28233 28234 28235 28236 28237 28238 28239 28240 28241 28242 28243 28244 28245 28246 28247 28248 28249 28250 28251 28252 28253 28254 28255 28256 28257 28258 28259 28260 28261 28262 28263 28264 28265 28266 28267 28268 28269 28270 28271 28272 28273 28274 28275 28276 28277 28278 28279 28280 28281 28282 28283 28284 28285 28286 28287 28288 28289 28290 28291 28292 28293 28294 28295 28296 28297 28298 28299 28300 28301 28302 28303 28304 28305 28306 28307 28308 28309 28310 28311 28312 28313 28314 28315 28316 28317 28318 28319 28320 28321 28322 28323 28324 28325 28326 28327 28328 28329 28330 28331 28332 28333 28334 28335 28336 28337 28338 28339 28340 28341 28342 28343 28344 28345 28346 28347 28348 28349 28350 28351 28352 28353 28354 28355 28356 28357 28358 28359 28360 28361 28362 28363 28364 28365 28366 28367 28368 28369 28370 28371 28372 28373 28374 28375 28376 28377 28378 28379 28380 28381 28382 28383 28384 28385 28386 28387 28388 28389 28390 28391 28392 28393 28394 28395 28396 28397 28398 28399 28400 28401 28402 28403 28404 28405 28406 28407 28408 28409 28410 28411 28412 28413 28414 28415 28416 28417 28418 28419 28420 28421 28422 28423 28424 28425 28426 28427 28428 28429 28430 28431 28432 28433 28434 28435 28436 28437 28438 28439 28440 28441 28442 28443 28444 28445 28446 28447 28448 28449 28450 28451 28452 28453 28454 28455 28456 28457 28458 28459 28460 28461 28462 28463 28464 28465 28466 28467 28468 28469 28470 28471 28472 28473 28474 28475 28476 28477 28478 28479 28480 28481 28482 28483 28484 28485 28486 28487 28488 28489 28490 28491 28492 28493 28494 28495 28496 28497 28498 28499 28500 28501 28502 28503 28504 28505 28506 28507 28508 28509 28510 28511 28512 28513 28514 28515 28516 28517 28518 28519 28520 28521 28522 28523 28524 28525 28526 28527 28528 28529 28530 28531 28532 28533 28534 28535 28536 28537 28538 28539 28540 28541 28542 28543 28544 28545 28546 28547 28548 28549 28550 28551 28552 28553 28554 28555 28556 28557 28558 28559 28560 28561 28562 28563 28564 28565 28566 28567 28568 28569 28570 28571 28572 28573 28574 28575 28576 28577 28578 28579 28580 28581 28582 28583 28584 28585 28586 28587 28588 28589 28590 28591 28592 28593 28594 28595 28596 28597 28598 28599 28600 28601 28602 28603 28604 28605 28606 28607 28608 28609 28610 28611 28612 28613 28614 28615 28616 28617 28618 28619 28620 28621 28622 28623 28624 28625 28626 28627 28628 28629 28630 28631 28632 28633 28634 28635 28636 28637 28638 28639 28640 28641 28642 28643 28644 28645 28646 28647 28648 28649 28650 28651 28652 28653 28654 28655 28656 28657 28658 28659 28660 28661 28662 28663 28664 28665 28666 28667 28668 28669 28670 28671 28672 28673 28674 28675 28676 28677 28678 28679 28680 28681 28682 28683 28684 28685 28686 28687 28688 28689 28690 28691 28692 28693 28694 28695 28696 28697 28698 28699 28700 28701 28702 28703 28704 28705 28706 28707 28708 28709 28710 28711 28712 28713 28714 28715 28716 28717 28718 28719 28720 28721 28722 28723 28724 28725 28726 28727 28728 28729 28730 28731 28732 28733 28734 28735 28736 28737 28738 28739 28740 28741 28742 28743 28744 28745 28746 28747 28748 28749 28750 28751 28752 28753 28754 28755 28756 28757 28758 28759 28760 28761 28762 28763 28764 28765 28766 28767 28768 28769 28770 28771 28772 28773 28774 28775 28776 28777 28778 28779 28780 28781 28782 28783 28784 28785 28786 28787 28788 28789 28790 28791 28792 28793 28794 28795 28796 28797 28798 28799 28800 28801 28802 28803 28804 28805 28806 28807 28808 28809 28810 28811 28812 28813 28814 28815 28816 28817 28818 28819 28820 28821 28822 28823 28824 28825 28826 28827 28828 28829 28830 28831 28832 28833 28834 28835 28836 28837 28838 28839 28840 28841 28842 28843 28844 28845 28846 28847 28848 28849 28850 28851 28852 28853 28854 28855 28856 28857 28858 28859 28860 28861 28862 28863 28864 28865 28866 28867 28868 28869 28870 28871 28872 28873 28874 28875 28876 28877 28878 28879 28880 28881 28882 28883 28884 28885 28886 28887 28888 28889 28890 28891 28892 28893 28894 28895 28896 28897 28898 28899 28900 28901 28902 28903 28904 28905 28906 28907 28908 28909 28910 28911 28912 28913 28914 28915 28916 28917 28918 28919 28920 28921 28922 28923 28924 28925 28926 28927 28928 28929 28930 28931 28932 28933 28934 28935 28936 28937 28938 28939 28940 28941 28942 28943 28944 28945 28946 28947 28948 28949 28950 28951 28952 28953 28954 28955 28956 28957 28958 28959 28960 28961 28962 28963 28964 28965 28966 28967 28968 28969 28970 28971 28972 28973 28974 28975 28976 28977 28978 28979 28980 28981 28982 28983 28984 28985 28986 28987 28988 28989 28990 28991 28992 28993 28994 28995 28996 28997 28998 28999 29000 29001 29002 29003 29004 29005 29006 29007 29008 29009 29010 29011 29012 29013 29014 29015 29016 29017 29018 29019 29020 29021 29022 29023 29024 29025 29026 29027 29028 29029 29030 29031 29032 29033 29034 29035 29036 29037 29038 29039 29040 29041 29042 29043 29044 29045 29046 29047 29048 29049 29050 29051 29052 29053 29054 29055 29056 29057 29058 29059 29060 29061 29062 29063 29064 29065 29066 29067 29068 29069 29070 29071 29072 29073 29074 29075 29076 29077 29078 29079 29080 29081 29082 29083 29084 29085 29086 29087 29088 29089 29090 29091 29092 29093 29094 29095 29096 29097 29098 29099 29100 29101 29102 29103 29104 29105 29106 29107 29108 29109 29110 29111 29112 29113 29114 29115 29116 29117 29118 29119 29120 29121 29122 29123 29124 29125 29126 29127 29128 29129 29130 29131 29132 29133 29134 29135 29136 29137 29138 29139 29140 29141 29142 29143 29144 29145 29146 29147 29148 29149 29150 29151 29152 29153 29154 29155 29156 29157 29158 29159 29160 29161 29162 29163 29164 29165 29166 29167 29168 29169 29170 29171 29172 29173 29174 29175 29176 29177 29178 29179 29180 29181 29182 29183 29184 29185 29186 29187 29188 29189 29190 29191 29192 29193 29194 29195 29196 29197 29198 29199 29200 29201 29202 29203 29204 29205 29206 29207 29208 29209 29210 29211 29212 29213 29214 29215 29216 29217 29218 29219 29220 29221 29222 29223 29224 29225 29226 29227 29228 29229 29230 29231 29232 29233 29234 29235 29236 29237 29238 29239 29240 29241 29242 29243 29244 29245 29246 29247 29248 29249 29250 29251 29252 29253 29254 29255 29256 29257 29258 29259 29260 29261 29262 29263 29264 29265 29266 29267 29268 29269 29270 29271 29272 29273 29274 29275 29276 29277 29278 29279 29280 29281 29282 29283 29284 29285 29286 29287 29288 29289 29290 29291 29292 29293 29294 29295 29296 29297 29298 29299 29300 29301 29302 29303 29304 29305 29306 29307 29308 29309 29310 29311 29312 29313 29314 29315 29316 29317 29318 29319 29320 29321 29322 29323 29324 29325 29326 29327 29328 29329 29330 29331 29332 29333 29334 29335 29336 29337 29338 29339 29340 29341 29342 29343 29344 29345 29346 29347 29348 29349 29350 29351 29352 29353 29354 29355 29356 29357 29358 29359 29360 29361 29362 29363 29364 29365 29366 29367 29368 29369 29370 29371 29372 29373 29374 29375 29376 29377 29378 29379 29380 29381 29382 29383 29384 29385 29386 29387 29388 29389 29390 29391 29392 29393 29394 29395 29396 29397 29398 29399 29400 29401 29402 29403 29404 29405 29406 29407 29408 29409 29410 29411 29412 29413 29414 29415 29416 29417 29418 29419 29420 29421 29422 29423 29424 29425 29426 29427 29428 29429 29430 29431 29432 29433 29434 29435 29436 29437 29438 29439 29440 29441 29442 29443 29444 29445 29446 29447 29448 29449 29450 29451 29452 29453 29454 29455 29456 29457 29458 29459 29460 29461 29462 29463 29464 29465 29466 29467 29468 29469 29470 29471 29472 29473 29474 29475 29476 29477 29478 29479 29480 29481 29482 29483 29484 29485 29486 29487 29488 29489 29490 29491 29492 29493 29494 29495 29496 29497 29498 29499 29500 29501 29502 29503 29504 29505 29506 29507 29508 29509 29510 29511 29512 29513 29514 29515 29516 29517 29518 29519 29520 29521 29522 29523 29524 29525 29526 29527 29528 29529 29530 29531 29532 29533 29534 29535 29536 29537 29538 29539 29540 29541 29542 29543 29544 29545 29546 29547 29548 29549 29550 29551 29552 29553 29554 29555 29556 29557 29558 29559 29560 29561 29562 29563 29564 29565 29566 29567 29568 29569 29570 29571 29572 29573 29574 29575 29576 29577 29578 29579 29580 29581 29582 29583 29584 29585 29586 29587 29588 29589 29590 29591 29592 29593 29594 29595 29596 29597 29598 29599 29600 29601 29602 29603 29604 29605 29606 29607 29608 29609 29610 29611 29612 29613 29614 29615 29616 29617 29618 29619 29620 29621 29622 29623 29624 29625 29626 29627 29628 29629 29630 29631 29632 29633 29634 29635 29636 29637 29638 29639 29640 29641 29642 29643 29644 29645 29646 29647 29648 29649 29650 29651 29652 29653 29654 29655 29656 29657 29658 29659 29660 29661 29662 29663 29664 29665 29666 29667 29668 29669 29670 29671 29672 29673 29674 29675 29676 29677 29678 29679 29680 29681 29682 29683 29684 29685 29686 29687 29688 29689 29690 29691 29692 29693 29694 29695 29696 29697 29698 29699 29700 29701 29702 29703 29704 29705 29706 29707 29708 29709 29710 29711 29712 29713 29714 29715 29716 29717 29718 29719 29720 29721 29722 29723 29724 29725 29726 29727 29728 29729 29730 29731 29732 29733 29734 29735 29736 29737 29738 29739 29740 29741 29742 29743 29744 29745 29746 29747 29748 29749 29750 29751 29752 29753 29754 29755 29756 29757 29758 29759 29760 29761 29762 29763 29764 29765 29766 29767 29768 29769 29770 29771 29772 29773 29774 29775 29776 29777 29778 29779 29780 29781 29782 29783 29784 29785 29786 29787 29788 29789 29790 29791 29792 29793 29794 29795 29796 29797 29798 29799 29800 29801 29802 29803 29804 29805 29806 29807 29808 29809 29810 29811 29812 29813 29814 29815 29816 29817 29818 29819 29820 29821 29822 29823 29824 29825 29826 29827 29828 29829 29830 29831 29832 29833 29834 29835 29836 29837 29838 29839 29840 29841 29842 29843 29844 29845 29846 29847 29848 29849 29850 29851 29852 29853 29854 29855 29856 29857 29858 29859 29860 29861 29862 29863 29864 29865 29866 29867 29868 29869 29870 29871 29872 29873 29874 29875 29876 29877 29878 29879 29880 29881 29882 29883 29884 29885 29886 29887 29888 29889 29890 29891 29892 29893 29894 29895 29896 29897 29898 29899 29900 29901 29902 29903 29904 29905 29906 29907 29908 29909 29910 29911 29912 29913 29914 29915 29916 29917 29918 29919 29920 29921 29922 29923 29924 29925 29926 29927 29928 29929 29930 29931 29932 29933 29934 29935 29936 29937 29938 29939 29940 29941 29942 29943 29944 29945 29946 29947 29948 29949 29950 29951 29952 29953 29954 29955 29956 29957 29958 29959 29960 29961 29962 29963 29964 29965 29966 29967 29968 29969 29970 29971 29972 29973 29974 29975 29976 29977 29978 29979 29980 29981 29982 29983 29984 29985 29986 29987 29988 29989 29990 29991 29992 29993 29994 29995 29996 29997 29998 29999 30000 30001 30002 30003 30004 30005 30006 30007 30008 30009 30010 30011 30012 30013 30014 30015 30016 30017 30018 30019 30020 30021 30022 30023 30024 30025 30026 30027 30028 30029 30030 30031 30032 30033 30034 30035 30036 30037 30038 30039 30040 30041 30042 30043 30044 30045 30046 30047 30048 30049 30050 30051 30052 30053 30054 30055 30056 30057 30058 30059 30060 30061 30062 30063 30064 30065 30066 30067 30068 30069 30070 30071 30072 30073 30074 30075 30076 30077 30078 30079 30080 30081 30082 30083 30084 30085 30086 30087 30088 30089 30090 30091 30092 30093 30094 30095 30096 30097 30098 30099 30100 30101 30102 30103 30104 30105 30106 30107 30108 30109 30110 30111 30112 30113 30114 30115 30116 30117 30118 30119 30120 30121 30122 30123 30124 30125 30126 30127 30128 30129 30130 30131 30132 30133 30134 30135 30136 30137 30138 30139 30140 30141 30142 30143 30144 30145 30146 30147 30148 30149 30150 30151 30152 30153 30154 30155 30156 30157 30158 30159 30160 30161 30162 30163 30164 30165 30166 30167 30168 30169 30170 30171 30172 30173 30174 30175 30176 30177 30178 30179 30180 30181 30182 30183 30184 30185 30186 30187 30188 30189 30190 30191 30192 30193 30194 30195 30196 30197 30198 30199 30200 30201 30202 30203 30204 30205 30206 30207 30208 30209 30210 30211 30212 30213 30214 30215 30216 30217 30218 30219 30220 30221 30222 30223 30224 30225 30226 30227 30228 30229 30230 30231 30232 30233 30234 30235 30236 30237 30238 30239 30240 30241 30242 30243 30244 30245 30246 30247 30248 30249 30250 30251 30252 30253 30254 30255 30256 30257 30258 30259 30260 30261 30262 30263 30264 30265 30266 30267 30268 30269 30270 30271 30272 30273 30274 30275 30276 30277 30278 30279 30280 30281 30282 30283 30284 30285 30286 30287 30288 30289 30290 30291 30292 30293 30294 30295 30296 30297 30298 30299 30300 30301 30302 30303 30304 30305 30306 30307 30308 30309 30310 30311 30312 30313 30314 30315 30316 30317 30318 30319 30320 30321 30322 30323 30324 30325 30326 30327 30328 30329 30330 30331 30332 30333 30334 30335 30336 30337 30338 30339 30340 30341 30342 30343 30344 30345 30346 30347 30348 30349 30350 30351 30352 30353 30354 30355 30356 30357 30358 30359 30360 30361 30362 30363 30364 30365 30366 30367 30368 30369 30370 30371 30372 30373 30374 30375 30376 30377 30378 30379 30380 30381 30382 30383 30384 30385 30386 30387 30388 30389 30390 30391 30392 30393 30394 30395 30396 30397 30398 30399 30400 30401 30402 30403 30404 30405 30406 30407 30408 30409 30410 30411 30412 30413 30414 30415 30416 30417 30418 30419 30420 30421 30422 30423 30424 30425 30426 30427 30428 30429 30430 30431 30432 30433 30434 30435 30436 30437 30438 30439 30440 30441 30442 30443 30444 30445 30446 30447 30448 30449 30450 30451 30452 30453 30454 30455 30456 30457 30458 30459 30460 30461 30462 30463 30464 30465 30466 30467 30468 30469 30470 30471 30472 30473 30474 30475 30476 30477 30478 30479 30480 30481 30482 30483 30484 30485 30486 30487 30488 30489 30490 30491 30492 30493 30494 30495 30496 30497 30498 30499 30500 30501 30502 30503 30504 30505 30506 30507 30508 30509 30510 30511 30512 30513 30514 30515 30516 30517 30518 30519 30520 30521 30522 30523 30524 30525 30526 30527 30528 30529 30530 30531 30532 30533 30534 30535 30536 30537 30538 30539 30540 30541 30542 30543 30544 30545 30546 30547 30548 30549 30550 30551 30552 30553 30554 30555 30556 30557 30558 30559 30560 30561 30562 30563 30564 30565 30566 30567 30568 30569 30570 30571 30572 30573 30574 30575 30576 30577 30578 30579 30580 30581 30582 30583 30584 30585 30586 30587 30588 30589 30590 30591 30592 30593 30594 30595 30596 30597 30598 30599 30600 30601 30602 30603 30604 30605 30606 30607 30608 30609 30610 30611 30612 30613 30614 30615 30616 30617 30618 30619 30620 30621 30622 30623 30624 30625 30626 30627 30628 30629 30630 30631 30632 30633 30634 30635 30636 30637 30638 30639 30640 30641 30642 30643 30644 30645 30646 30647 30648 30649 30650 30651 30652 30653 30654 30655 30656 30657 30658 30659 30660 30661 30662 30663 30664 30665 30666 30667 30668 30669 30670 30671 30672 30673 30674 30675 30676 30677 30678 30679 30680 30681 30682 30683 30684 30685 30686 30687 30688 30689 30690 30691 30692 30693 30694 30695 30696 30697 30698 30699 30700 30701 30702 30703 30704 30705 30706 30707 30708 30709 30710 30711 30712 30713 30714 30715 30716 30717 30718 30719 30720 30721 30722 30723 30724 30725 30726 30727 30728 30729 30730 30731 30732 30733 30734 30735 30736 30737 30738 30739 30740 30741 30742 30743 30744 30745 30746 30747 30748 30749 30750 30751 30752 30753 30754 30755 30756 30757 30758 30759 30760 30761 30762 30763 30764 30765 30766 30767 30768 30769 30770 30771 30772 30773 30774 30775 30776 30777 30778 30779 30780 30781 30782 30783 30784 30785 30786 30787 30788 30789 30790 30791 30792 30793 30794 30795 30796 30797 30798 30799 30800 30801 30802 30803 30804 30805 30806 30807 30808 30809 30810 30811 30812 30813 30814 30815 30816 30817 30818 30819 30820 30821 30822 30823 30824 30825 30826 30827 30828 30829 30830 30831 30832 30833 30834 30835 30836 30837 30838 30839 30840 30841 30842 30843 30844 30845 30846 30847 30848 30849 30850 30851 30852 30853 30854 30855 30856 30857 30858 30859 30860 30861 30862 30863 30864 30865 30866 30867 30868 30869 30870 30871 30872 30873 30874 30875 30876 30877 30878 30879 30880 30881 30882 30883 30884 30885 30886 30887 30888 30889 30890 30891 30892 30893 30894 30895 30896 30897 30898 30899 30900 30901 30902 30903 30904 30905 30906 30907 30908 30909 30910 30911 30912 30913 30914 30915 30916 30917 30918 30919 30920 30921 30922 30923 30924 30925 30926 30927 30928 30929 30930 30931 30932 30933 30934 30935 30936 30937 30938 30939 30940 30941 30942 30943 30944 30945 30946 30947 30948 30949 30950 30951 30952 30953 30954 30955 30956 30957 30958 30959 30960 30961 30962 30963 30964 30965 30966 30967 30968 30969 30970 30971 30972 30973 30974 30975 30976 30977 30978 30979 30980 30981 30982 30983 30984 30985 30986 30987 30988 30989 30990 30991 30992 30993 30994 30995 30996 30997 30998 30999 31000 31001 31002 31003 31004 31005 31006 31007 31008 31009 31010 31011 31012 31013 31014 31015 31016 31017 31018 31019 31020 31021 31022 31023 31024 31025 31026 31027 31028 31029 31030 31031 31032 31033 31034 31035 31036 31037 31038 31039 31040 31041 31042 31043 31044 31045 31046 31047 31048 31049 31050 31051 31052 31053 31054 31055 31056 31057 31058 31059 31060 31061 31062 31063 31064 31065 31066 31067 31068 31069 31070 31071 31072 31073 31074 31075 31076 31077 31078 31079 31080 31081 31082 31083 31084 31085 31086 31087 31088 31089 31090 31091 31092 31093 31094 31095 31096 31097 31098 31099 31100 31101 31102 31103 31104 31105 31106 31107 31108 31109 31110 31111 31112 31113 31114 31115 31116 31117 31118 31119 31120 31121 31122 31123 31124 31125 31126 31127 31128 31129 31130 31131 31132 31133 31134 31135 31136 31137 31138 31139 31140 31141 31142 31143 31144 31145 31146 31147 31148 31149 31150 31151 31152 31153 31154 31155 31156 31157 31158 31159 31160 31161 31162 31163 31164 31165 31166 31167 31168 31169 31170 31171 31172 31173 31174 31175 31176 31177 31178 31179 31180 31181 31182 31183 31184 31185 31186 31187 31188 31189 31190 31191 31192 31193 31194 31195 31196 31197 31198 31199 31200 31201 31202 31203 31204 31205 31206 31207 31208 31209 31210 31211 31212 31213 31214 31215 31216 31217 31218 31219 31220 31221 31222 31223 31224 31225 31226 31227 31228 31229 31230 31231 31232 31233 31234 31235 31236 31237 31238 31239 31240 31241 31242 31243 31244 31245 31246 31247 31248 31249 31250 31251 31252 31253 31254 31255 31256 31257 31258 31259 31260 31261 31262 31263 31264 31265 31266 31267 31268 31269 31270 31271 31272 31273 31274 31275 31276 31277 31278 31279 31280 31281 31282 31283 31284 31285 31286 31287 31288 31289 31290 31291 31292 31293 31294 31295 31296 31297 31298 31299 31300 31301 31302 31303 31304 31305 31306 31307 31308 31309 31310 31311 31312 31313 31314 31315 31316 31317 31318 31319 31320 31321 31322 31323 31324 31325 31326 31327 31328 31329 31330 31331 31332 31333 31334 31335 31336 31337 31338 31339 31340 31341 31342 31343 31344 31345 31346 31347 31348 31349 31350 31351 31352 31353 31354 31355 31356 31357 31358 31359 31360 31361 31362 31363 31364 31365 31366 31367 31368 31369 31370 31371 31372 31373 31374 31375 31376 31377 31378 31379 31380 31381 31382 31383 31384 31385 31386 31387 31388 31389 31390 31391 31392 31393 31394 31395 31396 31397 31398 31399 31400 31401 31402 31403 31404 31405 31406 31407 31408 31409 31410 31411 31412 31413 31414 31415 31416 31417 31418 31419 31420 31421 31422 31423 31424 31425 31426 31427 31428 31429 31430 31431 31432 31433 31434 31435 31436 31437 31438 31439 31440 31441 31442 31443 31444 31445 31446 31447 31448 31449 31450 31451 31452 31453 31454 31455 31456 31457 31458 31459 31460 31461 31462 31463 31464 31465 31466 31467 31468 31469 31470 31471 31472 31473 31474 31475 31476 31477 31478 31479 31480 31481 31482 31483 31484 31485 31486 31487 31488 31489 31490 31491 31492 31493 31494 31495 31496 31497 31498 31499 31500 31501 31502 31503 31504 31505 31506 31507 31508 31509 31510 31511 31512 31513 31514 31515 31516 31517 31518 31519 31520 31521 31522 31523 31524 31525 31526 31527 31528 31529 31530 31531 31532 31533 31534 31535 31536 31537 31538 31539 31540 31541 31542 31543 31544 31545 31546 31547 31548 31549 31550 31551 31552 31553 31554 31555 31556 31557 31558 31559 31560 31561 31562 31563 31564 31565 31566 31567 31568 31569 31570 31571 31572 31573 31574 31575 31576 31577 31578 31579 31580 31581 31582 31583 31584 31585 31586 31587 31588 31589 31590 31591 31592 31593 31594 31595 31596 31597 31598 31599 31600 31601 31602 31603 31604 31605 31606 31607 31608 31609 31610 31611 31612 31613 31614 31615 31616 31617 31618 31619 31620 31621 31622 31623 31624 31625 31626 31627 31628 31629 31630 31631 31632 31633 31634 31635 31636 31637 31638 31639 31640 31641 31642 31643 31644 31645 31646 31647 31648 31649 31650 31651 31652 31653 31654 31655 31656 31657 31658 31659 31660 31661 31662 31663 31664 31665 31666 31667 31668 31669 31670 31671 31672 31673 31674 31675 31676 31677 31678 31679 31680 31681 31682 31683 31684 31685 31686 31687 31688 31689 31690 31691 31692 31693 31694 31695 31696 31697 31698 31699 31700 31701 31702 31703 31704 31705 31706 31707 31708 31709 31710 31711 31712 31713 31714 31715 31716 31717 31718 31719 31720 31721 31722 31723 31724 31725 31726 31727 31728 31729 31730 31731 31732 31733 31734 31735 31736 31737 31738 31739 31740 31741 31742 31743 31744 31745 31746 31747 31748 31749 31750 31751 31752 31753 31754 31755 31756 31757 31758 31759 31760 31761 31762 31763 31764 31765 31766 31767 31768 31769 31770 31771 31772 31773 31774 31775 31776 31777 31778 31779 31780 31781 31782 31783 31784 31785 31786 31787 31788 31789 31790 31791 31792 31793 31794 31795 31796 31797 31798 31799 31800 31801 31802 31803 31804 31805 31806 31807 31808 31809 31810 31811 31812 31813 31814 31815 31816 31817 31818 31819 31820 31821 31822 31823 31824 31825 31826 31827 31828 31829 31830 31831 31832 31833 31834 31835 31836 31837 31838 31839 31840 31841 31842 31843 31844 31845 31846 31847 31848 31849 31850 31851 31852 31853 31854 31855 31856 31857 31858 31859 31860 31861 31862 31863 31864 31865 31866 31867 31868 31869 31870 31871 31872 31873 31874 31875 31876 31877 31878 31879 31880 31881 31882 31883 31884 31885 31886 31887 31888 31889 31890 31891 31892 31893 31894 31895 31896 31897 
</DataArray>
<DataArray type="UInt32" Name="offsets" format="ascii">
3 6 9 12 15 17 20 23 26 29 32 35 38 40 43 46 49 52 54 57 60 62 65 68 71 74 76 79 82 85 88 90 93 96 99 102 105 108 111 114 117 120 123 126 129 131 134 137 139 142 145 148 151 154 156 159 162 165 168 171 174 177 179 182 185 188 191 193 196 199 202 205 208 211 214 217 220 222 225 228 230 233 236 238 241 244 247 250 252 255 258 261 264 267 270 273 275 277 279 282 285 287 290 293 296 299 302 304 307 310 313 316 319 322 325 328 331 334 337 340 343 345 348 351 354 356 359 362 365 368 371 374 376 379 382 385 388 391 394 397 400 403 406 409 412 415 418 421 424 427 430 433 436 439 442 445 448 451 453 456 459 462 464 467 470 472 475 478 481 484 487 490 493 496 499 502 505 507 510 513 516 519 522 525 528 531 533 536 539 542 545 548 551 554 557 559 562 565 568 571 574 577 580 583 586 588 591 594 597 600 603 606 609 612 615 618 621 624 627 630 633 636 639 642 645 648 651 654 657 659 662 665 668 670 673 675 678 680 683 686 688 691 694 697 699 702 704 707 709 712 714 716 719 721 724 727 729 732 734 737 740 743 745 748 750 752 755 758 760 763 766 769 771 774 776 778 780 783 785 788 791 794 796 799 801 803 805 808 811 813 815 818 821 824 827 829 832 834 837 840 842 845 848 851 853 856 858 860 862 865 868 871 873 876 878 880 882 884 887 890 893 895 897 900 903 905 907 909 912 914 917 920 923 926 928 931 934 937 940 943 946 949 951 954 957 960 963 966 969 971 973 976 979 982 984 987 990 993 995 998 1000 1003 1005 1007 1010 1013 1016 1019 1021 1024 1027 1029 1032 1035 1038 1041 1043 1046 1048 1051 1054 1057 1060 1063 1065 1067 1070 1073 1076 1079 1082 1085 1088 1091 1093 1096 1099 1102 1104 1107 1110 1112 1115 1117 1120 1123 1126 1129 1132 1135 1138 1141 1144 1147 1150 1152 1155 1157 1160 1162 1165 1168 1171 1173 1176 1178 1181 1183 1186 1189 1192 1195 1198 1201 1203 1206 1208 1211 1214 1217 1219 1222 1225 1228 1230 1233 1235 1237 1240 1243 1246 1249 1251 1254 1257 1260 1263 1265 1267 1270 1273 1275 1278 1280 1283 1285 1287 1290 1293 1296 1298 1301 1304 1307 1310 1312 1315 1318 1321 1324 1327 1330 1333 1336 1339 1342 1345 1347 1350 1353 1356 1359 1361 1364 1367 1370 1372 1375 1377 1379 1381 1384 1387 1390 1392 1394 1397 1399 1402 1405 1407 1410 1413 1416 1419 1421 1424 1427 1430 1433 1436 1439 1442 1445 1448 1451 1454 1456 1458 1461 1464 1466 1469 1472 1475 1477 1480 1483 1486 1489 1492 1495 1497 1500 1503 1506 1508 1511 1514 1517 1519 1522 1525 1528 1531 1534 1537 1540 1543 1546 1549 1552 1554 1557 1560 1563 1565 1568 1571 1574 1577 1580 1583 1586 1588 1591 1594 1597 1600 1603 1605 1608 1611 1614 1617 1620 1623 1626 1629 1632 1635 1638 1641 1644 1647 1650 1653 1656 1659 1662 1664 1667 1670 1673 1676 1678 1681 1684 1686 1689 1692 1695 1698 1701 1704 1707 1709 1712 1715 1718 1721 1724 1727 1730 1733 1735 1738 1740 1743 1746 1748 1751 1754 1757 1759 1762 1765 1767 1770 1773 1776 1778 1781 1783 1786 1789 1791 1794 1796 1799 1802 1805 1808 1811 1814 1817 1820 1823 1826 1829 1832 1835 1838 1841 1844 1847 1850 1853 1856 1859 1862 1864 1867 1869 1872 1874 1877 1880 1883 1886 1889 1892 1895 1898 1901 1904 1907 1910 1913 1916 1919 1921 1924 1927 1930 1933 1936 1939 1942 1945 1948 1950 1953 1956 1959 1962 1965 1968 1971 1974 1977 1980 1983 1986 1989 1992 1995 1998 2001 2004 2007 2010 2013 2016 2019 2022 2025 2028 2031 2034 2037 2039 2042 2045 2047 2050 2053 2056 2058 2060 2063 2065 2068 2071 2074 2077 2080 2082 2085 2088 2091 2094 2097 2099 2102 2105 2108 2111 2114 2117 2120 2123 2126 2129 2132 2135 2138 2141 2144 2147 2150 2153 2156 2159 2162 2165 2168 2171 2174 2177 2180 2183 2186 2189 2192 2195 2198 2201 2204 2207 2210 2213 2216 2219 2222 2225 2228 2231 2234 2237 2240 2243 2246 2248 2251 2254 2257 2260 2263 2266 2269 2272 2275 2278 2281 2284 2287 2290 2293 2295 2298 2301 2304 2307 2309 2312 2315 2318 2321 2324 2327 2330 2333 2336 2339 2342 2345 2348 2351 2354 2357 2360 2363 2366 2369 2372 2375 2378 2381 2384 2387 2390 2392 2395 2398 2400 2403 2405 2407 2409 2411 2414 2417 2419 2422 2425 2428 2431 2434 2437 2440 2443 2446 2449 2452 2455 2458 2461 2464 2467 2470 2472 2475 2478 2480 2483 2485 2488 2491 2494 2497 2499 2502 2504 2507 2510 2513 2516 2518 2521 2524 2527 2529 2532 2535 2538 2541 2544 2546 2549 2551 2554 2557 2559 2561 2564 2566 2569 2572 2575 2578 2581 2584 2587 2590 2593 2596 2599 2601 2604 2607 2610 2612 2615 2618 2621 2623 2626 2629 2631 2633 2635 2638 2641 2644 2647 2650 2653 2656 2659 2662 2665 2668 2670 2673 2676 2679 2682 2685 2688 2691 2694 2696 2698 2700 2703 2706 2709 2712 2715 2718 2721 2724 2726 2728 2731 2734 2737 2739 2742 2745 2747 2750 2753 2756 2759 2762 2765 2768 2771 2774 2777 2780 2782 2785 2788 2791 2794 2797 2800 2803 2806 2808 2811 2814 2817 2820 2823 2826 2829 2832 2835 2838 2840 2843 2845 2847 2849 2852 2855 2858 2861 2864 2867 2870 2872 2874 2877 2879 2882 2885 2888 2891 2894 2896 2899 2901 2903 2906 2909 2912 2914 2917 2919 2922 2925 2928 2931 2933 2936 2939 2942 2945 2948 2951 2954 2957 2960 2963 2966 2969 2972 2975 2978 2981 2984 2986 2989 2992 2995 2997 3000 3003 3006 3009 3012 3014 3017 3020 3023 3026 3029 3032 3034 3037 3039 3042 3045 3048 3051 3054 3057 3060 3063 3065 3068 3071 3074 3076 3079 3082 3085 3088 3091 3094 3097 3100 3103 3106 3109 3112 3115 3118 3121 3124 3127 3130 3133 3136 3139 3142 3145 3148 3151 3153 3155 3157 3160 3163 3166 3169 3171 3174 3177 3180 3183 3185 3188 3191 3194 3197 3200 3203 3206 3208 3211 3214 3217 3220 3223 3226 3229 3232 3234 3237 3240 3243 3246 3249 3252 3255 3258 3261 3264 3267 3270 3272 3275 3278 3281 3284 3287 3290 3292 3295 3298 3301 3304 3307 3310 3313 3316 3318 3321 3324 3327 3329 3332 3335 3338 3341 3344 3347 3350 3353 3356 3359 3362 3365 3367 3370 3373 3376 3379 3382 3385 3388 3391 3394 3397 3400 3403 3406 3409 3412 3415 3418 3421 3424 3427 3430 3433 3436 3439 3442 3445 3448 3451 3454 3457 3460 3463 3466 3469 3472 3475 3478 3481 3484 3487 3490 3493 3496 3499 3502 3505 3508 3510 3513 3516 3519 3522 3525 3528 3531 3534 3537 3540 3543 3546 3549 3552 3555 3558 3561 3564 3567 3570 3573 3576 3579 3582 3584 3587 3590 3593 3596 3599 3602 3605 3608 3611 3614 3616 3619 3622 3624 3627 3630 3633 3636 3639 3642 3645 3648 3651 3653 3656 3658 3661 3664 3667 3670 3672 3675 3678 3680 3683 3685 3688 3691 3694 3697 3700 3702 3705 3708 3711 3714 3717 3720 3723 3726 3728 3731 3734 3737 3740 3743 3746 3749 3752 3755 3758 3761 3764 3767 3770 3772 3775 3777 3779 3782 3785 3788 3791 3794 3796 3799 3802 3805 3808 3811 3814 3817 3820 3823 3826 3829 3832 3835 3838 3841 3843 3846 3849 3852 3855 3858 3861 3864 3867 3870 3873 3876 3879 3882 3885 3888 3891 3893 3896 3899 3902 3905 3908 3910 3912 3915 3918 3920 3923 3926 3929 3932 3935 3938 3941 3944 3947 3950 3952 3955 3958 3961 3964 3967 3970 3973 3976 3979 3981 3984 3986 3989 3992 3995 3998 4001 4003 4006 4009 4012 4015 4017 4020 4023 4026 4028 4031 4034 4037 4039 4042 4045 4047 4050 4053 4056 4059 4062 4065 4068 4071 4074 4077 4080 4083 4086 4089 4092 4095 4097 4100 4103 4106 4109 4112 4115 4118 4120 4123 4126 4129 4132 4135 4138 4141 4144 4147 4150 4153 4156 4159 4162 4165 4168 4171 4174 4177 4180 4183 4186 4189 4192 4195 4198 4201 4203 4206 4209 4212 4215 4217 4220 4223 4226 4228 4231 4234 4237 4240 4243 4246 4249 4252 4255 4257 4260 4262 4265 4268 4271 4274 4277 4280 4283 4286 4289 4292 4295 4298 4301 4304 4307 4310 4313 4316 4318 4320 4323 4326 4329 4331 4334 4337 4339 4342 4345 4347 4350 4353 4356 4358 4361 4364 4366 4369 4372 4375 4378 4381 4384 4387 4390 4393 4396 4399 4402 4405 4408 4411 4414 4417 4420 4423 4426 4428 4431 4433 4436 4439 4442 4445 4448 4451 4454 4457 4460 4463 4466 4468 4471 4473 4476 4479 4482 4484 4487 4490 4493 4496 4499 4501 4504 4507 4510 4513 4516 4519 4521 4524 4527 4530 4533 4536 4539 4542 4545 4548 4551 4554 4556 4559 4562 4565 4568 4571 4574 4577 4580 4582 4585 4588 4591 4593 4596 4599 4601 4604 4607 4610 4613 4616 4618 4621 4624 4627 4630 4633 4636 4639 4642 4645 4647 4650 4653 4655 4658 4660 4663 4665 4667 4669 4672 4674 4677 4680 4683 4686 4689 4692 4694 4697 4700 4703 4706 4709 4712 4714 4717 4720 4723 4726 4729 4732 4735 4737 4740 4743 4746 4749 4751 4754 4757 4760 4763 4766 4768 4771 4773 4776 4779 4782 4785 4788 4791 4794 4797 4800 4803 4805 4808 4811 4814 4817 4820 4823 4826 4828 4831 4834 4837 4840 4843 4846 4849 4851 4854 4856 4859 4862 4865 4868 4871 4874 4877 4880 4882 4885 4888 4891 4893 4895 4898 4901 4904 4907 4910 4912 4914 4917 4919 4922 4925 4927 4930 4933 4935 4938 4941 4944 4947 4950 4953 4956 4959 4961 4964 4967 4970 4973 4976 4978 4981 4984 4987 4990 4992 4995 4998 5000 5003 5006 5009 5012 5015 5018 5021 5024 5027 5030 5033 5036 5039 5042 5045 5048 5051 5054 5057 5060 5063 5066 5069 5072 5075 5078 5081 5084 5087 5090 5093 5096 5099 5102 5105 5108 5111 5114 5117 5120 5123 5125 5128 5131 5133 5136 5139 5142 5145 5148 5150 5153 5156 5159 5162 5164 5167 5170 5173 5176 5179 5182 5185 5188 5191 5194 5197 5200 5203 5206 5209 5212 5215 5218 5221 5224 5227 5230 5233 5236 5238 5241 5244 5247 5249 5252 5255 5258 5261 5264 5267 5269 5272 5275 5278 5281 5284 5287 5290 5293 5296 5299 5302 5304 5307 5309 5311 5314 5317 5319 5322 5325 5328 5331 5334 5337 5340 5343 5346 5349 5352 5354 5357 5360 5362 5365 5368 5371 5374 5377 5380 5383 5386 5389 5392 5395 5398 5401 5404 5407 5409 5412 5415 5418 5421 5424 5427 5430 5432 5435 5437 5440 5443 5446 5449 5451 5454 5456 5459 5462 5465 5468 5471 5474 5477 5480 5483 5485 5488 5491 5494 5497 5500 5503 5506 5509 5512 5515 5518 5521 5524 5527 5530 5533 5536 5538 5541 5544 5547 5550 5553 5556 5559 5562 5565 5568 5571 5574 5577 5580 5583 5586 5589 5592 5595 5598 5601 5604 5607 5610 5613 5615 5617 5620 5623 5626 5629 5632 5635 5638 5641 5644 5647 5650 5652 5655 5658 5661 5664 5666 5669 5672 5675 5678 5680 5683 5686 5689 5692 5695 5698 5701 5704 5706 5709 5712 5715 5718 5721 5724 5727 5730 5733 5735 5738 5741 5744 5747 5750 5753 5756 5759 5762 5765 5768 5771 5774 5777 5780 5783 5786 5789 5792 5795 5797 5800 5803 5806 5809 5812 5815 5818 5821 5824 5827 5830 5833 5836 5839 5841 5844 5846 5849 5852 5855 5858 5861 5864 5867 5870 5872 5875 5878 5880 5883 5886 5889 5892 5895 5898 5901 5904 5907 5910 5913 5916 5919 5922 5925 5928 5931 5934 5937 5940 5943 5946 5949 5952 5955 5958 5961 5964 5967 5970 5973 5976 5979 5982 5985 5988 5990 5993 5996 5998 6001 6004 6007 6010 6012 6015 6017 6020 6023 6025 6028 6030 6033 6036 6039 6042 6045 6047 6050 6053 6056 6059 6062 6065 6068 6071 6074 6077 6080 6083 6085 6088 6091 6094 6096 6099 6102 6105 6108 6111 6114 6117 6120 6123 6125 6128 6131 6134 6137 6139 6141 6144 6147 6150 6153 6156 6159 6162 6165 6167 6170 6173 6176 6179 6182 6184 6187 6190 6193 6195 6198 6201 6204 6206 6209 6212 6215 6218 6220 6223 6226 6229 6232 6235 6238 6241 6244 6247 6250 6253 6256 6259 6262 6264 6267 6270 6273 6276 6279 6282 6284 6287 6289 6291 6294 6296 6299 6301 6304 6307 6310 6313 6315 6318 6321 6324 6327 6329 6332 6335 6338 6341 6344 6347 6350 6353 6356 6358 6361 6364 6367 6370 6373 6376 6379 6382 6385 6388 6391 6394 6397 6400 6402 6405 6408 6411 6413 6416 6419 6422 6424 6427 6429 6432 6435 6438 6441 6444 6447 6450 6453 6456 6459 6462 6465 6468 6471 6474 6477 6479 6482 6485 6488 6491 6494 6497 6499 6502 6505 6508 6511 6514 6517 6520 6523 6526 6529 6532 6535 6538 6541 6544 6547 6550 6553 6555 6558 6561 6564 6567 6570 6573 6576 6579 6582 6585 6588 6591 6594 6597 6600 6603 6606 6609 6612 6615 6618 6621 6624 6627 6630 6633 6636 6639 6642 6645 6648 6651 6654 6657 6659 6662 6665 6668 6671 6673 6676 6679 6682 6685 6688 6691 6694 6696 6699 6702 6705 6708 6711 6714 6717 6720 6723 6725 6728 6731 6733 6736 6739 6742 6745 6748 6750 6753 6756 6759 6761 6764 6767 6769 6772 6775 6778 6781 6784 6787 6790 6793 6796 6799 6802 6805 6808 6811 6814 6817 6820 6823 6826 6829 6831 6834 6837 6840 6843 6846 6849 6852 6855 6858 6861 6863 6865 6868 6870 6873 6876 6879 6882 6885 6887 6890 6893 6896 6899 6901 6904 6907 6910 6913 6916 6918 6921 6923 6926 6929 6931 6934 6937 6940 6943 6946 6949 6952 6955 6957 6960 6963 6966 6969 6972 6975 6977 6980 6983 6986 6989 6992 6995 6997 7000 7003 7006 7009 7011 7014 7017 7019 7022 7024 7027 7030 7032 7035 7038 7041 7044 7047 7050 7052 7055 7058 7061 7064 7066 7069 7072 7075 7078 7081 7084 7087 7090 7092 7094 7097 7100 7103 7106 7109 7112 7115 7118 7120 7123 7126 7129 7132 7135 7138 7140 7143 7146 7149 7152 7155 7158 7161 7163 7166 7169 7172 7174 7177 7180 7183 7186 7189 7192 7195 7198 7201 7204 7207 7210 7212 7215 7218 7221 7224 7226 7229 7232 7234 7237 7240 7243 7246 7248 7251 7254 7257 7259 7261 7264 7267 7270 7272 7275 7278 7281 7283 7286 7289 7292 7295 7298 7301 7304 7307 7310 7312 7315 7318 7321 7323 7326 7329 7332 7335 7338 7341 7344 7347 7350 7353 7356 7359 7361 7364 7366 7369 7372 7374 7377 7380 7382 7385 7388 7391 7394 7397 7400 7403 7405 7408 7411 7414 7417 7420 7422 7425 7427 7430 7433 7436 7438 7440 7443 7445 7447 7450 7452 7455 7458 7461 7464 7467 7470 7472 7475 7477 7480 7483 7486 7489 7492 7495 7498 7501 7504 7507 7510 7513 7516 7518 7521 7524 7526 7529 7531 7534 7537 7539 7542 7545 7548 7550 7552 7555 7558 7560 7563 7566 7569 7572 7575 7578 7581 7584 7587 7590 7593 7596 7599 7602 7605 7608 7611 7614 7617 7620 7623 7626 7629 7631 7633 7636 7638 7641 7643 7646 7649 7651 7653 7656 7659 7661 7664 7667 7669 7672 7675 7677 7680 7682 7685 7688 7691 7694 7696 7699 7702 7705 7708 7710 7713 7715 7717 7720 7722 7725 7728 7730 7732 7735 7738 7741 7743 7746 7749 7752 7755 7757 7759 7762 7765 7768 7771 7774 7776 7779 7782 7785 7788 7791 7794 7797 7800 7803 7806 7809 7811 7814 7816 7819 7821 7824 7827 7829 7832 7834 7837 7840 7843 7846 7849 7852 7855 7858 7860 7863 7866 7868 7871 7874 7877 7880 7882 7885 7888 7891 7894 7897 7900 7903 7906 7909 7912 7915 7918 7920 7923 7926 7929 7932 7935 7938 7941 7944 7947 7950 7953 7955 7958 7961 7964 7967 7970 7973 7975 7978 7980 7983 7986 7988 7991 7994 7997 8000 8003 8006 8009 8012 8015 8018 8021 8024 8027 8030 8033 8036 8039 8041 8043 8046 8049 8052 8054 8057 8060 8062 8065 8068 8071 8074 8077 8080 8083 8086 8089 8092 8095 8098 8101 8104 8107 8110 8113 8116 8119 8122 8125 8128 8131 8134 8137 8139 8141 8144 8147 8150 8153 8156 8159 8162 8165 8168 8171 8174 8176 8179 8182 8185 8188 8191 8194 8197 8200 8203 8206 8209 8212 8215 8218 8221 8224 8227 8230 8233 8236 8239 8242 8245 8248 8251 8254 8257 8260 8263 8266 8269 8272 8275 8277 8280 8283 8286 8289 8292 8294 8297 8300 8302 8305 8308 8310 8312 8315 8318 8321 8324 8327 8330 8333 8336 8339 8342 8345 8348 8351 8353 8356 8359 8361 8364 8367 8370 8373 8376 8379 8381 8384 8387 8389 8392 8395 8398 8401 8404 8407 8410 8413 8416 8419 8422 8425 8428 8430 8433 8436 8439 8442 8445 8448 8451 8453 8456 8459 8462 8465 8468 8471 8474 8477 8480 8483 8486 8489 8491 8494 8497 8499 8502 8505 8508 8511 8514 8517 8520 8523 8526 8529 8532 8535 8538 8541 8544 8547 8550 8553 8556 8559 8561 8564 8567 8569 8572 8574 8577 8580 8583 8585 8588 8591 8593 8596 8598 8601 8604 8607 8609 8612 8615 8618 8621 8623 8626 8629 8632 8635 8638 8641 8644 8646 8649 8652 8655 8657 8660 8663 8666 8669 8672 8675 8678 8681 8684 8687 8690 8693 8695 8698 8701 8704 8707 8710 8713 8716 8719 8721 8724 8727 8730 8733 8736 8739 8742 8745 8748 8751 8754 8756 8759 8762 8765 8768 8771 8774 8777 8780 8783 8786 8789 8792 8795 8798 8801 8804 8807 8810 8813 8815 8817 8820 8823 8826 8828 8831 8834 8837 8840 8843 8846 8849 8852 8855 8858 8861 8864 8866 8869 8872 8875 8878 8881 8884 8887 8890 8893 8895 8898 8901 8904 8907 8910 8913 8916 8919 8922 8925 8928 8931 8934 8937 8940 8943 8945 8948 8950 8953 8956 8959 8962 8965 8967 8970 8973 8976 8979 8981 8984 8987 8990 8992 8995 8998 9001 9003 9006 9009 9012 9015 9018 9021 9024 9027 9030 9032 9035 9038 9041 9043 9046 9049 9051 9054 9057 9060 9063 9066 9069 9071 9074 9077 9080 9083 9086 9089 9092 9095 9097 9100 9103 9106 9108 9111 9114 9117 9120 9123 9126 9129 9132 9135 9138 9141 9144 9147 9150 9153 9156 9159 9162 9165 9168 9171 9174 9177 9180 9183 9186 9189 9191 9194 9197 9200 9203 9206 9209 9212 9214 9217 9220 9223 9226 9229 9232 9235 9238 9241 9244 9247 9250 9253 9256 9259 9262 9265 9268 9271 9274 9277 9280 9283 9286 9289 9291 9294 9296 9299 9302 9305 9308 9311 9314 9316 9319 9322 9325 9327 9330 9333 9335 9338 9341 9344 9347 9350 9353 9356 9359 9362 9365 9368 9371 9373 9376 9379 9382 9385 9388 9390 9393 9396 9399 9402 9405 9408 9411 9414 9417 9420 9423 9426 9429 9431 9434 9437 9440 9442 9445 9448 9451 9454 9457 9460 9463 9466 9469 9472 9475 9478 9480 9482 9485 9488 9491 9494 9496 9499 9502 9505 9508 9511 9514 9517 9520 9523 9525 9527 9530 9533 9536 9539 9542 9544 9547 9550 9553 9556 9559 9561 9564 9567 9570 9573 9576 9578 9581 9583 9586 9589 9592 9595 9597 9600 9602 9605 9607 9609 9612 9615 9618 9621 9624 9627 9630 9632 9634 9637 9640 9643 9646 9649 9652 9654 9656 9658 9661 9663 9665 9668 9671 9674 9676 9679 9682 9685 9688 9691 9693 9695 9697 9700 9702 9705 9708 9711 9713 9716 9718 9720 9723 9726 9729 9732 9735 9738 9741 9743 9745 9748 9751 9753 9755 9757 9760 9763 9766 9769 9772 9775 9778 9781 9784 9787 9790 9793 9796 9799 9802 9805 9808 9811 9814 9817 9820 9823 9826 9829 9832 9835 9838 9841 9844 9847 9850 9853 9856 9859 9862 9865 9868 9871 9874 9877 9879 9882 9885 9888 9891 9894 9897 9900 9903 9906 9909 9911 9914 9917 9920 9923 9926 9929 9931 9934 9937 9939 9942 9945 9948 9951 9954 9957 9960 9963 9966 9969 9972 9975 9978 9980 9983 9985 9988 9991 9994 9997 9999 10002 10005 10008 10010 10013 10016 10018 10021 10024 10027 10029 10032 10035 10037 10040 10043 10046 10049 10052 10054 10057 10060 10063 10066 10069 10072 10075 10077 10080 10083 10086 10089 10092 10095 10098 10100 10103 10106 10108 10111 10114 10117 10120 10122 10125 10127 10130 10133 10136 10139 10142 10144 10147 10150 10153 10156 10158 10161 10164 10167 10170 10173 10176 10178 10180 10183 10186 10189 10192 10195 10197 10200 10203 10205 10208 10211 10214 10217 10220 10223 10226 10229 10232 10235 10237 10240 10243 10246 10249 10252 10255 10258 10261 10264 10267 10270 10273 10276 10279 10282 10285 10288 10291 10293 10296 10299 10302 10305 10308 10311 10313 10316 10319 10322 10325 10328 10331 10334 10336 10338 10341 10344 10347 10350 10352 10355 10358 10361 10364 10367 10370 10373 10375 10378 10381 10383 10386 10388 10390 10392 10395 10398 10401 10404 10407 10410 10412 10415 10418 10421 10424 10427 10429 10432 10435 10438 10441 10443 10446 10449 10452 10454 10457 10460 10463 10465 10468 10471 10474 10477 10480 10483 10486 10489 10492 10495 10498 10501 10504 10507 10510 10513 10516 10519 10522 10525 10528 10531 10534 10537 10540 10542 10545 10548 10551 10554 10557 10560 10563 10565 10568 10570 10573 10576 10579 10582 10585 10588 10590 10593 10596 10598 10601 10604 10607 10609 10612 10615 10617 10620 10623 10626 10629 10632 10634 10637 10640 10643 10645 10647 10650 10653 10656 10659 10662 10665 10668 10671 10674 10677 10680 10683 10685 10688 10691 10694 10697 10700 10703 10706 10709 10712 10714 10717 10720 10723 10726 10729 10731 10733 10736 10739 10742 10745 10748 10751 10754 10757 10760 10762 10765 10768 10771 10774 10777 10780 10783 10786 10788 10791 10794 10797 10800 10803 10806 10809 10812 10815 10818 10821 10824 10827 10830 10833 10836 10839 10842 10844 10847 10850 10853 10856 10858 10861 10863 10866 10868 10871 10874 10877 10880 10883 10886 10889 10892 10895 10898 10901 10904 10907 10910 10913 10916 10919 10921 10924 10927 10930 10933 10936 10938 10941 10944 10947 10949 10951 10954 10957 10960 10963 10966 10968 10971 10974 10977 10980 10982 10985 10988 10991 10994 10997 11000 11003 11006 11008 11011 11014 11017 11020 11023 11026 11029 11031 11034 11037 11040 11043 11046 11049 11052 11055 11058 11060 11063 11066 11069 11072 11075 11078 11081 11084 11087 11090 11093 11096 11099 11102 11105 11108 11111 11114 11116 11119 11122 11125 11128 11131 11134 11137 11140 11143 11146 11149 11152 11155 11157 11160 11163 11166 11169 11172 11175 11177 11180 11183 11185 11188 11191 11193 11196 11199 11202 11205 11208 11211 11214 11217 11220 11223 11226 11229 11232 11235 11238 11241 11244 11247 11250 11253 11256 11259 11262 11265 11268 11271 11273 11276 11278 11281 11283 11285 11288 11291 11294 11296 11299 11302 11305 11308 11311 11314 11317 11320 11323 11325 11327 11330 11332 11335 11338 11341 11344 11347 11350 11353 11356 11359 11362 11365 11368 11371 11374 11376 11379 11381 11383 11386 11388 11391 11394 11397 11400 11403 11406 11409 11412 11415 11417 11419 11422 11425 11428 11431 11434 11437 11440 11443 11446 11449 11452 11455 11458 11461 11464 11467 11470 11473 11476 11479 11482 11485 11487 11490 11493 11496 11499 11502 11504 11507 11510 11513 11516 11519 11521 11524 11527 11530 11532 11535 11538 11541 11544 11547 11550 11553 11556 11559 11561 11564 11567 11570 11573 11575 11578 11581 11584 11587 11590 11593 11595 11598 11601 11604 11607 11610 11613 11616 11618 11621 11624 11627 11630 11632 11635 11638 11641 11644 11647 11650 11653 11656 11659 11662 11664 11667 11670 11673 11676 11678 11681 11684 11687 11689 11692 11695 11698 11701 11704 11706 11709 11712 11715 11718 11721 11724 11727 11730 11733 11736 11739 11742 11745 11748 11750 11752 11755 11758 11760 11763 11766 11769 11772 11775 11778 11781 11783 11786 11789 11792 11795 11798 11801 11803 11806 11809 11812 11815 11818 11821 11824 11827 11830 11833 11836 11839 11842 11845 11848 11851 11854 11857 11860 11863 11866 11869 11872 11874 11877 11880 11883 11886 11889 11892 11895 11898 11900 11903 11906 11909 11912 11914 11917 11920 11923 11926 11929 11931 11934 11936 11939 11941 11944 11947 11950 11953 11956 11959 11962 11964 11967 11970 11973 11975 11978 11981 11984 11987 11990 11992 11995 11998 12001 12004 12007 12009 12012 12014 12017 12020 12022 12025 12027 12030 12033 12036 12039 12042 12044 12047 12050 12053 12055 12058 12061 12064 12067 12070 12073 12076 12079 12082 12085 12087 12090 12093 12096 12099 12102 12105 12108 12111 12114 12117 12120 12123 12126 12129 12132 12135 12138 12141 12144 12147 12150 12153 12155 12158 12161 12164 12167 12170 12173 12176 12179 12182 12185 12188 12191 12194 12197 12200 12203 12206 12209 12211 12214 12217 12220 12222 12225 12228 12231 12234 12237 12240 12242 12245 12248 12251 12253 12255 12258 12260 12263 12265 12267 12270 12272 12275 12278 12280 12283 12286 12288 12290 12293 12296 12299 12302 12305 12308 12311 12314 12316 12319 12321 12324 12327 12330 12333 12336 12339 12342 12345 12348 12351 12354 12357 12360 12363 12366 12369 12372 12375 12378 12381 12384 12387 12389 12392 12395 12398 12401 12404 12407 12410 12413 12415 12418 12421 12423 12426 12429 12431 12433 12436 12439 12441 12444 12447 12450 12453 12456 12459 12462 12465 12468 12471 12474 12477 12480 12483 12486 12489 12492 12495 12498 12501 12504 12507 12510 12513 12516 12519 12522 12525 12528 12531 12534 12537 12540 12543 12546 12549 12552 12555 12558 12560 12563 12565 12568 12571 12574 12577 12580 12583 12586 12589 12592 12595 12598 12601 12604 12607 12610 12613 12616 12619 12622 12625 12628 12631 12634 12637 12640 12643 12646 12649 12652 12655 12658 12661 12664 12667 12670 12673 12676 12679 12682 12685 12687 12690 12693 12695 12698 12701 12704 12707 12710 12712 12715 12717 12720 12723 12725 12728 12731 12734 12737 12740 12743 12745 12748 12751 12754 12757 12760 12763 12766 12769 12772 12775 12778 12780 12783 12786 12788 12790 12793 12795 12798 12801 12803 12806 12809 12812 12815 12817 12820 12823 12826 12829 12832 12835 12838 12841 12844 12846 12849 12851 12854 12857 12860 12863 12866 12869 12872 12874 12877 12879 12882 12885 12888 12891 12894 12897 12900 12903 12906 12908 12911 12913 12916 12919 12922 12925 12928 12931 12934 12937 12940 12943 12945 12948 12951 12954 12956 12959 12962 12964 12967 12970 12972 12975 12978 12981 12984 12986 12989 12992 12995 12997 13000 13003 13006 13009 13012 13015 13018 13021 13024 13027 13030 13033 13036 13039 13041 13044 13047 13050 13053 13056 13059 13061 13064 13066 13069 13071 13074 13077 13080 13082 13085 13088 13091 13094 13097 13100 13103 13106 13108 13111 13114 13117 13120 13123 13125 13128 13131 13133 13136 13139 13142 13145 13148 13151 13154 13157 13160 13162 13165 13168 13171 13173 13176 13179 13182 13185 13188 13191 13193 13196 13199 13202 13205 13208 13211 13214 13217 13220 13223 13226 13229 13232 13235 13238 13241 13244 13247 13250 13253 13256 13259 13262 13265 13268 13271 13274 13277 13280 13283 13286 13288 13291 13294 13297 13300 13303 13305 13308 13311 13313 13315 13318 13321 13324 13327 13329 13332 13335 13338 13341 13344 13346 13349 13352 13355 13358 13361 13364 13367 13370 13373 13376 13379 13382 13385 13388 13391 13394 13396 13399 13402 13405 13408 13411 13414 13417 13420 13422 13424 13427 13430 13433 13436 13439 13442 13444 13447 13450 13453 13456 13458 13461 13464 13467 13470 13473 13476 13479 13482 13485 13488 13491 13494 13497 13500 13503 13506 13509 13512 13515 13518 13521 13524 13527 13530 13532 13535 13538 13540 13543 13546 13549 13552 13555 13558 13561 13564 13567 13570 13573 13576 13579 13582 13585 13588 13591 13594 13597 13600 13603 13606 13609 13612 13615 13618 13621 13623 13626 13628 13631 13634 13637 13640 13643 13645 13648 13651 13654 13657 13660 13663 13666 13669 13672 13675 13678 13681 13684 13687 13690 13693 13696 13699 13702 13705 13707 13709 13712 13714 13717 13720 13723 13726 13729 13732 13735 13738 13741 13744 13747 13750 13753 13756 13759 13762 13764 13767 13770 13773 13775 13778 13781 13784 13787 13790 13793 13796 13799 13802 13805 13808 13811 13814 13816 13819 13822 13825 13828 13831 13834 13837 13840 13843 13846 13849 13852 13855 13858 13861 13864 13867 13870 13873 13876 13879 13882 13884 13887 13890 13893 13896 13899 13902 13905 13908 13911 13914 13917 13920 13923 13925 13928 13930 13933 13936 13938 13940 13943 13946 13949 13952 13955 13958 13961 13964 13967 13970 13973 13976 13979 13982 13985 13988 13991 13994 13997 14000 14002 14005 14008 14010 14013 14016 14019 14021 14024 14027 14030 14033 14036 14039 14041 14044 14047 14050 14052 14055 14058 14061 14064 14067 14070 14073 14076 14078 14081 14084 14086 14089 14092 14094 14097 14099 14102 14105 14108 14111 14113 14115 14118 14121 14123 14125 14128 14131 14133 14136 14139 14142 14145 14147 14150 14153 14155 14157 14160 14162 14165 14168 14171 14174 14177 14180 14183 14186 14189 14192 14195 14198 14201 14204 14207 14210 14213 14216 14219 14222 14224 14227 14230 14233 14236 14238 14241 14244 14247 14250 14252 14254 14257 14260 14263 14266 14269 14272 14275 14278 14281 14284 14287 14290 14292 14295 14298 14301 14303 14306 14309 14312 14315 14318 14321 14324 14326 14329 14332 14335 14337 14340 14343 14345 14347 14350 14353 14356 14358 14361 14364 14367 14369 14372 14375 14378 14381 14384 14387 14390 14393 14396 14399 14402 14405 14408 14411 14414 14417 14420 14423 14425 14428 14431 14434 14437 14440 14443 14446 14449 14452 14455 14458 14461 14464 14467 14470 14473 14476 14479 14481 14483 14486 14489 14492 14495 14498 14500 14502 14505 14507 14510 14513 14516 14519 14522 14525 14528 14531 14534 14536 14539 14542 14545 14547 14550 14553 14556 14559 14562 14565 14568 14571 14574 14577 14580 14583 14586 14589 14591 14594 14597 14600 14603 14606 14609 14612 14614 14617 14620 14622 14625 14628 14631 14634 14637 14640 14642 14645 14648 14651 14654 14656 14659 14662 14665 14668 14671 14674 14676 14679 14682 14685 14688 14691 14694 14697 14700 14702 14704 14707 14710 14713 14715 14717 14720 14723 14726 14729 14732 14734 14737 14740 14743 14746 14749 14752 14754 14757 14760 14763 14766 14768 14771 14774 14777 14780 14783 14785 14788 14791 14794 14797 14799 14802 14805 14808 14811 14814 14817 14820 14823 14826 14829 14832 14835 14838 14841 14844 14847 14850 14853 14856 14859 14862 14865 14868 14871 14874 14876 14879 14882 14885 14888 14890 14893 14895 14898 14900 14903 14906 14908 14911 14914 14916 14919 14922 14924 14927 14930 14933 14936 14939 14942 14944 14947 14950 14952 14955 14957 14959 14961 14964 14967 14969 14972 14974 14976 14979 14982 14985 14987 14990 14992 14995 14998 15001 15004 15007 15010 15012 15015 15018 15021 15023 15026 15029 15032 15035 15038 15041 15044 15046 15049 15052 15055 15057 15060 15062 15064 15067 15070 15073 15076 15079 15082 15085 15087 15090 15093 15096 15099 15102 15105 15108 15111 15113 15115 15118 15121 15124 15127 15129 15132 15135 15137 15140 15143 15146 15148 15151 15154 15157 15159 15161 15164 15167 15170 15173 15175 15178 15181 15184 15187 15190 15192 15194 15197 15200 15203 15206 15209 15212 15215 15218 15221 15224 15227 15230 15233 15236 15239 15242 15245 15248 15251 15254 15257 15260 15263 15266 15269 15272 15275 15278 15281 15284 15287 15289 15292 15295 15298 15300 15303 15306 15309 15312 15315 15318 15321 15324 15327 15330 15333 15336 15339 15342 15345 15347 15350 15352 15354 15357 15360 15362 15365 15368 15371 15374 15377 15380 15383 15386 15389 15392 15395 15398 15401 15404 15407 15410 15413 15416 15419 15422 15425 15428 15431 15433 15436 15439 15441 15443 15446 15449 15452 15455 15458 15461 15464 15466 15469 15472 15475 15477 15480 15483 15486 15489 15491 15493 15496 15499 15502 15505 15508 15511 15514 15516 15519 15522 15525 15528 15530 15533 15536 15539 15542 15544 15547 15550 15553 15556 15559 15562 15565 15568 15571 15574 15577 15580 15583 15586 15589 15592 15595 15598 15601 15603 15606 15609 15612 15615 15618 15621 15624 15627 15630 15633 15636 15639 15642 15645 15648 15651 15653 15656 15659 15662 15664 15667 15670 15673 15676 15679 15682 15685 15688 15691 15693 15696 15699 15702 15705 15708 15711 15714 15717 15720 15723 15726 15729 15732 15735 15738 15741 15744 15747 15750 15753 15756 15758 15761 15764 15767 15770 15773 15776 15779 15782 15785 15788 15791 15794 15797 15800 15803 15806 15809 15811 15814 15817 15820 15823 15826 15828 15831 15834 15837 15840 15843 15846 15849 15852 15855 15858 15861 15864 15867 15870 15873 15876 15879 15882 15885 15888 15891 15894 15897 15900 15903 15906 15909 15911 15914 15917 15919 15922 15925 15928 15930 15933 15936 15939 15942 15945 15948 15951 15954 15957 15960 15963 15966 15969 15972 15975 15977 15980 15982 15985 15988 15991 15994 15997 16000 16003 16006 16009 16011 16014 16017 16020 16023 16026 16029 16032 16035 16038 16040 16042 16045 16048 16051 16054 16057 16060 16063 16066 16069 16072 16075 16078 16081 16084 16087 16090 16093 16096 16099 16102 16105 16108 16111 16114 16117 16120 16123 16126 16129 16132 16135 16138 16141 16144 16147 16150 16153 16156 16159 16162 16165 16168 16171 16174 16177 16180 16183 16186 16189 16192 16195 16198 16201 16204 16207 16210 16213 16216 16219 16222 16225 16228 16231 16234 16237 16240 16243 16246 16249 16252 16255 16257 16260 16263 16266 16269 16272 16275 16277 16280 16283 16286 16289 16292 16295 16298 16301 16304 16306 16309 16311 16314 16317 16320 16323 16326 16329 16332 16335 16338 16341 16344 16347 16350 16353 16356 16359 16362 16365 16368 16371 16374 16377 16380 16383 16386 16389 16392 16395 16398 16401 16404 16407 16410 16413 16415 16418 16421 16424 16426 16428 16431 16434 16437 16440 16443 16446 16449 16452 16455 16458 16461 16464 16467 16470 16473 16476 16479 16482 16485 16488 16491 16494 16496 16498 16501 16504 16507 16510 16513 16516 16519 16522 16524 16527 16530 16533 16536 16539 16542 16544 16547 16550 16553 16556 16559 16561 16564 16567 16570 16573 16575 16578 16581 16584 16586 16589 16592 16595 16597 16600 16603 16605 16608 16611 16614 16617 16620 16623 16626 16629 16632 16635 16638 16641 16644 16646 16649 16652 16655 16658 16661 16664 16667 16670 16672 16675 16678 16681 16684 16687 16690 16693 16696 16699 16702 16705 16707 16710 16713 16716 16718 16721 16724 16727 16730 16732 16735 16738 16741 16744 16747 16750 16753 16756 16758 16761 16763 16766 16769 16771 16774 16777 16780 16783 16786 16788 16791 16794 16797 16800 16803 16806 16809 16812 16815 16818 16821 16824 16826 16829 16832 16835 16838 16841 16844 16847 16850 16853 16855 16858 16861 16864 16867 16870 16873 16875 16878 16881 16884 16887 16890 16893 16896 16898 16901 16904 16907 16910 16913 16915 16918 16921 16924 16927 16930 16933 16936 16939 16942 16945 16948 16951 16954 16957 16960 16963 16966 16969 16972 16975 16978 16981 16984 16987 16990 16993 16996 16999 17002 17005 17008 17011 17014 17017 17020 17023 17026 17029 17032 17035 17038 17041 17044 17047 17050 17053 17056 17058 17061 17063 17066 17069 17072 17075 17078 17081 17084 17087 17090 17093 17096 17099 17102 17105 17107 17110 17113 17116 17119 17122 17125 17128 17131 17134 17137 17140 17143 17146 17149 17152 17154 17157 17160 17162 17165 17167 17170 17173 17176 17179 17182 17184 17187 17190 17193 17196 17199 17202 17205 17208 17211 17214 17217 17220 17223 17226 17229 17232 17235 17238 17241 17244 17246 17249 17252 17255 17258 17261 17264 17267 17270 17273 17276 17279 17281 17284 17286 17289 17292 17294 17297 17299 17302 17305 17308 17311 17314 17317 17320 17322 17325 17327 17330 17333 17336 17339 17341 17344 17347 17350 17353 17355 17357 17360 17363 17365 17368 17371 17374 17377 17380 17383 17386 17389 17392 17395 17398 17401 17404 17407 17410 17413 17415 17418 17421 17424 17427 17430 17433 17436 17439 17442 17445 17448 17451 17454 17457 17459 17462 17464 17467 17470 17473 17476 17479 17482 17485 17487 17490 17492 17495 17498 17501 17504 17507 17510 17513 17516 17519 17521 17523 17526 17529 17532 17534 17537 17540 17543 17546 17548 17551 17553 17556 17559 17561 17564 17566 17568 17570 17573 17576 17578 17581 17584 17587 17589 17591 17593 17596 17599 17602 17605 17608 17611 17614 17617 17620 17623 17626 17628 17631 17634 17637 17640 17643 17646 17648 17651 17654 17657 17659 17662 17665 17668 17671 17674 17677 17680 17683 17685 17688 17691 17694 17696 17699 17702 17705 17708 17711 17714 17717 17720 17723 17726 17729 17732 17735 17738 17741 17744 17747 17750 17753 17756 17759 17762 17765 17768 17771 17774 17777 17780 17783 17786 17789 17792 17795 17798 17801 17804 17807 17810 17813 17816 17819 17822 17825 17828 17831 17834 17837 17840 17843 17846 17849 17852 17855 17858 17861 17864 17867 17870 17873 17876 17878 17881 17884 17887 17890 17893 17895 17898 17901 17904 17907 17909 17912 17915 17918 17920 17923 17926 17929 17932 17935 17938 17941 17944 17947 17950 17953 17956 17959 17962 17965 17968 17971 17974 17977 17980 17983 17986 17989 17992 17995 17998 18001 18004 18007 18010 18013 18016 18019 18022 18025 18028 18031 18034 18037 18040 18042 18045 18048 18050 18053 18056 18059 18062 18065 18068 18071 18073 18076 18079 18082 18085 18088 18091 18094 18097 18100 18103 18106 18108 18111 18114 18116 18119 18121 18124 18127 18130 18132 18135 18138 18141 18144 18147 18150 18153 18156 18158 18161 18164 18167 18170 18172 18175 18178 18181 18184 18186 18189 18191 18194 18197 18200 18203 18206 18209 18212 18215 18218 18221 18224 18227 18229 18232 18234 18237 18240 18243 18246 18249 18252 18255 18258 18261 18264 18267 18270 18273 18275 18278 18281 18284 18287 18290 18293 18296 18299 18302 18304 18307 18310 18313 18315 18318 18321 18324 18327 18330 18333 18336 18339 18342 18345 18348 18351 18354 18357 18360 18363 18366 18369 18372 18375 18378 18381 18384 18387 18390 18393 18396 18399 18402 18405 18408 18411 18414 18417 18420 18422 18425 18428 18430 18433 18436 18439 18442 18444 18447 18450 18453 18456 18459 18462 18465 18468 18471 18474 18477 18480 18483 18486 18489 18491 18494 18497 18500 18503 18506 18509 18512 18515 18518 18520 18523 18525 18528 18531 18534 18537 18540 18543 18546 18548 18551 18554 18557 18560 18563 18566 18569 18572 18575 18578 18581 18584 18587 18590 18592 18595 18598 18601 18604 18607 18610 18613 18616 18619 18622 18625 18627 18630 18633 18636 18639 18642 18645 18648 18651 18654 18657 18660 18663 18666 18669 18672 18675 18678 18681 18684 18687 18690 18693 18696 18698 18701 18703 18706 18709 18712 18715 18718 18721 18723 18726 18728 18731 18734 18737 18739 18742 18745 18748 18750 18753 18756 18759 18761 18764 18767 18769 18772 18775 18778 18781 18784 18787 18790 18792 18795 18798 18801 18804 18807 18810 18813 18815 18818 18821 18824 18827 18830 18833 18836 18839 18842 18845 18848 18851 18854 18856 18859 18862 18865 18868 18871 18874 18877 18880 18882 18885 18888 18891 18894 18897 18900 18903 18906 18909 18912 18915 18918 18921 18924 18927 18930 18933 18936 18939 18942 18944 18947 18950 18953 18956 18959 18962 18965 18968 18971 18974 18977 18980 18983 18986 18989 18992 18995 18998 19001 19004 19007 19010 19013 19016 19019 19022 19025 19028 19031 19034 19037 19040 19043 19046 19049 19052 19055 19058 19061 19064 19067 19070 19073 19076 19079 19082 19085 19088 19091 19094 19096 19099 19101 19104 19107 19110 19112 19115 19118 19120 19122 19125 19127 19130 19133 19136 19139 19142 19145 19148 19151 19154 19157 19160 19163 19166 19169 19172 19175 19178 19181 19184 19187 19190 19193 19196 19199 19202 19205 19208 19211 19214 19217 19220 19223 19226 19229 19232 19234 19237 19240 19243 19246 19248 19251 19254 19256 19259 19262 19265 19267 19270 19273 19276 19279 19281 19284 19286 19288 19291 19294 19297 19300 19302 19305 19308 19311 19313 19316 19319 19322 19324 19327 19330 19333 19336 19339 19342 19344 19347 19350 19353 19356 19359 19362 19365 19368 19371 19374 19377 19380 19383 19386 19389 19392 19395 19398 19401 19404 19406 19409 19412 19415 19418 19421 19424 19427 19430 19433 19436 19439 19442 19445 19448 19451 19454 19457 19460 19462 19465 19468 19470 19473 19476 19478 19481 19484 19487 19490 19493 19496 19499 19502 19505 19508 19511 19513 19516 19519 19522 19525 19527 19530 19533 19536 19539 19541 19544 19547 19550 19552 19555 19558 19561 19564 19567 19570 19573 19576 19579 19582 19585 19588 19591 19594 19597 19600 19603 19606 19609 19612 19615 19618 19621 19624 19627 19629 19632 19635 19638 19641 19644 19647 19650 19653 19655 19658 19661 19664 19666 19669 19672 19675 19678 19681 19684 19687 19690 19693 19696 19699 19702 19705 19708 19711 19714 19717 19720 19723 19726 19729 19732 19735 19738 19740 19743 19746 19749 19751 19754 19757 19760 19763 19766 19769 19772 19775 19777 19780 19783 19785 19788 19791 19794 19797 19799 19802 19805 19808 19811 19814 19817 19820 19822 19825 19827 19830 19833 19835 19838 19841 19843 19845 19848 19851 19854 19857 19860 19863 19866 19869 19872 19875 19878 19881 19884 19887 19890 19893 19896 19899 19902 19905 19908 19910 19913 19916 19919 19922 19924 19927 19930 19933 19936 19939 19942 19945 19948 19951 19954 19957 19960 19963 19965 19968 19971 19973 19976 19979 19982 19985 19988 19991 19994 19997 20000 20003 20006 20009 20012 20015 20018 20021 20024 20027 20030 20033 20036 20039 20042 20045 20048 20051 20054 20057 20060 20063 20066 20069 20072 20075 20078 20081 20084 20087 20090 20093 20096 20099 20102 20105 20108 20111 20114 20117 20120 20123 20126 20129 20132 20135 20138 20141 20144 20147 20150 20153 20156 20159 20162 20165 20168 20171 20174 20177 20180 20183 20186 20189 20192 20195 20198 20201 20204 20207 20210 20213 20216 20219 20222 20225 20228 20231 20234 20237 20240 20243 20246 20249 20252 20255 20258 20261 20264 20267 20270 20273 20276 20279 20282 20285 20288 20291 20294 20297 20300 20303 20306 20309 20312 20315 20318 20321 20324 20327 20330 20333 20336 20339 20342 20345 20348 20351 20354 20357 20359 20362 20365 20368 20371 20374 20377 20380 20382 20385 20388 20391 20394 20397 20400 20403 20406 20409 20411 20414 20416 20419 20422 20425 20427 20430 20433 20435 20438 20441 20444 20447 20450 20453 20456 20459 20462 20465 20468 20471 20474 20477 20480 20483 20486 20489 20492 20495 20498 20501 20504 20507 20510 20513 20516 20519 20522 20525 20528 20531 20534 20537 20540 20543 20546 20548 20551 20554 20556 20558 20561 20564 20566 20569 20572 20574 20577 20580 20583 20585 20588 20591 20594 20597 20600 20603 20606 20609 20612 20614 20617 20620 20623 20626 20629 20632 20634 20637 20640 20643 20646 20649 20652 20655 20658 20661 20664 20667 20670 20673 20676 20679 20682 20685 20688 20691 20694 20697 20700 20703 20706 20709 20712 20715 20718 20721 20724 20727 20729 20732 20735 20738 20741 20744 20747 20750 20753 20756 20759 20762 20765 20768 20771 20774 20777 20780 20783 20786 20789 20792 20795 20798 20801 20804 20807 20810 20813 20816 20819 20822 20825 20828 20831 20834 20837 20840 20843 20846 20849 20852 20855 20858 20861 20864 20867 20869 20872 20874 20877 20880 20883 20886 20888 20891 20894 20897 20900 20902 20905 20908 20911 20914 20916 20919 20922 20925 20928 20931 20934 20937 20940 20942 20945 20948 20950 20953 20955 20958 20961 20964 20967 20969 20972 20975 20977 20979 20982 20985 20988 20991 20994 20997 20999 21002 21005 21008 21011 21014 21017 21020 21023 21026 21029 21031 21033 21036 21039 21042 21045 21048 21050 21053 21056 21058 21061 21064 21067 21070 21072 21075 21078 21080 21083 21086 21089 21092 21095 21098 21101 21104 21107 21110 21113 21116 21119 21122 21125 21128 21131 21134 21137 21140 21143 21146 21149 21152 21155 21158 21161 21164 21167 21169 21172 21174 21177 21180 21183 21186 21189 21192 21195 21198 21201 21204 21207 21210 21213 21215 21218 21221 21224 21227 21229 21231 21234 21237 21240 21243 21246 21249 21252 21255 21258 21261 21264 21267 21270 21273 21276 21279 21282 21285 21288 21291 21294 21297 21300 21303 21306 21309 21312 21315 21318 21321 21324 21327 21330 21333 21336 21339 21342 21345 21348 21351 21354 21357 21359 21362 21365 21368 21370 21373 21376 21379 21382 21385 21388 21391 21394 21397 21400 21403 21406 21409 21412 21415 21418 21421 21424 21427 21430 21432 21435 21438 21440 21443 21446 21449 21452 21455 21458 21461 21464 21467 21469 21472 21475 21478 21481 21484 21486 21489 21492 21495 21498 21501 21503 21506 21508 21511 21514 21517 21520 21523 21526 21529 21532 21535 21538 21541 21544 21547 21549 21552 21555 21558 21560 21562 21565 21568 21571 21574 21577 21580 21583 21586 21588 21591 21594 21596 21599 21602 21604 21606 21609 21612 21615 21618 21621 21623 21626 21629 21632 21635 21638 21641 21644 21646 21649 21652 21654 21656 21659 21662 21665 21668 21671 21674 21676 21678 21681 21684 21687 21689 21692 21695 21698 21701 21704 21707 21710 21712 21715 21718 21721 21724 21727 21730 21733 21736 21739 21742 21745 21748 21751 21754 21757 21760 21763 21766 21769 21772 21775 21778 21781 21784 21787 21790 21792 21795 21798 21801 21804 21807 21810 21813 21815 21818 21821 21824 21827 21830 21833 21836 21839 21842 21845 21848 21850 21853 21856 21859 21862 21865 21868 21871 21874 21876 21879 21882 21885 21888 21891 21894 21897 21900 21903 21906 21909 21912 21915 21918 21921 21924 21926 21929 21932 21935 21937 21940 21943 21946 21949 21952 21954 21957 21960 21963 21966 21969 21972 21975 21978 21981 21984 21987 21990 21993 21996 21998 22001 22004 22007 22010 22012 22015 22018 22020 22023 22026 22029 22032 22035 22037 22040 22043 22046 22049 22052 22055 22058 22061 22064 22067 22070 22073 22076 22079 22081 22084 22086 22089 22092 22095 22097 22100 22102 22105 22107 22110 22113 22116 22119 22122 22125 22127 22129 22132 22135 22138 22141 22144 22147 22149 22152 22154 22157 22160 22163 22166 22169 22172 22175 22178 22181 22184 22187 22190 22193 22196 22199 22202 22205 22207 22210 22213 22216 22218 22220 22223 22226 22229 22232 22235 22237 22240 22243 22245 22247 22250 22253 22256 22259 22262 22265 22268 22271 22274 22277 22280 22283 22286 22289 22292 22295 22298 22301 22304 22307 22310 22313 22316 22319 22322 22325 22328 22331 22334 22337 22340 22343 22346 22349 22352 22355 22358 22361 22364 22367 22370 22373 22376 22379 22381 22384 22387 22389 22391 22393 22396 22399 22402 22405 22408 22411 22413 22416 22419 22422 22425 22428 22431 22434 22437 22440 22442 22445 22448 22451 22453 22456 22459 22462 22465 22468 22471 22474 22477 22480 22483 22486 22489 22492 22495 22498 22501 22504 22507 22510 22513 22515 22518 22521 22524 22527 22529 22532 22535 22538 22541 22544 22547 22550 22553 22556 22559 22562 22565 22568 22571 22574 22577 22580 22583 22586 22589 22592 22595 22598 22601 22604 22607 22610 22613 22616 22619 22622 22625 22628 22631 22633 22636 22638 22641 22644 22647 22650 22653 22656 22659 22662 22664 22667 22670 22673 22675 22678 22680 22683 22686 22689 22692 22695 22698 22701 22704 22706 22709 22712 22715 22718 22720 22723 22726 22729 22732 22734 22737 22740 22743 22746 22749 22752 22755 22757 22760 22763 22766 22769 22771 22774 22777 22780 22783 22786 22789 22792 22795 22798 22801 22804 22807 22810 22813 22816 22819 22822 22825 22828 22831 22834 22837 22840 22843 22846 22849 22852 22855 22858 22861 22864 22867 22870 22873 22876 22879 22882 22885 22888 22891 22894 22897 22900 22903 22906 22909 22911 22914 22917 22920 22923 22925 22927 22930 22933 22935 22937 22940 22943 22946 22949 22952 22955 22958 22961 22964 22967 22970 22973 22976 22979 22982 22985 22988 22991 22994 22996 22999 23002 23005 23007 23009 23012 23015 23018 23021 23024 23027 23030 23033 23036 23039 23042 23045 23048 23051 23054 23057 23060 23063 23066 23069 23072 23075 23078 23081 23084 23087 23090 23092 23095 23098 23101 23104 23107 23110 23113 23115 23118 23121 23124 23127 23130 23133 23136 23139 23142 23145 23148 23151 23154 23157 23160 23162 23165 23168 23171 23174 23177 23180 23183 23186 23188 23191 23193 23195 23198 23201 23204 23207 23210 23213 23216 23219 23222 23225 23228 23231 23233 23236 23239 23242 23245 23248 23251 23254 23257 23260 23263 23266 23269 23272 23275 23278 23281 23284 23287 23289 23292 23295 23298 23300 23303 23306 23309 23312 23315 23318 23321 23324 23326 23329 23332 23335 23338 23341 23344 23347 23350 23353 23356 23359 23362 23365 23368 23371 23373 23376 23379 23382 23384 23387 23390 23393 23396 23399 23402 23405 23408 23411 23414 23417 23420 23423 23426 23429 23432 23435 23438 23441 23444 23447 23450 23453 23456 23459 23462 23465 23468 23471 23474 23477 23480 23483 23485 23488 23490 23493 23496 23499 23502 23505 23508 23511 23514 23516 23519 23522 23525 23528 23531 23534 23537 23540 23543 23545 23548 23551 23553 23556 23559 23562 23565 23568 23570 23573 23576 23579 23582 23584 23587 23590 23593 23596 23598 23601 23604 23607 23609 23612 23614 23617 23620 23622 23625 23628 23631 23634 23637 23640 23643 23646 23649 23652 23655 23658 23661 23664 23666 23669 23672 23674 23677 23679 23682 23685 23688 23690 23693 23696 23698 23701 23704 23707 23710 23712 23715 23717 23720 23723 23726 23729 23732 23735 23737 23740 23742 23745 23748 23751 23754 23757 23759 23762 23765 23768 23771 23773 23776 23779 23782 23785 23788 23791 23793 23796 23799 23802 23805 23808 23811 23814 23817 23820 23823 23826 23829 23832 23835 23838 23841 23844 23847 23850 23853 23856 23859 23862 23865 23868 23871 23874 23877 23880 23883 23886 23889 23892 23894 23896 23899 23902 23905 23908 23911 23914 23917 23920 23923 23926 23928 23931 23934 23936 23938 23941 23943 23946 23949 23952 23955 23958 23961 23964 23966 23969 23972 23975 23978 23981 23984 23987 23990 23993 23996 23999 24002 24004 24007 24010 24013 24016 24018 24021 24024 24027 24030 24033 24036 24039 24042 24045 24048 24051 24054 24056 24059 24062 24065 24068 24071 24074 24077 24080 24083 24086 24089 24092 24095 24098 24101 24104 24107 24109 24112 24115 24118 24121 24124 24126 24129 24132 24135 24137 24140 24143 24146 24149 24152 24155 24157 24160 24162 24165 24168 24171 24173 24176 24179 24182 24185 24188 24191 24194 24197 24200 24202 24205 24208 24210 24213 24216 24219 24222 24225 24228 24231 24233 24236 24239 24242 24245 24248 24251 24254 24257 24260 24263 24266 24269 24272 24274 24277 24280 24282 24285 24288 24291 24294 24297 24300 24302 24305 24308 24311 24314 24317 24320 24322 24325 24328 24331 24334 24337 24340 24343 24345 24348 24351 24354 24357 24360 24363 24366 24369 24372 24375 24378 24381 24384 24387 24390 24393 24396 24399 24402 24405 24408 24411 24413 24416 24419 24422 24425 24428 24431 24434 24437 24440 24443 24445 24448 24451 24454 24457 24459 24461 24464 24467 24470 24473 24475 24478 24481 24484 24487 24490 24493 24496 24499 24502 24504 24507 24510 24513 24516 24519 24522 24525 24528 24531 24534 24537 24539 24542 24545 24548 24550 24553 24556 24559 24561 24564 24567 24570 24573 24576 24579 24582 24585 24588 24591 24594 24597 24599 24602 24605 24608 24611 24614 24616 24619 24622 24624 24627 24630 24633 24636 24639 24642 24645 24648 24651 24654 24657 24660 24663 24666 24668 24671 24674 24677 24680 24683 24686 24689 24691 24694 24697 24700 24702 24705 24708 24711 24714 24717 24719 24722 24725 24728 24731 24734 24737 24740 24743 24746 24748 24751 24754 24757 24760 24763 24766 24769 24772 24774 24777 24780 24783 24786 24789 24791 24794 24797 24800 24803 24806 24809 24812 24814 24817 24820 24823 24826 24829 24832 24835 24838 24841 24844 24847 24850 24853 24856 24859 24862 24865 24868 24871 24874 24877 24880 24883 24886 24889 24892 24895 24898 24901 24904 24907 24910 24913 24916 24919 24922 24925 24928 24931 24934 24937 24940 24943 24946 24949 24952 24955 24958 24960 24963 24966 24969 24972 24975 24978 24981 24983 24986 24989 24992 24995 24998 25001 25004 25007 25010 25013 25016 25019 25022 25025 25028 25031 25034 25037 25040 25043 25046 25049 25051 25053 25056 25059 25061 25063 25066 25069 25072 25075 25078 25081 25084 25086 25089 25092 25095 25098 25101 25104 25107 25110 25113 25116 25119 25122 25125 25128 25130 25133 25136 25139 25142 25145 25148 25151 25154 25156 25159 25162 25164 25167 25170 25173 25175 25178 25181 25184 25187 25190 25193 25196 25199 25202 25205 25208 25211 25214 25217 25220 25223 25226 25229 25232 25235 25238 25241 25244 25247 25250 25253 25256 25259 25261 25264 25267 25270 25273 25276 25279 25282 25285 25287 25290 25293 25296 25299 25302 25305 25307 25309 25312 25315 25318 25321 25323 25326 25329 25331 25334 25337 25339 25342 25345 25348 25351 25354 25357 25359 25362 25365 25368 25371 25374 25377 25380 25383 25385 25388 25391 25394 25397 25400 25403 25406 25409 25412 25415 25418 25420 25423 25426 25428 25431 25434 25437 25440 25443 25446 25449 25451 25454 25457 25460 25462 25465 25467 25470 25472 25475 25478 25481 25484 25487 25490 25493 25496 25499 25502 25505 25508 25511 25514 25517 25520 25523 25525 25528 25530 25533 25536 25539 25542 25545 25548 25551 25554 25557 25560 25562 25565 25568 25571 25574 25577 25580 25583 25585 25588 25591 25594 25596 25599 25601 25603 25606 25609 25611 25614 25617 25620 25623 25625 25628 25631 25634 25636 25639 25642 25645 25647 25650 25652 25654 25657 25660 25663 25666 25669 25672 25674 25677 25680 25683 25686 25689 25692 25695 25698 25700 25702 25704 25707 25709 25712 25715 25717 25719 25722 25725 25727 25730 25733 25736 25739 25742 25745 25748 25751 25754 25757 25760 25762 25765 25768 25771 25774 25777 25780 25783 25786 25789 25792 25795 25798 25801 25803 25805 25808 25811 25814 25817 25819 25822 25825 25828 25830 25833 25836 25839 25842 25845 25847 25849 25852 25855 25858 25860 25863 25866 25869 25872 25875 25878 25881 25884 25887 25890 25893 25896 25899 25902 25905 25907 25910 25913 25916 25918 25921 25924 25927 25929 25932 25935 25938 25941 25944 25947 25949 25952 25955 25958 25961 25964 25966 25969 25972 25975 25978 25981 25984 25987 25990 25992 25995 25998 26001 26004 26007 26010 26013 26016 26019 26021 26024 26027 26030 26033 26035 26038 26040 26043 26046 26048 26051 26053 26056 26059 26062 26065 26068 26071 26073 26076 26078 26080 26083 26086 26089 26092 26095 26098 26101 26104 26106 26109 26111 26114 26116 26119 26121 26124 26127 26130 26133 26136 26139 26142 26145 26148 26151 26154 26156 26159 26162 26165 26167 26170 26173 26176 26179 26182 26185 26188 26191 26193 26196 26199 26202 26205 26208 26211 26214 26217 26220 26222 26225 26228 26231 26234 26236 26239 26242 26244 26247 26250 26253 26256 26259 26262 26265 26268 26271 26273 26276 26279 26282 26284 26287 26290 26293 26296 26299 26302 26305 26308 26311 26314 26317 26320 26323 26326 26329 26332 26335 26338 26341 26343 26346 26349 26352 26355 26358 26361 26364 26367 26370 26373 26375 26378 26381 26384 26387 26390 26393 26396 26399 26402 26405 26408 26411 26414 26417 26420 26423 26426 26429 26432 26435 26438 26441 26444 26447 26450 26453 26456 26459 26462 26465 26468 26471 26474 26477 26480 26483 26486 26489 26492 26495 26498 26501 26504 26507 26510 26512 26514 26517 26520 26523 26526 26529 26532 26535 26538 26541 26544 26547 26550 26553 26555 26557 26560 26563 26566 26568 26571 26574 26576 26579 26582 26585 26587 26590 26593 26596 26598 26601 26604 26607 26610 26613 26616 26619 26622 26624 26627 26630 26632 26635 26637 26639 26642 26645 26648 26651 26654 26657 26659 26662 26664 26666 26668 26671 26674 26676 26679 26682 26684 26686 26689 26692 26695 26698 26701 26704 26707 26710 26713 26716 26719 26722 26725 26728 26731 26734 26737 26740 26743 26746 26749 26751 26754 26757 26760 26763 26766 26769 26772 26775 26778 26780 26783 26786 26789 26792 26795 26798 26801 26803 26805 26808 26811 26814 26817 26820 26823 26826 26829 26832 26835 26838 26841 26844 26847 26850 26853 26856 26859 26862 26865 26868 26871 26874 26876 26879 26881 26884 26887 26890 26893 26896 26899 26902 26904 26907 26910 26913 26915 26917 26920 26923 26925 26928 26931 26934 26937 26939 26942 26945 26948 26950 26953 26956 26959 26961 26964 26967 26970 26973 26976 26979 26982 26985 26988 26990 26992 26995 26998 27001 27004 27007 27009 27012 27015 27017 27019 27021 27024 27027 27030 27033 27036 27038 27041 27044 27047 27050 27053 27056 27059 27062 27065 27067 27070 27072 27075 27078 27081 27084 27087 27090 27093 27096 27099 27102 27105 27108 27111 27114 27117 27120 27123 27126 27129 27132 27135 27138 27141 27144 27146 27149 27152 27155 27158 27160 27162 27165 27168 27171 27173 27176 27179 27182 27185 27188 27191 27194 27197 27200 27203 27206 27209 27212 27215 27218 27221 27223 27226 27229 27232 27234 27237 27240 27242 27245 27248 27251 27254 27257 27260 27263 27266 27269 27272 27275 27278 27281 27283 27286 27289 27291 27294 27297 27300 27302 27305 27307 27310 27312 27315 27317 27319 27321 27324 27327 27330 27333 27336 27339 27342 27345 27347 27350 27353 27356 27359 27362 27365 27368 27371 27373 27376 27379 27381 27384 27387 27390 27393 27396 27399 27402 27405 27408 27411 27414 27417 27420 27423 27426 27429 27432 27435 27438 27441 27444 27446 27449 27452 27455 27458 27461 27464 27467 27470 27473 27476 27478 27481 27483 27486 27489 27491 27494 27496 27499 27501 27504 27507 27509 27512 27514 27517 27520 27522 27525 27528 27531 27533 27536 27539 27542 27545 27548 27551 27554 27557 27560 27563 27566 27569 27572 27575 27578 27581 27584 27587 27590 27593 27596 27599 27602 27605 27608 27611 27614 27617 27620 27623 27626 27629 27632 27635 27638 27641 27644 27647 27650 27653 27656 27659 27662 27665 27668 27671 27674 27677 27680 27683 27686 27689 27692 27695 27698 27701 27704 27707 27710 27713 27716 27718 27721 27724 27726 27729 27732 27735 27738 27741 27744 27746 27748 27751 27754 27757 27760 27763 27766 27769 27772 27775 27778 27781 27784 27787 27790 27793 27796 27799 27802 27804 27807 27810 27813 27815 27818 27821 27824 27827 27830 27833 27836 27839 27842 27845 27848 27851 27854 27857 27860 27863 27865 27868 27871 27874 27877 27880 27883 27886 27888 27891 27894 27897 27900 27903 27906 27909 27912 27914 27917 27919 27922 27925 27928 27931 27934 27937 27940 27943 27946 27949 27952 27955 27958 27961 27964 27967 27969 27972 27975 27978 27981 27984 27987 27990 27992 27995 27998 28001 28004 28006 28009 28012 28015 28018 28021 28024 28027 28029 28032 28035 28037 28039 28042 28045 28047 28050 28053 28056 28059 28062 28065 28067 28070 28073 28076 28079 28082 28085 28088 28091 28094 28096 28099 28102 28104 28107 28110 28112 28115 28118 28120 28123 28126 28129 28132 28135 28137 28140 28143 28146 28149 28152 28155 28158 28161 28163 28166 28169 28172 28175 28178 28181 28184 28186 28189 28192 28195 28198 28201 28204 28207 28210 28213 28216 28219 28222 28224 28227 28230 28233 28236 28239 28242 28245 28247 28249 28252 28254 28257 28259 28262 28265 28268 28271 28274 28277 28280 28283 28286 28289 28292 28295 28298 28301 28304 28306 28309 28311 28314 28317 28320 28323 28326 28329 28332 28335 28337 28340 28342 28345 28347 28350 28352 28355 28357 28360 28363 28365 28368 28371 28374 28377 28380 28382 28385 28388 28391 28394 28397 28400 28403 28406 28408 28411 28414 28417 28420 28423 28425 28428 28431 28433 28436 28438 28440 28443 28446 28449 28452 28455 28458 28461 28464 28466 28469 28472 28475 28478 28481 28484 28487 28490 28493 28496 28499 28502 28505 28507 28510 28513 28516 28519 28522 28525 28528 28530 28533 28536 28539 28541 28544 28547 28550 28553 28556 28559 28562 28565 28568 28571 28574 28577 28580 28583 28586 28589 28592 28594 28597 28600 28603 28606 28609 28612 28615 28617 28620 28623 28625 28628 28631 28634 28637 28640 28643 28646 28649 28652 28655 28658 28661 28664 28667 28670 28672 28675 28678 28681 28684 28686 28689 28692 28695 28698 28701 28704 28707 28710 28713 28716 28719 28722 28725 28728 28731 28734 28737 28740 28743 28746 28749 28752 28755 28758 28761 28763 28766 28769 28772 28775 28778 28781 28783 28786 28789 28792 28795 28798 28801 28804 28807 28810 28812 28814 28817 28820 28823 28825 28828 28830 28833 28836 28839 28842 28845 28848 28851 28854 28857 28860 28863 28866 28869 28872 28875 28877 28880 28883 28886 28889 28892 28895 28898 28901 28904 28907 28910 28913 28915 28917 28920 28923 28926 28929 28932 28935 28938 28941 28943 28946 28949 28951 28954 28957 28959 28961 28964 28967 28970 28973 28976 28979 28982 28984 28987 28990 28993 28996 28999 29002 29005 29008 29011 29013 29016 29019 29022 29024 29027 29030 29033 29036 29039 29041 29044 29047 29050 29053 29056 29059 29062 29065 29068 29071 29074 29077 29079 29082 29085 29088 29090 29093 29096 29099 29101 29104 29107 29110 29113 29116 29119 29122 29125 29128 29131 29134 29137 29140 29143 29146 29149 29152 29155 29158 29161 29164 29167 29170 29173 29176 29179 29182 29185 29188 29191 29194 29197 29199 29202 29205 29208 29211 29214 29217 29220 29223 29226 29229 29232 29235 29238 29241 29244 29247 29250 29253 29256 29259 29262 29265 29268 29271 29273 29276 29278 29281 29284 29286 29289 29292 29295 29298 29301 29304 29307 29310 29313 29315 29318 29321 29324 29327 29330 29333 29336 29339 29342 29345 29348 29351 29354 29357 29359 29362 29365 29368 29371 29373 29376 29379 29382 29384 29387 29390 29393 29396 29399 29402 29405 29408 29411 29414 29417 29420 29423 29426 29429 29432 29435 29438 29441 29444 29447 29450 29453 29456 29459 29462 29465 29468 29471 29474 29477 29480 29483 29486 29489 29492 29495 29498 29501 29504 29507 29510 29513 29516 29519 29522 29525 29528 29531 29534 29537 29540 29543 29546 29549 29552 29555 29558 29561 29564 29567 29570 29573 29576 29579 29582 29585 29588 29591 29594 29597 29600 29603 29606 29609 29612 29615 29618 29621 29624 29627 29630 29633 29636 29639 29642 29645 29648 29651 29654 29657 29660 29663 29666 29669 29672 29675 29678 29681 29684 29687 29690 29693 29696 29699 29702 29705 29708 29711 29714 29717 29720 29723 29726 29729 29732 29735 29738 29741 29744 29747 29750 29753 29756 29759 29762 29765 29768 29771 29774 29777 29780 29783 29786 29789 29792 29795 29798 29801 29804 29807 29810 29813 29816 29819 29822 29825 29828 29831 29834 29837 29840 29843 29846 29849 29852 29855 29858 29861 29864 29867 29870 29873 29876 29879 29882 29885 29888 29891 29894 29897 29900 29903 29906 29909 29912 29915 29918 29921 29924 29927 29930 29933 29936 29939 29942 29945 29948 29951 29953 29956 29959 29962 29965 29968 29971 29974 29977 29980 29983 29986 29989 29992 29995 29998 30001 30003 30006 30009 30012 30015 30018 30021 30024 30027 30029 30032 30035 30038 30041 30043 30046 30049 30052 30055 30058 30061 30064 30067 30070 30073 30076 30079 30082 30085 30088 30091 30094 30097 30100 30103 30106 30109 30111 30114 30117 30120 30123 30126 30129 30132 30135 30138 30141 30144 30147 30150 30152 30154 30157 30160 30163 30166 30169 30171 30174 30176 30179 30182 30185 30188 30191 30194 30197 30200 30203 30206 30209 30211 30214 30217 30220 30223 30226 30229 30232 30234 30237 30240 30243 30246 30249 30252 30255 30258 30261 30264 30267 30270 30273 30276 30279 30281 30283 30286 30289 30292 30295 30298 30301 30304 30307 30310 30313 30316 30319 30321 30324 30327 30330 30333 30336 30339 30342 30345 30348 30351 30354 30357 30360 30363 30366 30369 30371 30374 30377 30380 30383 30386 30389 30392 30394 30397 30400 30403 30406 30409 30412 30415 30418 30421 30424 30426 30428 30431 30434 30437 30440 30443 30446 30449 30452 30455 30458 30461 30464 30467 30470 30473 30476 30479 30482 30485 30488 30491 30494 30497 30500 30503 30506 30509 30512 30515 30518 30520 30523 30526 30529 30532 30535 30537 30540 30543 30546 30549 30552 30555 30558 30561 30564 30567 30569 30572 30575 30578 30581 30583 30586 30589 30592 30595 30598 30601 30604 30607 30610 30613 30615 30618 30620 30623 30626 30629 30632 30635 30638 30641 30644 30647 30650 30653 30656 30659 30662 30665 30668 30671 30674 30677 30680 30683 30686 30689 30692 30695 30698 30701 30704 30707 30710 30713 30715 30718 30721 30724 30727 30730 30732 30735 30738 30741 30744 30747 30750 30753 30756 30759 30762 30765 30768 30771 30774 30777 30780 30783 30786 30788 30791 30794 30796 30799 30802 30805 30807 30810 30813 30816 30819 30822 30824 30827 30830 30833 30836 30839 30842 30845 30848 30851 30854 30856 30859 30862 30865 30868 30871 30874 30876 30879 30882 30885 30888 30891 30893 30895 30898 30901 30903 30906 30909 30911 30914 30917 30920 30923 30926 30929 30932 30935 30938 30941 30943 30946 30949 30951 30954 30957 30959 30962 30965 30967 30970 30973 30975 30978 30981 30983 30986 30989 30992 30995 30998 31001 31003 31006 31009 31012 31015 31018 31021 31024 31027 31030 31033 31036 31038 31041 31044 31047 31050 31053 31056 31059 31061 31064 31067 31070 31073 31075 31078 31081 31084 31086 31089 31092 31095 31098 31101 31104 31107 31110 31113 31116 31119 31121 31124 31127 31130 31133 31136 31139 31142 31145 31148 31151 31154 31157 31160 31163 31166 31169 31172 31175 31178 31181 31184 31187 31190 31193 31195 31198 31201 31204 31207 31210 31212 31215 31218 31221 31224 31227 31230 31233 31236 31239 31242 31245 31248 31251 31254 31256 31259 31262 31264 31267 31269 31272 31275 31278 31281 31283 31286 31288 31290 31293 31295 31298 31301 31304 31307 31310 31313 31316 31318 31321 31323 31326 31329 31332 31335 31338 31341 31343 31346 31349 31352 31355 31358 31361 31363 31366 31369 31372 31375 31377 31380 31383 31386 31389 31392 31394 31397 31400 31402 31405 31408 31411 31414 31416 31419 31422 31425 31428 31430 31433 31436 31439 31442 31445 31448 31450 31453 31456 31459 31462 31465 31468 31471 31474 31477 31479 31482 31485 31488 31491 31494 31497 31499 31502 31505 31508 31511 31513 31516 31519 31522 31525 31528 31531 31534 31537 31540 31543 31546 31549 31552 31555 31558 31561 31563 31566 31569 31572 31574 31577 31580 31582 31585 31588 31591 31594 31597 31600 31603 31606 31609 31612 31615 31618 31621 31624 31627 31630 31632 31635 31637 31640 31643 31646 31649 31652 31655 31658 31661 31664 31667 31670 31673 31676 31679 31682 31685 31688 31691 31694 31697 31700 31703 31706 31709 31712 31715 31717 31720 31723 31725 31728 31731 31734 31737 31740 31743 31746 31749 31752 31755 31757 31760 31763 31766 31769 31771 31774 31777 31780 31783 31785 31788 31791 31794 31797 31800 31803 31806 31809 31812 31814 31817 31820 31823 31826 31829 31832 31835 31838 31841 31844 31847 31850 31853 31856 31859 31862 31865 31868 31871 31874 31877 31880 31883 31886 31889 31892 31895 31898 
</DataArray>
<DataArray type="UInt32" Name="types" format="ascii">
5 5 5 5 5 3 5 5 5 5 5 5 5 3 5 5 5 5 3 5 5 3 5 5 5 5 3 5 5 5 5 3 5 5 5 5 5 5 5 5 5 5 5 5 5 3 5 5 3 5 5 5 5 5 3 5 5 5 5 5 5 5 3 5 5 5 5 3 5 5 5 5 5 5 5 5 5 3 5 5 3 5 5 3 5 5 5 5 3 5 5 5 5 5 5 5 3 3 3 5 5 3 5 5 5 5 5 3 5 5 5 5 5 5 5 5 5 5 5 5 5 3 5 5 5 3 5 5 5 5 5 5 3 5 5 5 5 5 5 5 5 5 5 5 5 5 5 5 5 5 5 5 5 5 5 5 5 5 3 5 5 5 3 5 5 3 5 5 5 5 5 5 5 5 5 5 5 3 5 5 5 5 5 5 5 5 3 5 5 5 5 5 5 5 5 3 5 5 5 5 5 5 5 5 5 3 5 5 5 5 5 5 5 5 5 5 5 5 5 5 5 5 5 5 5 5 5 5 5 3 5 5 5 3 5 3 5 3 5 5 3 5 5 5 3 5 3 5 3 5 3 3 5 3 5 5 3 5 3 5 5 5 3 5 3 3 5 5 3 5 5 5 3 5 3 3 3 5 3 5 5 5 3 5 3 3 3 5 5 3 3 5 5 5 5 3 5 3 5 5 3 5 5 5 3 5 3 3 3 5 5 5 3 5 3 3 3 3 5 5 5 3 3 5 5 3 3 3 5 3 5 5 5 5 3 5 5 5 5 5 5 5 3 5 5 5 5 5 5 3 3 5 5 5 3 5 5 5 3 5 3 5 3 3 5 5 5 5 3 5 5 3 5 5 5 5 3 5 3 5 5 5 5 5 3 3 5 5 5 5 5 5 5 5 3 5 5 5 3 5 5 3 5 3 5 5 5 5 5 5 5 5 5 5 5 3 5 3 5 3 5 5 5 3 5 3 5 3 5 5 5 5 5 5 3 5 3 5 5 5 3 5 5 5 3 5 3 3 5 5 5 5 3 5 5 5 5 3 3 5 5 3 5 3 5 3 3 5 5 5 3 5 5 5 5 3 5 5 5 5 5 5 5 5 5 5 5 3 5 5 5 5 3 5 5 5 3 5 3 3 3 5 5 5 3 3 5 3 5 5 3 5 5 5 5 3 5 5 5 5 5 5 5 5 5 5 5 3 3 5 5 3 5 5 5 3 5 5 5 5 5 5 3 5 5 5 3 5 5 5 3 5 5 5 5 5 5 5 5 5 5 5 3 5 5 5 3 5 5 5 5 5 5 5 3 5 5 5 5 5 3 5 5 5 5 5 5 5 5 5 5 5 5 5 5 5 5 5 5 5 3 5 5 5 5 3 5 5 3 5 5 5 5 5 5 5 3 5 5 5 5 5 5 5 5 3 5 3 5 5 3 5 5 5 3 5 5 3 5 5 5 3 5 3 5 5 3 5 3 5 5 5 5 5 5 5 5 5 5 5 5 5 5 5 5 5 5 5 5 5 5 3 5 3 5 3 5 5 5 5 5 5 5 5 5 5 5 5 5 5 5 3 5 5 5 5 5 5 5 5 5 3 5 5 5 5 5 5 5 5 5 5 5 5 5 5 5 5 5 5 5 5 5 5 5 5 5 5 5 5 5 3 5 5 3 5 5 5 3 3 5 3 5 5 5 5 5 3 5 5 5 5 5 3 5 5 5 5 5 5 5 5 5 5 5 5 5 5 5 5 5 5 5 5 5 5 5 5 5 5 5 5 5 5 5 5 5 5 5 5 5 5 5 5 5 5 5 5 5 5 5 5 5 3 5 5 5 5 5 5 5 5 5 5 5 5 5 5 5 3 5 5 5 5 3 5 5 5 5 5 5 5 5 5 5 5 5 5 5 5 5 5 5 5 5 5 5 5 5 5 5 5 3 5 5 3 5 3 3 3 3 5 5 3 5 5 5 5 5 5 5 5 5 5 5 5 5 5 5 5 5 3 5 5 3 5 3 5 5 5 5 3 5 3 5 5 5 5 3 5 5 5 3 5 5 5 5 5 3 5 3 5 5 3 3 5 3 5 5 5 5 5 5 5 5 5 5 5 3 5 5 5 3 5 5 5 3 5 5 3 3 3 5 5 5 5 5 5 5 5 5 5 5 3 5 5 5 5 5 5 5 5 3 3 3 5 5 5 5 5 5 5 5 3 3 5 5 5 3 5 5 3 5 5 5 5 5 5 5 5 5 5 5 3 5 5 5 5 5 5 5 5 3 5 5 5 5 5 5 5 5 5 5 3 5 3 3 3 5 5 5 5 5 5 5 3 3 5 3 5 5 5 5 5 3 5 3 3 5 5 5 3 5 3 5 5 5 5 3 5 5 5 5 5 5 5 5 5 5 5 5 5 5 5 5 5 3 5 5 5 3 5 5 5 5 5 3 5 5 5 5 5 5 3 5 3 5 5 5 5 5 5 5 5 3 5 5 5 3 5 5 5 5 5 5 5 5 5 5 5 5 5 5 5 5 5 5 5 5 5 5 5 5 5 3 3 3 5 5 5 5 3 5 5 5 5 3 5 5 5 5 5 5 5 3 5 5 5 5 5 5 5 5 3 5 5 5 5 5 5 5 5 5 5 5 5 3 5 5 5 5 5 5 3 5 5 5 5 5 5 5 5 3 5 5 5 3 5 5 5 5 5 5 5 5 5 5 5 5 3 5 5 5 5 5 5 5 5 5 5 5 5 5 5 5 5 5 5 5 5 5 5 5 5 5 5 5 5 5 5 5 5 5 5 5 5 5 5 5 5 5 5 5 5 5 5 5 3 5 5 5 5 5 5 5 5 5 5 5 5 5 5 5 5 5 5 5 5 5 5 5 5 3 5 5 5 5 5 5 5 5 5 5 3 5 5 3 5 5 5 5 5 5 5 5 5 3 5 3 5 5 5 5 3 5 5 3 5 3 5 5 5 5 5 3 5 5 5 5 5 5 5 5 3 5 5 5 5 5 5 5 5 5 5 5 5 5 5 3 5 3 3 5 5 5 5 5 3 5 5 5 5 5 5 5 5 5 5 5 5 5 5 5 3 5 5 5 5 5 5 5 5 5 5 5 5 5 5 5 5 3 5 5 5 5 5 3 3 5 5 3 5 5 5 5 5 5 5 5 5 5 3 5 5 5 5 5 5 5 5 5 3 5 3 5 5 5 5 5 3 5 5 5 5 3 5 5 5 3 5 5 5 3 5 5 3 5 5 5 5 5 5 5 5 5 5 5 5 5 5 5 5 3 5 5 5 5 5 5 5 3 5 5 5 5 5 5 5 5 5 5 5 5 5 5 5 5 5 5 5 5 5 5 5 5 5 5 5 3 5 5 5 5 3 5 5 5 3 5 5 5 5 5 5 5 5 5 3 5 3 5 5 5 5 5 5 5 5 5 5 5 5 5 5 5 5 5 5 3 3 5 5 5 3 5 5 3 5 5 3 5 5 5 3 5 5 3 5 5 5 5 5 5 5 5 5 5 5 5 5 5 5 5 5 5 5 5 3 5 3 5 5 5 5 5 5 5 5 5 5 5 3 5 3 5 5 5 3 5 5 5 5 5 3 5 5 5 5 5 5 3 5 5 5 5 5 5 5 5 5 5 5 3 5 5 5 5 5 5 5 5 3 5 5 5 3 5 5 3 5 5 5 5 5 3 5 5 5 5 5 5 5 5 5 3 5 5 3 5 3 5 3 3 3 5 3 5 5 5 5 5 5 3 5 5 5 5 5 5 3 5 5 5 5 5 5 5 3 5 5 5 5 3 5 5 5 5 5 3 5 3 5 5 5 5 5 5 5 5 5 5 3 5 5 5 5 5 5 5 3 5 5 5 5 5 5 5 3 5 3 5 5 5 5 5 5 5 5 3 5 5 5 3 3 5 5 5 5 5 3 3 5 3 5 5 3 5 5 3 5 5 5 5 5 5 5 5 3 5 5 5 5 5 3 5 5 5 5 3 5 5 3 5 5 5 5 5 5 5 5 5 5 5 5 5 5 5 5 5 5 5 5 5 5 5 5 5 5 5 5 5 5 5 5 5 5 5 5 5 5 5 5 5 3 5 5 3 5 5 5 5 5 3 5 5 5 5 3 5 5 5 5 5 5 5 5 5 5 5 5 5 5 5 5 5 5 5 5 5 5 5 5 3 5 5 5 3 5 5 5 5 5 5 3 5 5 5 5 5 5 5 5 5 5 5 3 5 3 3 5 5 3 5 5 5 5 5 5 5 5 5 5 5 3 5 5 3 5 5 5 5 5 5 5 5 5 5 5 5 5 5 5 3 5 5 5 5 5 5 5 3 5 3 5 5 5 5 3 5 3 5 5 5 5 5 5 5 5 5 3 5 5 5 5 5 5 5 5 5 5 5 5 5 5 5 5 5 3 5 5 5 5 5 5 5 5 5 5 5 5 5 5 5 5 5 5 5 5 5 5 5 5 5 3 3 5 5 5 5 5 5 5 5 5 5 5 3 5 5 5 5 3 5 5 5 5 3 5 5 5 5 5 5 5 5 3 5 5 5 5 5 5 5 5 5 3 5 5 5 5 5 5 5 5 5 5 5 5 5 5 5 5 5 5 5 5 3 5 5 5 5 5 5 5 5 5 5 5 5 5 5 3 5 3 5 5 5 5 5 5 5 5 3 5 5 3 5 5 5 5 5 5 5 5 5 5 5 5 5 5 5 5 5 5 5 5 5 5 5 5 5 5 5 5 5 5 5 5 5 5 5 5 3 5 5 3 5 5 5 5 3 5 3 5 5 3 5 3 5 5 5 5 5 3 5 5 5 5 5 5 5 5 5 5 5 5 3 5 5 5 3 5 5 5 5 5 5 5 5 5 3 5 5 5 5 3 3 5 5 5 5 5 5 5 5 3 5 5 5 5 5 3 5 5 5 3 5 5 5 3 5 5 5 5 3 5 5 5 5 5 5 5 5 5 5 5 5 5 5 3 5 5 5 5 5 5 3 5 3 3 5 3 5 3 5 5 5 5 3 5 5 5 5 3 5 5 5 5 5 5 5 5 5 3 5 5 5 5 5 5 5 5 5 5 5 5 5 5 3 5 5 5 3 5 5 5 3 5 3 5 5 5 5 5 5 5 5 5 5 5 5 5 5 5 5 3 5 5 5 5 5 5 3 5 5 5 5 5 5 5 5 5 5 5 5 5 5 5 5 5 5 3 5 5 5 5 5 5 5 5 5 5 5 5 5 5 5 5 5 5 5 5 5 5 5 5 5 5 5 5 5 5 5 5 5 5 3 5 5 5 5 3 5 5 5 5 5 5 5 3 5 5 5 5 5 5 5 5 5 3 5 5 3 5 5 5 5 5 3 5 5 5 3 5 5 3 5 5 5 5 5 5 5 5 5 5 5 5 5 5 5 5 5 5 5 5 3 5 5 5 5 5 5 5 5 5 5 3 3 5 3 5 5 5 5 5 3 5 5 5 5 3 5 5 5 5 5 3 5 3 5 5 3 5 5 5 5 5 5 5 5 3 5 5 5 5 5 5 3 5 5 5 5 5 5 3 5 5 5 5 3 5 5 3 5 3 5 5 3 5 5 5 5 5 5 3 5 5 5 5 3 5 5 5 5 5 5 5 5 3 3 5 5 5 5 5 5 5 5 3 5 5 5 5 5 5 3 5 5 5 5 5 5 5 3 5 5 5 3 5 5 5 5 5 5 5 5 5 5 5 5 3 5 5 5 5 3 5 5 3 5 5 5 5 3 5 5 5 3 3 5 5 5 3 5 5 5 3 5 5 5 5 5 5 5 5 5 3 5 5 5 3 5 5 5 5 5 5 5 5 5 5 5 5 3 5 3 5 5 3 5 5 3 5 5 5 5 5 5 5 3 5 5 5 5 5 3 5 3 5 5 5 3 3 5 3 3 5 3 5 5 5 5 5 5 3 5 3 5 5 5 5 5 5 5 5 5 5 5 5 5 3 5 5 3 5 3 5 5 3 5 5 5 3 3 5 5 3 5 5 5 5 5 5 5 5 5 5 5 5 5 5 5 5 5 5 5 5 5 5 5 3 3 5 3 5 3 5 5 3 3 5 5 3 5 5 3 5 5 3 5 3 5 5 5 5 3 5 5 5 5 3 5 3 3 5 3 5 5 3 3 5 5 5 3 5 5 5 5 3 3 5 5 5 5 5 3 5 5 5 5 5 5 5 5 5 5 5 3 5 3 5 3 5 5 3 5 3 5 5 5 5 5 5 5 5 3 5 5 3 5 5 5 5 3 5 5 5 5 5 5 5 5 5 5 5 5 3 5 5 5 5 5 5 5 5 5 5 5 3 5 5 5 5 5 5 3 5 3 5 5 3 5 5 5 5 5 5 5 5 5 5 5 5 5 5 5 5 5 3 3 5 5 5 3 5 5 3 5 5 5 5 5 5 5 5 5 5 5 5 5 5 5 5 5 5 5 5 5 5 5 5 5 3 3 5 5 5 5 5 5 5 5 5 5 5 3 5 5 5 5 5 5 5 5 5 5 5 5 5 5 5 5 5 5 5 5 5 5 5 5 5 5 5 5 5 5 5 5 5 3 5 5 5 5 5 3 5 5 3 5 5 3 3 5 5 5 5 5 5 5 5 5 5 5 5 5 3 5 5 3 5 5 5 5 5 5 3 5 5 3 5 5 5 5 5 5 5 5 5 5 5 5 5 3 5 5 5 5 5 5 5 3 5 5 5 5 5 5 5 5 5 5 5 5 3 5 5 3 5 5 5 5 5 5 5 5 5 5 5 5 5 5 5 5 5 5 5 5 3 5 5 3 5 3 5 5 5 3 5 5 3 5 3 5 5 5 3 5 5 5 5 3 5 5 5 5 5 5 5 3 5 5 5 3 5 5 5 5 5 5 5 5 5 5 5 5 3 5 5 5 5 5 5 5 5 3 5 5 5 5 5 5 5 5 5 5 5 3 5 5 5 5 5 5 5 5 5 5 5 5 5 5 5 5 5 5 5 3 3 5 5 5 3 5 5 5 5 5 5 5 5 5 5 5 5 3 5 5 5 5 5 5 5 5 5 3 5 5 5 5 5 5 5 5 5 5 5 5 5 5 5 5 3 5 3 5 5 5 5 5 3 5 5 5 5 3 5 5 5 3 5 5 5 3 5 5 5 5 5 5 5 5 5 3 5 5 5 3 5 5 3 5 5 5 5 5 5 3 5 5 5 5 5 5 5 5 3 5 5 5 3 5 5 5 5 5 5 5 5 5 5 5 5 5 5 5 5 5 5 5 5 5 5 5 5 5 5 5 3 5 5 5 5 5 5 5 3 5 5 5 5 5 5 5 5 5 5 5 5 5 5 5 5 5 5 5 5 5 5 5 5 5 3 5 3 5 5 5 5 5 5 3 5 5 5 3 5 5 3 5 5 5 5 5 5 5 5 5 5 5 5 3 5 5 5 5 5 3 5 5 5 5 5 5 5 5 5 5 5 5 5 3 5 5 5 3 5 5 5 5 5 5 5 5 5 5 5 5 3 3 5 5 5 5 3 5 5 5 5 5 5 5 5 5 3 3 5 5 5 5 5 3 5 5 5 5 5 3 5 5 5 5 5 3 5 3 5 5 5 5 3 5 3 5 3 3 5 5 5 5 5 5 5 3 3 5 5 5 5 5 5 3 3 3 5 3 3 5 5 5 3 5 5 5 5 5 3 3 3 5 3 5 5 5 3 5 3 3 5 5 5 5 5 5 5 3 3 5 5 3 3 3 5 5 5 5 5 5 5 5 5 5 5 5 5 5 5 5 5 5 5 5 5 5 5 5 5 5 5 5 5 5 5 5 5 5 5 5 5 5 5 5 3 5 5 5 5 5 5 5 5 5 5 3 5 5 5 5 5 5 3 5 5 3 5 5 5 5 5 5 5 5 5 5 5 5 5 3 5 3 5 5 5 5 3 5 5 5 3 5 5 3 5 5 5 3 5 5 3 5 5 5 5 5 3 5 5 5 5 5 5 5 3 5 5 5 5 5 5 5 3 5 5 3 5 5 5 5 3 5 3 5 5 5 5 5 3 5 5 5 5 3 5 5 5 5 5 5 3 3 5 5 5 5 5 3 5 5 3 5 5 5 5 5 5 5 5 5 5 3 5 5 5 5 5 5 5 5 5 5 5 5 5 5 5 5 5 5 3 5 5 5 5 5 5 3 5 5 5 5 5 5 5 3 3 5 5 5 5 3 5 5 5 5 5 5 5 3 5 5 3 5 3 3 3 5 5 5 5 5 5 3 5 5 5 5 5 3 5 5 5 5 3 5 5 5 3 5 5 5 3 5 5 5 5 5 5 5 5 5 5 5 5 5 5 5 5 5 5 5 5 5 5 5 5 5 3 5 5 5 5 5 5 5 3 5 3 5 5 5 5 5 5 3 5 5 3 5 5 5 3 5 5 3 5 5 5 5 5 3 5 5 5 3 3 5 5 5 5 5 5 5 5 5 5 5 5 3 5 5 5 5 5 5 5 5 5 3 5 5 5 5 5 3 3 5 5 5 5 5 5 5 5 5 3 5 5 5 5 5 5 5 5 3 5 5 5 5 5 5 5 5 5 5 5 5 5 5 5 5 5 5 3 5 5 5 5 3 5 3 5 3 5 5 5 5 5 5 5 5 5 5 5 5 5 5 5 5 5 3 5 5 5 5 5 3 5 5 5 3 3 5 5 5 5 5 3 5 5 5 5 3 5 5 5 5 5 5 5 5 3 5 5 5 5 5 5 5 3 5 5 5 5 5 5 5 5 5 3 5 5 5 5 5 5 5 5 5 5 5 5 5 5 5 5 5 5 3 5 5 5 5 5 5 5 5 5 5 5 5 5 3 5 5 5 5 5 5 3 5 5 3 5 5 3 5 5 5 5 5 5 5 5 5 5 5 5 5 5 5 5 5 5 5 5 5 5 5 5 5 5 3 5 3 5 3 3 5 5 5 3 5 5 5 5 5 5 5 5 5 3 3 5 3 5 5 5 5 5 5 5 5 5 5 5 5 5 5 3 5 3 3 5 3 5 5 5 5 5 5 5 5 5 3 3 5 5 5 5 5 5 5 5 5 5 5 5 5 5 5 5 5 5 5 5 5 5 3 5 5 5 5 5 3 5 5 5 5 5 3 5 5 5 3 5 5 5 5 5 5 5 5 5 3 5 5 5 5 3 5 5 5 5 5 5 3 5 5 5 5 5 5 5 3 5 5 5 5 3 5 5 5 5 5 5 5 5 5 5 3 5 5 5 5 3 5 5 5 3 5 5 5 5 5 3 5 5 5 5 5 5 5 5 5 5 5 5 5 5 3 3 5 5 3 5 5 5 5 5 5 5 3 5 5 5 5 5 5 3 5 5 5 5 5 5 5 5 5 5 5 5 5 5 5 5 5 5 5 5 5 5 5 3 5 5 5 5 5 5 5 5 3 5 5 5 5 3 5 5 5 5 5 3 5 3 5 3 5 5 5 5 5 5 5 3 5 5 5 3 5 5 5 5 5 3 5 5 5 5 5 3 5 3 5 5 3 5 3 5 5 5 5 5 3 5 5 5 3 5 5 5 5 5 5 5 5 5 5 3 5 5 5 5 5 5 5 5 5 5 5 5 5 5 5 5 5 5 5 5 5 5 3 5 5 5 5 5 5 5 5 5 5 5 5 5 5 5 5 5 5 3 5 5 5 3 5 5 5 5 5 5 3 5 5 5 3 3 5 3 5 3 3 5 3 5 5 3 5 5 3 3 5 5 5 5 5 5 5 5 3 5 3 5 5 5 5 5 5 5 5 5 5 5 5 5 5 5 5 5 5 5 5 5 5 3 5 5 5 5 5 5 5 5 3 5 5 3 5 5 3 3 5 5 3 5 5 5 5 5 5 5 5 5 5 5 5 5 5 5 5 5 5 5 5 5 5 5 5 5 5 5 5 5 5 5 5 5 5 5 5 5 5 5 3 5 3 5 5 5 5 5 5 5 5 5 5 5 5 5 5 5 5 5 5 5 5 5 5 5 5 5 5 5 5 5 5 5 5 5 5 5 5 5 5 5 5 3 5 5 3 5 5 5 5 5 3 5 3 5 5 3 5 5 5 5 5 5 3 5 5 5 5 5 5 5 5 5 5 5 3 5 5 3 3 5 3 5 5 3 5 5 5 5 3 5 5 5 5 5 5 5 5 5 3 5 3 5 5 5 5 5 5 5 3 5 3 5 5 5 5 5 5 5 5 5 3 5 3 5 5 5 5 5 5 5 5 5 5 3 5 5 5 3 5 5 3 5 5 3 5 5 5 5 3 5 5 5 3 5 5 5 5 5 5 5 5 5 5 5 5 5 5 3 5 5 5 5 5 5 3 5 3 5 3 5 5 5 3 5 5 5 5 5 5 5 5 3 5 5 5 5 5 3 5 5 3 5 5 5 5 5 5 5 5 5 3 5 5 5 3 5 5 5 5 5 5 3 5 5 5 5 5 5 5 5 5 5 5 5 5 5 5 5 5 5 5 5 5 5 5 5 5 5 5 5 5 5 5 3 5 5 5 5 5 3 5 5 3 3 5 5 5 5 3 5 5 5 5 5 3 5 5 5 5 5 5 5 5 5 5 5 5 5 5 5 5 3 5 5 5 5 5 5 5 5 3 3 5 5 5 5 5 5 3 5 5 5 5 3 5 5 5 5 5 5 5 5 5 5 5 5 5 5 5 5 5 5 5 5 5 5 5 5 3 5 5 3 5 5 5 5 5 5 5 5 5 5 5 5 5 5 5 5 5 5 5 5 5 5 5 5 5 5 5 3 5 3 5 5 5 5 5 3 5 5 5 5 5 5 5 5 5 5 5 5 5 5 5 5 5 5 5 5 3 3 5 3 5 5 5 5 5 5 5 5 5 5 5 5 5 5 5 5 3 5 5 5 3 5 5 5 5 5 5 5 5 5 5 5 5 5 3 5 5 5 5 5 5 5 5 5 5 5 5 5 5 5 5 5 5 5 5 5 5 3 5 5 5 5 5 5 5 5 5 5 5 5 5 3 5 3 5 5 3 3 5 5 5 5 5 5 5 5 5 5 5 5 5 5 5 5 5 5 5 5 3 5 5 3 5 5 5 3 5 5 5 5 5 5 3 5 5 5 3 5 5 5 5 5 5 5 5 3 5 5 3 5 5 3 5 3 5 5 5 5 3 3 5 5 3 3 5 5 3 5 5 5 5 3 5 5 3 3 5 3 5 5 5 5 5 5 5 5 5 5 5 5 5 5 5 5 5 5 5 5 3 5 5 5 5 3 5 5 5 5 3 3 5 5 5 5 5 5 5 5 5 5 5 5 3 5 5 5 3 5 5 5 5 5 5 5 3 5 5 5 3 5 5 3 3 5 5 5 3 5 5 5 3 5 5 5 5 5 5 5 5 5 5 5 5 5 5 5 5 5 5 3 5 5 5 5 5 5 5 5 5 5 5 5 5 5 5 5 5 5 3 3 5 5 5 5 5 3 3 5 3 5 5 5 5 5 5 5 5 5 3 5 5 5 3 5 5 5 5 5 5 5 5 5 5 5 5 5 5 3 5 5 5 5 5 5 5 3 5 5 3 5 5 5 5 5 5 3 5 5 5 5 3 5 5 5 5 5 5 3 5 5 5 5 5 5 5 5 3 3 5 5 5 3 3 5 5 5 5 5 3 5 5 5 5 5 5 3 5 5 5 5 3 5 5 5 5 5 3 5 5 5 5 3 5 5 5 5 5 5 5 5 5 5 5 5 5 5 5 5 5 5 5 5 5 5 5 5 5 3 5 5 5 5 3 5 3 5 3 5 5 3 5 5 3 5 5 3 5 5 5 5 5 5 3 5 5 3 5 3 3 3 5 5 3 5 3 3 5 5 5 3 5 3 5 5 5 5 5 5 3 5 5 5 3 5 5 5 5 5 5 5 3 5 5 5 3 5 3 3 5 5 5 5 5 5 5 3 5 5 5 5 5 5 5 5 3 3 5 5 5 5 3 5 5 3 5 5 5 3 5 5 5 3 3 5 5 5 5 3 5 5 5 5 5 3 3 5 5 5 5 5 5 5 5 5 5 5 5 5 5 5 5 5 5 5 5 5 5 5 5 5 5 5 5 5 5 5 3 5 5 5 3 5 5 5 5 5 5 5 5 5 5 5 5 5 5 5 3 5 3 3 5 5 3 5 5 5 5 5 5 5 5 5 5 5 5 5 5 5 5 5 5 5 5 5 5 5 3 5 5 3 3 5 5 5 5 5 5 5 3 5 5 5 3 5 5 5 5 3 3 5 5 5 5 5 5 5 3 5 5 5 5 3 5 5 5 5 3 5 5 5 5 5 5 5 5 5 5 5 5 5 5 5 5 5 5 5 3 5 5 5 5 5 5 5 5 5 5 5 5 5 5 5 5 3 5 5 5 3 5 5 5 5 5 5 5 5 5 3 5 5 5 5 5 5 5 5 5 5 5 5 5 5 5 5 5 5 5 5 5 3 5 5 5 5 5 5 5 5 5 5 5 5 5 5 5 5 5 3 5 5 5 5 5 3 5 5 5 5 5 5 5 5 5 5 5 5 5 5 5 5 5 5 5 5 5 5 5 5 5 5 5 3 5 5 3 5 5 5 3 5 5 5 5 5 5 5 5 5 5 5 5 5 5 5 3 5 3 5 5 5 5 5 5 5 5 5 3 5 5 5 5 5 5 5 5 5 3 3 5 5 5 5 5 5 5 5 5 5 5 5 5 5 5 5 5 5 5 5 5 5 5 5 5 5 5 5 5 5 5 5 5 5 5 5 5 5 5 5 5 5 5 5 5 5 5 5 5 5 5 5 5 5 5 5 5 5 5 5 5 5 5 5 5 5 5 5 5 5 5 3 5 5 5 5 5 5 3 5 5 5 5 5 5 5 5 5 3 5 3 5 5 5 5 5 5 5 5 5 5 5 5 5 5 5 5 5 5 5 5 5 5 5 5 5 5 5 5 5 5 5 5 5 5 3 5 5 5 3 3 5 5 5 5 5 5 5 5 5 5 5 5 5 5 5 5 5 5 5 5 5 5 3 3 5 5 5 5 5 5 5 5 3 5 5 5 5 5 5 3 5 5 5 5 5 3 5 5 5 5 3 5 5 5 3 5 5 5 3 5 5 3 5 5 5 5 5 5 5 5 5 5 5 5 5 3 5 5 5 5 5 5 5 5 3 5 5 5 5 5 5 5 5 5 5 5 3 5 5 5 3 5 5 5 5 3 5 5 5 5 5 5 5 5 3 5 3 5 5 3 5 5 5 5 5 3 5 5 5 5 5 5 5 5 5 5 5 5 3 5 5 5 5 5 5 5 5 5 3 5 5 5 5 5 5 3 5 5 5 5 5 5 5 3 5 5 5 5 5 3 5 5 5 5 5 5 5 5 5 5 5 5 5 5 5 5 5 5 5 5 5 5 5 5 5 5 5 5 5 5 5 5 5 5 5 5 5 5 5 5 5 5 5 5 5 5 5 3 5 3 5 5 5 5 5 5 5 5 5 5 5 5 5 5 3 5 5 5 5 5 5 5 5 5 5 5 5 5 5 5 3 5 5 3 5 3 5 5 5 5 5 3 5 5 5 5 5 5 5 5 5 5 5 5 5 5 5 5 5 5 5 5 3 5 5 5 5 5 5 5 5 5 5 5 3 5 3 5 5 3 5 3 5 5 5 5 5 5 5 3 5 3 5 5 5 5 3 5 5 5 5 3 3 5 5 3 5 5 5 5 5 5 5 5 5 5 5 5 5 5 5 5 3 5 5 5 5 5 5 5 5 5 5 5 5 5 5 3 5 3 5 5 5 5 5 5 5 3 5 3 5 5 5 5 5 5 5 5 5 3 3 5 5 5 3 5 5 5 5 3 5 3 5 5 3 5 3 3 3 5 5 3 5 5 5 3 3 3 5 5 5 5 5 5 5 5 5 5 5 3 5 5 5 5 5 5 3 5 5 5 3 5 5 5 5 5 5 5 5 3 5 5 5 3 5 5 5 5 5 5 5 5 5 5 5 5 5 5 5 5 5 5 5 5 5 5 5 5 5 5 5 5 5 5 5 5 5 5 5 5 5 5 5 5 5 5 5 5 5 5 5 5 5 5 5 5 5 5 5 5 5 5 5 5 3 5 5 5 5 5 3 5 5 5 5 3 5 5 5 3 5 5 5 5 5 5 5 5 5 5 5 5 5 5 5 5 5 5 5 5 5 5 5 5 5 5 5 5 5 5 5 5 5 5 5 5 5 5 5 5 3 5 5 3 5 5 5 5 5 5 5 3 5 5 5 5 5 5 5 5 5 5 5 3 5 5 3 5 3 5 5 5 3 5 5 5 5 5 5 5 5 3 5 5 5 5 3 5 5 5 5 3 5 3 5 5 5 5 5 5 5 5 5 5 5 5 3 5 3 5 5 5 5 5 5 5 5 5 5 5 5 5 3 5 5 5 5 5 5 5 5 5 3 5 5 5 3 5 5 5 5 5 5 5 5 5 5 5 5 5 5 5 5 5 5 5 5 5 5 5 5 5 5 5 5 5 5 5 5 5 5 5 3 5 5 3 5 5 5 5 3 5 5 5 5 5 5 5 5 5 5 5 5 5 5 5 3 5 5 5 5 5 5 5 5 5 3 5 3 5 5 5 5 5 5 5 3 5 5 5 5 5 5 5 5 5 5 5 5 5 5 3 5 5 5 5 5 5 5 5 5 5 5 3 5 5 5 5 5 5 5 5 5 5 5 5 5 5 5 5 5 5 5 5 5 5 5 3 5 3 5 5 5 5 5 5 3 5 3 5 5 5 3 5 5 5 3 5 5 5 3 5 5 3 5 5 5 5 5 5 5 3 5 5 5 5 5 5 5 3 5 5 5 5 5 5 5 5 5 5 5 5 5 3 5 5 5 5 5 5 5 5 3 5 5 5 5 5 5 5 5 5 5 5 5 5 5 5 5 5 5 5 5 3 5 5 5 5 5 5 5 5 5 5 5 5 5 5 5 5 5 5 5 5 5 5 5 5 5 5 5 5 5 5 5 5 5 5 5 5 5 5 5 5 5 5 5 5 5 5 5 5 5 5 3 5 3 5 5 5 3 5 5 3 3 5 3 5 5 5 5 5 5 5 5 5 5 5 5 5 5 5 5 5 5 5 5 5 5 5 5 5 5 5 5 5 5 5 5 5 5 5 3 5 5 5 5 3 5 5 3 5 5 5 3 5 5 5 5 3 5 3 3 5 5 5 5 3 5 5 5 3 5 5 5 3 5 5 5 5 5 5 3 5 5 5 5 5 5 5 5 5 5 5 5 5 5 5 5 5 5 5 5 3 5 5 5 5 5 5 5 5 5 5 5 5 5 5 5 5 5 5 3 5 5 3 5 5 3 5 5 5 5 5 5 5 5 5 5 5 3 5 5 5 5 3 5 5 5 5 3 5 5 5 3 5 5 5 5 5 5 5 5 5 5 5 5 5 5 5 5 5 5 5 5 5 5 5 5 5 3 5 5 5 5 5 5 5 5 3 5 5 5 3 5 5 5 5 5 5 5 5 5 5 5 5 5 5 5 5 5 5 5 5 5 5 5 5 3 5 5 5 3 5 5 5 5 5 5 5 5 3 5 5 3 5 5 5 5 3 5 5 5 5 5 5 5 3 5 3 5 5 3 5 5 3 3 5 5 5 5 5 5 5 5 5 5 5 5 5 5 5 5 5 5 5 5 5 3 5 5 5 5 3 5 5 5 5 5 5 5 5 5 5 5 5 5 3 5 5 3 5 5 5 5 5 5 5 5 5 5 5 5 5 5 5 5 5 5 5 5 5 5 5 5 5 5 5 5 5 5 5 5 5 5 5 5 5 5 5 5 5 5 5 5 5 5 5 5 5 5 5 5 5 5 5 5 5 5 5 5 5 5 5 5 5 5 5 5 5 5 5 5 5 5 5 5 5 5 5 5 5 5 5 5 5 5 5 5 5 5 5 5 5 5 5 5 5 5 5 5 5 5 5 5 5 5 5 5 5 5 5 5 5 5 5 5 5 5 5 5 5 5 5 5 5 5 5 5 3 5 5 5 5 5 5 5 3 5 5 5 5 5 5 5 5 5 3 5 3 5 5 5 3 5 5 3 5 5 5 5 5 5 5 5 5 5 5 5 5 5 5 5 5 5 5 5 5 5 5 5 5 5 5 5 5 5 5 5 5 5 5 5 5 3 5 5 3 3 5 5 3 5 5 3 5 5 5 3 5 5 5 5 5 5 5 5 5 3 5 5 5 5 5 5 3 5 5 5 5 5 5 5 5 5 5 5 5 5 5 5 5 5 5 5 5 5 5 5 5 5 5 5 5 5 5 5 3 5 5 5 5 5 5 5 5 5 5 5 5 5 5 5 5 5 5 5 5 5 5 5 5 5 5 5 5 5 5 5 5 5 5 5 5 5 5 5 5 5 5 5 5 5 5 3 5 3 5 5 5 5 3 5 5 5 5 3 5 5 5 5 3 5 5 5 5 5 5 5 5 3 5 5 3 5 3 5 5 5 5 3 5 5 3 3 5 5 5 5 5 5 3 5 5 5 5 5 5 5 5 5 5 3 3 5 5 5 5 5 3 5 5 3 5 5 5 5 3 5 5 3 5 5 5 5 5 5 5 5 5 5 5 5 5 5 5 5 5 5 5 5 5 5 5 5 5 5 5 5 5 3 5 3 5 5 5 5 5 5 5 5 5 5 5 5 5 3 5 5 5 5 3 3 5 5 5 5 5 5 5 5 5 5 5 5 5 5 5 5 5 5 5 5 5 5 5 5 5 5 5 5 5 5 5 5 5 5 5 5 5 5 5 5 5 5 3 5 5 5 3 5 5 5 5 5 5 5 5 5 5 5 5 5 5 5 5 5 5 5 5 3 5 5 3 5 5 5 5 5 5 5 5 5 3 5 5 5 5 5 3 5 5 5 5 5 3 5 3 5 5 5 5 5 5 5 5 5 5 5 5 5 3 5 5 5 3 3 5 5 5 5 5 5 5 5 3 5 5 3 5 5 3 3 5 5 5 5 5 3 5 5 5 5 5 5 5 3 5 5 3 3 5 5 5 5 5 5 3 3 5 5 5 3 5 5 5 5 5 5 5 3 5 5 5 5 5 5 5 5 5 5 5 5 5 5 5 5 5 5 5 5 5 5 5 5 5 5 3 5 5 5 5 5 5 5 3 5 5 5 5 5 5 5 5 5 5 5 3 5 5 5 5 5 5 5 5 3 5 5 5 5 5 5 5 5 5 5 5 5 5 5 5 5 3 5 5 5 3 5 5 5 5 5 3 5 5 5 5 5 5 5 5 5 5 5 5 5 5 3 5 5 5 5 3 5 5 3 5 5 5 5 5 3 5 5 5 5 5 5 5 5 5 5 5 5 5 5 3 5 3 5 5 5 3 5 3 5 3 5 5 5 5 5 5 3 3 5 5 5 5 5 5 3 5 3 5 5 5 5 5 5 5 5 5 5 5 5 5 5 5 5 5 3 5 5 5 3 3 5 5 5 5 5 3 5 5 3 3 5 5 5 5 5 5 5 5 5 5 5 5 5 5 5 5 5 5 5 5 5 5 5 5 5 5 5 5 5 5 5 5 5 5 5 5 5 5 5 5 5 5 5 5 3 5 5 3 3 3 5 5 5 5 5 5 3 5 5 5 5 5 5 5 5 5 3 5 5 5 3 5 5 5 5 5 5 5 5 5 5 5 5 5 5 5 5 5 5 5 5 3 5 5 5 5 3 5 5 5 5 5 5 5 5 5 5 5 5 5 5 5 5 5 5 5 5 5 5 5 5 5 5 5 5 5 5 5 5 5 5 3 5 3 5 5 5 5 5 5 5 5 3 5 5 5 3 5 3 5 5 5 5 5 5 5 5 3 5 5 5 5 3 5 5 5 5 3 5 5 5 5 5 5 5 3 5 5 5 5 3 5 5 5 5 5 5 5 5 5 5 5 5 5 5 5 5 5 5 5 5 5 5 5 5 5 5 5 5 5 5 5 5 5 5 5 5 5 5 5 5 5 5 5 5 5 5 3 5 5 5 5 3 3 5 5 3 3 5 5 5 5 5 5 5 5 5 5 5 5 5 5 5 5 5 5 5 3 5 5 5 3 3 5 5 5 5 5 5 5 5 5 5 5 5 5 5 5 5 5 5 5 5 5 5 5 5 5 5 5 3 5 5 5 5 5 5 5 3 5 5 5 5 5 5 5 5 5 5 5 5 5 5 5 3 5 5 5 5 5 5 5 5 3 5 3 3 5 5 5 5 5 5 5 5 5 5 5 5 3 5 5 5 5 5 5 5 5 5 5 5 5 5 5 5 5 5 5 3 5 5 5 3 5 5 5 5 5 5 5 5 3 5 5 5 5 5 5 5 5 5 5 5 5 5 5 5 3 5 5 5 3 5 5 5 5 5 5 5 5 5 5 5 5 5 5 5 5 5 5 5 5 5 5 5 5 5 5 5 5 5 5 5 5 5 3 5 3 5 5 5 5 5 5 5 5 3 5 5 5 5 5 5 5 5 5 3 5 5 3 5 5 5 5 5 3 5 5 5 5 3 5 5 5 5 3 5 5 5 3 5 3 5 5 3 5 5 5 5 5 5 5 5 5 5 5 5 5 5 3 5 5 3 5 3 5 5 5 3 5 5 3 5 5 5 5 3 5 3 5 5 5 5 5 5 3 5 3 5 5 5 5 5 3 5 5 5 5 3 5 5 5 5 5 5 3 5 5 5 5 5 5 5 5 5 5 5 5 5 5 5 5 5 5 5 5 5 5 5 5 5 5 5 5 5 5 5 5 5 3 3 5 5 5 5 5 5 5 5 5 5 3 5 5 3 3 5 3 5 5 5 5 5 5 5 3 5 5 5 5 5 5 5 5 5 5 5 5 3 5 5 5 5 3 5 5 5 5 5 5 5 5 5 5 5 5 3 5 5 5 5 5 5 5 5 5 5 5 5 5 5 5 5 5 3 5 5 5 5 5 3 5 5 5 3 5 5 5 5 5 5 3 5 3 5 5 5 3 5 5 5 5 5 5 5 5 5 3 5 5 3 5 5 5 5 5 5 5 3 5 5 5 5 5 5 5 5 5 5 5 5 5 3 5 5 3 5 5 5 5 5 5 3 5 5 5 5 5 5 3 5 5 5 5 5 5 5 3 5 5 5 5 5 5 5 5 5 5 5 5 5 5 5 5 5 5 5 5 5 5 3 5 5 5 5 5 5 5 5 5 5 3 5 5 5 5 3 3 5 5 5 5 3 5 5 5 5 5 5 5 5 5 3 5 5 5 5 5 5 5 5 5 5 5 3 5 5 5 3 5 5 5 3 5 5 5 5 5 5 5 5 5 5 5 5 3 5 5 5 5 5 3 5 5 3 5 5 5 5 5 5 5 5 5 5 5 5 5 5 3 5 5 5 5 5 5 5 3 5 5 5 3 5 5 5 5 5 3 5 5 5 5 5 5 5 5 5 3 5 5 5 5 5 5 5 5 3 5 5 5 5 5 3 5 5 5 5 5 5 5 3 5 5 5 5 5 5 5 5 5 5 5 5 5 5 5 5 5 5 5 5 5 5 5 5 5 5 5 5 5 5 5 5 5 5 5 5 5 5 5 5 5 5 5 5 5 5 5 5 3 5 5 5 5 5 5 5 3 5 5 5 5 5 5 5 5 5 5 5 5 5 5 5 5 5 5 5 5 5 5 3 3 5 5 3 3 5 5 5 5 5 5 5 3 5 5 5 5 5 5 5 5 5 5 5 5 5 5 3 5 5 5 5 5 5 5 5 3 5 5 3 5 5 5 3 5 5 5 5 5 5 5 5 5 5 5 5 5 5 5 5 5 5 5 5 5 5 5 5 5 5 5 5 3 5 5 5 5 5 5 5 5 3 5 5 5 5 5 5 3 3 5 5 5 5 3 5 5 3 5 5 3 5 5 5 5 5 5 3 5 5 5 5 5 5 5 5 3 5 5 5 5 5 5 5 5 5 5 5 3 5 5 3 5 5 5 5 5 5 5 3 5 5 5 3 5 3 5 3 5 5 5 5 5 5 5 5 5 5 5 5 5 5 5 5 5 3 5 3 5 5 5 5 5 5 5 5 5 5 3 5 5 5 5 5 5 5 3 5 5 5 3 5 3 3 5 5 3 5 5 5 5 3 5 5 5 3 5 5 5 3 5 3 3 5 5 5 5 5 5 3 5 5 5 5 5 5 5 5 3 3 3 5 3 5 5 3 3 5 5 3 5 5 5 5 5 5 5 5 5 5 5 3 5 5 5 5 5 5 5 5 5 5 5 5 5 3 3 5 5 5 5 3 5 5 5 3 5 5 5 5 5 3 3 5 5 5 3 5 5 5 5 5 5 5 5 5 5 5 5 5 5 5 3 5 5 5 3 5 5 5 3 5 5 5 5 5 5 3 5 5 5 5 5 3 5 5 5 5 5 5 5 5 3 5 5 5 5 5 5 5 5 5 3 5 5 5 5 3 5 3 5 5 3 5 3 5 5 5 5 5 5 3 5 3 3 5 5 5 5 5 5 5 5 3 5 3 5 3 5 3 5 5 5 5 5 5 5 5 5 5 5 3 5 5 5 3 5 5 5 5 5 5 5 5 3 5 5 5 5 5 5 5 5 5 3 5 5 5 5 3 5 5 3 5 5 5 5 5 5 5 5 5 3 5 5 5 3 5 5 5 5 5 5 5 5 5 5 5 5 5 5 5 5 5 5 5 3 5 5 5 5 5 5 5 5 5 5 3 5 5 5 5 5 5 5 5 5 5 5 5 5 5 5 5 5 5 5 5 5 5 5 5 5 5 5 5 5 5 5 5 5 5 5 5 5 5 5 5 5 5 5 5 5 3 3 5 5 5 5 5 5 5 5 5 5 5 5 5 3 3 5 5 5 3 5 5 3 5 5 5 3 5 5 5 3 5 5 5 5 5 5 5 5 3 5 5 3 5 3 3 5 5 5 5 5 5 3 5 3 3 3 5 5 3 5 5 3 3 5 5 5 5 5 5 5 5 5 5 5 5 5 5 5 5 5 5 5 5 5 3 5 5 5 5 5 5 5 5 5 3 5 5 5 5 5 5 5 3 3 5 5 5 5 5 5 5 5 5 5 5 5 5 5 5 5 5 5 5 5 5 5 5 3 5 3 5 5 5 5 5 5 5 3 5 5 5 3 3 5 5 3 5 5 5 5 3 5 5 5 3 5 5 5 3 5 5 5 5 5 5 5 5 5 3 3 5 5 5 5 5 3 5 5 3 3 3 5 5 5 5 5 3 5 5 5 5 5 5 5 5 5 3 5 3 5 5 5 5 5 5 5 5 5 5 5 5 5 5 5 5 5 5 5 5 5 5 5 5 3 5 5 5 5 3 3 5 5 5 3 5 5 5 5 5 5 5 5 5 5 5 5 5 5 5 5 3 5 5 5 3 5 5 3 5 5 5 5 5 5 5 5 5 5 5 5 5 3 5 5 3 5 5 5 3 5 3 5 3 5 3 3 3 5 5 5 5 5 5 5 5 3 5 5 5 5 5 5 5 5 3 5 5 3 5 5 5 5 5 5 5 5 5 5 5 5 5 5 5 5 5 5 5 5 5 3 5 5 5 5 5 5 5 5 5 5 3 5 3 5 5 3 5 3 5 3 5 5 3 5 3 5 5 3 5 5 5 3 5 5 5 5 5 5 5 5 5 5 5 5 5 5 5 5 5 5 5 5 5 5 5 5 5 5 5 5 5 5 5 5 5 5 5 5 5 5 5 5 5 5 5 5 5 5 5 5 5 5 5 5 5 5 5 5 5 5 5 5 5 3 5 5 3 5 5 5 5 5 5 3 3 5 5 5 5 5 5 5 5 5 5 5 5 5 5 5 5 5 5 3 5 5 5 3 5 5 5 5 5 5 5 5 5 5 5 5 5 5 5 5 3 5 5 5 5 5 5 5 3 5 5 5 5 5 5 5 5 3 5 3 5 5 5 5 5 5 5 5 5 5 5 5 5 5 5 5 3 5 5 5 5 5 5 5 3 5 5 5 5 3 5 5 5 5 5 5 5 3 5 5 3 3 5 5 3 5 5 5 5 5 5 3 5 5 5 5 5 5 5 5 5 3 5 5 3 5 5 3 5 5 3 5 5 5 5 5 3 5 5 5 5 5 5 5 5 3 5 5 5 5 5 5 5 3 5 5 5 5 5 5 5 5 5 5 5 5 3 5 5 5 5 5 5 5 3 3 5 3 5 3 5 5 5 5 5 5 5 5 5 5 5 5 5 5 5 3 5 3 5 5 5 5 5 5 5 5 3 5 3 5 3 5 3 5 3 5 5 3 5 5 5 5 5 3 5 5 5 5 5 5 5 5 3 5 5 5 5 5 3 5 5 3 5 3 3 5 5 5 5 5 5 5 5 3 5 5 5 5 5 5 5 5 5 5 5 5 5 3 5 5 5 5 5 5 5 3 5 5 5 3 5 5 5 5 5 5 5 5 5 5 5 5 5 5 5 5 5 3 5 5 5 5 5 5 5 3 5 5 3 5 5 5 5 5 5 5 5 5 5 5 5 5 5 5 3 5 5 5 5 3 5 5 5 5 5 5 5 5 5 5 5 5 5 5 5 5 5 5 5 5 5 5 5 5 5 3 5 5 5 5 5 5 3 5 5 5 5 5 5 5 5 5 3 3 5 5 5 3 5 3 5 5 5 5 5 5 5 5 5 5 5 5 5 5 5 3 5 5 5 5 5 5 5 5 5 5 5 5 3 3 5 5 5 5 5 5 5 5 3 5 5 3 5 5 3 3 5 5 5 5 5 5 5 3 5 5 5 5 5 5 5 5 5 3 5 5 5 3 5 5 5 5 5 3 5 5 5 5 5 5 5 5 5 5 5 5 3 5 5 5 3 5 5 5 3 5 5 5 5 5 5 5 5 5 5 5 5 5 5 5 5 5 5 5 5 5 5 5 5 5 5 5 5 5 5 5 5 3 5 5 5 5 5 5 5 5 5 5 5 5 5 5 5 5 5 5 5 5 5 5 5 5 3 5 3 5 5 3 5 5 5 5 5 5 5 5 5 3 5 5 5 5 5 5 5 5 5 5 5 5 5 5 3 5 5 5 5 3 5 5 5 3 5 5 5 5 5 5 5 5 5 5 5 5 5 5 5 5 5 5 5 5 5 5 5 5 5 5 5 5 5 5 5 5 5 5 5 5 5 5 5 5 5 5 5 5 5 5 5 5 5 5 5 5 5 5 5 5 5 5 5 5 5 5 5 5 5 5 5 5 5 5 5 5 5 5 5 5 5 5 5 5 5 5 5 5 5 5 5 5 5 5 5 5 5 5 5 5 5 5 5 5 5 5 5 5 5 5 5 5 5 5 5 5 5 5 5 5 5 5 5 5 5 5 5 5 5 5 5 5 5 5 5 5 5 5 5 5 5 5 5 5 5 5 5 5 5 5 5 5 5 5 5 5 5 5 5 5 5 5 5 5 5 5 5 5 5 5 5 5 5 5 5 5 5 5 5 5 5 5 5 5 5 5 5 5 5 5 5 5 5 3 5 5 5 5 5 5 5 5 5 5 5 5 5 5 5 5 3 5 5 5 5 5 5 5 5 3 5 5 5 5 3 5 5 5 5 5 5 5 5 5 5 5 5 5 5 5 5 5 5 5 5 5 5 3 5 5 5 5 5 5 5 5 5 5 5 5 5 3 3 5 5 5 5 5 3 5 3 5 5 5 5 5 5 5 5 5 5 5 3 5 5 5 5 5 5 5 3 5 5 5 5 5 5 5 5 5 5 5 5 5 5 5 3 3 5 5 5 5 5 5 5 5 5 5 5 5 3 5 5 5 5 5 5 5 5 5 5 5 5 5 5 5 5 3 5 5 5 5 5 5 5 3 5 5 5 5 5 5 5 5 5 5 3 3 5 5 5 5 5 5 5 5 5 5 5 5 5 5 5 5 5 5 5 5 5 5 5 5 5 5 5 5 5 5 3 5 5 5 5 5 3 5 5 5 5 5 5 5 5 5 5 3 5 5 5 5 3 5 5 5 5 5 5 5 5 5 5 3 5 3 5 5 5 5 5 5 5 5 5 5 5 5 5 5 5 5 5 5 5 5 5 5 5 5 5 5 5 5 5 5 5 3 5 5 5 5 5 3 5 5 5 5 5 5 5 5 5 5 5 5 5 5 5 5 5 5 3 5 5 3 5 5 5 3 5 5 5 5 5 3 5 5 5 5 5 5 5 5 5 5 3 5 5 5 5 5 5 3 5 5 5 5 5 3 3 5 5 3 5 5 3 5 5 5 5 5 5 5 5 5 5 3 5 5 3 5 5 3 5 5 3 5 5 3 5 5 3 5 5 5 5 5 5 3 5 5 5 5 5 5 5 5 5 5 5 3 5 5 5 5 5 5 5 3 5 5 5 5 3 5 5 5 3 5 5 5 5 5 5 5 5 5 5 5 3 5 5 5 5 5 5 5 5 5 5 5 5 5 5 5 5 5 5 5 5 5 5 5 5 3 5 5 5 5 5 3 5 5 5 5 5 5 5 5 5 5 5 5 5 5 3 5 5 3 5 3 5 5 5 5 3 5 3 3 5 3 5 5 5 5 5 5 5 3 5 3 5 5 5 5 5 5 3 5 5 5 5 5 5 3 5 5 5 5 3 5 5 5 5 5 3 5 5 3 5 5 5 5 3 5 5 5 5 3 5 5 5 5 5 5 3 5 5 5 5 5 5 5 5 5 3 5 5 5 5 5 5 3 5 5 5 5 3 5 5 5 5 5 5 5 5 5 5 5 5 5 5 5 5 3 5 5 5 3 5 5 3 5 5 5 5 5 5 5 5 5 5 5 5 5 5 5 5 3 5 3 5 5 5 5 5 5 5 5 5 5 5 5 5 5 5 5 5 5 5 5 5 5 5 5 5 5 3 5 5 3 5 5 5 5 5 5 5 5 5 5 3 5 5 5 5 3 5 5 5 5 3 5 5 5 5 5 5 5 5 5 3 5 5 5 5 5 5 5 5 5 5 5 5 5 5 5 5 5 5 5 5 5 5 5 5 5 5 5 5 
</DataArray>
</Cells>
<PointData Scalars="" Vectors="displacement," Tensors="">
<DataArray type="Float64" Name="displacement" NumberOfComponents="3" format="ascii">
-1.6640226378007353e-06 -0.034996806684353274 0 -0.00017285589840671664 -0.032705782193880359 0 3.4756630765803611e-06 -0.02950078925626981 0 -1.6640226378007353e-06 -0.034996806684353274 0 -0.0001568636518782708 -0.034191280778721987 0 -0.00017285589840671664 -0.032705782193880359 0 -1.6640226378007353e-06 -0.034996806684353274 0 -0.0001568636518782708 -0.034191280778721987 0 7.5919350913180548e-09 -0.0349990964190817 0 -0.0001568636518782708 -0.034191280778721987 0 7.5919350913180548e-09 -0.0349990964190817 0 -9.4692392073161352e-05 -0.034161570397041083 0 7.5919350913180548e-09 -0.0349990964190817 0 -9.4692392073161352e-05 -0.034161570397041083 0 -7.1780375337664832e-05 -0.03473020671818064 0 -0.00012789366890497125 -0.033903526325465165 0 0.00053507288145121035 -0.034473509731384994 0 -9.4692392073161352e-05 -0.034161570397041083 0 0.0003183750001329237 -0.034102875164946138 0 0.00034198606745437706 -0.034235093870471134 0 -9.4692392073161352e-05 -0.034161570397041083 0 0.00034198606745437706 -0.034235093870471134 0 0.00015930351929954246 -0.034473634634195761 0 -0.0001568636518782708 -0.034191280778721987 0 -9.4692392073161352e-05 -0.034161570397041083 0 -0.00017285589840671664 -0.032705782193880359 0 -9.4692392073161352e-05 -0.034161570397041083 0 -0.00017285589840671664 -0.032705782193880359 0 0.00059981624299845966 -0.033330611500833864 0 -0.00017285589840671664 -0.032705782193880359 0 0.0012858449968242511 -0.031592159611067212 0 0.00059981624299845966 -0.033330611500833864 0 -0.00017285589840671664 -0.032705782193880359 0 3.4756630765803611e-06 -0.02950078925626981 0 0.0012858449968242511 -0.031592159611067212 0 1.9702984303629621e-06 -0.029489668851721353 0 0.00030380445308865884 -0.027208159301483452 0 -8.2180420277921378e-07 -0.027572050551949577 0 9.3792047292674707e-08 -0.029492119615473194 0 0.00082991778154663882 -0.029569853940949804 0 -8.2180420277921378e-07 -0.027572050551949577 0 -7.5138766980451045e-05 -0.026493903097150513 0 -0.00016424180646111439 -0.025780484307127725 0 -8.2180420277921378e-07 -0.027572050551949577 0 -2.4927161485656655e-07 -0.025651171481514703 0 -0.00016424180646111439 -0.025780484307127725 0 0.00030380445308865884 -0.027208159301483452 0 -8.2180420277921378e-07 -0.027572050551949577 0 -7.5138766980451045e-05 -0.026493903097150513 0 0.00030380445308865884 -0.027208159301483452 0 -7.5138766980451045e-05 -0.026493903097150513 0 0.00013648839567362812 -0.026248659209637933 0 0.00082991778154663882 -0.029569853940949804 0 0.00029711428045539232 -0.02855384908262391 0 -7.5138766980451045e-05 -0.026493903097150513 0 -0.00020206735398876636 -0.025997972407172019 0 0.00013648839567362812 -0.026248659209637933 0 -7.5138766980451045e-05 -0.026493903097150513 0 -0.00020206735398876636 -0.025997972407172019 0 -0.00016424180646111439 -0.025780484307127725 0 -0.00052508207948661863 -0.022963156789742097 0 0.00029711428045539232 -0.02855384908262391 0 -0.00046313757302974314 -0.02087103026595857 0 -0.0012129981225253586 -0.021684541516264099 0 -0.0021942697763695541 -0.021323124217519678 0 -0.00046313757302974314 -0.02087103026595857 0 -0.0012129981225253586 -0.021684541516264099 0 -0.00038418636350613124 -0.021809175396039361 0 -0.0012129981225253586 -0.021684541516264099 0 -0.0021942697763695541 -0.021323124217519678 0 -0.0014406162043788344 -0.022708915067310566 0 0.00030366245406117598 -0.034198661095624257 0 0.00010818039852307523 -0.034152003350643716 0 0.0003595009031268795 -0.034170711521652956 0 0.00029711428045539232 -0.02855384908262391 0 -0.00084704057841280276 -0.028227857824535931 0 0.00010818039852307523 -0.034152003350643716 0 0.0003595009031268795 -0.034170711521652956 0 0.00031674836350242347 -0.034102935122041246 0 -0.0014406162043788344 -0.022708915067310566 0 -0.00038418636350613124 -0.021809175396039361 0 -0.00012122335328901356 -0.022740851065536853 0 -0.0012129981225253586 -0.021684541516264099 0 -0.0014406162043788344 -0.022708915067310566 0 -0.00038418636350613124 -0.021809175396039361 0 0.00030366245406117598 -0.034198661095624257 0 0.0003183750001329237 -0.034102875164946138 0 0.0003595009031268795 -0.034170711521652956 0 0.00029711428045539232 -0.02855384908262391 0 0.00053507288145121035 -0.034473509731384994 0 0.0012858449968242511 -0.031592159611067212 0 0.0019703645477668441 -0.032720959331963791 0 0.00059981624299845966 -0.033330611500833864 0 0.0003595009031268795 -0.034170711521652956 0 0.00034198606745437706 -0.034235093870471134 0 0.00040045982874209072 -0.03417462706795938 0 0.0003595009031268795 -0.034170711521652956 0 0.00040045982874209072 -0.03417462706795938 0 0.00031674836350242347 -0.034102935122041246 0 0.0003183750001329237 -0.034102875164946138 0 0.0003595009031268795 -0.034170711521652956 0 0.00034198606745437706 -0.034235093870471134 0 0.00034198606745437706 -0.034235093870471134 0 0.00031760550831087624 -0.034361929666941085 0 0.00015930351929954246 -0.034473634634195761 0 0.00031760550831087624 -0.034361929666941085 0 0.00028383084090993082 -0.034534443866913067 0 0.00015930351929954246 -0.034473634634195761 0 0.00031760550831087624 -0.034361929666941085 0 0.00037866098516301769 -0.034319642739815442 0 0.00036960016322453842 -0.034420982337825985 0 0.00031760550831087624 -0.034361929666941085 0 0.00039247132319663333 -0.03423375221019901 0 0.00037866098516301769 -0.034319642739815442 0 0.00034198606745437706 -0.034235093870471134 0 0.00031760550831087624 -0.034361929666941085 0 0.00039247132319663333 -0.03423375221019901 0 0.00034198606745437706 -0.034235093870471134 0 0.00040045982874209072 -0.03417462706795938 0 0.00039247132319663333 -0.03423375221019901 0 0.00040045982874209072 -0.03417462706795938 0 0.00039247132319663333 -0.03423375221019901 0 0.0004807556436595113 -0.034139440192413203 0 0.00040045982874209072 -0.03417462706795938 0 0.0004807556436595113 -0.034139440192413203 0 0.00031674836350242347 -0.034102935122041246 0 0.0004807556436595113 -0.034139440192413203 0 0.00031674836350242347 -0.034102935122041246 0 0.00032855383529397248 -0.033904243699035663 0 0.00053263565298554633 -0.034128376023842381 0 0.00056359964122481264 -0.03413975948734483 0 0.0004807556436595113 -0.034139440192413203 0 0.00043822756163884472 -0.034266412064809383 0 0.00058865651877055604 -0.034506122517219198 0 0.0004807556436595113 -0.034139440192413203 0 0.00054499479282264405 -0.033779854614141784 0 0.00032855383529397248 -0.033904243699035663 0 0.00055641559368086629 -0.034265243730272878 0 0.00056359964122481264 -0.03413975948734483 0 0.00043822756163884472 -0.034266412064809383 0 0.00036960016322453842 -0.034420982337825985 0 0.00050966037750417483 -0.034428884806398594 0 0.00039247132319663333 -0.03423375221019901 0 0.00037866098516301769 -0.034319642739815442 0 0.00043822756163884472 -0.034266412064809383 0 0.00039247132319663333 -0.03423375221019901 0 0.0004807556436595113 -0.034139440192413203 0 0.00043822756163884472 -0.034266412064809383 0 0.00037866098516301769 -0.034319642739815442 0 0.00043822756163884472 -0.034266412064809383 0 0.00036960016322453842 -0.034420982337825985 0 0.00036960016322453842 -0.034420982337825985 0 0.00050966037750417483 -0.034428884806398594 0 0.0003907087558668823 -0.034576191245671885 0 0.00056359964122481264 -0.03413975948734483 0 0.00059764109468249166 -0.0342463605866739 0 0.00050966037750417483 -0.034428884806398594 0 0.0003907087558668823 -0.034576191245671885 0 0.00051472471654350437 -0.034716315317587121 0 0.0003907087558668823 -0.034576191245671885 0 0.00028383084090993082 -0.034534443866913067 0 0.00029772651000644284 -0.034738470027952842 0 0.00028383084090993082 -0.034534443866913067 0 0.00029772651000644284 -0.034738470027952842 0 0.00015732874520517056 -0.034626095219878424 0 0.00036960016322453842 -0.034420982337825985 0 0.0003907087558668823 -0.034576191245671885 0 0.00028383084090993082 -0.034534443866913067 0 0.00031760550831087624 -0.034361929666941085 0 0.00036960016322453842 -0.034420982337825985 0 0.00028383084090993082 -0.034534443866913067 0 0.00010818039852307523 -0.034152003350643716 0 -0.00029326108627607207 -0.033775026359251517 0 0.00011190661195734258 -0.033880606043216778 0 -0.0014406162043788344 -0.022708915067310566 0 -0.0006844614130035833 -0.024185877270052173 0 -0.00012122335328901356 -0.022740851065536853 0 -0.00084704057841280276 -0.028227857824535931 0 -0.0004771124315153075 -0.02894030881921876 0 -0.00029326108627607207 -0.033775026359251517 0 0.00011190661195734258 -0.033880606043216778 0 -5.1065561548000665e-05 -0.033606913084060636 0 0.00010818039852307523 -0.034152003350643716 0 0.00011190661195734258 -0.033880606043216778 0 0.00031674836350242347 -0.034102935122041246 0 0.00011190661195734258 -0.033880606043216778 0 0.00031674836350242347 -0.034102935122041246 0 0.00032855383529397248 -0.033904243699035663 0 0.00054499479282264405 -0.033779854614141784 0 0.00021356123637320993 -0.033540398591890085 0 0.00027795462928765271 -0.033050153667252294 0 0.00056359964122481264 -0.03413975948734483 0 0.00031297125619655361 -0.0334238927951135 0 0.00011190661195734258 -0.033880606043216778 0 0.00032855383529397248 -0.033904243699035663 0 0.00021356123637320993 -0.033540398591890085 0 0.00054499479282264405 -0.033779854614141784 0 0.00032855383529397248 -0.033904243699035663 0 0.00021356123637320993 -0.033540398591890085 0 0.00011190661195734258 -0.033880606043216778 0 0.00021356123637320993 -0.033540398591890085 0 -5.1065561548000665e-05 -0.033606913084060636 0 0.00021356123637320993 -0.033540398591890085 0 -5.1065561548000665e-05 -0.033606913084060636 0 -0.00024257574469851962 -0.033223088611999844 0 -0.00029326108627607207 -0.033775026359251517 0 -0.00024257574469851962 -0.033223088611999844 0 -0.00064995326498450731 -0.033185926388249826 0 -0.00029326108627607207 -0.033775026359251517 0 -5.1065561548000665e-05 -0.033606913084060636 0 -0.00024257574469851962 -0.033223088611999844 0 -0.00024257574469851962 -0.033223088611999844 0 -0.00012344053524543274 -0.032844940815285474 0 0.00027795462928765271 -0.033050153667252294 0 -0.00024257574469851962 -0.033223088611999844 0 -0.00012344053524543274 -0.032844940815285474 0 -0.00045078354654772213 -0.032783183159763904 0 0.00021356123637320993 -0.033540398591890085 0 -0.00024257574469851962 -0.033223088611999844 0 0.00027795462928765271 -0.033050153667252294 0 0.00031297125619655361 -0.0334238927951135 0 0.00038705220165004338 -0.032017943682170126 0 0.00040196397640776597 -0.033638376214902711 0 0.00055920193509627261 -0.033071606929336375 0 8.4094407657706987e-05 -0.03307140283791532 0 0.00040196397640776597 -0.033638376214902711 0 0.00055920193509627261 -0.033071606929336375 0 0.00063880724700362222 -0.033636723350481255 0 0.00043277791744212696 -0.033817371886811866 0 0.00038705220165004338 -0.032017943682170126 0 -8.1822121539923339e-05 -0.032317022423382115 0 -0.00045078354654772213 -0.032783183159763904 0 -0.00061920867576901746 -0.032306627774223051 0 -0.00012344053524543274 -0.032844940815285474 0 -8.1822121539923339e-05 -0.032317022423382115 0 -0.00045078354654772213 -0.032783183159763904 0 0.00038705220165004338 -0.032017943682170126 0 -7.9535389481262119e-05 -0.031108280883986268 0 -0.00012344053524543274 -0.032844940815285474 0 0.00027795462928765271 -0.033050153667252294 0 -8.1822121539923339e-05 -0.032317022423382115 0 0.00071793004013869909 -0.03419711654210851 0 0.00040196397640776597 -0.033638376214902711 0 0.00063880724700362222 -0.033636723350481255 0 0.0003907087558668823 -0.034576191245671885 0 0.00029772651000644284 -0.034738470027952842 0 0.00051472471654350437 -0.034716315317587121 0 0.00053801481587395462 -0.034932561149497249 0 0.00029772651000644284 -0.034738470027952842 0 0.00051472471654350437 -0.034716315317587121 0 0.00043277791744212696 -0.033817371886811866 0 0.00059764109468249166 -0.0342463605866739 0 0.00053801481587395462 -0.034932561149497249 0 0.00029772651000644284 -0.034738470027952842 0 0.00023731157698747121 -0.034937490626026461 0 0.00029772651000644284 -0.034738470027952842 0 0.00013754630124337435 -0.034772349940795283 0 0.00023731157698747121 -0.034937490626026461 0 0.00013754630124337435 -0.034772349940795283 0 -2.8062479671929943e-05 -0.034938157401106472 0 0.00023731157698747121 -0.034937490626026461 0 0.00029772651000644284 -0.034738470027952842 0 0.00013754630124337435 -0.034772349940795283 0 0.00015732874520517056 -0.034626095219878424 0 0.00013754630124337435 -0.034772349940795283 0 4.5870380440178973e-05 -0.034684712109164823 0 0.00015732874520517056 -0.034626095219878424 0 3.1509004641256413e-05 -0.034796323228292264 0 -2.7986864742652531e-05 -0.03492704956066181 0 -3.2684725180424229e-05 -0.034782961515339175 0 1.2404599004119655e-05 -0.034982355316286247 0 9.7624635912808192e-06 -0.034992232479221466 0 1.0242244867465327e-06 -0.034992620949919714 0 4.3219224833303987e-05 -0.034819054475180772 0 -2.4079720868644472e-05 -0.034970867097297853 0 4.3219224833303987e-05 -0.034819054475180772 0 4.4468469058204761e-05 -0.034810165017777041 0 4.3219224833303987e-05 -0.034819054475180772 0 6.379601060805358e-06 -0.034914172140204675 0 0.00013754630124337435 -0.034772349940795283 0 4.5870380440178973e-05 -0.034684712109164823 0 8.358949506221746e-06 -0.034807916376120532 0 0.00013754630124337435 -0.034772349940795283 0 8.358949506221746e-06 -0.034807916376120532 0 -2.8062479671929943e-05 -0.034938157401106472 0 6.379601060805358e-06 -0.034914172140204675 0 2.1586842612899491e-05 -0.034897343034709122 0 9.7624635912808192e-06 -0.034992232479221466 0 4.3187202644111393e-06 -0.034995220736233054 0 7.052573694830125e-06 -0.034999021000870933 0 4.3187202644111393e-06 -0.034995220736233054 0 1.0242244867465327e-06 -0.034992620949919714 0 1.4218250601263906e-06 -0.03499878848044749 0 1.0242244867465327e-06 -0.034992620949919714 0 1.3091498886102325e-07 -0.034999480227626389 0 1.4218250601263906e-06 -0.03499878848044749 0 4.3187202644111393e-06 -0.034995220736233054 0 1.4218250601263906e-06 -0.03499878848044749 0 7.052573694830125e-06 -0.034999021000870933 0 9.7624635912808192e-06 -0.034992232479221466 0 4.3187202644111393e-06 -0.034995220736233054 0 1.0242244867465327e-06 -0.034992620949919714 0 -5.4021299889139793e-09 -0.034999981253469696 0 -2.4079720868644472e-05 -0.034970867097297853 0 -4.4111995981315931e-09 -0.034999993149836948 0 1.0242244867465327e-06 -0.034992620949919714 0 1.3091498886102325e-07 -0.034999480227626389 0 5.7485308284323874e-08 -0.034999980575258119 0 -2.7986864742652531e-05 -0.03492704956066181 0 -1.5022044392940375e-07 -0.034999816672064324 0 -2.7986864742652531e-05 -0.03492704956066181 0 -3.2684725180424229e-05 -0.034782961515339175 0 -1.5022044392940375e-07 -0.034999816672064324 0 -3.2684725180424229e-05 -0.034782961515339175 0 -1.5022044392940375e-07 -0.034999816672064324 0 -7.1780375337664832e-05 -0.03473020671818064 0 7.5919350913180548e-09 -0.0349990964190817 0 -1.5022044392940375e-07 -0.034999816672064324 0 -7.1780375337664832e-05 -0.03473020671818064 0 -3.2684725180424229e-05 -0.034782961515339175 0 -7.1780375337664832e-05 -0.03473020671818064 0 -1.3687653284636654e-05 -0.034583426744044521 0 -9.4692392073161352e-05 -0.034161570397041083 0 -7.1780375337664832e-05 -0.03473020671818064 0 -1.3687653284636654e-05 -0.034583426744044521 0 -9.4692392073161352e-05 -0.034161570397041083 0 -1.3687653284636654e-05 -0.034583426744044521 0 0.00015930351929954246 -0.034473634634195761 0 -1.3687653284636654e-05 -0.034583426744044521 0 0.00015930351929954246 -0.034473634634195761 0 5.5913732412134167e-05 -0.034646917613954824 0 0.00015930351929954246 -0.034473634634195761 0 0.00015732874520517056 -0.034626095219878424 0 5.5913732412134167e-05 -0.034646917613954824 0 0.00028383084090993082 -0.034534443866913067 0 0.00015930351929954246 -0.034473634634195761 0 0.00015732874520517056 -0.034626095219878424 0 3.3681553688184641e-05 -0.034806986744825769 0 0.00015732874520517056 -0.034626095219878424 0 3.7987460913509427e-05 -0.034769170039765575 0 0.00015732874520517056 -0.034626095219878424 0 3.7987460913509427e-05 -0.034769170039765575 0 5.5913732412134167e-05 -0.034646917613954824 0 4.3219224833303987e-05 -0.034819054475180772 0 0.00014923393123789103 -0.034654978052609448 0 -3.2684725180424229e-05 -0.034782961515339175 0 3.7987460913509427e-05 -0.034769170039765575 0 5.5913732412134167e-05 -0.034646917613954824 0 3.1509004641256413e-05 -0.034796323228292264 0 -3.2684725180424229e-05 -0.034782961515339175 0 3.7987460913509427e-05 -0.034769170039765575 0 -3.2684725180424229e-05 -0.034782961515339175 0 -1.3687653284636654e-05 -0.034583426744044521 0 5.5913732412134167e-05 -0.034646917613954824 0 0.0003192308605995172 -0.018654933035012117 0 0.0012750246393983793 -0.017256890404031645 0 0.00058666146608403588 -0.017372480636129835 0 0.00067602016394166281 -0.0166833914277673 0 0.00034825757433038591 -0.017137393705180772 0 -8.2825611769968838e-05 -0.019674665587145021 0 0.00021671452499255058 -0.019610757651076619 0 0.00015198744227053751 -0.019761678230002803 0 -8.2825611769968838e-05 -0.019674665587145021 0 -2.7780556228413438e-05 -0.019723019292896844 0 0.00015198744227053751 -0.019761678230002803 0 -8.2825611769968838e-05 -0.019674665587145021 0 -4.6663841068984658e-05 -0.019635030906451495 0 -2.7780556228413438e-05 -0.019723019292896844 0 -8.2825611769968838e-05 -0.019674665587145021 0 -7.1724096862686146e-05 -0.019356000574239664 0 -0.00015584745082414234 -0.019716394474389328 0 -8.2825611769968838e-05 -0.019674665587145021 0 -7.1724096862686146e-05 -0.019356000574239664 0 0.00021671452499255058 -0.019610757651076619 0 0.0003192308605995172 -0.018654933035012117 0 0.00024874276021598992 -0.018379923108292558 0 -7.1724096862686146e-05 -0.019356000574239664 0 0.00021671452499255058 -0.019610757651076619 0 0.00019493701632601178 -0.018487675213186821 0 0.00058666146608403588 -0.017372480636129835 0 0.00019493701632601178 -0.018487675213186821 0 3.9167309585071391e-05 -0.017714710105541813 0 0.00019493701632601178 -0.018487675213186821 0 -3.0131876416971773e-07 -0.017968574099465996 0 -9.6918521470822018e-05 -0.019274108416432182 0 0.00019493701632601178 -0.018487675213186821 0 -3.0131876416971773e-07 -0.017968574099465996 0 -1.8750754474946936e-05 -0.017547132646470665 0 -3.0131876416971773e-07 -0.017968574099465996 0 -9.6918521470822018e-05 -0.019274108416432182 0 -3.3082808476260705e-07 -0.019889493797224631 0 -7.1724096862686146e-05 -0.019356000574239664 0 0.00019493701632601178 -0.018487675213186821 0 -9.6918521470822018e-05 -0.019274108416432182 0 -7.1724096862686146e-05 -0.019356000574239664 0 -9.6918521470822018e-05 -0.019274108416432182 0 -0.00015584745082414234 -0.019716394474389328 0 -0.00015584745082414234 -0.019716394474389328 0 -6.3239387346785935e-05 -0.02029745252709865 0 -7.613235842751638e-06 -0.0202278681972035 0 -9.6918521470822018e-05 -0.019274108416432182 0 -0.00015584745082414234 -0.019716394474389328 0 -6.3239387346785935e-05 -0.02029745252709865 0 -3.3082808476260705e-07 -0.019889493797224631 0 -6.3239387346785935e-05 -0.02029745252709865 0 4.5440734853707989e-07 -0.0218100020691246 0 -9.6918521470822018e-05 -0.019274108416432182 0 -3.3082808476260705e-07 -0.019889493797224631 0 -6.3239387346785935e-05 -0.02029745252709865 0 -6.3239387346785935e-05 -0.02029745252709865 0 4.5440734853707989e-07 -0.0218100020691246 0 0.00015497798219883975 -0.021093859511570254 0 0.00015497798219883975 -0.021093859511570254 0 -7.613235842751638e-06 -0.0202278681972035 0 0.00055927157129869256 -0.020514073158366352 0 -6.3239387346785935e-05 -0.02029745252709865 0 0.00015497798219883975 -0.021093859511570254 0 -7.613235842751638e-06 -0.0202278681972035 0 -7.613235842751638e-06 -0.0202278681972035 0 0.00026795791815135468 -0.020044014999546205 0 0.00055927157129869256 -0.020514073158366352 0 0.00026795791815135468 -0.020044014999546205 0 0.00019442533980079614 -0.0197159295504012 0 0.00049874367030842655 -0.019868449031444465 0 0.00026795791815135468 -0.020044014999546205 0 -6.00133059835337e-05 -0.019811428208831163 0 0.00019442533980079614 -0.0197159295504012 0 -7.613235842751638e-06 -0.0202278681972035 0 0.00026795791815135468 -0.020044014999546205 0 -6.00133059835337e-05 -0.019811428208831163 0 -8.2825611769968838e-05 -0.019674665587145021 0 -0.00015584745082414234 -0.019716394474389328 0 -6.00133059835337e-05 -0.019811428208831163 0 -0.00015584745082414234 -0.019716394474389328 0 -7.613235842751638e-06 -0.0202278681972035 0 -6.00133059835337e-05 -0.019811428208831163 0 -8.2825611769968838e-05 -0.019674665587145021 0 -6.00133059835337e-05 -0.019811428208831163 0 -4.6663841068984658e-05 -0.019635030906451495 0 -6.00133059835337e-05 -0.019811428208831163 0 -4.6663841068984658e-05 -0.019635030906451495 0 0.00019442533980079614 -0.0197159295504012 0 -4.6663841068984658e-05 -0.019635030906451495 0 0.00019442533980079614 -0.0197159295504012 0 0.00024054276065504029 -0.01942879634412004 0 0.00019442533980079614 -0.0197159295504012 0 0.00061883640223632324 -0.019522162297617267 0 0.00024054276065504029 -0.01942879634412004 0 0.00019442533980079614 -0.0197159295504012 0 0.00049874367030842655 -0.019868449031444465 0 0.00061883640223632324 -0.019522162297617267 0 0.00061688337858065644 -0.019414715602740763 0 0.00091414902562279615 -0.02001952454226533 0 0.00067223175998415983 -0.019415713258773722 0 0.0012961092161227641 -0.019367193310304332 0 0.00093463580857734458 -0.020051735747511127 0 0.00049874367030842655 -0.019868449031444465 0 0.00061883640223632324 -0.019522162297617267 0 0.00093463580857734458 -0.020051735747511127 0 0.0010644668099116469 -0.021302316188434259 0 0.00097377692206552927 -0.021063878245957676 0 0.0010416637126244397 -0.020571111693784273 0 0.0014294975910769437 -0.021095959579379684 0 0.0012249574316910972 -0.021659954403867438 0 0.0010644668099116469 -0.021302316188434259 0 0.00097377692206552927 -0.021063878245957676 0 0.00076874870746689548 -0.021067293080808545 0 0.00097377692206552927 -0.021063878245957676 0 0.0010416637126244397 -0.020571111693784273 0 0.00097788365337786736 -0.020722577250048724 0 0.0014294975910769437 -0.021095959579379684 0 0.0010050942606836303 -0.020255522270172237 0 0.0012961092161227641 -0.019367193310304332 0 0.0010416637126244397 -0.020571111693784273 0 0.00093463580857734458 -0.020051735747511127 0 0.00097377692206552927 -0.021063878245957676 0 0.00092740853179618132 -0.020870329156803345 0 0.00082922840434349748 -0.020946435400912407 0 0.00097377692206552927 -0.021063878245957676 0 0.00092740853179618132 -0.020870329156803345 0 0.00097788365337786736 -0.020722577250048724 0 0.00092740853179618132 -0.020870329156803345 0 0.00091198517700951179 -0.020766158667322236 0 0.00082922840434349748 -0.020946435400912407 0 0.00092740853179618132 -0.020870329156803345 0 0.00091198517700951179 -0.020766158667322236 0 0.00097788365337786736 -0.020722577250048724 0 0.0010416637126244397 -0.020571111693784273 0 0.00064703012920764615 -0.020201717744235344 0 0.00055927157129869256 -0.020514073158366352 0 0.0010416637126244397 -0.020571111693784273 0 0.00093463580857734458 -0.020051735747511127 0 0.00064703012920764615 -0.020201717744235344 0 0.00026795791815135468 -0.020044014999546205 0 0.00049874367030842655 -0.019868449031444465 0 0.00064703012920764615 -0.020201717744235344 0 0.00049874367030842655 -0.019868449031444465 0 0.00093463580857734458 -0.020051735747511127 0 0.00064703012920764615 -0.020201717744235344 0 0.00026795791815135468 -0.020044014999546205 0 0.00064703012920764615 -0.020201717744235344 0 0.00055927157129869256 -0.020514073158366352 0 0.00015497798219883975 -0.021093859511570254 0 0.00055927157129869256 -0.020514073158366352 0 0.0010797444626272268 -0.02065849005130347 0 8.7856997849648823e-05 -0.021340020641478559 0 0.0004375666266937574 -0.022033819781536141 0 0.00015497798219883975 -0.021093859511570254 0 0.00010484251765953717 -0.022365050798764923 0 7.8075577038878039e-05 -0.023470594349673024 0 0.0010416637126244397 -0.020571111693784273 0 0.00055927157129869256 -0.020514073158366352 0 0.0010797444626272268 -0.02065849005130347 0 4.5440734853707989e-07 -0.0218100020691246 0 -4.3570437853290313e-08 -0.023730886273482996 0 5.4362758530151402e-05 -0.023110752781912238 0 4.5440734853707989e-07 -0.0218100020691246 0 0.00010484251765953717 -0.022365050798764923 0 5.4362758530151402e-05 -0.023110752781912238 0 4.5440734853707989e-07 -0.0218100020691246 0 0.00015497798219883975 -0.021093859511570254 0 0.00010484251765953717 -0.022365050798764923 0 0.00010484251765953717 -0.022365050798764923 0 5.4362758530151402e-05 -0.023110752781912238 0 7.8075577038878039e-05 -0.023470594349673024 0 5.4362758530151402e-05 -0.023110752781912238 0 7.8075577038878039e-05 -0.023470594349673024 0 -6.7056815561833321e-05 -0.024421437217165359 0 -4.3570437853290313e-08 -0.023730886273482996 0 5.4362758530151402e-05 -0.023110752781912238 0 -6.7056815561833321e-05 -0.024421437217165359 0 0.0004375666266937574 -0.022033819781536141 0 0.00027443185102078054 -0.02286639097068412 0 7.8075577038878039e-05 -0.023470594349673024 0 -0.00011215179427887244 -0.025007972057001886 0 -6.7056815561833321e-05 -0.024421437217165359 0 0.00091198517700951179 -0.020766158667322236 0 0.0010797444626272268 -0.02065849005130347 0 0.00076439991386231278 -0.020641147745973129 0 0.0010416637126244397 -0.020571111693784273 0 0.00097788365337786736 -0.020722577250048724 0 0.0010797444626272268 -0.02065849005130347 0 0.00091198517700951179 -0.020766158667322236 0 0.00097788365337786736 -0.020722577250048724 0 0.0010797444626272268 -0.02065849005130347 0 -0.00011215179427887244 -0.025007972057001886 0 -6.7056815561833321e-05 -0.024421437217165359 0 -0.00016424180646111439 -0.025780484307127725 0 -4.3570437853290313e-08 -0.023730886273482996 0 -6.7056815561833321e-05 -0.024421437217165359 0 -2.4927161485656655e-07 -0.025651171481514703 0 -6.7056815561833321e-05 -0.024421437217165359 0 -2.4927161485656655e-07 -0.025651171481514703 0 -0.00016424180646111439 -0.025780484307127725 0 -0.00020206735398876636 -0.025997972407172019 0 -0.00011215179427887244 -0.025007972057001886 0 -0.00016424180646111439 -0.025780484307127725 0 -0.00052508207948661863 -0.022963156789742097 0 0.00027443185102078054 -0.02286639097068412 0 -0.00046313757302974314 -0.02087103026595857 0 -0.00038418636350613124 -0.021809175396039361 0 0.00037834852386135488 -0.021102488512168813 0 -0.00046313757302974314 -0.02087103026595857 0 0.00076439991386231278 -0.020641147745973129 0 0.00037834852386135488 -0.021102488512168813 0 -0.00038418636350613124 -0.021809175396039361 0 0.00037834852386135488 -0.021102488512168813 0 0.00039470459249597818 -0.021961649747129899 0 0.00076439991386231278 -0.020641147745973129 0 0.00037834852386135488 -0.021102488512168813 0 0.00072916419093043718 -0.020933983488296452 0 0.00091198517700951179 -0.020766158667322236 0 0.00076439991386231278 -0.020641147745973129 0 0.00072916419093043718 -0.020933983488296452 0 0.00091198517700951179 -0.020766158667322236 0 0.00072916419093043718 -0.020933983488296452 0 0.00082922840434349748 -0.020946435400912407 0 0.00072916419093043718 -0.020933983488296452 0 0.00082922840434349748 -0.020946435400912407 0 0.00076874870746689548 -0.021067293080808545 0 0.00037834852386135488 -0.021102488512168813 0 0.001529938570882849 -0.022045590901304028 0 0.00039470459249597818 -0.021961649747129899 0 0.00037834852386135488 -0.021102488512168813 0 0.00072916419093043718 -0.020933983488296452 0 0.00076874870746689548 -0.021067293080808545 0 0.00043087481604778114 -0.02108237657427087 0 0.0012249574316910972 -0.021659954403867438 0 0.001529938570882849 -0.022045590901304028 0 0.00085526591248109786 -0.022477885647058476 0 0.00039470459249597818 -0.021961649747129899 0 0.00097377692206552927 -0.021063878245957676 0 0.00082922840434349748 -0.020946435400912407 0 0.00076874870746689548 -0.021067293080808545 0 0.001529938570882849 -0.022045590901304028 0 0.0016457155239689568 -0.022523869855679286 0 0.00085526591248109786 -0.022477885647058476 0 0.0024259566427277859 -0.022832869679452486 0 0.001529938570882849 -0.022045590901304028 0 0.0016457155239689568 -0.022523869855679286 0 0.0016457155239689568 -0.022523869855679286 0 0.001155159554203431 -0.022985886640454541 0 0.0014132753437572534 -0.023550951613396456 0 0.0016457155239689568 -0.022523869855679286 0 0.001155159554203431 -0.022985886640454541 0 0.00085526591248109786 -0.022477885647058476 0 0.001155159554203431 -0.022985886640454541 0 0.00085526591248109786 -0.022477885647058476 0 0.00049818832048604059 -0.02344179893337258 0 0.00085526591248109786 -0.022477885647058476 0 -0.00012122335328901356 -0.022740851065536853 0 0.00049818832048604059 -0.02344179893337258 0 -0.00038418636350613124 -0.021809175396039361 0 -0.00012122335328901356 -0.022740851065536853 0 0.00039470459249597818 -0.021961649747129899 0 0.00085526591248109786 -0.022477885647058476 0 -0.00012122335328901356 -0.022740851065536853 0 0.00039470459249597818 -0.021961649747129899 0 -0.0006844614130035833 -0.024185877270052173 0 -0.00012122335328901356 -0.022740851065536853 0 0.00049818832048604059 -0.02344179893337258 0 -0.0006844614130035833 -0.024185877270052173 0 0.00049818832048604059 -0.02344179893337258 0 0.00039760410301966677 -0.024523667918400192 0 0.00049818832048604059 -0.02344179893337258 0 0.0011013816587843871 -0.024251979892965972 0 0.00039760410301966677 -0.024523667918400192 0 0.0016457155239689568 -0.022523869855679286 0 0.0014132753437572534 -0.023550951613396456 0 0.0023236066555529307 -0.02406722028870615 0 0.001155159554203431 -0.022985886640454541 0 0.00049818832048604059 -0.02344179893337258 0 0.0014132753437572534 -0.023550951613396456 0 0.0014132753437572534 -0.023550951613396456 0 0.0017370572675886658 -0.024207034710071424 0 0.0011013816587843871 -0.024251979892965972 0 0.0014132753437572534 -0.023550951613396456 0 0.0017370572675886658 -0.024207034710071424 0 0.0023236066555529307 -0.02406722028870615 0 0.00049818832048604059 -0.02344179893337258 0 0.0014132753437572534 -0.023550951613396456 0 0.0011013816587843871 -0.024251979892965972 0 0.0011013816587843871 -0.024251979892965972 0 0.00099334540354513836 -0.025005914639262494 0 0.00039760410301966677 -0.024523667918400192 0 0.00099334540354513836 -0.025005914639262494 0 0.0001309327515595622 -0.025699802230006397 0 0.0019339307582576716 -0.025728442464148859 0 0.0011013816587843871 -0.024251979892965972 0 0.0016349524615776505 -0.024635473241717266 0 0.00099334540354513836 -0.025005914639262494 0 0.0017370572675886658 -0.024207034710071424 0 0.0011013816587843871 -0.024251979892965972 0 0.0016349524615776505 -0.024635473241717266 0 0.0017370572675886658 -0.024207034710071424 0 0.0016349524615776505 -0.024635473241717266 0 0.0022152772287045595 -0.024524535249914447 0 0.0017232095524809077 -0.023895071025533825 0 0.0018859879835089546 -0.023344862353519222 0 0.0016349524615776505 -0.024635473241717266 0 0.00099334540354513836 -0.025005914639262494 0 0.0019339307582576716 -0.025728442464148859 0 0.0016349524615776505 -0.024635473241717266 0 0.0019339307582576716 -0.025728442464148859 0 0.002212770138996744 -0.024523859810934846 0 -0.0006844614130035833 -0.024185877270052173 0 0.00039760410301966677 -0.024523667918400192 0 0.0001309327515595622 -0.025699802230006397 0 -0.0004771124315153075 -0.02894030881921876 0 -0.00024548574433909821 -0.029875578892727652 0 0.00099334540354513836 -0.025005914639262494 0 0.00039760410301966677 -0.024523667918400192 0 0.0001309327515595622 -0.025699802230006397 0 -0.00038180978528446695 -0.032696173030043546 0 -0.00024548574433909821 -0.029875578892727652 0 -0.00024257574469851962 -0.033223088611999844 0 -0.00068003217470090566 -0.033187013896428905 0 -0.00045078354654772213 -0.032783183159763904 0 -0.00024548574433909821 -0.029875578892727652 0 -4.2921293925252496e-05 -0.030697603554268361 0 -0.00068003217470090566 -0.033187013896428905 0 -0.00045078354654772213 -0.032783183159763904 0 -0.00091795235997127228 -0.032743140447927609 0 -0.00045078354654772213 -0.032783183159763904 0 -0.00091795235997127228 -0.032743140447927609 0 -0.00061920867576901746 -0.032306627774223051 0 -7.9535389481262119e-05 -0.031108280883986268 0 0.00036654279687200076 -0.028975047388118808 0 -0.00091795235997127228 -0.032743140447927609 0 -0.00061920867576901746 -0.032306627774223051 0 -0.0011521473876396149 -0.03229035918805305 0 0.00051025661914065807 -0.028261933289849557 0 0.00082014238807085946 -0.028716723016952442 0 0.0010341968733102655 -0.027806394838239514 0 0.00067605138352812559 -0.025549571581420957 0 0.0010468836962472701 -0.023957880648661591 0 0.0014207809933370051 -0.02480723622211662 0 0.0005376027819795784 -0.02801029110225766 0 0.0015378103542936169 -0.025150397145049474 0 0.00050134147491791834 -0.026797376170789748 0 0.0014158058144951322 -0.026780824013444619 0 0.00044883952751345835 -0.027021832968469824 0 0.0005376027819795784 -0.02801029110225766 0 0.0013257175744477399 -0.025947580020724805 0 9.1661327170231217e-05 -0.028625118099528554 0 0.00015774263244350422 -0.028624612758495992 0 0.00011095631487169518 -0.028540639196697654 0 0.0005376027819795784 -0.02801029110225766 0 0.00036654279687200076 -0.028975047388118808 0 0.00051025661914065807 -0.028261933289849557 0 0.00082014238807085946 -0.028716723016952442 0 0.00076661061233395582 -0.02871817313209718 0 -4.2921293925252496e-05 -0.030697603554268361 0 0.00036654279687200076 -0.028975047388118808 0 -0.00024548574433909821 -0.029875578892727652 0 0.0015378103542936169 -0.025150397145049474 0 0.00025247295934529987 -0.027809690081069587 0 0.00051025661914065807 -0.028261933289849557 0 0.0010341968733102655 -0.027806394838239514 0 0.0015378103542936169 -0.025150397145049474 0 0.0018661372281089386 -0.022367139328433337 0 0.0018797254966516352 -0.023971012592813524 0 0.0014207809933370051 -0.02480723622211662 0 0.0023333003773968342 -0.02502532225300081 0 0.0010468836962472701 -0.023957880648661591 0 0.0018797254966516352 -0.023971012592813524 0 0.0014207809933370051 -0.02480723622211662 0 0.0013257175744477399 -0.025947580020724805 0 0.0022178724923556923 -0.02276154525777372 0 0.0014207809933370051 -0.02480723622211662 0 0.0011634953191984568 -0.025535238570281338 0 0.0023333003773968342 -0.02502532225300081 0 0.0013257175744477399 -0.025947580020724805 0 0.0021334183251983489 -0.022616773515318947 0 0.00067605138352812559 -0.025549571581420957 0 0.0014207809933370051 -0.02480723622211662 0 0.0011634953191984568 -0.025535238570281338 0 0.001162953529690343 -0.024127802528748892 0 0.002321201453904409 -0.024086733754576244 0 0.0021524148977217598 -0.023693590760676914 0 0.0021275989295110064 -0.020360584182768839 0 0.0020135994604010407 -0.02009685458315353 0 0.0026948391732882267 -0.020082332622178865 0 0.0022178724923556923 -0.02276154525777372 0 0.0021334183251983489 -0.022616773515318947 0 0.001973546039276226 -0.020906259733410915 0 0.0020759940430000652 -0.0211399725422232 0 0.0023482064336818936 -0.020891535156851639 0 0.0018661372281089386 -0.022367139328433337 0 0.0021334183251983489 -0.022616773515318947 0 0.0018661372281089386 -0.022367139328433337 0 0.002098098328577578 -0.019489108630421768 0 0.0018076265467985926 -0.020854687124082377 0 0.0017226125589534867 -0.020918117996688659 0 0.0015984460605297623 -0.020829277974756307 0 0.0017226125589534867 -0.020918117996688659 0 0.0018580732268629037 -0.020978333110801703 0 0.0017066961029438821 -0.020993388738298962 0 0.0018596076440404652 -0.022299471599066614 0 0.0011720675525508741 -0.020060318616587178 0 0.0017226125589534867 -0.020918117996688659 0 0.0017066961029438821 -0.020993388738298962 0 0.001642232151349268 -0.020933925307470021 0 0.0015933375711595955 -0.023512697524268236 0 0.0017708875969242876 -0.023110449423816733 0 0.0016824733474319724 -0.023128234614271322 0 0.0015933375711595955 -0.023512697524268236 0 0.0019430969704014366 -0.023514814231503822 0 0.0017708875969242876 -0.023110449423816733 0 0.0018661372281089386 -0.022367139328433337 0 0.0018596076440404652 -0.022299471599066614 0 0.0018076265467985926 -0.020854687124082377 0 0.0017226125589534867 -0.020918117996688659 0 0.0018580732268629037 -0.020978333110801703 0 0.0015378103542936169 -0.025150397145049474 0 0.0018859879835089546 -0.023344862353519222 0 0.0018859879835089546 -0.023344862353519222 0 0.0020056453085358123 -0.023049591801049537 0 0.0018596076440404652 -0.022299471599066614 0 0.0020056453085358123 -0.023049591801049537 0 0.0020902988781479671 -0.02283627243776977 0 0.002132066086410039 -0.022829216827237167 0 0.0021169710116737462 -0.022897652298794275 0 0.0018596076440404652 -0.022299471599066614 0 0.0018859879835089546 -0.023344862353519222 0 0.0024259566427277859 -0.022832869679452486 0 0.0016457155239689568 -0.022523869855679286 0 0.0021986140097284505 -0.023788519872674909 0 0.0015505186522066579 -0.021502751408522511 0 0.0015863970074300176 -0.021355579998725383 0 0.0013526587333858749 -0.021329930903307651 0 0.0015636251901279582 -0.021302267430224509 0 0.0015863970074300176 -0.021355579998725383 0 0.0013526587333858749 -0.021329930903307651 0 0.0018195051485915055 -0.022957881203429703 0 0.0020056453085358123 -0.023049591801049537 0 0.0017370572675886658 -0.024207034710071424 0 0.0022152772287045595 -0.024524535249914447 0 0.0023236066555529307 -0.02406722028870615 0 0.0014294975910769437 -0.021095959579379684 0 0.0020056453085358123 -0.023049591801049537 0 0.0014294975910769437 -0.021095959579379684 0 0.0011720675525508741 -0.020060318616587178 0 0.00061688337858065644 -0.019414715602740763 0 0.00093697889761996261 -0.019252564096052721 0 0.00067223175998415983 -0.019415713258773722 0 0.0012961092161227641 -0.019367193310304332 0 0.0005857740780174206 -0.018806805405862822 0 0.00067223175998415983 -0.019415713258773722 0 0.0005857740780174206 -0.018806805405862822 0 0.00041031521855428379 -0.01884047972579209 0 0.0011720675525508741 -0.020060318616587178 0 0.00093697889761996261 -0.019252564096052721 0 0.00093697889761996261 -0.019252564096052721 0 0.00089711588847609714 -0.018597272313833575 0 0.00061883640223632324 -0.019522162297617267 0 0.00041516575397112387 -0.019134791545688649 0 0.00024054276065504029 -0.01942879634412004 0 0.001492289823008945 -0.018874949935348079 0 0.0012326154351981959 -0.018920145777832558 0 0.00143311697193229 -0.018743059486413825 0 0.00041516575397112387 -0.019134791545688649 0 0.00024054276065504029 -0.01942879634412004 0 -2.005431801157119e-05 -0.019220037772973295 0 -4.6663841068984658e-05 -0.019635030906451495 0 0.00024054276065504029 -0.01942879634412004 0 -2.005431801157119e-05 -0.019220037772973295 0 0.00089711588847609714 -0.018597272313833575 0 0.0007325728578063931 -0.018471323697445259 0 0.0017385731503852695 -0.017094987558823337 0 0.0017128470882709233 -0.017057213235436897 0 0.0016832577870768701 -0.017096631267306921 0 4.1756744594659813e-05 -0.019866008990815236 0 0.00089711588847609714 -0.018597272313833575 0 -4.6663841068984658e-05 -0.019635030906451495 0 -5.0750057142233064e-05 -0.019679365277735214 0 -2.7780556228413438e-05 -0.019723019292896844 0 0.0017385731503852695 -0.017094987558823337 0 0.0017128470882709233 -0.017057213235436897 0 0.0017505434389422706 -0.017032238382399593 0 0.00089711588847609714 -0.018597272313833575 0 0.0017272867263190875 -0.017916609766926998 0 0.0017128470882709233 -0.017057213235436897 0 0.0017188747813080053 -0.017027692178837726 0 0.0017505434389422706 -0.017032238382399593 0 0.0021430202226034702 -0.019175434196971271 0 0.0019233654801337049 -0.018695701004570225 0 0.0017615163492940081 -0.01884652271881828 0 0.0012326154351981959 -0.018920145777832558 0 0.00143311697193229 -0.018743059486413825 0 0.0012667042203188526 -0.018597067169194161 0 0.0016655452189700411 -0.019682803394978268 0 0.0017272867263190875 -0.017916609766926998 0 0.0017226125589534867 -0.020918117996688659 0 0.001642232151349268 -0.020933925307470021 0 0.0015984460605297623 -0.020829277974756307 0 0.0016655452189700411 -0.019682803394978268 0 0.002098098328577578 -0.019489108630421768 0 0.0011720675525508741 -0.020060318616587178 0 0.0016655452189700411 -0.019682803394978268 0 0.00093697889761996261 -0.019252564096052721 0 0.0016655452189700411 -0.019682803394978268 0 0.0011264704546019085 -0.019655525584973285 0 0.0012265818977819484 -0.019636358285374557 0 0.0013072558171747385 -0.019807180896158863 0 0.0020759940430000652 -0.0211399725422232 0 0.0023482064336818936 -0.020891535156851639 0 0.0023939487586944314 -0.020985260042623081 0 0.0019233654801337049 -0.018695701004570225 0 0.0017769421418890733 -0.018690422963123073 0 0.0017615163492940081 -0.01884652271881828 0 0.002098098328577578 -0.019489108630421768 0 0.0021192259122729679 -0.018060577634785524 0 0.0020934702297633477 -0.018796450621426788 0 0.0020093151760114474 -0.018616111999097733 0 0.0019920436463215568 -0.018792645470202346 0 0.002098098328577578 -0.019489108630421768 0 0.002395408837815602 -0.018515070472106446 0 0.002395408837815602 -0.018515070472106446 0 0.0021192259122729679 -0.018060577634785524 0 0.0022178724923556923 -0.02276154525777372 0 0.0028512159357892155 -0.018824338642163499 0 0.0021334183251983489 -0.022616773515318947 0 0.002395408837815602 -0.018515070472106446 0 0.0020135994604010407 -0.02009685458315353 0 0.0028197260816904606 -0.019737362475884535 0 0.0026948391732882267 -0.020082332622178865 0 0.0021275989295110064 -0.020360584182768839 0 0.0026948391732882267 -0.020082332622178865 0 0.0027657830596399566 -0.020330418460659354 0 0.0028197260816904606 -0.019737362475884535 0 0.0026948391732882267 -0.020082332622178865 0 0.0027727006049743153 -0.020241917948347957 0 0.002395408837815602 -0.018515070472106446 0 0.0028801860093200186 -0.018559541599546699 0 0.0030841042689815652 -0.019454334332929688 0 0.0028801860093200186 -0.018559541599546699 0 0.0026948391732882267 -0.020082332622178865 0 0.0027739589985267118 -0.020244032741485413 0 0.0027657830596399566 -0.020330418460659354 0 0.0032512023592315498 -0.018412262076976285 0 0.0032577714359286326 -0.018338773697513897 0 0.0032155738517290963 -0.018339099281065162 0 0.0028801860093200186 -0.018559541599546699 0 0.0028340720061493679 -0.018008988462820976 0 0.0028801860093200186 -0.018559541599546699 0 0.0028512159357892155 -0.018824338642163499 0 0.0028512159357892155 -0.018824338642163499 0 0.0028340720061493679 -0.018008988462820976 0 0.0026857047763317473 -0.016413691042474365 0 0.0026585117608580863 -0.01642968933051113 0 0.002642817144394953 -0.016419253156083339 0 0.0028340720061493679 -0.018008988462820976 0 0.0026429101492697164 -0.01489905792788929 0 0.0026857047763317473 -0.016413691042474365 0 0.002642817144394953 -0.016419253156083339 0 0.0026346741244660092 -0.016405788993394701 0 0.0026927256929388391 -0.016420052351442477 0 0.0026857047763317473 -0.016413691042474365 0 0.0026725973825073037 -0.016434990066249988 0 0.0026857047763317473 -0.016413691042474365 0 0.0026725973825073037 -0.016434990066249988 0 0.0026585117608580863 -0.01642968933051113 0 0.0026985915727166495 -0.016498631578839754 0 0.0026927256929388391 -0.016420052351442477 0 0.0026725973825073037 -0.016434990066249988 0 0.002395408837815602 -0.018515070472106446 0 0.0022299449752229195 -0.016396561892118949 0 0.0026910355319285334 -0.016458172840858376 0 0.0026725973825073037 -0.016434990066249988 0 0.0026679333759783547 -0.016445166356346474 0 0.0026725973825073037 -0.016434990066249988 0 0.0026585117608580863 -0.01642968933051113 0 0.0026679333759783547 -0.016445166356346474 0 0.0026585117608580863 -0.01642968933051113 0 0.00264898115966377 -0.016430691382132635 0 0.0026679333759783547 -0.016445166356346474 0 0.00264898115966377 -0.016430691382132635 0 0.0026318429832764686 -0.016420802497675323 0 0.002642817144394953 -0.016419253156083339 0 0.0026585117608580863 -0.01642968933051113 0 0.00264898115966377 -0.016430691382132635 0 0.002642817144394953 -0.016419253156083339 0 0.0026553372909937588 -0.016453565867160638 0 0.0026940393289556965 -0.016482298142270695 0 0.0026226089537933735 -0.016490233618899182 0 0.00264898115966377 -0.016430691382132635 0 0.0026553372909937588 -0.016453565867160638 0 0.0026318429832764686 -0.016420802497675323 0 0.0021192259122729679 -0.018060577634785524 0 0.0020909033042399963 -0.016758547870017407 0 0.0017536560462316859 -0.017023005241622771 0 0.0017421096228168737 -0.017023721488399868 0 0.0017011491111184115 -0.017004858448418547 0 0.00264898115966377 -0.016430691382132635 0 0.0026553372909937588 -0.016453565867160638 0 0.0026679333759783547 -0.016445166356346474 0 0.0026553372909937588 -0.016453565867160638 0 0.0026679333759783547 -0.016445166356346474 0 0.0026940393289556965 -0.016482298142270695 0 0.0026910355319285334 -0.016458172840858376 0 0.0026679333759783547 -0.016445166356346474 0 0.0026940393289556965 -0.016482298142270695 0 0.0017188747813080053 -0.017027692178837726 0 0.0017421096228168737 -0.017023721488399868 0 0.0017505434389422706 -0.017032238382399593 0 0.0017536560462316859 -0.017023005241622771 0 0.0017421096228168737 -0.017023721488399868 0 0.0017533480089013452 -0.017037730506168004 0 0.0021192259122729679 -0.018060577634785524 0 0.0017272867263190875 -0.017916609766926998 0 0.0015791629962567991 -0.017624393276994957 0 0.0017272867263190875 -0.017916609766926998 0 0.0017188747813080053 -0.017027692178837726 0 0.0017421096228168737 -0.017023721488399868 0 0.0017011491111184115 -0.017004858448418547 0 0.0026318429832764686 -0.016420802497675323 0 0.0025277742444306151 -0.016144604546984336 0 0.0023756821315938678 -0.016487419002582038 0 0.0026226089537933735 -0.016490233618899182 0 0.0026318429832764686 -0.016420802497675323 0 0.0023756821315938678 -0.016487419002582038 0 0.0020909033042399963 -0.016758547870017407 0 0.0024947209250039308 -0.014871880591908715 0 0.0017011491111184115 -0.017004858448418547 0 0.0016487747698261093 -0.01698515144329359 0 0.0016776212173304208 -0.017037547078631667 0 0.0026553372909937588 -0.016453565867160638 0 0.0026226089537933735 -0.016490233618899182 0 0.0026318429832764686 -0.016420802497675323 0 0.0026318429832764686 -0.016420802497675323 0 0.0025277742444306151 -0.016144604546984336 0 0.0025935624001498354 -0.016142881315630877 0 0.0027125226687114211 -0.016848501670751477 0 0.0026429101492697164 -0.01489905792788929 0 0.0026318429832764686 -0.016420802497675323 0 0.002642817144394953 -0.016419253156083339 0 0.0026346741244660092 -0.016405788993394701 0 0.0025642354750626921 -0.013274533554471921 0 0.0026429101492697164 -0.01489905792788929 0 0.0034030867539801084 -0.011467389958759814 0 0.0027353497146306066 -0.011888924462516463 0 0.0028076069590003321 -0.012693965393657487 0 0.0025642354750626921 -0.013274533554471921 0 0.0018500497900063705 -0.011059698797443038 0 0.0025642354750626921 -0.013274533554471921 0 0.0024947209250039308 -0.014871880591908715 0 0.0034030867539801084 -0.011467389958759814 0 0.0027353497146306066 -0.011888924462516463 0 0.0020466884333887434 -0.011443426411219527 0 0.0027353497146306066 -0.011888924462516463 0 0.0023301991471957268 -0.012327365605571136 0 0.0020466884333887434 -0.011443426411219527 0 0.0027353497146306066 -0.011888924462516463 0 0.0023301991471957268 -0.012327365605571136 0 0.0028076069590003321 -0.012693965393657487 0 0.0034486915652782541 -0.012795239017227763 0 0.0028923358570691563 -0.012949419764901247 0 0.0020257497251992889 -0.01274331874305684 0 0.0024947209250039308 -0.014871880591908715 0 0.0020123318824350062 -0.012664613357347592 0 0.0023301991471957268 -0.012327365605571136 0 0.0028076069590003321 -0.012693965393657487 0 0.0018320675165067531 -0.012683019337605085 0 0.0034486915652782541 -0.012795239017227763 0 0.0028923358570691563 -0.012949419764901247 0 0.0029598892154104363 -0.013813539789001635 0 0.0024947209250039308 -0.014871880591908715 0 0.0025926579093320315 -0.014766810418771393 0 0.0016487747698261093 -0.01698515144329359 0 0.0016253214536476345 -0.017025901873358087 0 0.0016776212173304208 -0.017037547078631667 0 0.0016253214536476345 -0.017025901873358087 0 0.0016776212173304208 -0.017037547078631667 0 0.0016531091577653321 -0.017065359841846851 0 0.0029925581908143181 -0.013765332028759798 0 0.0028830266713213248 -0.013996975281894218 0 0.0031506709505769517 -0.015399363462179549 0 0.0028923358570691563 -0.012949419764901247 0 0.0029815739363460761 -0.013769861144898071 0 0.0025650132795949124 -0.01337609177111198 0 0.0027553787545662365 -0.013022427814715763 0 0.0025926579093320315 -0.014766810418771393 0 0.0029815739363460761 -0.013769861144898071 0 0.0028830266713213248 -0.013996975281894218 0 0.0024734025715158338 -0.013950601031495155 0 0.0025926579093320315 -0.014766810418771393 0 0.0027169463643356533 -0.014494617798579718 0 0.0017128470882709233 -0.017057213235436897 0 0.0016776212173304208 -0.017037547078631667 0 0.0016832577870768701 -0.017096631267306921 0 0.0017188747813080053 -0.017027692178837726 0 0.0017011491111184115 -0.017004858448418547 0 0.0016776212173304208 -0.017037547078631667 0 0.0017128470882709233 -0.017057213235436897 0 0.0017188747813080053 -0.017027692178837726 0 0.0016776212173304208 -0.017037547078631667 0 0.0016776212173304208 -0.017037547078631667 0 0.0016832577870768701 -0.017096631267306921 0 0.0016531091577653321 -0.017065359841846851 0 0.0016832577870768701 -0.017096631267306921 0 0.0016531091577653321 -0.017065359841846851 0 0.0016240788595463925 -0.017101506420021929 0 0.0025926579093320315 -0.014766810418771393 0 0.0012750246393983793 -0.017256890404031645 0 0.0007325728578063931 -0.018471323697445259 0 0.0012750246393983793 -0.017256890404031645 0 0.0016253214536476345 -0.017025901873358087 0 0.0016531091577653321 -0.017065359841846851 0 0.0016240788595463925 -0.017101506420021929 0 0.0028830266713213248 -0.013996975281894218 0 0.0031506709505769517 -0.015399363462179549 0 0.0026812052759752599 -0.014514129249380937 0 0.0018162494151602127 -0.009918190982221374 0 0.002061823362165299 -0.010108502085868864 0 0.0017010790762895839 -0.0097953433502317756 0 0.0018162494151602127 -0.009918190982221374 0 0.0017238699890692476 -0.0099817297491055657 0 0.001620190999309623 -0.0097766780272504333 0 0.0018162494151602127 -0.009918190982221374 0 0.0016967262222570049 -0.0097865233438226076 0 0.001620190999309623 -0.0097766780272504333 0 0.0016967262222570049 -0.0097865233438226076 0 0.0016303108494832661 -0.009659581933865867 0 0.001620190999309623 -0.0097766780272504333 0 0.0018162494151602127 -0.009918190982221374 0 0.0016967262222570049 -0.0097865233438226076 0 0.0017010790762895839 -0.0097953433502317756 0 0.0016793185066974708 -0.0099809050395299088 0 0.0017824117280230665 -0.0098348935136737953 0 0.0017117059407214385 -0.0097277125039831099 0 0.0019367887650003294 -0.010338335959314065 0 0.0017470982998277905 -0.0099530961956089386 0 0.002236769928351368 -0.010630245824845794 0 0.0017010790762895839 -0.0097953433502317756 0 0.001670308984596931 -0.0096215378984939558 0 0.0016793185066974708 -0.0099809050395299088 0 0.0017117059407214385 -0.0097277125039831099 0 0.001670308984596931 -0.0096215378984939558 0 0.0021533717216731937 -0.010653942807600347 0 0.002236769928351368 -0.010630245824845794 0 0.0017010790762895839 -0.0097953433502317756 0 0.0015326064675294602 -0.011835909749802691 0 0.0017153499448860105 -0.0090732502543658822 0 0.0021533717216731937 -0.010653942807600347 0 0.0018905617756895575 -0.011060781572809668 0 0.0017010790762895839 -0.0097953433502317756 0 0.0022491416809335102 -0.010634806599463522 0 0.0018905617756895575 -0.011060781572809668 0 0.0027033833682521186 -0.01150527705726939 0 0.0015326064675294602 -0.011835909749802691 0 0.0024112797912442408 -0.014614619563984075 0 0.0021533717216731937 -0.010653942807600347 0 0.0022491416809335102 -0.010634806599463522 0 0.0018905617756895575 -0.011060781572809668 0 0.0016451209393181666 -0.011773770326238209 0 0.0015326064675294602 -0.011835909749802691 0 0.002061823362165299 -0.010108502085868864 0 0.0018614604905451573 -0.010041905395713134 0 0.0018296872470843495 -0.010206010899926638 0 0.0018162494151602127 -0.009918190982221374 0 0.002061823362165299 -0.010108502085868864 0 0.0018614604905451573 -0.010041905395713134 0 0.0018162494151602127 -0.009918190982221374 0 0.0018614604905451573 -0.010041905395713134 0 0.0017238699890692476 -0.0099817297491055657 0 0.0018614604905451573 -0.010041905395713134 0 0.0017238699890692476 -0.0099817297491055657 0 0.0018296872470843495 -0.010206010899926638 0 0.0017238699890692476 -0.0099817297491055657 0 0.0018296872470843495 -0.010206010899926638 0 0.0015504855969583719 -0.010172430148545171 0 0.002061823362165299 -0.010108502085868864 0 0.0018296872470843495 -0.010206010899926638 0 0.0019854092216470142 -0.01054393985366248 0 0.0018296872470843495 -0.010206010899926638 0 0.0017084879120069093 -0.010576173998639056 0 0.0015504855969583719 -0.010172430148545171 0 0.0018296872470843495 -0.010206010899926638 0 0.0019854092216470142 -0.01054393985366248 0 0.0017084879120069093 -0.010576173998639056 0 0.0022339289696601925 -0.011085666722957134 0 0.0019648206273124346 -0.010851090159152397 0 0.0015856260175465722 -0.011134720383396173 0 0.0017084879120069093 -0.010576173998639056 0 0.0019648206273124346 -0.010851090159152397 0 0.0015856260175465722 -0.011134720383396173 0 0.0019854092216470142 -0.01054393985366248 0 0.0017084879120069093 -0.010576173998639056 0 0.0019648206273124346 -0.010851090159152397 0 0.0023338082620897784 -0.012848319026112682 0 0.0024112797912442408 -0.014614619563984075 0 0.0021211147707266686 -0.013718352026756732 0 0.0022858822054245497 -0.013717023182483206 0 0.0022396983568351661 -0.013470883660513201 0 0.0026429101492697164 -0.01489905792788929 0 0.0023338082620897784 -0.012848319026112682 0 0.0022339289696601925 -0.011085666722957134 0 0.0019648206273124346 -0.010851090159152397 0 0.002317911546066202 -0.010919560111927159 0 0.0025642354750626921 -0.013274533554471921 0 0.0023338082620897784 -0.012848319026112682 0 0.0019854092216470142 -0.01054393985366248 0 0.0019648206273124346 -0.010851090159152397 0 0.002317911546066202 -0.010919560111927159 0 0.002061823362165299 -0.010108502085868864 0 0.0019854092216470142 -0.01054393985366248 0 0.002317911546066202 -0.010919560111927159 0 0.0018905617756895575 -0.011060781572809668 0 0.0021607769143754132 -0.012633164158803263 0 0.0027033833682521186 -0.01150527705726939 0 0.0019367887650003294 -0.010338335959314065 0 0.0023338082620897784 -0.012848319026112682 0 0.0019042134060282131 -0.016499383871064734 0 0.0030547776132872524 -0.017121593093966648 0 0.0022311971068603642 -0.015834943195361939 0 0.0024112797912442408 -0.014614619563984075 0 0.0019296850720538917 -0.016138154584519782 0 0.0031716675295404722 -0.015704475862561084 0 0.0022688810877311274 -0.015456375844203736 0 0.002665207231279396 -0.014642407906047473 0 0.0028340720061493679 -0.018008988462820976 0 0.0024112797912442408 -0.014614619563984075 0 0.0031716675295404722 -0.015704475862561084 0 0.0023140131441294243 -0.015698916916970472 0 0.0022688810877311274 -0.015456375844203736 0 0.0028265813479860505 -0.018425948417012311 0 0.0019042134060282131 -0.016499383871064734 0 0.0030547776132872524 -0.017121593093966648 0 0.0029310972989954201 -0.018424926330663498 0 0.0028265813479860505 -0.018425948417012311 0 0.0030547776132872524 -0.017121593093966648 0 0.0026803597747664513 -0.021010782067298277 0 0.0027233477556724236 -0.020991251734757653 0 0.0027076951540642028 -0.021017566565977166 0 0.0026803597747664513 -0.021010782067298277 0 0.0027076951540642028 -0.021017566565977166 0 0.0026993870829444765 -0.021042666309067107 0 0.0027233477556724236 -0.020991251734757653 0 0.0027076951540642028 -0.021017566565977166 0 0.0027156445175397924 -0.021034753074399632 0 0.0028512159357892155 -0.018824338642163499 0 0.0029086119990150401 -0.018842931779353245 0 0.0027076951540642028 -0.021017566565977166 0 0.0026993870829444765 -0.021042666309067107 0 0.0027156445175397924 -0.021034753074399632 0 0.0023539535765639938 -0.023936494216476957 0 0.0027102713835810235 -0.020651192808689656 0 0.0017473036608022512 -0.025796012012904029 0 0.0016435454861251178 -0.025656526882989784 0 0.0017356867773273778 -0.025724181090445799 0 0.0030547776132872524 -0.017121593093966648 0 0.0031698370951792607 -0.015826525753991818 0 0.0022311971068603642 -0.015834943195361939 0 0.0026993870829444765 -0.021042666309067107 0 0.0027156445175397924 -0.021034753074399632 0 0.0027061415181818885 -0.021061738215406342 0 0.0029086119990150401 -0.018842931779353245 0 0.0027102713835810235 -0.020651192808689656 0 0.0017236562617274334 -0.025637386772413721 0 0.0016435454861251178 -0.025656526882989784 0 0.0017356867773273778 -0.025724181090445799 0 0.0017236562617274334 -0.025637386772413721 0 0.0016435454861251178 -0.025656526882989784 0 0.001653437745851164 -0.025504513840623494 0 0.0017236562617274334 -0.025637386772413721 0 0.0017242743878641302 -0.025498365561917907 0 0.001653437745851164 -0.025504513840623494 0 0.0027102713835810235 -0.020651192808689656 0 0.0020339832213143575 -0.020102521153473552 0 0.0021769405133709773 -0.017955458290634857 0 0.0029912395196950922 -0.019860495450693138 0 0.0031855108846890654 -0.017771030325894836 0 0.0025220426308323152 -0.015209508126930966 0 0.0027102713835810235 -0.020651192808689656 0 0.0015326064675294602 -0.011835909749802691 0 0.0025220426308323152 -0.015209508126930966 0 0.0013563916282158196 -0.015284327248880708 0 0.0028225260380518981 -0.015027081518996127 0 0.0022311971068603642 -0.015834943195361939 0 0.0013563916282158196 -0.015284327248880708 0 0.0019260957423296629 -0.016452045739569356 0 0.0022311971068603642 -0.015834943195361939 0 0.0028225260380518981 -0.015027081518996127 0 0.0031698370951792607 -0.015826525753991818 0 0.0022311971068603642 -0.015834943195361939 0 0.0019497718174614803 -0.0099721657786218075 0 0.0017824117280230665 -0.0098348935136737953 0 0.0018575307085649043 -0.0097655951991977887 0 0.0025220426308323152 -0.015209508126930966 0 0.0012947701140853911 -0.011705427590943391 0 0.0016793185066974708 -0.0099809050395299088 0 0.0019497718174614803 -0.0099721657786218075 0 0.0017824117280230665 -0.0098348935136737953 0 0.0017824117280230665 -0.0098348935136737953 0 0.0018575307085649043 -0.0097655951991977887 0 0.0017616055131418548 -0.0097199744066228215 0 0.0017824117280230665 -0.0098348935136737953 0 0.0017616055131418548 -0.0097199744066228215 0 0.0017117059407214385 -0.0097277125039831099 0 0.0012636209147072999 -0.023668743015685119 0 0.001507114967152753 -0.023961513726892227 0 0.0019239936249653097 -0.023376539822436117 0 0.0022491925397793949 -0.017963561262986431 0 0.002097940151863481 -0.023254846868615092 0 0.002097940151863481 -0.023254846868615092 0 0.0020339832213143575 -0.020102521153473552 0 0.00177525924314344 -0.020050765249283301 0 0.0025194347040639782 -0.020927491965770251 0 0.0016781570985092704 -0.021081110476989351 0 0.0020793317142964009 -0.016835664562008593 0 0.0009959044048608453 -0.014273335915420293 0 0.0032421893894151663 -0.015423382927754151 0 0.0025220426308323152 -0.015209508126930966 0 0.0020339832213143575 -0.020102521153473552 0 0.0020793317142964009 -0.016835664562008593 0 0.0032421893894151663 -0.015423382927754151 0 0.0031238707942934517 -0.016645961725722531 0 0.0022491925397793949 -0.017963561262986431 0 0.0020339832213143575 -0.020102521153473552 0 0.001507114967152753 -0.023961513726892227 0 0.0019239936249653097 -0.023376539822436117 0 0.0025396718740438879 -0.023822171493567822 0 0.002097940151863481 -0.023254846868615092 0 0.0023957033811017351 -0.024621893553143013 0 0.0023957033811017351 -0.024621893553143013 0 0.001440897225883517 -0.029352026493237985 0 0.0018013907160814287 -0.025915889354134834 0 0.0017555935465685603 -0.025858487008194399 0 0.0017369349623776243 -0.025961604866555896 0 0.0018013907160814287 -0.025915889354134834 0 0.0018092980934064245 -0.02579667380136617 0 0.0017555935465685603 -0.025858487008194399 0 0.0017236562617274334 -0.025637386772413721 0 0.0017242743878641302 -0.025498365561917907 0 0.0018092980934064245 -0.02579667380136617 0 0.002097940151863481 -0.023254846868615092 0 0.0019469847763892169 -0.026592617271981315 0 0.0019046628200673117 -0.025875254384451544 0 0.0018013907160814287 -0.025915889354134834 0 0.0018092980934064245 -0.02579667380136617 0 0.0017236562617274334 -0.025637386772413721 0 0.0017356867773273778 -0.025724181090445799 0 0.0018092980934064245 -0.02579667380136617 0 0.0017473036608022512 -0.025796012012904029 0 0.0017356867773273778 -0.025724181090445799 0 0.0018092980934064245 -0.02579667380136617 0 0.0017473036608022512 -0.025796012012904029 0 0.0018092980934064245 -0.02579667380136617 0 0.0017878492277988375 -0.025813959695363955 0 0.0022178724923556923 -0.02276154525777372 0 0.0023539535765639938 -0.023936494216476957 0 0.0017726748514334983 -0.025797353216460837 0 0.0017473036608022512 -0.025796012012904029 0 0.0017759322790806705 -0.025810034606044422 0 0.0017473036608022512 -0.025796012012904029 0 0.0017759322790806705 -0.025810034606044422 0 0.0017878492277988375 -0.025813959695363955 0 0.0017626871685500118 -0.025804596271830016 0 0.0017726748514334983 -0.025797353216460837 0 0.0017759322790806705 -0.025810034606044422 0 0.0017626871685500118 -0.025804596271830016 0 0.0017595625151771801 -0.025816356084290934 0 0.0017759322790806705 -0.025810034606044422 0 0.0017759322790806705 -0.025810034606044422 0 0.0017597094398574763 -0.025830875325823219 0 0.0017878492277988375 -0.025813959695363955 0 0.0017595625151771801 -0.025816356084290934 0 0.0017759322790806705 -0.025810034606044422 0 0.0017597094398574763 -0.025830875325823219 0 0.0018092980934064245 -0.02579667380136617 0 0.0017878492277988375 -0.025813959695363955 0 0.0017555935465685603 -0.025858487008194399 0 0.0017597094398574763 -0.025830875325823219 0 0.0017878492277988375 -0.025813959695363955 0 0.0017555935465685603 -0.025858487008194399 0 0.0017597094398574763 -0.025830875325823219 0 0.0017555935465685603 -0.025858487008194399 0 0.0017411222613651022 -0.025850871049071442 0 0.0017555935465685603 -0.025858487008194399 0 0.0017260759944881432 -0.02587120976822711 0 0.0017109558379482662 -0.02591085892913618 0 0.0017555935465685603 -0.025858487008194399 0 0.0017260759944881432 -0.02587120976822711 0 0.0017411222613651022 -0.025850871049071442 0 0.0015015864338570435 -0.025852677882568502 0 0.0010566538994512841 -0.026932010404917796 0 0.0017597094398574763 -0.025830875325823219 0 0.0017411222613651022 -0.025850871049071442 0 0.0017368394476703938 -0.025844388506755665 0 0.00069113713267416721 -0.029910509900573645 0 0.00083627585149974478 -0.029889938558756938 0 0.00084323401878549854 -0.029919837960149916 0 0.0017260759944881432 -0.02587120976822711 0 0.0017411222613651022 -0.025850871049071442 0 0.0017368394476703938 -0.025844388506755665 0 0.0017626871685500118 -0.025804596271830016 0 0.0017595625151771801 -0.025816356084290934 0 0.0017411073995915018 -0.025813428177880696 0 0.0013257175744477399 -0.025947580020724805 0 0.0010566538994512841 -0.026932010404917796 0 0.0014158058144951322 -0.026780824013444619 0 0.00044883952751345835 -0.027021832968469824 0 0.00040663618962666467 -0.02720292226301603 0 0.00083627585149974478 -0.029889938558756938 0 0.00084666379301159009 -0.02990580573618859 0 0.00084323401878549854 -0.029919837960149916 0 0.0017595625151771801 -0.025816356084290934 0 0.0017597094398574763 -0.025830875325823219 0 0.0017411073995915018 -0.025813428177880696 0 0.00036654279687200076 -0.028975047388118808 0 0.00057962294913326245 -0.028097028926733891 0 0.0017597094398574763 -0.025830875325823219 0 0.0017368394476703938 -0.025844388506755665 0 0.0017343149041290622 -0.025846210902507979 0 0.0005376027819795784 -0.02801029110225766 0 0.00057962294913326245 -0.028097028926733891 0 0.00057962294913326245 -0.028097028926733891 0 0.0010566538994512841 -0.026932010404917796 0 0.0011377155979727816 -0.02669057076237193 0 0.0010566538994512841 -0.026932010404917796 0 0.00069113713267416721 -0.029910509900573645 0 0.00084323401878549854 -0.029919837960149916 0 0.00061880811079792735 -0.03003691822574173 0 0.0017260759944881432 -0.02587120976822711 0 0.0017368394476703938 -0.025844388506755665 0 0.0016897538497467738 -0.025896373595655643 0 0.0017368394476703938 -0.025844388506755665 0 0.0017369977941456773 -0.025840023161927086 0 0.0016897538497467738 -0.025896373595655643 0 0.0010566538994512841 -0.026932010404917796 0 0.00093750497489903284 -0.030301971007236826 0 0.00097765500110157957 -0.030187126129993604 0 0.00093750497489903284 -0.030301971007236826 0 0.0017260759944881432 -0.02587120976822711 0 0.0017109558379482662 -0.02591085892913618 0 0.0016897538497467738 -0.025896373595655643 0 0.00097765500110157957 -0.030187126129993604 0 0.001440897225883517 -0.029352026493237985 0 0.00029022852349077125 -0.034296183181927169 0 0.00035216712772748529 -0.034372836863087189 0 0.0002453254168105048 -0.03436724576869167 0 0.0017555935465685603 -0.025858487008194399 0 0.0017109558379482662 -0.02591085892913618 0 0.0017369349623776243 -0.025961604866555896 0 0.001440897225883517 -0.029352026493237985 0 -0.00026330017097258814 -0.03478254032613242 0 0.00035216712772748529 -0.034372836863087189 0 0.00024224468658437447 -0.034439268909360964 0 0.0002453254168105048 -0.03436724576869167 0 -2.009533301392609e-05 -0.034378200165045641 0 -3.1984903453289798e-05 -0.034348811712739596 0 -1.2237274728147177e-05 -0.03439629799510921 0 -2.9647582982226729e-05 -0.034330646375903461 0 -2.009533301392609e-05 -0.034378200165045641 0 -3.1984903453289798e-05 -0.034348811712739596 0 -2.9647582982226729e-05 -0.034330646375903461 0 -3.1984903453289798e-05 -0.034348811712739596 0 -5.5216477893346709e-05 -0.034296683760915325 0 0.001440897225883517 -0.029352026493237985 0 0.0015623118057097262 -0.028537503431797208 0 -3.1984903453289798e-05 -0.034348811712739596 0 -3.4086637490333232e-05 -0.034357762795155351 0 -5.5216477893346709e-05 -0.034296683760915325 0 -3.1984903453289798e-05 -0.034348811712739596 0 -3.4086637490333232e-05 -0.034357762795155351 0 -1.2237274728147177e-05 -0.03439629799510921 0 -3.4086637490333232e-05 -0.034357762795155351 0 -5.4957199723248454e-05 -0.034342269994794263 0 -6.0654673195569608e-05 -0.034300642935689872 0 -3.4086637490333232e-05 -0.034357762795155351 0 -5.4957199723248454e-05 -0.034342269994794263 0 -3.5454914652384678e-05 -0.034386675604475898 0 -5.4957199723248454e-05 -0.034342269994794263 0 -6.3984802872211954e-05 -0.034375871833582726 0 -9.1207402238118487e-05 -0.034343741318349406 0 -5.4957199723248454e-05 -0.034342269994794263 0 -3.5454914652384678e-05 -0.034386675604475898 0 -6.3984802872211954e-05 -0.034375871833582726 0 -5.4957199723248454e-05 -0.034342269994794263 0 -6.0654673195569608e-05 -0.034300642935689872 0 -6.3212586356804545e-05 -0.034301254933871698 0 -6.0654673195569608e-05 -0.034300642935689872 0 -6.3212586356804545e-05 -0.034301254933871698 0 -7.9927730842502154e-05 -0.034261347520100204 0 -3.4086637490333232e-05 -0.034357762795155351 0 -6.0654673195569608e-05 -0.034300642935689872 0 -5.5216477893346709e-05 -0.034296683760915325 0 0.0022401025453614785 -0.021189201220851769 0 0.0019924040288738136 -0.0215320314398516 0 0.0029220510006548101 -0.022447311310101331 0 -6.0654673195569608e-05 -0.034300642935689872 0 -7.2692656307871603e-05 -0.034237379108374731 0 -5.5216477893346709e-05 -0.034296683760915325 0 0.00074593870432773104 -0.026635775259894766 0 0.0015623118057097262 -0.028537503431797208 0 0.00074593870432773104 -0.026635775259894766 0 3.6009160420728547e-05 -0.029382058279345424 0 -6.0654673195569608e-05 -0.034300642935689872 0 -7.2692656307871603e-05 -0.034237379108374731 0 -7.9927730842502154e-05 -0.034261347520100204 0 -0.00026503223911652395 -0.024677566642408857 0 0.00045521366526514348 -0.023607921208729291 0 -0.0003475771539097883 -0.02331559428379432 0 0.00074593870432773104 -0.026635775259894766 0 0.001225343066776671 -0.016955870359222448 0 0.0023287280398943469 -0.02108727246580883 0 0.0013942754956743364 -0.021173162521316461 0 0.0015146138982876194 -0.019582902651790284 0 -0.00026503223911652395 -0.024677566642408857 0 -0.0003475771539097883 -0.02331559428379432 0 -0.0010155725922943795 -0.02331190415186446 0 0.0023287280398943469 -0.02108727246580883 0 0.0019924040288738136 -0.0215320314398516 0 0.0013942754956743364 -0.021173162521316461 0 0.00074593870432773104 -0.026635775259894766 0 0.0029081307850372783 -0.021741798180300045 0 0.0019924040288738136 -0.0215320314398516 0 0.0020485608614290718 -0.022465516016470385 0 0.0013517049042697103 -0.022482336102835437 0 0.0019924040288738136 -0.0215320314398516 0 0.0020485608614290718 -0.022465516016470385 0 0.0029220510006548101 -0.022447311310101331 0 0.0019239936249653097 -0.023376539822436117 0 0.0025396718740438879 -0.023822171493567822 0 0.0029220510006548101 -0.022447311310101331 0 0.0025396718740438879 -0.023822171493567822 0 0.0035777932962321023 -0.02367996674819204 0 0.0029220510006548101 -0.022447311310101331 0 0.0019239936249653097 -0.023376539822436117 0 0.0020485608614290718 -0.022465516016470385 0 0.0029220510006548101 -0.022447311310101331 0 0.0019239936249653097 -0.023376539822436117 0 0.0020485608614290718 -0.022465516016470385 0 0.0013517049042697103 -0.022482336102835437 0 0.0022491925397793949 -0.017963561262986431 0 0.002352583657221461 -0.017306418715522041 0 0.0012636209147072999 -0.023668743015685119 0 0.0019239936249653097 -0.023376539822436117 0 0.0013517049042697103 -0.022482336102835437 0 0.0033235777444334084 -0.012978651963697232 0 0.003025590455899339 -0.012330322136027154 0 0.0034103066036854091 -0.011770362280309666 0 0.003025590455899339 -0.012330322136027154 0 0.0029230136628027132 -0.011908510525094496 0 0.0034103066036854091 -0.011770362280309666 0 0.0022491925397793949 -0.017963561262986431 0 0.0014571941325422176 -0.010800377954560245 0 0.0033235777444334084 -0.012978651963697232 0 0.003025590455899339 -0.012330322136027154 0 0.0024887373340765659 -0.01188803124510273 0 0.0009959044048608453 -0.014273335915420293 0 0.0032421893894151663 -0.015423382927754151 0 -8.2826419951288435e-05 -0.011707036955837505 0 0.0018575307085649043 -0.0097655951991977887 0 0.0017616055131418548 -0.0097199744066228215 0 0.0017381798028202084 -0.0096352578549011719 0 0.0012947701140853911 -0.011705427590943391 0 0.0014571941325422176 -0.010800377954560245 0 0.0017616055131418548 -0.0097199744066228215 0 0.0017381798028202084 -0.0096352578549011719 0 0.0017187067892414046 -0.0096675640607948674 0 0.003025590455899339 -0.012330322136027154 0 0.0028009598289988739 -0.011963993767767481 0 0.0029230136628027132 -0.011908510525094496 0 0.003025590455899339 -0.012330322136027154 0 0.0024887373340765659 -0.01188803124510273 0 0.0028009598289988739 -0.011963993767767481 0 0.0028009598289988739 -0.011963993767767481 0 0.0029230136628027132 -0.011908510525094496 0 0.0027362574115249315 -0.011754496342990816 0 0.0024887373340765659 -0.01188803124510273 0 0.0028009598289988739 -0.011963993767767481 0 0.0027362574115249315 -0.011754496342990816 0 0.0027362574115249315 -0.011754496342990816 0 0.0028964575549398513 -0.011613930653758125 0 0.0025722502349653652 -0.011358515312292814 0 0.0029230136628027132 -0.011908510525094496 0 0.0027362574115249315 -0.011754496342990816 0 0.0028964575549398513 -0.011613930653758125 0 0.0024887373340765659 -0.01188803124510273 0 0.0027362574115249315 -0.011754496342990816 0 0.0025722502349653652 -0.011358515312292814 0 0.0028964575549398513 -0.011613930653758125 0 0.0025722502349653652 -0.011358515312292814 0 0.0029071998060559681 -0.011145681992584418 0 0.0028964575549398513 -0.011613930653758125 0 0.0034103066036854091 -0.011770362280309666 0 0.0029071998060559681 -0.011145681992584418 0 0.0034103066036854091 -0.011770362280309666 0 0.0033694695824502368 -0.010803808754850212 0 0.0029071998060559681 -0.011145681992584418 0 0.002352583657221461 -0.017306418715522041 0 0.0025402512057467637 -0.015500387397969481 0 0.0029230136628027132 -0.011908510525094496 0 0.0028964575549398513 -0.011613930653758125 0 0.0034103066036854091 -0.011770362280309666 0 0.0019924040288738136 -0.0215320314398516 0 0.0013517049042697103 -0.022482336102835437 0 0.0013942754956743364 -0.021173162521316461 0 0.0033694695824502368 -0.010803808754850212 0 0.0028368418947930154 -0.01047297115862383 0 0.0029071998060559681 -0.011145681992584418 0 0.0025402512057467637 -0.015500387397969481 0 0.001225343066776671 -0.016955870359222448 0 0.0033694695824502368 -0.010803808754850212 0 0.0028368418947930154 -0.01047297115862383 0 0.0033358870951677119 -0.010060295216783028 0 0.0028368418947930154 -0.01047297115862383 0 0.0025192322150382213 -0.010793014007837136 0 0.0022990332396989137 -0.010154509966511956 0 0.0028368418947930154 -0.01047297115862383 0 0.0022990332396989137 -0.010154509966511956 0 0.0028475776265334419 -0.00999378285829443 0 0.0028368418947930154 -0.01047297115862383 0 0.0025192322150382213 -0.010793014007837136 0 0.0029071998060559681 -0.011145681992584418 0 0.0025722502349653652 -0.011358515312292814 0 0.0025192322150382213 -0.010793014007837136 0 0.0029071998060559681 -0.011145681992584418 0 0.0025192322150382213 -0.010793014007837136 0 0.0020079022062933715 -0.010896018733204253 0 0.0022990332396989137 -0.010154509966511956 0 0.0025722502349653652 -0.011358515312292814 0 0.0025192322150382213 -0.010793014007837136 0 0.0020079022062933715 -0.010896018733204253 0 0.0019219601173255058 -0.010324395984251255 0 0.0016153899403440091 -0.0099628771551505766 0 0.0020079022062933715 -0.010896018733204253 0 0.0022990332396989137 -0.010154509966511956 0 0.0016490447766070527 -0.009942486955373581 0 0.0015690578189024188 -0.0096770531053209895 0 0.0016181670572665223 -0.0097592133658334339 0 0.0016490447766070527 -0.009942486955373581 0 0.0015690578189024188 -0.0096770531053209895 0 0.001589865910989838 -0.0096229236099075414 0 0.0016181670572665223 -0.0097592133658334339 0 0.0015690578189024188 -0.0096770531053209895 0 0.001589865910989838 -0.0096229236099075414 0 0.0016321899999315629 -0.0096373664796192589 0 0.0024887373340765659 -0.01188803124510273 0 0.0025722502349653652 -0.011358515312292814 0 0.0020079022062933715 -0.010896018733204253 0 0.0014571941325422176 -0.010800377954560245 0 0.0019219601173255058 -0.010324395984251255 0 0.0015690578189024188 -0.0096770531053209895 0 0.0016321899999315629 -0.0096373664796192589 0 0.0016760888742311266 -0.0096446644997175909 0 0.0017381798028202084 -0.0096352578549011719 0 0.0015690578189024188 -0.0096770531053209895 0 0.0016760888742311266 -0.0096446644997175909 0 0.0016321899999315629 -0.0096373664796192589 0 0.0016760888742311266 -0.0096446644997175909 0 0.0016617779313934707 -0.0096399055825771782 0 0.0016617779313934707 -0.0096399055825771782 0 0.0016919148712908271 -0.0096635649789545332 0 0.0016822270989768412 -0.0096609093387550644 0 0.0016760888742311266 -0.0096446644997175909 0 0.0016617779313934707 -0.0096399055825771782 0 0.0016919148712908271 -0.0096635649789545332 0 0.0016617779313934707 -0.0096399055825771782 0 0.0016822270989768412 -0.0096609093387550644 0 0.001670308984596931 -0.0096215378984939558 0 0.0017381798028202084 -0.0096352578549011719 0 0.0016760888742311266 -0.0096446644997175909 0 0.0017187067892414046 -0.0096675640607948674 0 0.0016760888742311266 -0.0096446644997175909 0 0.0016919148712908271 -0.0096635649789545332 0 0.0017187067892414046 -0.0096675640607948674 0 0.0017616055131418548 -0.0097199744066228215 0 0.0017187067892414046 -0.0096675640607948674 0 0.0017117059407214385 -0.0097277125039831099 0 0.0016919148712908271 -0.0096635649789545332 0 0.0017187067892414046 -0.0096675640607948674 0 0.0017117059407214385 -0.0097277125039831099 0 0.0016919148712908271 -0.0096635649789545332 0 0.0017117059407214385 -0.0097277125039831099 0 0.0016822270989768412 -0.0096609093387550644 0 0.0017117059407214385 -0.0097277125039831099 0 0.0016822270989768412 -0.0096609093387550644 0 0.001670308984596931 -0.0096215378984939558 0 0.0016967262222570049 -0.0097865233438226076 0 0.0017010790762895839 -0.0097953433502317756 0 0.0016303108494832661 -0.009659581933865867 0 0.001589865910989838 -0.0096229236099075414 0 0.0016321899999315629 -0.0096373664796192589 0 0.0016303108494832661 -0.009659581933865867 0 0.0017010790762895839 -0.0097953433502317756 0 0.001670308984596931 -0.0096215378984939558 0 0.0016303108494832661 -0.009659581933865867 0 0.0016321899999315629 -0.0096373664796192589 0 0.0016617779313934707 -0.0096399055825771782 0 0.001670308984596931 -0.0096215378984939558 0 0.0016321899999315629 -0.0096373664796192589 0 0.001670308984596931 -0.0096215378984939558 0 0.0016303108494832661 -0.009659581933865867 0 5.347242928745545e-05 -0.034937923624633896 0 0.00011670859733144731 -0.03496320347284293 0 0.00013295223682751963 -0.034851475891219397 0 5.347242928745545e-05 -0.034937923624633896 0 0.00011670859733144731 -0.03496320347284293 0 5.5746867478700151e-06 -0.035005552966961201 0 8.5188642489157185e-05 -0.034774829835448634 0 0.0001938083416276975 -0.034711920058366333 0 0.00011670859733144731 -0.03496320347284293 0 0.00013295223682751963 -0.034851475891219397 0 0.00023606644570512594 -0.034904621570019431 0 6.2607879965139376e-05 -0.034595058803995014 0 7.8604469888847567e-05 -0.034632557281568409 0 5.3110026144821156e-05 -0.034544029959543143 0 6.2607879965139376e-05 -0.034595058803995014 0 7.8604469888847567e-05 -0.034632557281568409 0 3.8306830222042537e-05 -0.034728516626845 0 7.8604469888847567e-05 -0.034632557281568409 0 3.8306830222042537e-05 -0.034728516626845 0 5.7200693814015227e-05 -0.03477037106637524 0 8.5188642489157185e-05 -0.034774829835448634 0 1.0556874382236165e-05 -0.034897566269340131 0 6.2607879965139376e-05 -0.034595058803995014 0 3.8306830222042537e-05 -0.034728516626845 0 -1.3911554365118692e-05 -0.034797471654797921 0 5.5746867478700151e-06 -0.035005552966961201 0 -8.8191968257275585e-07 -0.034994994758716043 0 8.8787324803216486e-07 -0.034983924405267583 0 1.0556874382236165e-05 -0.034897566269340131 0 1.6066912878100934e-08 -0.034999954275569921 0 -8.8191968257275585e-07 -0.034994994758716043 0 1.9247701704246252e-09 -0.034999986914345499 0 -8.2615669426324924e-09 -0.035000003948531588 0 5.5746867478700151e-06 -0.035005552966961201 0 -8.8191968257275585e-07 -0.034994994758716043 0 -8.2615669426324924e-09 -0.035000003948531588 0 -8.8191968257275585e-07 -0.034994994758716043 0 1.40604837310136e-06 -0.034996029022019773 0 1.9247701704246252e-09 -0.034999986914345499 0 5.347242928745545e-05 -0.034937923624633896 0 8.8787324803216486e-07 -0.034983924405267583 0 1.7135569908332062e-05 -0.034862199879475801 0 1.40604837310136e-06 -0.034996029022019773 0 8.8787324803216486e-07 -0.034983924405267583 0 -1.8018967967692235e-06 -0.034998064949038815 0 -8.8191968257275585e-07 -0.034994994758716043 0 1.40604837310136e-06 -0.034996029022019773 0 8.8787324803216486e-07 -0.034983924405267583 0 5.347242928745545e-05 -0.034937923624633896 0 5.5746867478700151e-06 -0.035005552966961201 0 8.8787324803216486e-07 -0.034983924405267583 0 -8.006502643334212e-08 -0.034980833078230508 0 9.5924903790508143e-06 -0.034925391035146795 0 1.40604837310136e-06 -0.034996029022019773 0 -1.8018967967692235e-06 -0.034998064949038815 0 2.9485023764750251e-07 -0.034999137509804885 0 1.40604837310136e-06 -0.034996029022019773 0 2.6318175261455862e-09 -0.035000000299447748 0 2.9485023764750251e-07 -0.034999137509804885 0 1.40604837310136e-06 -0.034996029022019773 0 1.9247701704246252e-09 -0.034999986914345499 0 2.6318175261455862e-09 -0.035000000299447748 0 -4.4111995981315931e-09 -0.034999993149836948 0 2.6318175261455862e-09 -0.035000000299447748 0 1.3091498886102325e-07 -0.034999480227626389 0 2.6318175261455862e-09 -0.035000000299447748 0 2.9485023764750251e-07 -0.034999137509804885 0 1.3091498886102325e-07 -0.034999480227626389 0 -1.8018967967692235e-06 -0.034998064949038815 0 2.9485023764750251e-07 -0.034999137509804885 0 1.4218250601263906e-06 -0.03499878848044749 0 -1.8018967967692235e-06 -0.034998064949038815 0 1.4218250601263906e-06 -0.03499878848044749 0 6.6145408348054299e-07 -0.034998326129442217 0 2.9485023764750251e-07 -0.034999137509804885 0 1.3091498886102325e-07 -0.034999480227626389 0 1.4218250601263906e-06 -0.03499878848044749 0 -1.8276105550588298e-06 -0.034970461456442198 0 2.1586842612899491e-05 -0.034897343034709122 0 1.7135569908332062e-05 -0.034862199879475801 0 4.5982191508239139e-05 -0.034749306340336392 0 0.00013295223682751963 -0.034851475891219397 0 9.5924903790508143e-06 -0.034925391035146795 0 2.1586842612899491e-05 -0.034897343034709122 0 5.347242928745545e-05 -0.034937923624633896 0 1.7135569908332062e-05 -0.034862199879475801 0 0.00013295223682751963 -0.034851475891219397 0 4.5982191508239139e-05 -0.034749306340336392 0 0.00013295223682751963 -0.034851475891219397 0 0.00019270852255678895 -0.034741770649911533 0 2.1586842612899491e-05 -0.034897343034709122 0 0.00021312753477898614 -0.034977130015125944 0 0.00013295223682751963 -0.034851475891219397 0 0.00019270852255678895 -0.034741770649911533 0 0.00026565221772379251 -0.03480518831726287 0 0.00033733715704083395 -0.034729016280273618 0 0.00019270852255678895 -0.034741770649911533 0 0.00026565221772379251 -0.03480518831726287 0 0.00033733715704083395 -0.034729016280273618 0 0.00026565221772379251 -0.03480518831726287 0 0.00035253961376804184 -0.034846736512135351 0 0.00043277791744212696 -0.033817371886811866 0 0.00021312753477898614 -0.034977130015125944 0 0.00026565221772379251 -0.03480518831726287 0 0.00035253961376804184 -0.034846736512135351 0 0.00023606644570512594 -0.034904621570019431 0 0.00010732509454230066 -0.034321582150528739 0 0.00010514797678789666 -0.034308815142992451 0 4.6175043883385604e-05 -0.034455253147603483 0 -4.5495112182405635e-05 -0.03425236710799609 0 0.0001938083416276975 -0.034711920058366333 0 0.00013295223682751963 -0.034851475891219397 0 0.00026565221772379251 -0.03480518831726287 0 0.00023606644570512594 -0.034904621570019431 0 0.00052956517591300808 -0.0325085893928884 0 0.00065090422486107193 -0.032713968131578945 0 0.00030085009478139901 -0.032877213097523929 0 0.00055088763132885466 -0.029929492055376712 0 0.00069113713267416721 -0.029910509900573645 0 0.00061880811079792735 -0.03003691822574173 0 0.00038705220165004338 -0.032017943682170126 0 0.00093750497489903284 -0.030301971007236826 0 0.00025144534306848539 -0.032524932922679363 0 0.00052956517591300808 -0.0325085893928884 0 0.00030085009478139901 -0.032877213097523929 0 0.00043277791744212696 -0.033817371886811866 0 -4.5495112182405635e-05 -0.03425236710799609 0 0.00010560825290081944 -0.034296695783364438 0 0.00019313002027883486 -0.034290327775871939 0 0.00014834478480182692 -0.03432996245392244 0 0.00010732509454230066 -0.034321582150528739 0 0.00010560825290081944 -0.034296695783364438 0 0.00014834478480182692 -0.03432996245392244 0 -2.9704820868050856e-05 -0.034275523614579632 0 -4.5495112182405635e-05 -0.03425236710799609 0 0.00029022852349077125 -0.034296183181927169 0 0.00023574867325867408 -0.034181143329028482 0 0.00019313002027883486 -0.034290327775871939 0 0.00093750497489903284 -0.030301971007236826 0 -4.5495112182405635e-05 -0.03425236710799609 0 0.00023574867325867408 -0.034181143329028482 0 0.00010560825290081944 -0.034296695783364438 0 0.00019313002027883486 -0.034290327775871939 0 0.00029022852349077125 -0.034296183181927169 0 0.0002453254168105048 -0.03436724576869167 0 0.00019313002027883486 -0.034290327775871939 0 0.0002453254168105048 -0.03436724576869167 0 0.00019313002027883486 -0.034290327775871939 0 0.0001698641244063927 -0.03438910718716328 0 0.00019313002027883486 -0.034290327775871939 0 0.0001698641244063927 -0.03438910718716328 0 0.00014834478480182692 -0.03432996245392244 0 0.00010732509454230066 -0.034321582150528739 0 0.00012271403621351356 -0.03438648114158132 0 7.597492497903285e-05 -0.034450295186092217 0 0.0001698641244063927 -0.03438910718716328 0 0.00014834478480182692 -0.03432996245392244 0 0.00012271403621351356 -0.03438648114158132 0 0.0001698641244063927 -0.03438910718716328 0 0.00012271403621351356 -0.03438648114158132 0 0.00011461732178916963 -0.034435481344475355 0 0.00010732509454230066 -0.034321582150528739 0 0.00014834478480182692 -0.03432996245392244 0 0.00012271403621351356 -0.03438648114158132 0 0.00012271403621351356 -0.03438648114158132 0 0.00011461732178916963 -0.034435481344475355 0 7.597492497903285e-05 -0.034450295186092217 0 0.0001698641244063927 -0.03438910718716328 0 0.00011461732178916963 -0.034435481344475355 0 0.00013148289958806052 -0.034485818706338087 0 0.00011461732178916963 -0.034435481344475355 0 3.743986055127233e-05 -0.034489460061478655 0 0.00013148289958806052 -0.034485818706338087 0 0.00024224468658437447 -0.034439268909360964 0 0.0001698641244063927 -0.03438910718716328 0 0.00013148289958806052 -0.034485818706338087 0 0.00024224468658437447 -0.034439268909360964 0 0.0002453254168105048 -0.03436724576869167 0 0.0001698641244063927 -0.03438910718716328 0 4.6175043883385604e-05 -0.034455253147603483 0 7.597492497903285e-05 -0.034450295186092217 0 5.3110026144821156e-05 -0.034544029959543143 0 6.2607879965139376e-05 -0.034595058803995014 0 4.6175043883385604e-05 -0.034455253147603483 0 5.3110026144821156e-05 -0.034544029959543143 0 0.00010732509454230066 -0.034321582150528739 0 4.6175043883385604e-05 -0.034455253147603483 0 7.597492497903285e-05 -0.034450295186092217 0 7.597492497903285e-05 -0.034450295186092217 0 5.3110026144821156e-05 -0.034544029959543143 0 3.743986055127233e-05 -0.034489460061478655 0 0.00011461732178916963 -0.034435481344475355 0 7.597492497903285e-05 -0.034450295186092217 0 3.743986055127233e-05 -0.034489460061478655 0 5.3110026144821156e-05 -0.034544029959543143 0 3.743986055127233e-05 -0.034489460061478655 0 6.2048928722989747e-05 -0.034477007107412187 0 3.743986055127233e-05 -0.034489460061478655 0 2.0795902600804438e-05 -0.034442201525852471 0 6.7890388214536012e-06 -0.034432943703332983 0 3.743986055127233e-05 -0.034489460061478655 0 2.0795902600804438e-05 -0.034442201525852471 0 6.2048928722989747e-05 -0.034477007107412187 0 2.0795902600804438e-05 -0.034442201525852471 0 6.2048928722989747e-05 -0.034477007107412187 0 1.2796191508095541e-05 -0.034447694440538919 0 7.2005726189332381e-05 -0.034656758139259856 0 3.2571185640461293e-05 -0.034629843186642646 0 9.1578191828612968e-05 -0.034845316883441835 0 3.5434051124790172e-05 -0.03481142292653891 0 6.5076355079894549e-05 -0.034853270407318677 0 -0.00026330017097258814 -0.03478254032613242 0 0.00015413890807000754 -0.034420272063099409 0 -2.009533301392609e-05 -0.034378200165045641 0 -1.9442807203342084e-06 -0.034429891967028642 0 -1.2237274728147177e-05 -0.03439629799510921 0 9.6307885843911321e-06 -0.034490751247601689 0 0.00015413890807000754 -0.034420272063099409 0 3.743986055127233e-05 -0.034489460061478655 0 -1.9442807203342084e-06 -0.034429891967028642 0 6.7890388214536012e-06 -0.034432943703332983 0 -1.9442807203342084e-06 -0.034429891967028642 0 6.7890388214536012e-06 -0.034432943703332983 0 -1.2237274728147177e-05 -0.03439629799510921 0 2.0795902600804438e-05 -0.034442201525852471 0 6.7890388214536012e-06 -0.034432943703332983 0 1.0220986339504078e-05 -0.034426664916028631 0 6.7890388214536012e-06 -0.034432943703332983 0 -1.2237274728147177e-05 -0.03439629799510921 0 1.0220986339504078e-05 -0.034426664916028631 0 -3.4086637490333232e-05 -0.034357762795155351 0 -1.2237274728147177e-05 -0.03439629799510921 0 -1.2806320748418696e-05 -0.034403769935122043 0 -1.2237274728147177e-05 -0.03439629799510921 0 -1.2806320748418696e-05 -0.034403769935122043 0 1.0220986339504078e-05 -0.034426664916028631 0 -3.4086637490333232e-05 -0.034357762795155351 0 -1.2806320748418696e-05 -0.034403769935122043 0 -3.5454914652384678e-05 -0.034386675604475898 0 2.0795902600804438e-05 -0.034442201525852471 0 1.0220986339504078e-05 -0.034426664916028631 0 3.3266833011054242e-05 -0.034458927333154525 0 -1.2806320748418696e-05 -0.034403769935122043 0 1.0220986339504078e-05 -0.034426664916028631 0 3.3266833011054242e-05 -0.034458927333154525 0 3.3266833011054242e-05 -0.034458927333154525 0 -1.2891803005113367e-05 -0.034425402917926125 0 4.0259332383776056e-05 -0.034485141653706843 0 3.3266833011054242e-05 -0.034458927333154525 0 4.1989180935921872e-05 -0.034576810901289966 0 4.0259332383776056e-05 -0.034485141653706843 0 -1.2806320748418696e-05 -0.034403769935122043 0 3.3266833011054242e-05 -0.034458927333154525 0 -1.2891803005113367e-05 -0.034425402917926125 0 -1.2806320748418696e-05 -0.034403769935122043 0 -1.2891803005113367e-05 -0.034425402917926125 0 -3.5454914652384678e-05 -0.034386675604475898 0 -1.2891803005113367e-05 -0.034425402917926125 0 -3.5454914652384678e-05 -0.034386675604475898 0 -6.3984802872211954e-05 -0.034375871833582726 0 2.0795902600804438e-05 -0.034442201525852471 0 3.3266833011054242e-05 -0.034458927333154525 0 1.2796191508095541e-05 -0.034447694440538919 0 3.2571185640461293e-05 -0.034629843186642646 0 3.8073106409086965e-05 -0.034588437994154633 0 3.3266833011054242e-05 -0.034458927333154525 0 1.2796191508095541e-05 -0.034447694440538919 0 4.1989180935921872e-05 -0.034576810901289966 0 3.5434051124790172e-05 -0.03481142292653891 0 6.7011706281938424e-05 -0.034798248811798993 0 4.1989180935921872e-05 -0.034576810901289966 0 6.7011706281938424e-05 -0.034798248811798993 0 3.5503762222324539e-05 -0.034893108773920045 0 2.9269701405774862e-05 -0.034897936350087616 0 6.7011706281938424e-05 -0.034798248811798993 0 3.5503762222324539e-05 -0.034893108773920045 0 6.5076355079894549e-05 -0.034853270407318677 0 3.5434051124790172e-05 -0.03481142292653891 0 6.7011706281938424e-05 -0.034798248811798993 0 6.5076355079894549e-05 -0.034853270407318677 0 9.1578191828612968e-05 -0.034845316883441835 0 6.5076355079894549e-05 -0.034853270407318677 0 2.8922657849310205e-05 -0.034841495423760312 0 3.5503762222324539e-05 -0.034893108773920045 0 6.5076355079894549e-05 -0.034853270407318677 0 2.8922657849310205e-05 -0.034841495423760312 0 3.8306830222042537e-05 -0.034728516626845 0 2.8922657849310205e-05 -0.034841495423760312 0 5.7200693814015227e-05 -0.03477037106637524 0 3.8306830222042537e-05 -0.034728516626845 0 -1.3911554365118692e-05 -0.034797471654797921 0 2.8922657849310205e-05 -0.034841495423760312 0 7.5224083940573727e-05 -0.03462916889483058 0 7.2005726189332381e-05 -0.034656758139259856 0 7.8604469888847567e-05 -0.034632557281568409 0 5.3110026144821156e-05 -0.034544029959543143 0 6.2048928722989747e-05 -0.034477007107412187 0 7.8604469888847567e-05 -0.034632557281568409 0 9.1578191828612968e-05 -0.034845316883441835 0 5.7200693814015227e-05 -0.03477037106637524 0 9.1578191828612968e-05 -0.034845316883441835 0 2.8922657849310205e-05 -0.034841495423760312 0 5.7200693814015227e-05 -0.03477037106637524 0 -1.3911554365118692e-05 -0.034797471654797921 0 -7.4752103234688884e-08 -0.034999700087295325 0 -1.984633453389178e-08 -0.034924818764352945 0 -1.3911554365118692e-05 -0.034797471654797921 0 2.8922657849310205e-05 -0.034841495423760312 0 -1.984633453389178e-08 -0.034924818764352945 0 3.5503762222324539e-05 -0.034893108773920045 0 2.8922657849310205e-05 -0.034841495423760312 0 -1.984633453389178e-08 -0.034924818764352945 0 -1.984633453389178e-08 -0.034924818764352945 0 2.0142388351301949e-08 -0.034999938313853597 0 1.3462588008801041e-05 -0.034947514457737278 0 -7.4752103234688884e-08 -0.034999700087295325 0 -1.984633453389178e-08 -0.034924818764352945 0 2.0142388351301949e-08 -0.034999938313853597 0 2.0142388351301949e-08 -0.034999938313853597 0 1.3462588008801041e-05 -0.034947514457737278 0 1.4298483956538328e-08 -0.034999889892603171 0 3.5503762222324539e-05 -0.034893108773920045 0 -1.984633453389178e-08 -0.034924818764352945 0 1.3462588008801041e-05 -0.034947514457737278 0 3.5503762222324539e-05 -0.034893108773920045 0 1.3462588008801041e-05 -0.034947514457737278 0 2.9269701405774862e-05 -0.034897936350087616 0 1.3462588008801041e-05 -0.034947514457737278 0 2.9269701405774862e-05 -0.034897936350087616 0 1.4298483956538328e-08 -0.034999889892603171 0 1.4298483956538328e-08 -0.034999889892603171 0 1.7606390356942822e-05 -0.03492072688353022 0 6.9788867630790162e-09 -0.034999895451014125 0 2.9269701405774862e-05 -0.034897936350087616 0 1.4298483956538328e-08 -0.034999889892603171 0 1.7606390356942822e-05 -0.03492072688353022 0 2.9269701405774862e-05 -0.034897936350087616 0 1.7606390356942822e-05 -0.03492072688353022 0 4.2300883656210953e-05 -0.03483345145199717 0 1.7606390356942822e-05 -0.03492072688353022 0 4.2300883656210953e-05 -0.03483345145199717 0 1.4571121826980373e-05 -0.034921372175136287 0 1.7606390356942822e-05 -0.03492072688353022 0 6.9788867630790162e-09 -0.034999895451014125 0 1.4571121826980373e-05 -0.034921372175136287 0 6.7011706281938424e-05 -0.034798248811798993 0 4.2300883656210953e-05 -0.03483345145199717 0 6.157629060629064e-05 -0.034689509784426496 0 6.7011706281938424e-05 -0.034798248811798993 0 2.9269701405774862e-05 -0.034897936350087616 0 4.2300883656210953e-05 -0.03483345145199717 0 4.2300883656210953e-05 -0.03483345145199717 0 4.7072546292408336e-05 -0.034812866218240437 0 1.4571121826980373e-05 -0.034921372175136287 0 4.2300883656210953e-05 -0.03483345145199717 0 4.7072546292408336e-05 -0.034812866218240437 0 6.157629060629064e-05 -0.034689509784426496 0 4.7072546292408336e-05 -0.034812866218240437 0 5.9188953909333932e-05 -0.034888696423544349 0 9.5993800204008118e-05 -0.034743421332247296 0 4.7072546292408336e-05 -0.034812866218240437 0 5.9188953909333932e-05 -0.034888696423544349 0 1.4571121826980373e-05 -0.034921372175136287 0 5.9188953909333932e-05 -0.034888696423544349 0 1.4571121826980373e-05 -0.034921372175136287 0 3.0483325016828087e-05 -0.034965304135297241 0 6.9788867630790162e-09 -0.034999895451014125 0 1.4571121826980373e-05 -0.034921372175136287 0 -2.5043209146509463e-09 -0.034999928109017774 0 1.4571121826980373e-05 -0.034921372175136287 0 7.5630645299933926e-06 -0.034982207450715778 0 3.0483325016828087e-05 -0.034965304135297241 0 1.4571121826980373e-05 -0.034921372175136287 0 -2.5043209146509463e-09 -0.034999928109017774 0 7.5630645299933926e-06 -0.034982207450715778 0 -2.5043209146509463e-09 -0.034999928109017774 0 7.5630645299933926e-06 -0.034982207450715778 0 7.986824590840372e-09 -0.034999993218148381 0 7.5630645299933926e-06 -0.034982207450715778 0 7.986824590840372e-09 -0.034999993218148381 0 7.4766183927609358e-06 -0.035000121645746056 0 2.5748512495459078e-07 -0.034999631135613905 0 0.00044398219314439722 -0.034363658812276369 0 1.1067303869116325e-09 -0.034999995295920572 0 2.487597331831912e-06 -0.034997825669728103 0 1.230956811211798e-09 -0.03499999996049661 0 3.3103173838599675e-06 -0.034997095341241548 0 1.7581449063187935e-08 -0.034999969477173182 0 1.5328290073463241e-06 -0.03499633862749655 0 0.00044398219314439722 -0.034363658812276369 0 -2.3015755769811028e-07 -0.03499995438881761 0 0.0017275361146073453 -0.033191063474474987 0 0.0014163059896869364 -0.033187622288068944 0 0.0013818418748165946 -0.033432034965166238 0 0.0017275361146073453 -0.033191063474474987 0 0.0014163059896869364 -0.033187622288068944 0 0.001406335123267927 -0.032939742410588786 0 3.3103173838599675e-06 -0.034997095341241548 0 1.5328290073463241e-06 -0.03499633862749655 0 -7.5437651552972124e-06 -0.034992064086211125 0 0.00044398219314439722 -0.034363658812276369 0 0.00075847882351377631 -0.033947947214610939 0 0.00044398219314439722 -0.034363658812276369 0 0.0007973511028420069 -0.034138923330064061 0 7.5630645299933926e-06 -0.034982207450715778 0 7.4766183927609358e-06 -0.035000121645746056 0 3.0483325016828087e-05 -0.034965304135297241 0 0.00052165298686763866 -0.034312936877446083 0 0.0007973511028420069 -0.034138923330064061 0 0.001033044981863514 -0.033703851716010494 0 0.0013818418748165946 -0.033432034965166238 0 0.0011415483663958178 -0.033187339261017627 0 0.001033044981863514 -0.033703851716010494 0 0.0011415483663958178 -0.033187339261017627 0 0.00080062400136800911 -0.033353483936573912 0 0.0011415483663958178 -0.033187339261017627 0 0.00080586302355351307 -0.033026901145723993 0 0.00080062400136800911 -0.033353483936573912 0 0.0014163059896869364 -0.033187622288068944 0 0.0011415483663958178 -0.033187339261017627 0 0.001406335123267927 -0.032939742410588786 0 0.0014163059896869364 -0.033187622288068944 0 0.0013818418748165946 -0.033432034965166238 0 0.0011415483663958178 -0.033187339261017627 0 0.00049239038647737755 -0.033822206648891413 0 0.00075847882351377631 -0.033947947214610939 0 -4.8118122711589231e-05 -0.034967392209741259 0 -8.9664760492720614e-06 -0.03497304931830398 0 -7.5437651552972124e-06 -0.034992064086211125 0 0.0011415483663958178 -0.033187339261017627 0 0.0010541371209758998 -0.032668308535300505 0 0.001406335123267927 -0.032939742410588786 0 0.0010541371209758998 -0.032668308535300505 0 0.00073242195860760034 -0.032679445824144032 0 0.00080586302355351307 -0.033026901145723993 0 0.0011415483663958178 -0.033187339261017627 0 0.0010541371209758998 -0.032668308535300505 0 0.00080586302355351307 -0.033026901145723993 0 0.0010541371209758998 -0.032668308535300505 0 0.00073242195860760034 -0.032679445824144032 0 0.00067961315419876294 -0.032406726894101186 0 0.00049239038647737755 -0.033822206648891413 0 0.0002898273591628236 -0.033616364473366543 0 -4.8118122711589231e-05 -0.034967392209741259 0 -8.9664760492720614e-06 -0.03497304931830398 0 -2.3278155232042996e-05 -0.034932157682958327 0 -8.9664760492720614e-06 -0.03497304931830398 0 2.6711492963662539e-06 -0.034982837712620611 0 2.0114144951854042e-06 -0.034993611726137297 0 -8.9664760492720614e-06 -0.03497304931830398 0 2.6711492963662539e-06 -0.034982837712620611 0 -2.3278155232042996e-05 -0.034932157682958327 0 -1.706561992769249e-08 -0.035000012985960512 0 2.6711492963662539e-06 -0.034982837712620611 0 2.0114144951854042e-06 -0.034993611726137297 0 1.7581449063187935e-08 -0.034999969477173182 0 -1.706561992769249e-08 -0.035000012985960512 0 2.0114144951854042e-06 -0.034993611726137297 0 1.7581449063187935e-08 -0.034999969477173182 0 2.0114144951854042e-06 -0.034993611726137297 0 1.5328290073463241e-06 -0.03499633862749655 0 2.0114144951854042e-06 -0.034993611726137297 0 1.5328290073463241e-06 -0.03499633862749655 0 -7.5437651552972124e-06 -0.034992064086211125 0 -8.9664760492720614e-06 -0.03497304931830398 0 2.0114144951854042e-06 -0.034993611726137297 0 -7.5437651552972124e-06 -0.034992064086211125 0 0.00025519924340254173 -0.032900916599603147 0 -2.2586334653811519e-05 -0.032818761182584873 0 0.00014042186023752076 -0.032669226795696962 0 -2.2586334653811519e-05 -0.032818761182584873 0 -4.488631185023808e-05 -0.03261637128359629 0 0.00014042186023752076 -0.032669226795696962 0 0.00025519924340254173 -0.032900916599603147 0 0.00014042186023752076 -0.032669226795696962 0 0.00034103489481897563 -0.032684460574329686 0 -2.2586334653811519e-05 -0.032818761182584873 0 -4.488631185023808e-05 -0.03261637128359629 0 -0.00026819374228056445 -0.032635962616958974 0 -2.2586334653811519e-05 -0.032818761182584873 0 -0.00022212687362372038 -0.032889364016276811 0 -0.00026819374228056445 -0.032635962616958974 0 -4.488631185023808e-05 -0.03261637128359629 0 -0.0001362239248078172 -0.032472501118621683 0 -0.00026819374228056445 -0.032635962616958974 0 -4.488631185023808e-05 -0.03261637128359629 0 -0.0001362239248078172 -0.032472501118621683 0 8.4540320838832607e-05 -0.032482581124741547 0 -4.488631185023808e-05 -0.03261637128359629 0 8.4540320838832607e-05 -0.032482581124741547 0 0.00014042186023752076 -0.032669226795696962 0 0.00014042186023752076 -0.032669226795696962 0 0.00023141324742354108 -0.032517963034663332 0 0.00034103489481897563 -0.032684460574329686 0 8.4540320838832607e-05 -0.032482581124741547 0 0.00014042186023752076 -0.032669226795696962 0 0.00023141324742354108 -0.032517963034663332 0 8.4540320838832607e-05 -0.032482581124741547 0 0.00023141324742354108 -0.032517963034663332 0 0.00022111730807136801 -0.032400141916857896 0 0.00023141324742354108 -0.032517963034663332 0 0.0003992150235430003 -0.032522728162771769 0 0.00032269093509220884 -0.032409059413268861 0 0.0003992150235430003 -0.032522728162771769 0 0.00045564017435366556 -0.03241854083862878 0 0.00032269093509220884 -0.032409059413268861 0 0.0003992150235430003 -0.032522728162771769 0 0.00051338495640036003 -0.032650634592739564 0 0.00054557024744889666 -0.03251699018988298 0 0.0003992150235430003 -0.032522728162771769 0 0.00054557024744889666 -0.03251699018988298 0 0.00045564017435366556 -0.03241854083862878 0 0.0003992150235430003 -0.032522728162771769 0 0.00051338495640036003 -0.032650634592739564 0 0.00034103489481897563 -0.032684460574329686 0 0.00023141324742354108 -0.032517963034663332 0 0.0003992150235430003 -0.032522728162771769 0 0.00034103489481897563 -0.032684460574329686 0 0.00054557024744889666 -0.03251699018988298 0 0.00073242195860760034 -0.032679445824144032 0 0.00067961315419876294 -0.032406726894101186 0 0.00051338495640036003 -0.032650634592739564 0 0.00054557024744889666 -0.03251699018988298 0 0.00073242195860760034 -0.032679445824144032 0 0.00073242195860760034 -0.032679445824144032 0 0.00051591732670017685 -0.032855687765832579 0 0.00080586302355351307 -0.033026901145723993 0 0.00051338495640036003 -0.032650634592739564 0 0.00073242195860760034 -0.032679445824144032 0 0.00051591732670017685 -0.032855687765832579 0 0.00025519924340254173 -0.032900916599603147 0 0.00034103489481897563 -0.032684460574329686 0 0.00051591732670017685 -0.032855687765832579 0 0.00051338495640036003 -0.032650634592739564 0 0.00034103489481897563 -0.032684460574329686 0 0.00051591732670017685 -0.032855687765832579 0 0.00025519924340254173 -0.032900916599603147 0 0.00051591732670017685 -0.032855687765832579 0 0.00046473004591404709 -0.033229622974297608 0 0.00051591732670017685 -0.032855687765832579 0 0.00046473004591404709 -0.033229622974297608 0 0.00080586302355351307 -0.033026901145723993 0 0.00046473004591404709 -0.033229622974297608 0 0.00080586302355351307 -0.033026901145723993 0 0.00080062400136800911 -0.033353483936573912 0 0.001033044981863514 -0.033703851716010494 0 0.00080062400136800911 -0.033353483936573912 0 0.00058558825077514051 -0.033622875969707269 0 0.00046473004591404709 -0.033229622974297608 0 0.00080062400136800911 -0.033353483936573912 0 0.00058558825077514051 -0.033622875969707269 0 0.00046473004591404709 -0.033229622974297608 0 0.00020677170983006619 -0.033535508372969855 0 0.00058558825077514051 -0.033622875969707269 0 0.00020677170983006619 -0.033535508372969855 0 5.9672542867719718e-05 -0.033147910189922462 0 -9.2042032631137722e-06 -0.03344626498307926 0 0.00046473004591404709 -0.033229622974297608 0 0.00020677170983006619 -0.033535508372969855 0 5.9672542867719718e-05 -0.033147910189922462 0 0.00020677170983006619 -0.033535508372969855 0 -9.2042032631137722e-06 -0.03344626498307926 0 1.9049985886351428e-05 -0.033724695302854747 0 0.00025519924340254173 -0.032900916599603147 0 0.00046473004591404709 -0.033229622974297608 0 5.9672542867719718e-05 -0.033147910189922462 0 0.00025519924340254173 -0.032900916599603147 0 -2.2586334653811519e-05 -0.032818761182584873 0 5.9672542867719718e-05 -0.033147910189922462 0 -0.00022212687362372038 -0.032889364016276811 0 -0.00015832816734137587 -0.033266518006196691 0 -0.00038049754348565068 -0.032930918383069677 0 5.9672542867719718e-05 -0.033147910189922462 0 -0.00022212687362372038 -0.032889364016276811 0 -0.00015832816734137587 -0.033266518006196691 0 -2.2586334653811519e-05 -0.032818761182584873 0 5.9672542867719718e-05 -0.033147910189922462 0 -0.00022212687362372038 -0.032889364016276811 0 -0.00015832816734137587 -0.033266518006196691 0 -0.00038049754348565068 -0.032930918383069677 0 -0.00034607425476453063 -0.033522246294789379 0 5.9672542867719718e-05 -0.033147910189922462 0 -0.00015832816734137587 -0.033266518006196691 0 -9.2042032631137722e-06 -0.03344626498307926 0 -0.00015832816734137587 -0.033266518006196691 0 -9.2042032631137722e-06 -0.03344626498307926 0 -0.00020871970366681634 -0.03359530350761724 0 -0.00015832816734137587 -0.033266518006196691 0 -0.00020871970366681634 -0.03359530350761724 0 -0.00034607425476453063 -0.033522246294789379 0 -0.00022998835070234049 -0.033623234653697279 0 -0.00053949150429859997 -0.03368130721161678 0 -0.00020871970366681634 -0.03359530350761724 0 -0.00039258403212449276 -0.033792316962061621 0 -0.00034607425476453063 -0.033522246294789379 0 -0.00020871970366681634 -0.03359530350761724 0 -0.00013688223563139239 -0.033862625967414191 0 -0.00029108337585455368 -0.033947016803373205 0 -0.00013688223563139239 -0.033862625967414191 0 -0.00013384736718986259 -0.034033896073401647 0 -0.00029108337585455368 -0.033947016803373205 0 -0.00013688223563139239 -0.033862625967414191 0 1.9049985886351428e-05 -0.033724695302854747 0 1.4810569833164935e-05 -0.034013139541659125 0 -0.00020871970366681634 -0.03359530350761724 0 -0.00013688223563139239 -0.033862625967414191 0 1.9049985886351428e-05 -0.033724695302854747 0 -9.2042032631137722e-06 -0.03344626498307926 0 -0.00020871970366681634 -0.03359530350761724 0 1.9049985886351428e-05 -0.033724695302854747 0 0.00020677170983006619 -0.033535508372969855 0 1.9049985886351428e-05 -0.033724695302854747 0 0.00028867368224602728 -0.033901797872004785 0 1.9049985886351428e-05 -0.033724695302854747 0 1.4810569833164935e-05 -0.034013139541659125 0 0.00028867368224602728 -0.033901797872004785 0 1.4810569833164935e-05 -0.034013139541659125 0 -5.7185075440022836e-05 -0.034182747354376236 0 0.00014012583741878783 -0.034444210482971305 0 1.4810569833164935e-05 -0.034013139541659125 0 0.00028867368224602728 -0.033901797872004785 0 0.00014012583741878783 -0.034444210482971305 0 -5.7185075440022836e-05 -0.034182747354376236 0 -0.00013384736718986259 -0.034033896073401647 0 -0.0001867106898693176 -0.034147061363327715 0 -5.7185075440022836e-05 -0.034182747354376236 0 -7.860766008309154e-05 -0.034300166427667589 0 -0.0001867106898693176 -0.034147061363327715 0 -0.00013384736718986259 -0.034033896073401647 0 -0.00029108337585455368 -0.033947016803373205 0 -0.0001867106898693176 -0.034147061363327715 0 1.4810569833164935e-05 -0.034013139541659125 0 -5.7185075440022836e-05 -0.034182747354376236 0 -0.00013384736718986259 -0.034033896073401647 0 -0.00013688223563139239 -0.033862625967414191 0 1.4810569833164935e-05 -0.034013139541659125 0 -0.00013384736718986259 -0.034033896073401647 0 0.00052165298686763866 -0.034312936877446083 0 0.0003674785751632339 -0.034387254076432096 0 0.001033044981863514 -0.033703851716010494 0 0.00058558825077514051 -0.033622875969707269 0 0.00066337570693219736 -0.034035141705463248 0 0.00058558825077514051 -0.033622875969707269 0 0.00028867368224602728 -0.033901797872004785 0 0.00066337570693219736 -0.034035141705463248 0 0.00020677170983006619 -0.033535508372969855 0 0.00058558825077514051 -0.033622875969707269 0 0.00028867368224602728 -0.033901797872004785 0 0.00028867368224602728 -0.033901797872004785 0 0.00066337570693219736 -0.034035141705463248 0 0.00014012583741878783 -0.034444210482971305 0 0.0003674785751632339 -0.034387254076432096 0 0.00014759259698434978 -0.034460338581317945 0 4.7072546292408336e-05 -0.034812866218240437 0 9.5993800204008118e-05 -0.034743421332247296 0 6.157629060629064e-05 -0.034689509784426496 0 9.5993800204008118e-05 -0.034743421332247296 0 6.157629060629064e-05 -0.034689509784426496 0 0.00014012583741878783 -0.034444210482971305 0 6.157629060629064e-05 -0.034689509784426496 0 4.1989180935921872e-05 -0.034576810901289966 0 0.00014012583741878783 -0.034444210482971305 0 6.7011706281938424e-05 -0.034798248811798993 0 6.157629060629064e-05 -0.034689509784426496 0 4.1989180935921872e-05 -0.034576810901289966 0 -7.860766008309154e-05 -0.034300166427667589 0 -1.9399711452526359e-05 -0.034407603032234758 0 -0.00012723305138136464 -0.034317762455805395 0 -7.860766008309154e-05 -0.034300166427667589 0 -0.00018134585578536523 -0.034245541447998185 0 -0.0001867106898693176 -0.034147061363327715 0 -7.860766008309154e-05 -0.034300166427667589 0 -0.00012723305138136464 -0.034317762455805395 0 -0.00018134585578536523 -0.034245541447998185 0 0.00014012583741878783 -0.034444210482971305 0 4.0259332383776056e-05 -0.034485141653706843 0 -1.9399711452526359e-05 -0.034407603032234758 0 -5.7185075440022836e-05 -0.034182747354376236 0 -7.860766008309154e-05 -0.034300166427667589 0 0.00014012583741878783 -0.034444210482971305 0 -7.860766008309154e-05 -0.034300166427667589 0 0.00014012583741878783 -0.034444210482971305 0 -1.9399711452526359e-05 -0.034407603032234758 0 4.1989180935921872e-05 -0.034576810901289966 0 0.00014012583741878783 -0.034444210482971305 0 4.0259332383776056e-05 -0.034485141653706843 0 -1.2891803005113367e-05 -0.034425402917926125 0 4.0259332383776056e-05 -0.034485141653706843 0 -1.9399711452526359e-05 -0.034407603032234758 0 -1.2891803005113367e-05 -0.034425402917926125 0 -1.9399711452526359e-05 -0.034407603032234758 0 -6.3954295880582897e-05 -0.034385216585934686 0 -1.9399711452526359e-05 -0.034407603032234758 0 -6.3954295880582897e-05 -0.034385216585934686 0 -0.00012723305138136464 -0.034317762455805395 0 -1.2891803005113367e-05 -0.034425402917926125 0 -6.3954295880582897e-05 -0.034385216585934686 0 -6.3984802872211954e-05 -0.034375871833582726 0 -6.3984802872211954e-05 -0.034375871833582726 0 -9.1207402238118487e-05 -0.034343741318349406 0 -0.00010730008510361707 -0.034355045337525487 0 -6.3954295880582897e-05 -0.034385216585934686 0 -6.3984802872211954e-05 -0.034375871833582726 0 -0.00010730008510361707 -0.034355045337525487 0 -5.4957199723248454e-05 -0.034342269994794263 0 -9.1207402238118487e-05 -0.034343741318349406 0 -6.3212586356804545e-05 -0.034301254933871698 0 -9.1207402238118487e-05 -0.034343741318349406 0 -0.00010312058162524826 -0.034336509812278142 0 -6.3212586356804545e-05 -0.034301254933871698 0 -9.1207402238118487e-05 -0.034343741318349406 0 -0.00010312058162524826 -0.034336509812278142 0 -0.00011703611524308222 -0.034346329432962758 0 -0.00010312058162524826 -0.034336509812278142 0 -0.00011703611524308222 -0.034346329432962758 0 -0.00013829374769692892 -0.034350243364966886 0 -9.1207402238118487e-05 -0.034343741318349406 0 -0.00011703611524308222 -0.034346329432962758 0 -0.00010730008510361707 -0.034355045337525487 0 -0.00011703611524308222 -0.034346329432962758 0 -0.00010730008510361707 -0.034355045337525487 0 -0.00014517909888061978 -0.034328437136439911 0 -0.00011703611524308222 -0.034346329432962758 0 -0.00014517909888061978 -0.034328437136439911 0 -0.00013829374769692892 -0.034350243364966886 0 -6.3954295880582897e-05 -0.034385216585934686 0 -0.00010730008510361707 -0.034355045337525487 0 -0.00012723305138136464 -0.034317762455805395 0 -0.00014517909888061978 -0.034328437136439911 0 -0.00018134585578536523 -0.034245541447998185 0 -0.00028570256573533053 -0.034165704979234435 0 -0.00012723305138136464 -0.034317762455805395 0 -0.00014517909888061978 -0.034328437136439911 0 -0.00018134585578536523 -0.034245541447998185 0 0.00028548301945238041 -0.033351789262677935 0 -0.00072297876104702183 -0.032285730992953995 0 -0.00010730008510361707 -0.034355045337525487 0 -0.00012723305138136464 -0.034317762455805395 0 -0.00014517909888061978 -0.034328437136439911 0 -0.00014517909888061978 -0.034328437136439911 0 -0.00013829374769692892 -0.034350243364966886 0 -0.00028570256573533053 -0.034165704979234435 0 -0.00024589205185853661 -0.028446083024510318 0 -0.0014388333373352915 -0.029373917870022088 0 -0.00014715430656468754 -0.031371240701338544 0 -0.00027139402680089299 -0.03122464599535325 0 -0.0003590904596976917 -0.031668000707496403 0 -0.00024589205185853661 -0.028446083024510318 0 -0.00028561592014884066 -0.02445806533076654 0 -0.00024589205185853661 -0.028446083024510318 0 -0.00072297876104702183 -0.032285730992953995 0 -0.00024589205185853661 -0.028446083024510318 0 0.00028548301945238041 -0.033351789262677935 0 -0.00024589205185853661 -0.028446083024510318 0 3.6009160420728547e-05 -0.029382058279345424 0 -7.5770979255454613e-05 -0.034178907362448177 0 -4.460330927793612e-05 -0.034232921794039195 0 -6.3212586356804545e-05 -0.034301254933871698 0 -7.5770979255454613e-05 -0.034178907362448177 0 -6.3212586356804545e-05 -0.034301254933871698 0 -7.9927730842502154e-05 -0.034261347520100204 0 0.00028548301945238041 -0.033351789262677935 0 8.1793224671978924e-07 -0.034370474232916504 0 -0.00010312058162524826 -0.034336509812278142 0 -0.00013829374769692892 -0.034350243364966886 0 -6.3212586356804545e-05 -0.034301254933871698 0 0.001189934259705108 -0.022544419388399777 0 0.00045521366526514348 -0.023607921208729291 0 0.0002403606734277514 -0.022693688124316724 0 0.00045521366526514348 -0.023607921208729291 0 -0.0003475771539097883 -0.02331559428379432 0 0.0002403606734277514 -0.022693688124316724 0 -0.00061891670068023861 -0.022856675572279953 0 -0.00091420483523744101 -0.022381851768130855 0 -0.0010155725922943795 -0.02331190415186446 0 -0.0003475771539097883 -0.02331559428379432 0 -0.00026269342703775063 -0.022807952995243574 0 -0.00061891670068023861 -0.022856675572279953 0 -0.0003475771539097883 -0.02331559428379432 0 -0.00026269342703775063 -0.022807952995243574 0 0.0002403606734277514 -0.022693688124316724 0 -0.0003475771539097883 -0.02331559428379432 0 -0.00061891670068023861 -0.022856675572279953 0 -0.0010155725922943795 -0.02331190415186446 0 -0.00091420483523744101 -0.022381851768130855 0 -0.00057016017183784636 -0.02192453368349119 0 -0.0010705433792566241 -0.021461185689339794 0 -0.00061891670068023861 -0.022856675572279953 0 -0.00091420483523744101 -0.022381851768130855 0 -0.00039658044265981587 -0.022428254505398183 0 -0.00026269342703775063 -0.022807952995243574 0 -0.00039658044265981587 -0.022428254505398183 0 0.0002403606734277514 -0.022693688124316724 0 -0.00026269342703775063 -0.022807952995243574 0 -0.00061891670068023861 -0.022856675572279953 0 -0.00039658044265981587 -0.022428254505398183 0 -0.00039658044265981587 -0.022428254505398183 0 -0.00057016017183784636 -0.02192453368349119 0 -7.1265063562249041e-05 -0.022098039370722643 0 -0.00091420483523744101 -0.022381851768130855 0 -0.00039658044265981587 -0.022428254505398183 0 -0.00057016017183784636 -0.02192453368349119 0 0.001189934259705108 -0.022544419388399777 0 0.0002403606734277514 -0.022693688124316724 0 0.00051648373557396522 -0.022005096298962412 0 0.00017195735911848856 -0.027554943141592382 0 -0.00063281484315600193 -0.026953550328020773 0 -0.00087697875522740399 -0.026288701050195554 0 -0.00039658044265981587 -0.022428254505398183 0 0.0002403606734277514 -0.022693688124316724 0 -7.1265063562249041e-05 -0.022098039370722643 0 0.0002403606734277514 -0.022693688124316724 0 -7.1265063562249041e-05 -0.022098039370722643 0 0.00051648373557396522 -0.022005096298962412 0 -0.00028561592014884066 -0.02445806533076654 0 -0.0010027413369067706 -0.024320565568379481 0 -7.1265063562249041e-05 -0.022098039370722643 0 0.00051648373557396522 -0.022005096298962412 0 -0.00014441965756158934 -0.021444030790320555 0 -0.00063281484315600193 -0.026953550328020773 0 -0.00087697875522740399 -0.026288701050195554 0 -0.0014113141506944908 -0.026314222633251342 0 -0.0014388333373352915 -0.029373917870022088 0 -0.0010027413369067706 -0.024320565568379481 0 -0.00033536037756716339 -0.020079026766924388 0 -9.4909807954898429e-05 -0.020024373928651206 0 -2.3993924580986055e-05 -0.020276032340962306 0 -0.0010027413369067706 -0.024320565568379481 0 -0.00076896028684432505 -0.020743570739657755 0 -0.003405115778806166 -0.029111507621698458 0 -0.0029368192700229201 -0.029083949286354112 0 -0.0025265639952901466 -0.030144826881521154 0 -0.00057016017183784636 -0.02192453368349119 0 -0.00014441965756158934 -0.021444030790320555 0 -0.0010705433792566241 -0.021461185689339794 0 -0.00057016017183784636 -0.02192453368349119 0 -7.1265063562249041e-05 -0.022098039370722643 0 -0.00014441965756158934 -0.021444030790320555 0 -0.0014259229077234039 -0.030658821042638527 0 -0.0011984747801124416 -0.031075990410302783 0 -0.0011431940540302164 -0.031124641629702483 0 -0.0010027413369067706 -0.024320565568379481 0 -0.0010414290268609418 -0.025067685633061818 0 -0.0029368192700229201 -0.029083949286354112 0 -0.0025265639952901466 -0.030144826881521154 0 -0.001728474102105167 -0.030153135903931247 0 -0.0014388333373352915 -0.029373917870022088 0 -0.0019942107663561415 -0.030600602489412806 0 -0.0011307122959610049 -0.031331641725467423 0 -0.0011667674093706378 -0.031376015765444541 0 -0.0011179507091472257 -0.03138790179939098 0 -0.0011984747801124416 -0.031075990410302783 0 -0.0011431940540302164 -0.031124641629702483 0 -0.00099418084015215997 -0.03142709410006294 0 -0.0011867356375298266 -0.031283355231492657 0 -0.0011951219920289331 -0.031345453338709778 0 -0.0012410399050367025 -0.031348651242024142 0 -0.0011867356375298266 -0.031283355231492657 0 -0.0011307122959610049 -0.031331641725467423 0 -0.0011951219920289331 -0.031345453338709778 0 -0.0014388333373352915 -0.029373917870022088 0 -0.0010181356872290797 -0.031440141032220127 0 -0.0011307122959610049 -0.031331641725467423 0 -0.0011951219920289331 -0.031345453338709778 0 -0.0011667674093706378 -0.031376015765444541 0 -0.0011951219920289331 -0.031345453338709778 0 -0.0012229344074477866 -0.031401286009801167 0 -0.0011667674093706378 -0.031376015765444541 0 -0.0011951219920289331 -0.031345453338709778 0 -0.0012410399050367025 -0.031348651242024142 0 -0.0012229344074477866 -0.031401286009801167 0 -0.00086611119673218808 -0.032231310573741692 0 -0.00076806796378926117 -0.032681596904738146 0 -0.0012410399050367025 -0.031348651242024142 0 -0.001283381770926394 -0.031308111234262678 0 -0.001295206512906433 -0.031397906468819584 0 -0.00039258403212449276 -0.033792316962061621 0 -0.00046197358138105931 -0.033502782195527131 0 -0.00034607425476453063 -0.033522246294789379 0 -0.00039258403212449276 -0.033792316962061621 0 -0.00052776868749192512 -0.033898577910356879 0 -0.00046197358138105931 -0.033502782195527131 0 -0.00039258403212449276 -0.033792316962061621 0 -0.00052776868749192512 -0.033898577910356879 0 -0.00047236001909029869 -0.033899379649631356 0 -0.00065882740255802875 -0.032600830290860298 0 -0.00077649800277326635 -0.032599973819727512 0 -0.00062124659254377966 -0.032375297822861401 0 -0.00086611119673218808 -0.032231310573741692 0 -0.00075956103509735185 -0.032828016627197101 0 -0.00029108337585455368 -0.033947016803373205 0 -0.00028909448323588923 -0.034069332793339617 0 -0.0001867106898693176 -0.034147061363327715 0 -0.00053949150429859997 -0.03368130721161678 0 -0.00075956103509735185 -0.032828016627197101 0 -0.00028909448323588923 -0.034069332793339617 0 -0.0001867106898693176 -0.034147061363327715 0 -0.00028570256573533053 -0.034165704979234435 0 -0.00018134585578536523 -0.034245541447998185 0 -0.0001867106898693176 -0.034147061363327715 0 -0.00028570256573533053 -0.034165704979234435 0 -0.00086611119673218808 -0.032231310573741692 0 -0.00072297876104702183 -0.032285730992953995 0 -0.00075956103509735185 -0.032828016627197101 0 -0.00072297876104702183 -0.032285730992953995 0 -0.0011867356375298266 -0.031283355231492657 0 -0.0012410399050367025 -0.031348651242024142 0 -0.001283381770926394 -0.031308111234262678 0 -0.0014388333373352915 -0.029373917870022088 0 -0.00086611119673218808 -0.032231310573741692 0 -0.00066600941148068553 -0.030348825449203028 0 -0.001232697617365741 -0.030402422465354496 0 -0.0012110296100147906 -0.030269851732312197 0 -0.000994967524905073 -0.02994702068336887 0 -0.00066600941148068553 -0.030348825449203028 0 -0.0012110296100147906 -0.030269851732312197 0 0.0019825021853470989 -0.0096626329998567295 0 0.0019606674675064048 -0.0093250094728781346 0 0.0016584917274718089 -0.0095690739208929045 0 0.0019825021853470989 -0.0096626329998567295 0 0.0023298750785174108 -0.0092741496394946592 0 0.0019606674675064048 -0.0093250094728781346 0 0.0022990332396989137 -0.010154509966511956 0 0.0019825021853470989 -0.0096626329998567295 0 0.0016490447766070527 -0.009942486955373581 0 0.0022990332396989137 -0.010154509966511956 0 0.0019825021853470989 -0.0096626329998567295 0 0.0025267323325841628 -0.009658659840425193 0 0.0019825021853470989 -0.0096626329998567295 0 0.0025267323325841628 -0.009658659840425193 0 0.0023298750785174108 -0.0092741496394946592 0 0.0025267323325841628 -0.009658659840425193 0 0.0027701866050855615 -0.0092563918764570902 0 0.0023298750785174108 -0.0092741496394946592 0 0.0025267323325841628 -0.009658659840425193 0 0.0028475776265334419 -0.00999378285829443 0 0.0030315487470295769 -0.0096339901149871295 0 0.0025267323325841628 -0.009658659840425193 0 0.0030315487470295769 -0.0096339901149871295 0 0.0027701866050855615 -0.0092563918764570902 0 0.0022990332396989137 -0.010154509966511956 0 0.0025267323325841628 -0.009658659840425193 0 0.0028475776265334419 -0.00999378285829443 0 0.001225343066776671 -0.016955870359222448 0 0.00073337066003390384 -0.015973783069897038 0 0.0028475776265334419 -0.00999378285829443 0 0.0033358870951677119 -0.010060295216783028 0 0.0030315487470295769 -0.0096339901149871295 0 0.0028368418947930154 -0.01047297115862383 0 0.0028475776265334419 -0.00999378285829443 0 0.0033358870951677119 -0.010060295216783028 0 -0.00091420483523744101 -0.022381851768130855 0 -0.0010155725922943795 -0.02331190415186446 0 -0.0015073834002167232 -0.02238342016813458 0 0.00073337066003390384 -0.015973783069897038 0 0.00084561687108510399 -0.015151177899039183 0 -0.00091420483523744101 -0.022381851768130855 0 -0.0015073834002167232 -0.02238342016813458 0 -0.0010705433792566241 -0.021461185689339794 0 -0.0015073834002167232 -0.02238342016813458 0 -0.0010705433792566241 -0.021461185689339794 0 -0.0019883295065168246 -0.02147123970737971 0 -9.4909807954898429e-05 -0.020024373928651206 0 -2.3993924580986055e-05 -0.020276032340962306 0 0.00014428253383501788 -0.0199703510527072 0 -0.00076896028684432505 -0.020743570739657755 0 0.00084561687108510399 -0.015151177899039183 0 -2.3993924580986055e-05 -0.020276032340962306 0 0.00029033253715099168 -0.020210136261804453 0 0.00014428253383501788 -0.0199703510527072 0 0.0022960558388543124 -0.0091066841615287143 0 0.0024353721614006328 -0.0093859231856731774 0 0.0021971092289799622 -0.0093511008100094113 0 0.0013877629592719733 -0.01477144277809906 0 0.00084561687108510399 -0.015151177899039183 0 0.00084561687108510399 -0.015151177899039183 0 0.0026495229986565672 -0.0092008771032552374 0 0.0026495229986565672 -0.0092008771032552374 0 0.0018621846420007397 -0.0093361378311638977 0 0.0022960558388543124 -0.0091066841615287143 0 0.0021971092289799622 -0.0093511008100094113 0 0.0020235234873426326 -0.009087007822447174 0 0.0022960558388543124 -0.0091066841615287143 0 0.0020235234873426326 -0.009087007822447174 0 0.0021384577995255997 -0.0088478144082506285 0 0.0020235234873426326 -0.009087007822447174 0 0.0017832180041868423 -0.0091725080928828188 0 0.00184065963118722 -0.0089364341468893323 0 0.0020235234873426326 -0.009087007822447174 0 0.0019525096853303388 -0.0089051220248498337 0 0.00184065963118722 -0.0089364341468893323 0 0.0020235234873426326 -0.009087007822447174 0 0.0019606674675064048 -0.0093250094728781346 0 0.0017832180041868423 -0.0091725080928828188 0 0.0021971092289799622 -0.0093511008100094113 0 0.0020235234873426326 -0.009087007822447174 0 0.0019606674675064048 -0.0093250094728781346 0 0.0020049677955948837 -0.00874599509571658 0 0.0019980619372773627 -0.0087377476629151279 0 0.0021384577995255997 -0.0088478144082506285 0 0.0019105500012530292 -0.0086521430330484938 0 0.0019980619372773627 -0.0087377476629151279 0 0.0019664301366836426 -0.008582851455417935 0 0.0019105500012530292 -0.0086521430330484938 0 0.0019980619372773627 -0.0087377476629151279 0 0.0019031759528195949 -0.0087298456971590058 0 0.0019105500012530292 -0.0086521430330484938 0 0.0019031759528195949 -0.0087298456971590058 0 0.0018255563739443482 -0.0086365771439803653 0 0.0020049677955948837 -0.00874599509571658 0 0.0019980619372773627 -0.0087377476629151279 0 0.0020138684704146688 -0.0087809909362522743 0 0.0013124787784843761 -0.0083446792587326696 0 0.0015077890521188572 -0.013819868341254182 0 0.0019980619372773627 -0.0087377476629151279 0 0.0019980216842652144 -0.0088126987801510417 0 0.0021384577995255997 -0.0088478144082506285 0 0.0019980619372773627 -0.0087377476629151279 0 0.0019031759528195949 -0.0087298456971590058 0 0.0019980216842652144 -0.0088126987801510417 0 0.0019031759528195949 -0.0087298456971590058 0 0.0018821136810678819 -0.0088138125505802592 0 0.0019980216842652144 -0.0088126987801510417 0 0.0020235234873426326 -0.009087007822447174 0 0.0019525096853303388 -0.0089051220248498337 0 0.0021384577995255997 -0.0088478144082506285 0 0.0018821136810678819 -0.0088138125505802592 0 0.0019525096853303388 -0.0089051220248498337 0 0.0019980216842652144 -0.0088126987801510417 0 0.0019525096853303388 -0.0089051220248498337 0 0.0019980216842652144 -0.0088126987801510417 0 0.0021384577995255997 -0.0088478144082506285 0 0.0018821136810678819 -0.0088138125505802592 0 0.0019525096853303388 -0.0089051220248498337 0 0.00184065963118722 -0.0089364341468893323 0 0.00029033253715099168 -0.020210136261804453 0 0.00043039973259860329 -0.020449439392080621 0 0.0002806985923925518 -0.0204806044229002 0 0.0013877629592719733 -0.01477144277809906 0 0.00095161369432009949 -0.013748653169250034 0 0.0013663303212766221 -0.020226880894861302 0 -0.00014831943972749172 -0.026844488046332202 0 0.0013663303212766221 -0.020226880894861302 0 0.00095161369432009949 -0.013748653169250034 0 0.00056963537969253954 -0.020685677404665974 0 0.00043039973259860329 -0.020449439392080621 0 0.0002806985923925518 -0.0204806044229002 0 -0.00032579228353245141 -0.031997835532340896 0 -0.00056065404954982133 -0.031868792550887842 0 -0.00066002047927371803 -0.031277072988285755 0 -0.00056065404954982133 -0.031868792550887842 0 -0.0010503524342253018 -0.031778463330498059 0 -0.00054043670637310783 -0.03222117136651767 0 -0.00050908407718958993 -0.032477441275944048 0 -0.00048884791898234198 -0.032498399689463039 0 -0.00047370120498376221 -0.032354717221646373 0 -0.0010503524342253018 -0.031778463330498059 0 -0.00066002047927371803 -0.031277072988285755 0 -0.0011784938847543384 -0.03128073070572663 0 -0.00056065404954982133 -0.031868792550887842 0 -0.0010503524342253018 -0.031778463330498059 0 -0.00066002047927371803 -0.031277072988285755 0 -2.3993924580986055e-05 -0.020276032340962306 0 0.00029033253715099168 -0.020210136261804453 0 0.0002806985923925518 -0.0204806044229002 0 -0.001728474102105167 -0.030153135903931247 0 -0.00066002047927371803 -0.031277072988285755 0 -0.0011784938847543384 -0.03128073070572663 0 -0.0010414290268609418 -0.025067685633061818 0 -0.00014831943972749172 -0.026844488046332202 0 -0.0013633142781011519 -0.031383274891054837 0 -0.001055709692115904 -0.031602369149922975 0 -0.0025265639952901466 -0.030144826881521154 0 -0.001728474102105167 -0.030153135903931247 0 -0.0016752165365970205 -0.031175996455580647 0 -0.001728474102105167 -0.030153135903931247 0 -0.0011784938847543384 -0.03128073070572663 0 -0.0016752165365970205 -0.031175996455580647 0 -0.0011431940540302164 -0.031124641629702483 0 -0.00091235008095090996 -0.031503960727819975 0 -0.00099418084015215997 -0.03142709410006294 0 -0.0019942107663561415 -0.030600602489412806 0 -0.001055709692115904 -0.031602369149922975 0 -0.00051051898139276182 -0.032567410876462095 0 -0.00048884791898234198 -0.032498399689463039 0 -0.00049590325344045603 -0.032577092472506897 0 -0.00050908407718958993 -0.032477441275944048 0 -0.00051051898139276182 -0.032567410876462095 0 -0.00048884791898234198 -0.032498399689463039 0 -0.00074366632108020889 -0.032150583977395619 0 -0.001055709692115904 -0.031602369149922975 0 -0.0010503524342253018 -0.031778463330498059 0 -0.0011784938847543384 -0.03128073070572663 0 -0.0015873216017349425 -0.031221930994523299 0 -0.0004781835147907058 -0.032428005098209367 0 -0.00049846610359920401 -0.032532219370965655 0 -0.0005076903312488223 -0.032527337167439385 0 -0.00048884791898234198 -0.032498399689463039 0 -0.0004781835147907058 -0.032428005098209367 0 -0.00049846610359920401 -0.032532219370965655 0 -0.00048884791898234198 -0.032498399689463039 0 -0.0004781835147907058 -0.032428005098209367 0 -0.00047370120498376221 -0.032354717221646373 0 -0.0004781835147907058 -0.032428005098209367 0 -0.00045464176498033129 -0.032487331307229278 0 -0.0005076903312488223 -0.032527337167439385 0 -0.00045464176498033129 -0.032487331307229278 0 -0.0005076903312488223 -0.032527337167439385 0 -0.00046160512653550259 -0.03265135086974115 0 -0.00045464176498033129 -0.032487331307229278 0 -0.00036044935606157008 -0.032292027548333373 0 -0.0003711123807565889 -0.032647181238624749 0 -0.0004781835147907058 -0.032428005098209367 0 -0.00045464176498033129 -0.032487331307229278 0 -0.00036044935606157008 -0.032292027548333373 0 -0.00036044935606157008 -0.032292027548333373 0 -0.00047370120498376221 -0.032354717221646373 0 -0.00054043670637310783 -0.03222117136651767 0 -0.0004781835147907058 -0.032428005098209367 0 -0.00036044935606157008 -0.032292027548333373 0 -0.00047370120498376221 -0.032354717221646373 0 -0.00050908407718958993 -0.032477441275944048 0 -0.00047370120498376221 -0.032354717221646373 0 -0.00054043670637310783 -0.03222117136651767 0 -0.00074366632108020889 -0.032150583977395619 0 -0.00058987491837242053 -0.032222744306257579 0 -0.00032579228353245141 -0.031997835532340896 0 -0.00056065404954982133 -0.031868792550887842 0 -0.00045459271085676242 -0.032121453400522602 0 -0.00056065404954982133 -0.031868792550887842 0 -0.00054043670637310783 -0.03222117136651767 0 -0.00045459271085676242 -0.032121453400522602 0 -0.00032579228353245141 -0.031997835532340896 0 -0.00045459271085676242 -0.032121453400522602 0 -0.00047156079195683008 -0.03208948631584569 0 -0.00045459271085676242 -0.032121453400522602 0 -0.00048642927849587862 -0.032094971772375767 0 -0.00047156079195683008 -0.03208948631584569 0 -0.00045459271085676242 -0.032121453400522602 0 -0.00045375414837098911 -0.032186596463720255 0 -0.00048642927849587862 -0.032094971772375767 0 -0.00054043670637310783 -0.03222117136651767 0 -0.00045459271085676242 -0.032121453400522602 0 -0.00045375414837098911 -0.032186596463720255 0 -0.00036044935606157008 -0.032292027548333373 0 -0.00054043670637310783 -0.03222117136651767 0 -0.00045375414837098911 -0.032186596463720255 0 -0.00036044935606157008 -0.032292027548333373 0 -0.00045375414837098911 -0.032186596463720255 0 -0.00045159947697223619 -0.031988325811138058 0 -0.00032112716346131901 -0.032272191394026775 0 -0.000334545213892447 -0.031958703661273111 0 -0.00036044935606157008 -0.032292027548333373 0 -0.00045159947697223619 -0.031988325811138058 0 -0.00028339288448255256 -0.031478914430852413 0 -0.00045159947697223619 -0.031988325811138058 0 -0.00057238938846500796 -0.031966662815086005 0 -0.00060506265488130832 -0.031760315679243908 0 -0.00045159947697223619 -0.031988325811138058 0 -0.00060506265488130832 -0.031760315679243908 0 -0.00028339288448255256 -0.031478914430852413 0 -0.00045159947697223619 -0.031988325811138058 0 -0.00048642927849587862 -0.032094971772375767 0 -0.00057238938846500796 -0.031966662815086005 0 -0.00045375414837098911 -0.032186596463720255 0 -0.00045159947697223619 -0.031988325811138058 0 -0.00048642927849587862 -0.032094971772375767 0 -0.00048642927849587862 -0.032094971772375767 0 -0.00060058719430745161 -0.032016279736268569 0 -0.00057238938846500796 -0.031966662815086005 0 -0.00060058719430745161 -0.032016279736268569 0 -0.00057238938846500796 -0.031966662815086005 0 -0.00075482252286690054 -0.031902625145451759 0 -0.00060506265488130832 -0.031760315679243908 0 -0.00075482252286690054 -0.031902625145451759 0 -0.00078859376646078674 -0.031458085431339738 0 -0.00057238938846500796 -0.031966662815086005 0 -0.00060506265488130832 -0.031760315679243908 0 -0.00075482252286690054 -0.031902625145451759 0 -0.00075482252286690054 -0.031902625145451759 0 -0.00091434221253137776 -0.031953145333756927 0 -0.00078859376646078674 -0.031458085431339738 0 -0.0010824284928485147 -0.025139148629845474 0 0.00020649921098260274 -0.023448680603988657 0 0.0024432916455015279 -0.018094970764590792 0 0.0033072025864859913 -0.022130099619958699 0 0.0012681256260299277 -0.018548190649647373 0 0.00020649921098260274 -0.023448680603988657 0 0.002369307316341929 -0.02265242988801159 0 0.00020649921098260274 -0.023448680603988657 0 0.0031543043562307386 -0.014810581184051468 0 0.002369307316341929 -0.02265242988801159 0 0.0031543043562307386 -0.014810581184051468 0 -0.00060058719430745161 -0.032016279736268569 0 -0.00077050334840484552 -0.031912617861336666 0 -0.00056011077507966544 -0.032069989718787557 0 -0.00060058719430745161 -0.032016279736268569 0 -0.00075482252286690054 -0.031902625145451759 0 -0.00077050334840484552 -0.031912617861336666 0 0.0033719215103079777 -0.014988368118971182 0 0.0034519072469280467 -0.0153747637304935 0 0.00247744538862629 -0.014548317271343123 0 -0.00048642927849587862 -0.032094971772375767 0 -0.00060058719430745161 -0.032016279736268569 0 -0.00047156079195683008 -0.03208948631584569 0 -0.00060058719430745161 -0.032016279736268569 0 -0.00056011077507966544 -0.032069989718787557 0 -0.00047156079195683008 -0.03208948631584569 0 0.00061095415884781623 -0.018309450431928522 0 0.0018628080593756655 -0.020577558379185117 0 0.0015664630441238328 -0.019099040539244314 0 -0.00032579228353245141 -0.031997835532340896 0 -0.00056011077507966544 -0.032069989718787557 0 -0.00047156079195683008 -0.03208948631584569 0 0.0013663303212766221 -0.020226880894861302 0 0.002369307316341929 -0.02265242988801159 0 0.0013663303212766221 -0.020226880894861302 0 0.0015077890521188572 -0.013819868341254182 0 0.0019105500012530292 -0.0086521430330484938 0 0.0019664301366836426 -0.008582851455417935 0 0.0018449025878340311 -0.0085655615624549795 0 0.002369307316341929 -0.02265242988801159 0 0.0015077890521188572 -0.013819868341254182 0 -0.00041179835074886984 -0.03283250578531436 0 -0.00046354317409844114 -0.032709356957764668 0 -0.00039946608302562588 -0.032775201160809113 0 -0.00041179835074886984 -0.03283250578531436 0 -0.00046354317409844114 -0.032709356957764668 0 -0.00044046281495509204 -0.032786519417198998 0 -0.00041179835074886984 -0.03283250578531436 0 -0.00038049754348565068 -0.032930918383069677 0 -0.00039946608302562588 -0.032775201160809113 0 -0.00022212687362372038 -0.032889364016276811 0 -0.00038049754348565068 -0.032930918383069677 0 -0.00039946608302562588 -0.032775201160809113 0 -0.00041179835074886984 -0.03283250578531436 0 -0.00038049754348565068 -0.032930918383069677 0 -0.00041796299693303669 -0.032827668457454794 0 -0.00040814899769866977 -0.033102694057132717 0 -0.00076806796378926117 -0.032681596904738146 0 -0.00038049754348565068 -0.032930918383069677 0 -0.00053524690954669422 -0.033489691168995639 0 -0.00034607425476453063 -0.033522246294789379 0 -0.00076806796378926117 -0.032681596904738146 0 -0.00041158400159428909 -0.03300195877173779 0 -0.00076806796378926117 -0.032681596904738146 0 -0.00087222831004611439 -0.032047305557625055 0 -0.0012410399050367025 -0.031348651242024142 0 -0.001295206512906433 -0.031397906468819584 0 -0.0012229344074477866 -0.031401286009801167 0 -0.00041179835074886984 -0.03283250578531436 0 -0.00041796299693303669 -0.032827668457454794 0 -0.00044046281495509204 -0.032786519417198998 0 -0.00044046281495509204 -0.032786519417198998 0 -0.00049516806015015042 -0.032659635740114004 0 -0.00049282860817716461 -0.032637274255934323 0 -0.00087222831004611439 -0.032047305557625055 0 -0.00072639976855618188 -0.032086300503515963 0 -0.0012229344074477866 -0.031401286009801167 0 -0.0011667674093706378 -0.031376015765444541 0 -0.0011499126359143712 -0.031423486272337035 0 -0.001055709692115904 -0.031602369149922975 0 -0.00072639976855618188 -0.032086300503515963 0 -0.00091235008095090996 -0.031503960727819975 0 -0.00099418084015215997 -0.03142709410006294 0 -0.0011499126359143712 -0.031423486272337035 0 -0.00051051898139276182 -0.032567410876462095 0 -0.00049516806015015042 -0.032659635740114004 0 -0.00049590325344045603 -0.032577092472506897 0 -0.0011307122959610049 -0.031331641725467423 0 -0.00099418084015215997 -0.03142709410006294 0 -0.0011179507091472257 -0.03138790179939098 0 -0.00099418084015215997 -0.03142709410006294 0 -0.0011179507091472257 -0.03138790179939098 0 -0.0011499126359143712 -0.031423486272337035 0 -0.0010181356872290797 -0.031440141032220127 0 -0.001063694924701031 -0.031333004402037026 0 -0.0011667674093706378 -0.031376015765444541 0 -0.0011179507091472257 -0.03138790179939098 0 -0.0011499126359143712 -0.031423486272337035 0 -0.00049516806015015042 -0.032659635740114004 0 -0.00049590325344045603 -0.032577092472506897 0 -0.00049282860817716461 -0.032637274255934323 0 -0.00049590325344045603 -0.032577092472506897 0 -0.00049282860817716461 -0.032637274255934323 0 -0.00049846610359920401 -0.032532219370965655 0 -0.00048884791898234198 -0.032498399689463039 0 -0.00049590325344045603 -0.032577092472506897 0 -0.00049846610359920401 -0.032532219370965655 0 -0.00046354317409844114 -0.032709356957764668 0 -0.00044046281495509204 -0.032786519417198998 0 -0.00049282860817716461 -0.032637274255934323 0 -0.00046354317409844114 -0.032709356957764668 0 -0.00049282860817716461 -0.032637274255934323 0 -0.00051988596969373068 -0.032592172282554663 0 -0.00051988596969373068 -0.032592172282554663 0 -0.00049846610359920401 -0.032532219370965655 0 -0.0005076903312488223 -0.032527337167439385 0 -0.00049282860817716461 -0.032637274255934323 0 -0.00051988596969373068 -0.032592172282554663 0 -0.00049846610359920401 -0.032532219370965655 0 -0.00051988596969373068 -0.032592172282554663 0 -0.0005076903312488223 -0.032527337167439385 0 -0.00056353447370979793 -0.032575186858081293 0 -0.00051988596969373068 -0.032592172282554663 0 -0.00056353447370979793 -0.032575186858081293 0 -0.00046711740604885184 -0.032629296388217099 0 -0.00056353447370979793 -0.032575186858081293 0 -0.00046711740604885184 -0.032629296388217099 0 -0.00040919544292131529 -0.032443903724825397 0 -0.00046354317409844114 -0.032709356957764668 0 -0.00046711740604885184 -0.032629296388217099 0 -0.00039946608302562588 -0.032775201160809113 0 -0.00046354317409844114 -0.032709356957764668 0 -0.00051988596969373068 -0.032592172282554663 0 -0.00046711740604885184 -0.032629296388217099 0 -0.00046711740604885184 -0.032629296388217099 0 -0.00039946608302562588 -0.032775201160809113 0 -0.00026819374228056445 -0.032635962616958974 0 -0.00022212687362372038 -0.032889364016276811 0 -0.00039946608302562588 -0.032775201160809113 0 -0.00026819374228056445 -0.032635962616958974 0 -0.0001362239248078172 -0.032472501118621683 0 -0.00026819374228056445 -0.032635962616958974 0 -0.00040919544292131529 -0.032443903724825397 0 -0.00046711740604885184 -0.032629296388217099 0 -0.00026819374228056445 -0.032635962616958974 0 -0.00040919544292131529 -0.032443903724825397 0 -0.00054566443851799759 -0.032561484222879584 0 -0.00041485699390125856 -0.032416332611761689 0 -0.00069337710599560673 -0.032663847559338412 0 -0.00070034278475351723 -0.032711295402558779 0 -0.00072084408071845893 -0.032715333153469715 0 -0.0001362239248078172 -0.032472501118621683 0 -0.00040919544292131529 -0.032443903724825397 0 -0.00013109611044858841 -0.032299696192859641 0 -0.00070034278475351723 -0.032711295402558779 0 -0.00067701309678050653 -0.03276254312834026 0 -0.00072122370482537829 -0.032718714748318722 0 -0.00024072553761215318 -0.0331255205390142 0 -0.0002974587272374531 -0.033081634274036639 0 0.00017124999029545076 -0.033480369614256551 0 0.00020492988425986465 -0.033512545473663669 0 0.00021697288508389721 -0.033527283276559829 0 -0.00067701309678050653 -0.03276254312834026 0 -0.00063365863972286056 -0.032704325823772848 0 -0.00058609821349923713 -0.032846521182372086 0 -0.00070034278475351723 -0.032711295402558779 0 -0.00067701309678050653 -0.03276254312834026 0 -0.00063365863972286056 -0.032704325823772848 0 -0.00069337710599560673 -0.032663847559338412 0 -0.00070034278475351723 -0.032711295402558779 0 -0.00063365863972286056 -0.032704325823772848 0 -0.00056353447370979793 -0.032575186858081293 0 -0.00069337710599560673 -0.032663847559338412 0 -0.00063365863972286056 -0.032704325823772848 0 -0.00055562761285139956 -0.032567470694239167 0 -0.00054566443851799759 -0.032561484222879584 0 -0.00056353447370979793 -0.032575186858081293 0 -0.00063365863972286056 -0.032704325823772848 0 -0.00053820634986089194 -0.032685651276363359 0 -0.0005076903312488223 -0.032527337167439385 0 -0.00056353447370979793 -0.032575186858081293 0 -0.00053820634986089194 -0.032685651276363359 0 -0.0005076903312488223 -0.032527337167439385 0 -0.00053820634986089194 -0.032685651276363359 0 -0.00046160512653550259 -0.03265135086974115 0 -0.00053820634986089194 -0.032685651276363359 0 -0.00046157152254549735 -0.032783862089671482 0 -0.00046160512653550259 -0.03265135086974115 0 -0.00053820634986089194 -0.032685651276363359 0 -0.00046157152254549735 -0.032783862089671482 0 -0.00058609821349923713 -0.032846521182372086 0 -0.00063365863972286056 -0.032704325823772848 0 -0.00053820634986089194 -0.032685651276363359 0 -0.00058609821349923713 -0.032846521182372086 0 -0.00024072553761215318 -0.0331255205390142 0 -0.00029899189906660466 -0.033087246803203053 0 0.00017124999029545076 -0.033480369614256551 0 -3.6731794868235256e-05 -0.033335093810544052 0 2.3353384523950721e-05 -0.033215438304855724 0 -0.00029899189906660466 -0.033087246803203053 0 -0.00031577780660116265 -0.033036788990486184 0 -3.6731794868235256e-05 -0.033335093810544052 0 2.3353384523950721e-05 -0.033215438304855724 0 -0.00033440348072995128 -0.033018446195498728 0 -0.00046157152254549735 -0.032783862089671482 0 -0.00058609821349923713 -0.032846521182372086 0 -0.00033440348072995128 -0.033018446195498728 0 2.3353384523950721e-05 -0.033215438304855724 0 -0.00033440348072995128 -0.033018446195498728 0 -0.00010094629180308075 -0.033050880773997884 0 2.3353384523950721e-05 -0.033215438304855724 0 0.00018622201006897833 -0.033378907736494927 0 0.00017419346445233193 -0.033246032606294801 0 0.00018622201006897833 -0.033378907736494927 0 0.00017419346445233193 -0.033246032606294801 0 0.00024601609620384746 -0.033414790525969892 0 0.00018622201006897833 -0.033378907736494927 0 0.00024601609620384746 -0.033414790525969892 0 0.00021697288508389721 -0.033527283276559829 0 0.00017124999029545076 -0.033480369614256551 0 0.00018622201006897833 -0.033378907736494927 0 0.00021697288508389721 -0.033527283276559829 0 0.00017124999029545076 -0.033480369614256551 0 2.3353384523950721e-05 -0.033215438304855724 0 0.00018622201006897833 -0.033378907736494927 0 -0.00044965443824605502 -0.03215382686720672 0 -0.000334545213892447 -0.031958703661273111 0 -0.00074489548029772843 -0.030432706099479397 0 -0.00078859376646078674 -0.031458085431339738 0 -0.0012644216589203299 -0.03103864068759821 0 -0.00091434221253137776 -0.031953145333756927 0 -0.00078859376646078674 -0.031458085431339738 0 -0.0012644216589203299 -0.03103864068759821 0 -0.00074489548029772843 -0.030432706099479397 0 -0.00078859376646078674 -0.031458085431339738 0 -0.00028339288448255256 -0.031478914430852413 0 0.00020649921098260274 -0.023448680603988657 0 -0.00067425539516904767 -0.025447899929035962 0 -0.00060506265488130832 -0.031760315679243908 0 -0.00078859376646078674 -0.031458085431339738 0 -0.00028339288448255256 -0.031478914430852413 0 -0.00029648794146072075 -0.032832410869087156 0 -0.00021874904976349567 -0.032678767488443401 0 -0.00031031407095404706 -0.032861194050479908 0 -0.00021874904976349567 -0.032678767488443401 0 -0.00031508902514424672 -0.032844470281577269 0 -0.00031031407095404706 -0.032861194050479908 0 -0.00031508902514424672 -0.032844470281577269 0 -0.00037648183682236869 -0.032782159076297647 0 -0.00033440348072995128 -0.033018446195498728 0 -0.00031508902514424672 -0.032844470281577269 0 -0.0003711123807565889 -0.032647181238624749 0 -0.00037648183682236869 -0.032782159076297647 0 -0.00036044935606157008 -0.032292027548333373 0 -0.00021874904976349567 -0.032678767488443401 0 -0.0003711123807565889 -0.032647181238624749 0 -0.00021874904976349567 -0.032678767488443401 0 -0.00031508902514424672 -0.032844470281577269 0 -0.0003711123807565889 -0.032647181238624749 0 -0.0003711123807565889 -0.032647181238624749 0 -0.00046160512653550259 -0.03265135086974115 0 -0.00037648183682236869 -0.032782159076297647 0 -0.00045464176498033129 -0.032487331307229278 0 -0.0003711123807565889 -0.032647181238624749 0 -0.00046160512653550259 -0.03265135086974115 0 -0.00046157152254549735 -0.032783862089671482 0 -0.00037648183682236869 -0.032782159076297647 0 -0.00033440348072995128 -0.033018446195498728 0 -0.00046157152254549735 -0.032783862089671482 0 -0.00046160512653550259 -0.03265135086974115 0 -0.00037648183682236869 -0.032782159076297647 0 -0.00033440348072995128 -0.033018446195498728 0 -0.00028202715324724564 -0.032968481691316082 0 -0.00032521846382479986 -0.032938211974811414 0 -0.00033440348072995128 -0.033018446195498728 0 -0.00028202715324724564 -0.032968481691316082 0 -0.00010094629180308075 -0.033050880773997884 0 -0.00028202715324724564 -0.032968481691316082 0 -0.00032521846382479986 -0.032938211974811414 0 -0.00033424956222074219 -0.032878621834995021 0 -0.00032521846382479986 -0.032938211974811414 0 -0.00035927916798317761 -0.032881519615414016 0 -0.00033424956222074219 -0.032878621834995021 0 -0.00031508902514424672 -0.032844470281577269 0 -0.00033440348072995128 -0.033018446195498728 0 -0.00032521846382479986 -0.032938211974811414 0 -0.00031508902514424672 -0.032844470281577269 0 -0.00032521846382479986 -0.032938211974811414 0 -0.00031031407095404706 -0.032861194050479908 0 -0.00032521846382479986 -0.032938211974811414 0 -0.00031031407095404706 -0.032861194050479908 0 -0.00035927916798317761 -0.032881519615414016 0 -0.00031031407095404706 -0.032861194050479908 0 -0.00035927916798317761 -0.032881519615414016 0 -0.00035693103947459341 -0.032850529294622309 0 -0.00035927916798317761 -0.032881519615414016 0 -0.00041586819482857348 -0.032832296167457128 0 -0.00041888447252403906 -0.032814326656960817 0 -0.00035927916798317761 -0.032881519615414016 0 -0.00041586819482857348 -0.032832296167457128 0 -0.00035693103947459341 -0.032850529294622309 0 -0.00041586819482857348 -0.032832296167457128 0 -0.00035693103947459341 -0.032850529294622309 0 -0.00040924233709577668 -0.03282372490025675 0 -0.00041586819482857348 -0.032832296167457128 0 -0.00048104792479213883 -0.03279515153460006 0 -0.00040924233709577668 -0.03282372490025675 0 -0.00029648794146072075 -0.032832410869087156 0 -0.00035693103947459341 -0.032850529294622309 0 -0.00040924233709577668 -0.03282372490025675 0 -0.00029648794146072075 -0.032832410869087156 0 -0.00031031407095404706 -0.032861194050479908 0 -0.00035693103947459341 -0.032850529294622309 0 -0.00044965443824605502 -0.03215382686720672 0 -0.00021256960991410239 -0.02775377887603021 0 -0.00057577792273341038 -0.026413338444866114 0 -0.00046727437940199696 -0.023545163503072616 0 -0.00033800665425182737 -0.031016813999698769 0 -0.00050431080827437723 -0.029324065976317062 0 -3.3404715252785162e-05 -0.028950251674409799 0 6.2929651624683567e-05 -0.028821869995911156 0 0.00011827406740375196 -0.028557660554416768 0 -0.00052446564459415496 -0.026073188466145637 0 -0.00066387487718756006 -0.026593649718597106 0 -0.00039167638089886782 -0.025777677438318252 0 -0.00060440154485876484 -0.032600742265531245 0 -0.00050006309901487434 -0.032738247730219515 0 -0.00048104792479213883 -0.03279515153460006 0 -3.3404715252785162e-05 -0.028950251674409799 0 6.2929651624683567e-05 -0.028821869995911156 0 1.6002671066708834e-05 -0.02912373444643539 0 -0.00021550729312079631 -0.027310681665479807 0 -0.00057577792273341038 -0.026413338444866114 0 -0.00060440154485876484 -0.032600742265531245 0 -0.00053454452681421093 -0.032644099465188682 0 -0.00049690386942046686 -0.032347487136030716 0 -0.00053454452681421093 -0.032644099465188682 0 -0.00050006309901487434 -0.032738247730219515 0 -0.00046501703978316799 -0.032746267131948517 0 -0.00060440154485876484 -0.032600742265531245 0 -0.00053454452681421093 -0.032644099465188682 0 -0.00050006309901487434 -0.032738247730219515 0 -0.00045594293167905062 -0.032799182473183752 0 -0.00050006309901487434 -0.032738247730219515 0 -0.00048104792479213883 -0.03279515153460006 0 -0.00021550729312079631 -0.027310681665479807 0 -0.00050431080827437723 -0.029324065976317062 0 -0.00041586819482857348 -0.032832296167457128 0 -0.00045594293167905062 -0.032799182473183752 0 -0.00048104792479213883 -0.03279515153460006 0 -0.00041586819482857348 -0.032832296167457128 0 -0.00045594293167905062 -0.032799182473183752 0 -0.00041888447252403906 -0.032814326656960817 0 -0.00045594293167905062 -0.032799182473183752 0 -0.00050006309901487434 -0.032738247730219515 0 -0.00041888447252403906 -0.032814326656960817 0 -0.00050006309901487434 -0.032738247730219515 0 -0.00041888447252403906 -0.032814326656960817 0 -0.00046501703978316799 -0.032746267131948517 0 -0.00041888447252403906 -0.032814326656960817 0 -0.00040687048946957234 -0.032769422154199576 0 -0.00046501703978316799 -0.032746267131948517 0 -0.00041888447252403906 -0.032814326656960817 0 -0.00040687048946957234 -0.032769422154199576 0 -0.00033424956222074219 -0.032878621834995021 0 -0.00035927916798317761 -0.032881519615414016 0 -0.00041888447252403906 -0.032814326656960817 0 -0.00033424956222074219 -0.032878621834995021 0 -0.00052380714530075607 -0.032647456759648238 0 -0.00017229915420497553 -0.032628682129214083 0 -0.00053454452681421093 -0.032644099465188682 0 -1.5865399509410687e-06 -0.032512310997853879 0 -0.00049690386942046686 -0.032347487136030716 0 -0.00053454452681421093 -0.032644099465188682 0 -0.00040687048946957234 -0.032769422154199576 0 -0.00031591734424506142 -0.032746463259847751 0 -0.00053454452681421093 -0.032644099465188682 0 -0.00040687048946957234 -0.032769422154199576 0 -0.00046501703978316799 -0.032746267131948517 0 -0.00040687048946957234 -0.032769422154199576 0 -0.00031591734424506142 -0.032746463259847751 0 -0.00033424956222074219 -0.032878621834995021 0 -0.00031591734424506142 -0.032746463259847751 0 -0.00033424956222074219 -0.032878621834995021 0 -0.0002429979916123035 -0.032889133159580655 0 -0.00028202715324724564 -0.032968481691316082 0 -0.0002429979916123035 -0.032889133159580655 0 -0.00010094629180308075 -0.033050880773997884 0 -0.00028202715324724564 -0.032968481691316082 0 -0.00033424956222074219 -0.032878621834995021 0 -0.0002429979916123035 -0.032889133159580655 0 -0.00031591734424506142 -0.032746463259847751 0 -0.0002429979916123035 -0.032889133159580655 0 -0.00014226300371664497 -0.03277571466610682 0 -0.00017229915420497553 -0.032628682129214083 0 0.00012784264248201944 -0.032645337641896782 0 -1.5865399509410687e-06 -0.032512310997853879 0 0.00014795670890802956 -0.032244599430094861 0 0.00038286723222907202 -0.032484979242078438 0 0.00014795670890802956 -0.032244599430094861 0 0.00033049744191535405 -0.032148428113668935 0 0.00038286723222907202 -0.032484979242078438 0 0.00014795670890802956 -0.032244599430094861 0 0.00033049744191535405 -0.032148428113668935 0 6.49415944645788e-05 -0.031887082944796391 0 0.00033049744191535405 -0.032148428113668935 0 6.49415944645788e-05 -0.031887082944796391 0 0.00019833434167414844 -0.031706263702975856 0 0.00014795670890802956 -0.032244599430094861 0 6.49415944645788e-05 -0.031887082944796391 0 -0.0002147035394273581 -0.032137708509229888 0 6.49415944645788e-05 -0.031887082944796391 0 -0.00023591161783925119 -0.031556981061806121 0 -1.7776550829680778e-05 -0.031260917582519226 0 6.49415944645788e-05 -0.031887082944796391 0 -0.0002147035394273581 -0.032137708509229888 0 -0.00023591161783925119 -0.031556981061806121 0 -1.5865399509410687e-06 -0.032512310997853879 0 0.00014795670890802956 -0.032244599430094861 0 -0.0002147035394273581 -0.032137708509229888 0 -1.5865399509410687e-06 -0.032512310997853879 0 -0.00049690386942046686 -0.032347487136030716 0 -0.0002147035394273581 -0.032137708509229888 0 -0.00049690386942046686 -0.032347487136030716 0 -0.0004409505740555781 -0.03209766371996027 0 -0.00067475453827084387 -0.031980103677212768 0 -0.00049690386942046686 -0.032347487136030716 0 -0.0004409505740555781 -0.03209766371996027 0 -0.0002147035394273581 -0.032137708509229888 0 -0.0002147035394273581 -0.032137708509229888 0 -0.00038682009368768029 -0.031948285818688159 0 -0.00023591161783925119 -0.031556981061806121 0 -0.00041971825847857353 -0.03065695461936414 0 -0.0003541465627465018 -0.030662109468783748 0 -0.00023591161783925119 -0.031556981061806121 0 -0.00067475453827084387 -0.031980103677212768 0 -0.00032754254983232453 -0.030670899881261704 0 -0.0004409505740555781 -0.03209766371996027 0 -0.0002147035394273581 -0.032137708509229888 0 -0.00038682009368768029 -0.031948285818688159 0 -0.00038682009368768029 -0.031948285818688159 0 -0.00023591161783925119 -0.031556981061806121 0 -0.00067475453827084387 -0.031980103677212768 0 -0.0004409505740555781 -0.03209766371996027 0 -0.00038682009368768029 -0.031948285818688159 0 -0.00067475453827084387 -0.031980103677212768 0 -0.00015599244792107128 -0.02895863398500978 0 -2.4389886328585829e-05 -0.02938332843323959 0 -0.00012256378737359234 -0.030111465418474689 0 -0.00026514137367043345 -0.029463693758540927 0 -4.8587595702588387e-05 -0.029431448815391028 0 -0.00012256378737359234 -0.030111465418474689 0 -0.00076287434746467896 -0.027813869052749858 0 -0.00020535157454037461 -0.030416133137080841 0 6.6931256100478809e-05 -0.029564984610997928 0 -2.4389886328585829e-05 -0.02938332843323959 0 -0.00012256378737359234 -0.030111465418474689 0 9.4108861593999082e-05 -0.029230323232987836 0 0.00020457619870265401 -0.029036974311923546 0 0.00023479346098342251 -0.029366466606856528 0 6.6931256100478809e-05 -0.029564984610997928 0 9.4108861593999082e-05 -0.029230323232987836 0 0.00023479346098342251 -0.029366466606856528 0 6.6931256100478809e-05 -0.029564984610997928 0 -2.4389886328585829e-05 -0.02938332843323959 0 9.4108861593999082e-05 -0.029230323232987836 0 -2.4389886328585829e-05 -0.02938332843323959 0 9.4108861593999082e-05 -0.029230323232987836 0 1.5785333985763933e-05 -0.029126766232529164 0 9.4108861593999082e-05 -0.029230323232987836 0 1.5785333985763933e-05 -0.029126766232529164 0 0.00020457619870265401 -0.029036974311923546 0 -0.00015599244792107128 -0.02895863398500978 0 1.5785333985763933e-05 -0.029126766232529164 0 0.00020457619870265401 -0.029036974311923546 0 -0.00015599244792107128 -0.02895863398500978 0 -2.4389886328585829e-05 -0.02938332843323959 0 1.5785333985763933e-05 -0.029126766232529164 0 -0.00076287434746467896 -0.027813869052749858 0 -0.00057577792273341038 -0.026413338444866114 0 -3.3404715252785162e-05 -0.028950251674409799 0 -0.00026514137367043345 -0.029463693758540927 0 1.6002671066708834e-05 -0.02912373444643539 0 -0.0013717800204852508 -0.024919076858271345 0 -0.0011139595923452639 -0.023901419945331331 0 0.00011325035011968741 -0.024040209056910632 0 -0.00060440154485876484 -0.032600742265531245 0 -0.00049690386942046686 -0.032347487136030716 0 -0.00067475453827084387 -0.031980103677212768 0 -0.00033800665425182737 -0.031016813999698769 0 -0.00041971825847857353 -0.03065695461936414 0 -0.00026514137367043345 -0.029463693758540927 0 -4.8587595702588387e-05 -0.029431448815391028 0 1.6002671066708834e-05 -0.02912373444643539 0 0.00026617647300842276 -0.03314611047211178 0 0.00010929749501622455 -0.033055609838816981 0 0.00031028399183157435 -0.032780207715597198 0 0.00026617647300842276 -0.03314611047211178 0 0.00031028399183157435 -0.032780207715597198 0 0.00034868559748538696 -0.033041881815529014 0 0.00026617647300842276 -0.03314611047211178 0 0.00034868559748538696 -0.033041881815529014 0 0.00028753271087632516 -0.033320723601298424 0 0.00024601609620384746 -0.033414790525969892 0 0.00026617647300842276 -0.03314611047211178 0 0.00028753271087632516 -0.033320723601298424 0 0.00017419346445233193 -0.033246032606294801 0 0.00024601609620384746 -0.033414790525969892 0 0.00026617647300842276 -0.03314611047211178 0 0.00017419346445233193 -0.033246032606294801 0 0.00026617647300842276 -0.03314611047211178 0 0.00010929749501622455 -0.033055609838816981 0 2.3353384523950721e-05 -0.033215438304855724 0 0.00017419346445233193 -0.033246032606294801 0 0.00010929749501622455 -0.033055609838816981 0 2.3353384523950721e-05 -0.033215438304855724 0 0.00010929749501622455 -0.033055609838816981 0 -0.00010094629180308075 -0.033050880773997884 0 0.00010929749501622455 -0.033055609838816981 0 -0.00010094629180308075 -0.033050880773997884 0 -0.00014226300371664497 -0.03277571466610682 0 -0.0002429979916123035 -0.032889133159580655 0 -0.00010094629180308075 -0.033050880773997884 0 -0.00014226300371664497 -0.03277571466610682 0 0.00010929749501622455 -0.033055609838816981 0 -0.00014226300371664497 -0.03277571466610682 0 0.00031028399183157435 -0.032780207715597198 0 0.00012784264248201944 -0.032645337641896782 0 0.00031155997808045505 -0.032748279044802799 0 0.00038286723222907202 -0.032484979242078438 0 0.00049671450038920781 -0.032385604093439935 0 0.00031028399183157435 -0.032780207715597198 0 0.00033049744191535405 -0.032148428113668935 0 0.00038286723222907202 -0.032484979242078438 0 0.00049671450038920781 -0.032385604093439935 0 0.00033049744191535405 -0.032148428113668935 0 0.00049671450038920781 -0.032385604093439935 0 0.00032896931615443269 -0.031744967868765142 0 0.00049671450038920781 -0.032385604093439935 0 0.00048185087164324318 -0.032707839700736686 0 0.00031028399183157435 -0.032780207715597198 0 0.00048185087164324318 -0.032707839700736686 0 0.00031028399183157435 -0.032780207715597198 0 0.00034868559748538696 -0.033041881815529014 0 0.00048185087164324318 -0.032707839700736686 0 0.00034868559748538696 -0.033041881815529014 0 0.00034886197191348373 -0.033067862081870431 0 0.00034886197191348373 -0.033067862081870431 0 0.00024133754185997589 -0.033424455538594931 0 0.00028760219066464366 -0.03333459317462889 0 0.00034886197191348373 -0.033067862081870431 0 0.00024133754185997589 -0.033424455538594931 0 0.0002929510265355162 -0.033185245776041178 0 0.00024133754185997589 -0.033424455538594931 0 0.00028760219066464366 -0.03333459317462889 0 0.00020866246641349455 -0.033597707254447419 0 0.00034868559748538696 -0.033041881815529014 0 0.00034886197191348373 -0.033067862081870431 0 0.00028760219066464366 -0.03333459317462889 0 0.00028760219066464366 -0.03333459317462889 0 0.00025597820868022617 -0.033534317328475949 0 0.00028753271087632516 -0.033320723601298424 0 0.00034868559748538696 -0.033041881815529014 0 0.00028760219066464366 -0.03333459317462889 0 0.00028753271087632516 -0.033320723601298424 0 0.00028760219066464366 -0.03333459317462889 0 0.00025597820868022617 -0.033534317328475949 0 0.00020866246641349455 -0.033597707254447419 0 0.00025597820868022617 -0.033534317328475949 0 0.00025402607719642072 -0.033557398912939379 0 0.00023988812902044472 -0.033704773520699921 0 0.00025597820868022617 -0.033534317328475949 0 0.00028753271087632516 -0.033320723601298424 0 0.00025402607719642072 -0.033557398912939379 0 0.00024601609620384746 -0.033414790525969892 0 0.00028753271087632516 -0.033320723601298424 0 0.00025402607719642072 -0.033557398912939379 0 0.00016249855210530471 -0.033929245746753045 0 0.00012734075056459218 -0.033907746005872208 0 0.0001124177789144414 -0.034139187213559699 0 0.00016249855210530471 -0.033929245746753045 0 0.00020135494190869321 -0.033758515420347392 0 0.00020302787179612763 -0.033869632108083476 0 0.00016249855210530471 -0.033929245746753045 0 0.0001124177789144414 -0.034139187213559699 0 0.00016346898473030408 -0.034067467517258511 0 0.00020135494190869321 -0.033758515420347392 0 0.00023988812902044472 -0.033704773520699921 0 0.00020302787179612763 -0.033869632108083476 0 0.00025597820868022617 -0.033534317328475949 0 0.00020135494190869321 -0.033758515420347392 0 0.00023988812902044472 -0.033704773520699921 0 0.00025597820868022617 -0.033534317328475949 0 0.00020135494190869321 -0.033758515420347392 0 0.00020866246641349455 -0.033597707254447419 0 0.00020135494190869321 -0.033758515420347392 0 0.00012734075056459218 -0.033907746005872208 0 0.00020866246641349455 -0.033597707254447419 0 0.00016249855210530471 -0.033929245746753045 0 0.00020135494190869321 -0.033758515420347392 0 0.00012734075056459218 -0.033907746005872208 0 0.00012734075056459218 -0.033907746005872208 0 0.0001395550400991832 -0.033696390926055454 0 9.0424775165538678e-05 -0.033891207823258766 0 0.00012734075056459218 -0.033907746005872208 0 0.0001395550400991832 -0.033696390926055454 0 0.00020866246641349455 -0.033597707254447419 0 0.00024133754185997589 -0.033424455538594931 0 0.0001395550400991832 -0.033696390926055454 0 0.00020866246641349455 -0.033597707254447419 0 0.00024133754185997589 -0.033424455538594931 0 0.0001395550400991832 -0.033696390926055454 0 0.00015322555672485138 -0.033627086754003561 0 0.0001395550400991832 -0.033696390926055454 0 5.1129388781934921e-05 -0.033852594255028061 0 0.00015322555672485138 -0.033627086754003561 0 5.1129388781934921e-05 -0.033852594255028061 0 3.8920756201607057e-05 -0.033917599961144046 0 3.9171515759816733e-05 -0.034070630696908438 0 3.8920756201607057e-05 -0.033917599961144046 0 3.9171515759816733e-05 -0.034070630696908438 0 8.4431076346663751e-05 -0.034127880393761169 0 5.1129388781934921e-05 -0.033852594255028061 0 3.9171515759816733e-05 -0.034070630696908438 0 5.7886371637877198e-05 -0.034102592718825563 0 3.9171515759816733e-05 -0.034070630696908438 0 5.5396016086631955e-05 -0.03427937564885563 0 6.7832515384948068e-05 -0.034371632239346278 0 3.9171515759816733e-05 -0.034070630696908438 0 5.5396016086631955e-05 -0.03427937564885563 0 5.7886371637877198e-05 -0.034102592718825563 0 0.00012734075056459218 -0.033907746005872208 0 5.7886371637877198e-05 -0.034102592718825563 0 9.0424775165538678e-05 -0.033891207823258766 0 0.0001395550400991832 -0.033696390926055454 0 5.1129388781934921e-05 -0.033852594255028061 0 9.0424775165538678e-05 -0.033891207823258766 0 5.1129388781934921e-05 -0.033852594255028061 0 5.7886371637877198e-05 -0.034102592718825563 0 9.0424775165538678e-05 -0.033891207823258766 0 -5.0267375859401287e-10 -0.035000081476896365 0 2.6594058395940572e-05 -0.034995957924760762 0 7.0775639650945698e-06 -0.03500006009828547 0 0.00030505668937833252 -0.034083268365630484 0 0.00013230429454843333 -0.033925213322163729 0 8.4431076346663751e-05 -0.034127880393761169 0 0.00030505668937833252 -0.034083268365630484 0 8.4431076346663751e-05 -0.034127880393761169 0 0.00011709766375513055 -0.034421828997066084 0 3.8920756201607057e-05 -0.033917599961144046 0 0.00013230429454843333 -0.033925213322163729 0 8.4431076346663751e-05 -0.034127880393761169 0 3.9171515759816733e-05 -0.034070630696908438 0 8.4431076346663751e-05 -0.034127880393761169 0 6.7832515384948068e-05 -0.034371632239346278 0 6.7832515384948068e-05 -0.034371632239346278 0 0.00011709766375513055 -0.034421828997066084 0 8.4846276077405627e-05 -0.03462508856951349 0 8.4431076346663751e-05 -0.034127880393761169 0 6.7832515384948068e-05 -0.034371632239346278 0 0.00011709766375513055 -0.034421828997066084 0 -5.0267375859401287e-10 -0.035000081476896365 0 2.6594058395940572e-05 -0.034995957924760762 0 8.900451556078981e-05 -0.034873014644325254 0 0.00030505668937833252 -0.034083268365630484 0 0.00011709766375513055 -0.034421828997066084 0 8.900451556078981e-05 -0.034873014644325254 0 -5.0267375859401287e-10 -0.035000081476896365 0 2.2093162456828213e-07 -0.034999225980789653 0 8.900451556078981e-05 -0.034873014644325254 0 0.00014315504980813833 -0.034541960594638974 0 0.00011234529698330079 -0.034814770976875214 0 0.00011709766375513055 -0.034421828997066084 0 8.900451556078981e-05 -0.034873014644325254 0 8.4846276077405627e-05 -0.03462508856951349 0 2.2093162456828213e-07 -0.034999225980789653 0 6.9210099934436333e-05 -0.034785876069119037 0 4.0281556993841311e-05 -0.034826220732621246 0 2.2093162456828213e-07 -0.034999225980789653 0 8.900451556078981e-05 -0.034873014644325254 0 6.9210099934436333e-05 -0.034785876069119037 0 8.900451556078981e-05 -0.034873014644325254 0 6.9210099934436333e-05 -0.034785876069119037 0 8.4846276077405627e-05 -0.03462508856951349 0 6.9210099934436333e-05 -0.034785876069119037 0 6.982400005414026e-05 -0.034569240249535053 0 4.0281556993841311e-05 -0.034826220732621246 0 6.9210099934436333e-05 -0.034785876069119037 0 6.982400005414026e-05 -0.034569240249535053 0 8.4846276077405627e-05 -0.03462508856951349 0 6.7832515384948068e-05 -0.034371632239346278 0 6.982400005414026e-05 -0.034569240249535053 0 8.4846276077405627e-05 -0.03462508856951349 0 5.5396016086631955e-05 -0.03427937564885563 0 6.7832515384948068e-05 -0.034371632239346278 0 6.982400005414026e-05 -0.034569240249535053 0 6.982400005414026e-05 -0.034569240249535053 0 5.678005508034699e-05 -0.034538033552236273 0 6.5091420953040875e-05 -0.034334375546434981 0 6.982400005414026e-05 -0.034569240249535053 0 5.678005508034699e-05 -0.034538033552236273 0 4.0281556993841311e-05 -0.034826220732621246 0 5.678005508034699e-05 -0.034538033552236273 0 4.0281556993841311e-05 -0.034826220732621246 0 3.158536468592234e-05 -0.034682831806528813 0 2.2093162456828213e-07 -0.034999225980789653 0 4.0281556993841311e-05 -0.034826220732621246 0 1.0354737083396789e-08 -0.034999575893637329 0 0.00012734075056459218 -0.033907746005872208 0 5.7886371637877198e-05 -0.034102592718825563 0 8.4689420600224383e-05 -0.034149732955353673 0 0.00012734075056459218 -0.033907746005872208 0 8.4689420600224383e-05 -0.034149732955353673 0 0.0001124177789144414 -0.034139187213559699 0 5.7886371637877198e-05 -0.034102592718825563 0 8.4689420600224383e-05 -0.034149732955353673 0 6.5091420953040875e-05 -0.034334375546434981 0 5.5396016086631955e-05 -0.03427937564885563 0 5.7886371637877198e-05 -0.034102592718825563 0 6.5091420953040875e-05 -0.034334375546434981 0 5.5396016086631955e-05 -0.03427937564885563 0 6.982400005414026e-05 -0.034569240249535053 0 6.5091420953040875e-05 -0.034334375546434981 0 8.4689420600224383e-05 -0.034149732955353673 0 6.5091420953040875e-05 -0.034334375546434981 0 7.4452540588526795e-05 -0.034324388086253696 0 5.678005508034699e-05 -0.034538033552236273 0 7.4452540588526795e-05 -0.034324388086253696 0 6.4720986451621821e-05 -0.034372584602396929 0 5.678005508034699e-05 -0.034538033552236273 0 6.5091420953040875e-05 -0.034334375546434981 0 7.4452540588526795e-05 -0.034324388086253696 0 7.4452540588526795e-05 -0.034324388086253696 0 0.0001124177789144414 -0.034139187213559699 0 6.4720986451621821e-05 -0.034372584602396929 0 8.4689420600224383e-05 -0.034149732955353673 0 7.4452540588526795e-05 -0.034324388086253696 0 0.0001124177789144414 -0.034139187213559699 0 0.0001124177789144414 -0.034139187213559699 0 6.4720986451621821e-05 -0.034372584602396929 0 0.00016346898473030408 -0.034067467517258511 0 6.4720986451621821e-05 -0.034372584602396929 0 2.4073224897666995e-06 -0.034680502965599581 0 8.6608276287950914e-05 -0.03419420213252241 0 1.418016594070704e-05 -0.034630005613107813 0 -2.0788462243005586e-05 -0.034487554494962477 0 6.4720986451621821e-05 -0.034372584602396929 0 8.6608276287950914e-05 -0.03419420213252241 0 0.00016346898473030408 -0.034067467517258511 0 8.6608276287950914e-05 -0.03419420213252241 0 0.00019259889705465163 -0.033917275045480706 0 0.00016346898473030408 -0.034067467517258511 0 4.0281556993841311e-05 -0.034826220732621246 0 1.0354737083396789e-08 -0.034999575893637329 0 3.158536468592234e-05 -0.034682831806528813 0 5.678005508034699e-05 -0.034538033552236273 0 6.4720986451621821e-05 -0.034372584602396929 0 3.158536468592234e-05 -0.034682831806528813 0 6.4720986451621821e-05 -0.034372584602396929 0 3.158536468592234e-05 -0.034682831806528813 0 2.4073224897666995e-06 -0.034680502965599581 0 1.0354737083396789e-08 -0.034999575893637329 0 3.158536468592234e-05 -0.034682831806528813 0 2.4073224897666995e-06 -0.034680502965599581 0 1.0354737083396789e-08 -0.034999575893637329 0 2.4073224897666995e-06 -0.034680502965599581 0 8.1321151788325818e-08 -0.034999783902847616 0 2.4073224897666995e-06 -0.034680502965599581 0 8.1321151788325818e-08 -0.034999783902847616 0 -1.8862292481518907e-05 -0.034913941729393619 0 2.4073224897666995e-06 -0.034680502965599581 0 -1.8862292481518907e-05 -0.034913941729393619 0 -0.00010372686738104419 -0.034851860404424152 0 2.6711492963662539e-06 -0.034982837712620611 0 -1.8862292481518907e-05 -0.034913941729393619 0 -0.00011162791678054168 -0.034960469308104564 0 -3.1022781581634872e-06 -0.034981405529242546 0 -6.6792141369248129e-05 -0.034931532943437323 0 2.6711492963662539e-06 -0.034982837712620611 0 8.1321151788325818e-08 -0.034999783902847616 0 -1.8862292481518907e-05 -0.034913941729393619 0 -1.706561992769249e-08 -0.035000012985960512 0 2.6711492963662539e-06 -0.034982837712620611 0 8.1321151788325818e-08 -0.034999783902847616 0 -2.0788462243005586e-05 -0.034487554494962477 0 -6.8198683708689151e-05 -0.034426770778901744 0 -0.00020179928186882213 -0.034861013760275977 0 -0.00027608978730862198 -0.034900424249882746 0 -0.00030431271146639014 -0.034823666031353173 0 -0.00020179928186882213 -0.034861013760275977 0 -0.00018897094868673033 -0.03477936840998886 0 -0.00030431271146639014 -0.034823666031353173 0 2.4073224897666995e-06 -0.034680502965599581 0 -0.00018897094868673033 -0.03477936840998886 0 -0.00010372686738104419 -0.034851860404424152 0 -0.00020179928186882213 -0.034861013760275977 0 -0.00018897094868673033 -0.03477936840998886 0 -0.00010372686738104419 -0.034851860404424152 0 -1.8862292481518907e-05 -0.034913941729393619 0 -0.00010372686738104419 -0.034851860404424152 0 -0.00011162791678054168 -0.034960469308104564 0 -0.00020179928186882213 -0.034861013760275977 0 -0.00010372686738104419 -0.034851860404424152 0 -0.00011162791678054168 -0.034960469308104564 0 -4.8118122711589231e-05 -0.034967392209741259 0 -2.3278155232042996e-05 -0.034932157682958327 0 -9.827954498943574e-05 -0.034881077823672599 0 -0.00020179928186882213 -0.034861013760275977 0 -0.00011162791678054168 -0.034960469308104564 0 -0.00027608978730862198 -0.034900424249882746 0 -4.8118122711589231e-05 -0.034967392209741259 0 -0.00011973009308716995 -0.034909338056023101 0 -9.827954498943574e-05 -0.034881077823672599 0 -6.6792141369248129e-05 -0.034931532943437323 0 -0.00021063330657451984 -0.035006620121802834 0 -0.00011973009308716995 -0.034909338056023101 0 -9.827954498943574e-05 -0.034881077823672599 0 -0.00020779287935286244 -0.034825839451681974 0 -0.00021063330657451984 -0.035006620121802834 0 -9.2385537117822459e-05 -0.03387060972973209 0 0.00054557024744889666 -0.03251699018988298 0 0.00067961315419876294 -0.032406726894101186 0 0.00045564017435366556 -0.03241854083862878 0 -0.00027608978730862198 -0.034900424249882746 0 -0.00030431271146639014 -0.034823666031353173 0 -0.00039113754452125166 -0.034850028148660443 0 0.00019259889705465163 -0.033917275045480706 0 0.00023279292423839958 -0.033857159347308388 0 0.00024585573499697876 -0.033812029792625771 0 -0.00030431271146639014 -0.034823666031353173 0 -0.00040180528014337256 -0.03484092509168412 0 -0.00039113754452125166 -0.034850028148660443 0 -6.8198683708689151e-05 -0.034426770778901744 0 -6.329617717439317e-05 -0.033789102360824101 0 0.00023279292423839958 -0.033857159347308388 0 0.00024585573499697876 -0.033812029792625771 0 0.0002468345264539775 -0.033791865980633065 0 0.00031324865233454621 -0.032181340735117719 0 0.00026432355878831825 -0.0322173213075145 0 0.00022954343358201732 -0.032165285041474929 0 -9.2385537117822459e-05 -0.03387060972973209 0 -0.00011068582095212219 -0.033378814749244659 0 -7.8027917604827845e-05 -0.033587555378610454 0 -2.037681055066883e-05 -0.033628022302229596 0 -0.00013036917115027884 -0.033602087952242038 0 -6.329617717439317e-05 -0.033789102360824101 0 -9.2385537117822459e-05 -0.03387060972973209 0 0.00067961315419876294 -0.032406726894101186 0 0.00038373428302578239 -0.032308425746935286 0 0.00045564017435366556 -0.03241854083862878 0 0.00031324865233454621 -0.032181340735117719 0 0.00030250515489274517 -0.032248239586682742 0 0.00038373428302578239 -0.032308425746935286 0 0.00030250515489274517 -0.032248239586682742 0 0.00026432355878831825 -0.0322173213075145 0 0.00024907405853837766 -0.032286054725771396 0 0.00067961315419876294 -0.032406726894101186 0 0.00031324865233454621 -0.032181340735117719 0 0.00038373428302578239 -0.032308425746935286 0 0.00031324865233454621 -0.032181340735117719 0 0.00030250515489274517 -0.032248239586682742 0 0.00026432355878831825 -0.0322173213075145 0 0.0002898273591628236 -0.033616364473366543 0 -9.2385537117822459e-05 -0.03387060972973209 0 0.00030250515489274517 -0.032248239586682742 0 0.00038373428302578239 -0.032308425746935286 0 0.00024907405853837766 -0.032286054725771396 0 0.00032269093509220884 -0.032409059413268861 0 0.00022111730807136801 -0.032400141916857896 0 0.00024907405853837766 -0.032286054725771396 0 0.00038373428302578239 -0.032308425746935286 0 0.00032269093509220884 -0.032409059413268861 0 0.00024907405853837766 -0.032286054725771396 0 0.00038373428302578239 -0.032308425746935286 0 0.00045564017435366556 -0.03241854083862878 0 0.00032269093509220884 -0.032409059413268861 0 8.4540320838832607e-05 -0.032482581124741547 0 0.00022111730807136801 -0.032400141916857896 0 0.00014332068181581917 -0.032357462505902122 0 0.00013505354692084886 -0.032263321316986809 0 -0.00013109611044858841 -0.032299696192859641 0 0.00022954343358201732 -0.032165285041474929 0 0.00023141324742354108 -0.032517963034663332 0 0.00032269093509220884 -0.032409059413268861 0 0.00022111730807136801 -0.032400141916857896 0 2.9647443120730124e-05 -0.032350757815102597 0 0.00013505354692084886 -0.032263321316986809 0 -0.00013109611044858841 -0.032299696192859641 0 -0.00041485699390125856 -0.032416332611761689 0 -0.00011068582095212219 -0.033378814749244659 0 0.00022111730807136801 -0.032400141916857896 0 0.00014332068181581917 -0.032357462505902122 0 0.00024907405853837766 -0.032286054725771396 0 8.4540320838832607e-05 -0.032482581124741547 0 0.00014332068181581917 -0.032357462505902122 0 2.9647443120730124e-05 -0.032350757815102597 0 0.00014332068181581917 -0.032357462505902122 0 2.9647443120730124e-05 -0.032350757815102597 0 0.00013505354692084886 -0.032263321316986809 0 0.00026432355878831825 -0.0322173213075145 0 0.00021942574278405343 -0.032233195849812185 0 0.00022954343358201732 -0.032165285041474929 0 0.00026432355878831825 -0.0322173213075145 0 0.00021942574278405343 -0.032233195849812185 0 0.00024907405853837766 -0.032286054725771396 0 0.00013505354692084886 -0.032263321316986809 0 0.00021942574278405343 -0.032233195849812185 0 0.00024907405853837766 -0.032286054725771396 0 0.00013505354692084886 -0.032263321316986809 0 0.00021942574278405343 -0.032233195849812185 0 0.00022954343358201732 -0.032165285041474929 0 0.00014332068181581917 -0.032357462505902122 0 0.00013505354692084886 -0.032263321316986809 0 0.00024907405853837766 -0.032286054725771396 0 -0.0001362239248078172 -0.032472501118621683 0 2.9647443120730124e-05 -0.032350757815102597 0 -0.00013109611044858841 -0.032299696192859641 0 -0.0001362239248078172 -0.032472501118621683 0 8.4540320838832607e-05 -0.032482581124741547 0 2.9647443120730124e-05 -0.032350757815102597 0 -0.00072084408071845893 -0.032715333153469715 0 -0.00072122370482537829 -0.032718714748318722 0 -0.00069173944309728588 -0.032723556308105847 0 0.00020492988425986465 -0.033512545473663669 0 0.00018265503597641647 -0.033521967012331427 0 0.00021697288508389721 -0.033527283276559829 0 -0.00070034278475351723 -0.032711295402558779 0 -0.00072084408071845893 -0.032715333153469715 0 -0.00072122370482537829 -0.032718714748318722 0 0.00020492988425986465 -0.033512545473663669 0 0.00015078548667203195 -0.033495963571900225 0 0.00018265503597641647 -0.033521967012331427 0 -0.0002974587272374531 -0.033081634274036639 0 -0.00011068582095212219 -0.033378814749244659 0 0.00014516478353220836 -0.033497785585317796 0 0.00015078548667203195 -0.033495963571900225 0 0.00018265503597641647 -0.033521967012331427 0 -6.329617717439317e-05 -0.033789102360824101 0 -0.00011068582095212219 -0.033378814749244659 0 -6.329617717439317e-05 -0.033789102360824101 0 0.00024212874124367295 -0.033634476259434477 0 0.00024585573499697876 -0.033812029792625771 0 0.00023322188713892429 -0.033741965386622476 0 0.0002468345264539775 -0.033791865980633065 0 0.0002468345264539775 -0.033791865980633065 0 0.00024799962402855463 -0.033678177680877844 0 0.00023721659481837338 -0.033817041350099906 0 0.00023322188713892429 -0.033741965386622476 0 0.0002468345264539775 -0.033791865980633065 0 0.00024799962402855463 -0.033678177680877844 0 0.00023322188713892429 -0.033741965386622476 0 0.00024799962402855463 -0.033678177680877844 0 0.00021697288508389721 -0.033527283276559829 0 0.00024799962402855463 -0.033678177680877844 0 0.00021697288508389721 -0.033527283276559829 0 0.00024034794507470637 -0.033543100465464583 0 0.00024212874124367295 -0.033634476259434477 0 0.00020770320500356374 -0.033554997091214005 0 0.00024799962402855463 -0.033678177680877844 0 0.00025402607719642072 -0.033557398912939379 0 0.00024034794507470637 -0.033543100465464583 0 0.00024601609620384746 -0.033414790525969892 0 0.00021697288508389721 -0.033527283276559829 0 0.00024034794507470637 -0.033543100465464583 0 0.00024601609620384746 -0.033414790525969892 0 0.00025402607719642072 -0.033557398912939379 0 0.00024034794507470637 -0.033543100465464583 0 0.00024799962402855463 -0.033678177680877844 0 0.00023988812902044472 -0.033704773520699921 0 0.00023721659481837338 -0.033817041350099906 0 0.00024799962402855463 -0.033678177680877844 0 0.00025402607719642072 -0.033557398912939379 0 0.00023988812902044472 -0.033704773520699921 0 0.00020302787179612763 -0.033869632108083476 0 0.00021305656000891512 -0.033928473168507611 0 0.00023721659481837338 -0.033817041350099906 0 0.00023988812902044472 -0.033704773520699921 0 0.00020302787179612763 -0.033869632108083476 0 0.00023721659481837338 -0.033817041350099906 0 0.00020302787179612763 -0.033869632108083476 0 0.00016346898473030408 -0.034067467517258511 0 0.00021305656000891512 -0.033928473168507611 0 0.00016249855210530471 -0.033929245746753045 0 0.00020302787179612763 -0.033869632108083476 0 0.00016346898473030408 -0.034067467517258511 0 0.00019259889705465163 -0.033917275045480706 0 0.00016346898473030408 -0.034067467517258511 0 0.00021305656000891512 -0.033928473168507611 0 0.00019259889705465163 -0.033917275045480706 0 0.00023279292423839958 -0.033857159347308388 0 0.00021305656000891512 -0.033928473168507611 0 0.00023279292423839958 -0.033857159347308388 0 0.00021305656000891512 -0.033928473168507611 0 0.00023721659481837338 -0.033817041350099906 0 0.00023279292423839958 -0.033857159347308388 0 0.0002468345264539775 -0.033791865980633065 0 0.00023721659481837338 -0.033817041350099906 0 0.0036529267409941518 -0.0028065761652042399 0 0.0041086764618841944 -0.0039759133404346607 0 0.0028606904031691113 -0.0039569679415404077 0 0.0036529267409941518 -0.0028065761652042399 0 0.0050953224755989467 -0.0040883453088310035 0 0.0041086764618841944 -0.0039759133404346607 0 0.0019289692923747856 -0.0031915934685543836 0 0.00082177778818847259 -0.0023268854267434161 0 0.0036529267409941518 -0.0028065761652042399 0 0.0024553242763621797 -0.002442131917434569 0 0.0028606904031691113 -0.0039569679415404077 0 0.0024553242763621797 -0.002442131917434569 0 0.0028606904031691113 -0.0039569679415404077 0 0.0017087918442859286 -0.0024704286577417875 0 0.0036529267409941518 -0.0028065761652042399 0 0.0029608216521847053 -0.0020945953073937614 0 0.0024553242763621797 -0.002442131917434569 0 0.0029608216521847053 -0.0020945953073937614 0 0.0024553242763621797 -0.002442131917434569 0 0.0024786270649778401 -0.0016148514923566581 0 0.0024553242763621797 -0.002442131917434569 0 0.0024786270649778401 -0.0016148514923566581 0 0.0016605084292027478 -0.0018103313090434168 0 0.0024553242763621797 -0.002442131917434569 0 0.0017087918442859286 -0.0024704286577417875 0 0.0016605084292027478 -0.0018103313090434168 0 0.0024786270649778401 -0.0016148514923566581 0 0.0016605084292027478 -0.0018103313090434168 0 0.0019558851398051458 -0.0010961277249284891 0 0.0029608216521847053 -0.0020945953073937614 0 0.0024786270649778401 -0.0016148514923566581 0 0.0032560415454878449 -0.0013712366811251956 0 0.0024786270649778401 -0.0016148514923566581 0 0.0032560415454878449 -0.0013712366811251956 0 0.0026321887789861544 -0.00089956751377337615 0 0.0036529267409941518 -0.0028065761652042399 0 0.0032560415454878449 -0.0013712366811251956 0 0.0047725106671988307 -0.0015909123944266362 0 0.0036529267409941518 -0.0028065761652042399 0 0.0029608216521847053 -0.0020945953073937614 0 0.0032560415454878449 -0.0013712366811251956 0 0.0049852317343597819 -0.0039714417956537651 0 0.0054474937178413552 -0.0039133726782842829 0 0.0050953224755989467 -0.0040883453088310035 0 0.0049852317343597819 -0.0039714417956537651 0 0.0054474937178413552 -0.0039133726782842829 0 0.0057079968228224412 -0.0032803506650345583 0 0.0055320204936047807 -0.004030283197392944 0 0.0054474937178413552 -0.0039133726782842829 0 0.0057237877114394049 -0.0037832830059418439 0 0.0055320204936047807 -0.004030283197392944 0 0.0054474265213762304 -0.0042270306684732487 0 0.0050953224755989467 -0.0040883453088310035 0 0.0055320204936047807 -0.004030283197392944 0 0.0054474937178413552 -0.0039133726782842829 0 0.0050953224755989467 -0.0040883453088310035 0 0.0048452270853392918 -0.002762185455646811 0 0.0050969465758083747 -0.0040257804091177636 0 0.0036529267409941518 -0.0028065761652042399 0 0.0047725106671988307 -0.0015909123944266362 0 0.0050953224755989467 -0.0040883453088310035 0 0.0050953224755989467 -0.0040883453088310035 0 0.0054497168045726354 -0.0045021725191402833 0 0.0047386861311721762 -0.0048009881761999938 0 0.0050953224755989467 -0.0040883453088310035 0 0.0047386861311721762 -0.0048009881761999938 0 0.0041086764618841944 -0.0039759133404346607 0 0.0054474265213762304 -0.0042270306684732487 0 0.0050953224755989467 -0.0040883453088310035 0 0.0054497168045726354 -0.0045021725191402833 0 0.0054497168045726354 -0.0045021725191402833 0 0.0047386861311721762 -0.0048009881761999938 0 0.0053438997400567616 -0.0048996580812849652 0 0.0032267756396896362 -0.0038737103668971015 0 0.0040864974815985177 -0.0042387300615448617 0 0.0010684955019732998 -0.0029170988541436286 0 0.0016626446672575259 -0.0035968266564072849 0 0.0017642513209653126 -0.0029245548993749124 0 0.0010211455271240024 -0.0028829898869112409 0 0.0016984434838148144 -0.003858362513593022 0 0.0017642513209653126 -0.0029245548993749124 0 0.00099547030794762533 -0.0025087793010847266 0 0.0010211455271240024 -0.0028829898869112409 0 0.0032267756396896362 -0.0038737103668971015 0 0.0019289692923747856 -0.0031915934685543836 0 0.0047386861311721762 -0.0048009881761999938 0 0.0041086764618841944 -0.0039759133404346607 0 0.0028606904031691113 -0.0039569679415404077 0 0.00099547030794762533 -0.0025087793010847266 0 0.00085559495073914637 -0.0026792288918053297 0 0.0010211455271240024 -0.0028829898869112409 0 0.00099547030794762533 -0.0025087793010847266 0 0.00085559495073914637 -0.0026792288918053297 0 0.0008211561809734171 -0.0024618916183256935 0 0.00085559495073914637 -0.0026792288918053297 0 0.0010211455271240024 -0.0028829898869112409 0 0.00077210687982525578 -0.0029121519564439774 0 0.0010211455271240024 -0.0028829898869112409 0 0.00077210687982525578 -0.0029121519564439774 0 0.00096754030000925195 -0.0032840650475358187 0 2.4155544742425106e-05 -0.0019348648125199256 0 -0.00037584985822007014 -0.0019038706769389732 0 -0.00042712977108282741 -0.0017052709404323312 0 2.4155544742425106e-05 -0.0019348648125199256 0 -0.00037584985822007014 -0.0019038706769389732 0 -0.00051090206539458388 -0.0025299710290710427 0 -0.00040034182722007035 -0.0012391054639020837 0 -0.00042480099760968228 -0.00082842283079401181 0 -0.00091428259454118819 -0.00071752485616277087 0 -0.00038732692767606098 -0.001470321283036107 0 -0.00037584985822007014 -0.0019038706769389732 0 -0.00051090206539458388 -0.0025299710290710427 0 -0.00038732692767606098 -0.001470321283036107 0 -0.00040034182722007035 -0.0012391054639020837 0 -0.00091428259454118819 -0.00071752485616277087 0 -0.00043867724540872411 -0.001536028939715076 0 -0.00063060297019834849 -0.0016827577899949737 0 -0.00040034182722007035 -0.0012391054639020837 0 -9.7057337141251673e-05 -0.00091877667429171215 0 -0.00042480099760968228 -0.00082842283079401181 0 -0.00038732692767606098 -0.001470321283036107 0 -0.00037584985822007014 -0.0019038706769389732 0 -0.00042712977108282741 -0.0017052709404323312 0 -0.00038732692767606098 -0.001470321283036107 0 -0.00040034182722007035 -0.0012391054639020837 0 -0.00024171375029887005 -0.0018181184486597488 0 -0.00038732692767606098 -0.001470321283036107 0 -0.00042712977108282741 -0.0017052709404323312 0 -0.00024171375029887005 -0.0018181184486597488 0 -0.00042712977108282741 -0.0017052709404323312 0 -0.00043569463055363598 -0.0017111716970070272 0 -0.00024171375029887005 -0.0018181184486597488 0 2.4155544742425106e-05 -0.0019348648125199256 0 -0.00042712977108282741 -0.0017052709404323312 0 -0.00043569463055363598 -0.0017111716970070272 0 0.00085559495073914637 -0.0026792288918053297 0 0.00077210687982525578 -0.0029121519564439774 0 0.00072035671969391288 -0.0026414651193348406 0 0.00077210687982525578 -0.0029121519564439774 0 0.00050321321806978919 -0.0026380965985442159 0 0.00072035671969391288 -0.0026414651193348406 0 0.00050321321806978919 -0.0026380965985442159 0 0.00072035671969391288 -0.0026414651193348406 0 0.00063867079421446441 -0.0024917567486919812 0 0.0003983770116903015 -0.0024666660431084887 0 4.1212523464614887e-05 -0.0021724910423616384 0 0.00085559495073914637 -0.0026792288918053297 0 0.00072035671969391288 -0.0026414651193348406 0 0.0008211561809734171 -0.0024618916183256935 0 -0.00028864143430498148 0.006018071163943187 0 -0.00012896905519127971 0.0057578309051584172 0 0.00028927063419544415 -0.00080891033710660059 0 5.5385788693082718e-05 -0.0012236971572258059 0 0.00035205731658555543 -0.0013766881103633535 0 0.00028927063419544415 -0.00080891033710660059 0 0.00035205731658555543 -0.0013766881103633535 0 0.00090604967817660182 -0.00063624626848973276 0 0.00028927063419544415 -0.00080891033710660059 0 5.5385788693082718e-05 -0.0012236971572258059 0 -9.7057337141251673e-05 -0.00091877667429171215 0 -0.00040034182722007035 -0.0012391054639020837 0 -9.7057337141251673e-05 -0.00091877667429171215 0 -0.00013467966492124305 -0.0012510212825566829 0 5.5385788693082718e-05 -0.0012236971572258059 0 -9.7057337141251673e-05 -0.00091877667429171215 0 -0.00013467966492124305 -0.0012510212825566829 0 -0.00052014726912236208 -0.00077185077376570313 0 0.00017638985124931138 -0.0029367169098514852 0 5.5385788693082718e-05 -0.0012236971572258059 0 -4.1514565076461855e-05 -0.001463221600956149 0 0.00035205731658555543 -0.0013766881103633535 0 -0.00040034182722007035 -0.0012391054639020837 0 -0.00013467966492124305 -0.0012510212825566829 0 -4.1514565076461855e-05 -0.001463221600956149 0 5.5385788693082718e-05 -0.0012236971572258059 0 -0.00013467966492124305 -0.0012510212825566829 0 -4.1514565076461855e-05 -0.001463221600956149 0 -0.00090703783454882151 0.013123249916911914 0 -0.0010380857581816989 0.013662907934639779 0 -0.00061319871955387842 0.013853564698851316 0 -0.00028864143430498148 0.006018071163943187 0 4.5173699714134414e-05 0.0053580867443769357 0 -0.00090703783454882151 0.013123249916911914 0 -0.0010380857581816989 0.013662907934639779 0 -0.0013970958867190425 0.01352882486875269 0 -0.0010380857581816989 0.013662907934639779 0 -0.0010115280817550064 0.014028012020961333 0 -0.0012503142912338398 0.013903983448981727 0 -0.0010380857581816989 0.013662907934639779 0 -0.00061319871955387842 0.013853564698851316 0 -0.0010115280817550064 0.014028012020961333 0 0.00017638985124931138 -0.0029367169098514852 0 4.5173699714134414e-05 0.0053580867443769357 0 -0.00024171375029887005 -0.0018181184486597488 0 -0.00016326354344502279 -0.0020989412495699741 0 -0.00011557082026877354 -0.0020839714312152128 0 -4.1514565076461855e-05 -0.001463221600956149 0 0.00035205731658555543 -0.0013766881103633535 0 6.8191334577660104e-05 -0.0016546904540614396 0 0.00037506902537146476 0.0096988507457873279 0 0.0018416763366752838 0.012634992552681343 0 -0.00049888550987880933 0.012322363654534148 0 4.5173699714134414e-05 0.0053580867443769357 0 0.00050871723778279248 0.0041612722751050938 0 -0.00011557082026877354 -0.0020839714312152128 0 0.00016866232700453112 -0.0020386724663461991 0 0.00016048973397606874 -0.0013143769393165921 0 -0.00016326354344502279 -0.0020989412495699741 0 -0.00011557082026877354 -0.0020839714312152128 0 0.00016048973397606874 -0.0013143769393165921 0 4.5173699714134414e-05 0.0053580867443769357 0 -0.00097022563211287367 0.014649805138768889 0 -0.00061319871955387842 0.013853564698851316 0 -0.0010115280817550064 0.014028012020961333 0 -0.00087564459992705874 0.014463278234167574 0 -0.0010115280817550064 0.014028012020961333 0 -0.00087564459992705874 0.014463278234167574 0 -0.0013197811885098793 0.014212632217713154 0 -0.0010115280817550064 0.014028012020961333 0 -0.0012503142912338398 0.013903983448981727 0 -0.0013197811885098793 0.014212632217713154 0 0.00099547030794762533 -0.0025087793010847266 0 0.0008211561809734171 -0.0024618916183256935 0 0.00077455812424799824 -0.0022662851841946784 0 0.0028606904031691113 -0.0039569679415404077 0 0.0017087918442859286 -0.0024704286577417875 0 0.00077455812424799824 -0.0022662851841946784 0 0.00075871689217557148 -0.0023792120998152753 0 0.0008211561809734171 -0.0024618916183256935 0 0.00077455812424799824 -0.0022662851841946784 0 0.00075871689217557148 -0.0023792120998152753 0 0.00070073116600366634 -0.0023047830306223106 0 0.00058692893989639402 -0.0023204173991978718 0 0.00070073116600366634 -0.0023047830306223106 0 0.00067471391710964817 -0.0022501364009487918 0 0.00058692893989639402 -0.0023204173991978718 0 0.00070073116600366634 -0.0023047830306223106 0 0.00067471391710964817 -0.0022501364009487918 0 0.00077455812424799824 -0.0022662851841946784 0 0.00075871689217557148 -0.0023792120998152753 0 0.00070073116600366634 -0.0023047830306223106 0 0.00077455812424799824 -0.0022662851841946784 0 0.00075871689217557148 -0.0023792120998152753 0 0.00063867079421446441 -0.0024917567486919812 0 0.00058692893989639402 -0.0023204173991978718 0 0.00075871689217557148 -0.0023792120998152753 0 0.0008211561809734171 -0.0024618916183256935 0 0.00063867079421446441 -0.0024917567486919812 0 0.00072035671969391288 -0.0026414651193348406 0 0.0008211561809734171 -0.0024618916183256935 0 0.00063867079421446441 -0.0024917567486919812 0 0.00050321321806978919 -0.0026380965985442159 0 0.00051711340356599023 -0.0024339449608934628 0 0.0003133914346403382 -0.0022841517997108426 0 -0.00043569463055363598 -0.0017111716970070272 0 -0.00024171375029887005 -0.0018181184486597488 0 -0.00011557082026877354 -0.0020839714312152128 0 0.00050321321806978919 -0.0026380965985442159 0 -0.00011557082026877354 -0.0020839714312152128 0 0.0003133914346403382 -0.0022841517997108426 0 4.1212523464614887e-05 -0.0021724910423616384 0 -0.00010792283031303374 -0.0020824229735543973 0 0.00063867079421446441 -0.0024917567486919812 0 0.00051711340356599023 -0.0024339449608934628 0 0.00058692893989639402 -0.0023204173991978718 0 0.00050321321806978919 -0.0026380965985442159 0 0.00063867079421446441 -0.0024917567486919812 0 0.00051711340356599023 -0.0024339449608934628 0 -0.00011557082026877354 -0.0020839714312152128 0 0.0003133914346403382 -0.0022841517997108426 0 0.00016866232700453112 -0.0020386724663461991 0 0.0003133914346403382 -0.0022841517997108426 0 0.00058692893989639402 -0.0023204173991978718 0 0.00041197575996326525 -0.0020666549333218849 0 0.00051711340356599023 -0.0024339449608934628 0 0.0003133914346403382 -0.0022841517997108426 0 0.00058692893989639402 -0.0023204173991978718 0 0.00058692893989639402 -0.0023204173991978718 0 0.0005878035988021702 -0.0021980642449984282 0 0.00041197575996326525 -0.0020666549333218849 0 0.00067471391710964817 -0.0022501364009487918 0 0.00058692893989639402 -0.0023204173991978718 0 0.0005878035988021702 -0.0021980642449984282 0 0.00095008634907056179 -0.0037991384076335793 0 0.00050871723778279248 0.0041612722751050938 0 0.0005878035988021702 -0.0021980642449984282 0 0.00041197575996326525 -0.0020666549333218849 0 0.00068698203486235317 -0.00214431885300726 0 0.00041197575996326525 -0.0020666549333218849 0 0.00016866232700453112 -0.0020386724663461991 0 0.00016048973397606874 -0.0013143769393165921 0 0.00068698203486235317 -0.00214431885300726 0 0.00056219752567439763 -0.0011033090857700343 0 -0.00039880556149544445 -0.00061836078050661809 0 0.00041197575996326525 -0.0020666549333218849 0 0.00068698203486235317 -0.00214431885300726 0 0.00016048973397606874 -0.0013143769393165921 0 0.0003133914346403382 -0.0022841517997108426 0 0.00041197575996326525 -0.0020666549333218849 0 0.00016866232700453112 -0.0020386724663461991 0 0.00097448353790391884 -0.0014344976922892854 0 0.00068698203486235317 -0.00214431885300726 0 0.00056219752567439763 -0.0011033090857700343 0 0.00097448353790391884 -0.0014344976922892854 0 0.00095026504448617662 -0.0019462181158700633 0 0.0011966559099052174 -0.0017478659755971642 0 0.00097448353790391884 -0.0014344976922892854 0 0.00095026504448617662 -0.0019462181158700633 0 0.00068698203486235317 -0.00214431885300726 0 0.00095026504448617662 -0.0019462181158700633 0 0.0012439606618016782 -0.0020421508047667888 0 0.0011966559099052174 -0.0017478659755971642 0 0.00095026504448617662 -0.0019462181158700633 0 0.00077455812424799824 -0.0022662851841946784 0 0.0012439606618016782 -0.0020421508047667888 0 0.00067471391710964817 -0.0022501364009487918 0 0.00077455812424799824 -0.0022662851841946784 0 0.00068698203486235317 -0.00214431885300726 0 0.00095026504448617662 -0.0019462181158700633 0 0.00077455812424799824 -0.0022662851841946784 0 0.00068698203486235317 -0.00214431885300726 0 0.00067471391710964817 -0.0022501364009487918 0 0.0005878035988021702 -0.0021980642449984282 0 0.00068698203486235317 -0.00214431885300726 0 0.0017087918442859286 -0.0024704286577417875 0 0.0012439606618016782 -0.0020421508047667888 0 0.0016605084292027478 -0.0018103313090434168 0 0.0017087918442859286 -0.0024704286577417875 0 0.00077455812424799824 -0.0022662851841946784 0 0.0012439606618016782 -0.0020421508047667888 0 0.0012439606618016782 -0.0020421508047667888 0 0.0016605084292027478 -0.0018103313090434168 0 0.0011966559099052174 -0.0017478659755971642 0 0.0016605084292027478 -0.0018103313090434168 0 0.001402498450298158 -0.0013474064321847188 0 0.0019558851398051458 -0.0010961277249284891 0 0.0016605084292027478 -0.0018103313090434168 0 0.0011966559099052174 -0.0017478659755971642 0 0.001402498450298158 -0.0013474064321847188 0 0.00097448353790391884 -0.0014344976922892854 0 0.0011966559099052174 -0.0017478659755971642 0 0.001402498450298158 -0.0013474064321847188 0 0.001402498450298158 -0.0013474064321847188 0 0.0013217195939916027 -0.00071086794464191331 0 0.0019558851398051458 -0.0010961277249284891 0 0.00097448353790391884 -0.0014344976922892854 0 0.001402498450298158 -0.0013474064321847188 0 0.0013217195939916027 -0.00071086794464191331 0 0.0013217195939916027 -0.00071086794464191331 0 0.0014744640292060267 0.00040079943493371239 0 0.0022036909948458519 -0.00023459220387168583 0 0.0013217195939916027 -0.00071086794464191331 0 0.00074802079521214468 -0.00023186930357127611 0 0.0014744640292060267 0.00040079943493371239 0 0.0013217195939916027 -0.00071086794464191331 0 0.00074802079521214468 -0.00023186930357127611 0 0.00056219752567439763 -0.0011033090857700343 0 0.00097448353790391884 -0.0014344976922892854 0 0.0013217195939916027 -0.00071086794464191331 0 0.00056219752567439763 -0.0011033090857700343 0 0.00074802079521214468 -0.00023186930357127611 0 0.00056219752567439763 -0.0011033090857700343 0 -0.00039880556149544445 -0.00061836078050661809 0 0.00074802079521214468 -0.00023186930357127611 0 -0.00039880556149544445 -0.00061836078050661809 0 0.00048183234851254154 0.0010817635881511883 0 0.00050871723778279248 0.0041612722751050938 0 0.00074277135033821713 0.0030458442512136291 0 0.00099632941003033023 0.0052630939295221675 0 0.0012653366269421355 0.0057613907948350718 0 0.00095746806695920527 0.0057986566310998062 0 0.00074802079521214468 -0.00023186930357127611 0 0.00048183234851254154 0.0010817635881511883 0 0.0014744640292060267 0.00040079943493371239 0 0.00048183234851254154 0.0010817635881511883 0 0.0014744640292060267 0.00040079943493371239 0 0.0016642441456255306 0.0014864314054083907 0 -0.00087564459992705874 0.014463278234167574 0 -0.0014318730970060087 0.014502672655953123 0 -0.0013930219716444144 0.014803494019250357 0 -0.00097022563211287367 0.014649805138768889 0 -0.00089099961837420206 0.014203734035534049 0 -0.00087564459992705874 0.014463278234167574 0 -0.0013197811885098793 0.014212632217713154 0 -0.0014318730970060087 0.014502672655953123 0 0.0018416763366752838 0.012634992552681343 0 -0.00049888550987880933 0.012322363654534148 0 3.7392691962314071e-05 0.014934824730751497 0 0.00099632941003033023 0.0052630939295221675 0 0.00067905192584481679 0.0057019246690859088 0 0.00095746806695920527 0.0057986566310998062 0 0.00050871723778279248 0.0041612722751050938 0 0.00016768717852758778 0.011229648292527431 0 -0.00049888550987880933 0.012322363654534148 0 3.7392691962314071e-05 0.014934824730751497 0 -0.001053158977450344 0.014819392238113455 0 -0.00087564459992705874 0.014463278234167574 0 -0.001053158977450344 0.014819392238113455 0 -0.0013930219716444144 0.014803494019250357 0 3.7392691962314071e-05 0.014934824730751497 0 -0.001053158977450344 0.014819392238113455 0 -0.00092558557235436283 0.015265256310375128 0 -0.001053158977450344 0.014819392238113455 0 -0.0012305510321389426 0.015255254517028617 0 -0.00092558557235436283 0.015265256310375128 0 -0.001053158977450344 0.014819392238113455 0 -0.0012305510321389426 0.015255254517028617 0 -0.0013062597184473161 0.015000760364982364 0 -0.001053158977450344 0.014819392238113455 0 -0.0013062597184473161 0.015000760364982364 0 -0.0013930219716444144 0.014803494019250357 0 0.00067905192584481679 0.0057019246690859088 0 0.00034154814180826208 0.0060990001046339302 0 0.00037752477213173644 0.0060803870028443502 0 3.7392691962314071e-05 0.014934824730751497 0 -0.0011088290123800746 0.015799360587911582 0 -0.00092558557235436283 0.015265256310375128 0 0.00067905192584481679 0.0057019246690859088 0 0.00037752477213173644 0.0060803870028443502 0 0.00074572129001782255 0.0060554110244634392 0 0.00016768717852758778 0.011229648292527431 0 -0.00048319948281023653 0.0095250423589184549 0 0.00033445179572073864 0.0060916602247944613 0 0.00037752477213173644 0.0060803870028443502 0 0.00036300267838095825 0.006176472326617723 0 -0.00048319948281023653 0.0095250423589184549 0 -0.0002803431503129136 0.0093239175029601589 0 -0.0011088290123800746 0.015799360587911582 0 -0.0011437134156161708 0.015475719522923299 0 -0.0013671093524962516 0.015611523700108107 0 -0.0011437134156161708 0.015475719522923299 0 -0.0012305510321389426 0.015255254517028617 0 -0.0013671093524962516 0.015611523700108107 0 -0.0011088290123800746 0.015799360587911582 0 -0.0011437134156161708 0.015475719522923299 0 -0.00092558557235436283 0.015265256310375128 0 -0.0011437134156161708 0.015475719522923299 0 -0.0012305510321389426 0.015255254517028617 0 -0.00092558557235436283 0.015265256310375128 0 0.00037752477213173644 0.0060803870028443502 0 0.00074572129001782255 0.0060554110244634392 0 0.00049378280797476577 0.0062436468637454496 0 0.00067905192584481679 0.0057019246690859088 0 0.00074572129001782255 0.0060554110244634392 0 0.00095746806695920527 0.0057986566310998062 0 0.00074572129001782255 0.0060554110244634392 0 0.00095746806695920527 0.0057986566310998062 0 0.00108710987755209 0.0061332102497955229 0 0.00079546233154839056 0.0063332817911529431 0 0.00059525713880850361 0.006501725197758045 0 0.0010339259522482366 0.0065352385281825321 0 0.00079546233154839056 0.0063332817911529431 0 0.00108710987755209 0.0061332102497955229 0 0.0010339259522482366 0.0065352385281825321 0 0.00074572129001782255 0.0060554110244634392 0 0.00079546233154839056 0.0063332817911529431 0 0.00108710987755209 0.0061332102497955229 0 0.00074572129001782255 0.0060554110244634392 0 0.00079546233154839056 0.0063332817911529431 0 0.00049378280797476577 0.0062436468637454496 0 0.00049378280797476577 0.0062436468637454496 0 0.00059525713880850361 0.006501725197758045 0 0.00029779958099828292 0.0063318674844409541 0 0.00079546233154839056 0.0063332817911529431 0 0.00049378280797476577 0.0062436468637454496 0 0.00059525713880850361 0.006501725197758045 0 0.00059525713880850361 0.006501725197758045 0 0.00029779958099828292 0.0063318674844409541 0 0.00020735305262623908 0.0065735177375806034 0 0.00029779958099828292 0.0063318674844409541 0 0.00036300267838095825 0.006176472326617723 0 0.00023529206810736953 0.006155227996536494 0 0.00049378280797476577 0.0062436468637454496 0 0.00029779958099828292 0.0063318674844409541 0 0.00036300267838095825 0.006176472326617723 0 0.00037752477213173644 0.0060803870028443502 0 0.00049378280797476577 0.0062436468637454496 0 0.00036300267838095825 0.006176472326617723 0 0.00033445179572073864 0.0060916602247944613 0 0.00036300267838095825 0.006176472326617723 0 0.00023529206810736953 0.006155227996536494 0 -0.00048319948281023653 0.0095250423589184549 0 0.00035404700671642464 0.0079567574087225021 0 0.00074277135033821713 0.0030458442512136291 0 0.0016684790560128665 0.0046060878658857373 0 0.00048183234851254154 0.0010817635881511883 0 0.0016642441456255306 0.0014864314054083907 0 0.0013875500169421105 0.0028160752828109994 0 0.0012653366269421355 0.0057613907948350718 0 0.00095746806695920527 0.0057986566310998062 0 0.00108710987755209 0.0061332102497955229 0 0.0012653366269421355 0.0057613907948350718 0 0.00108710987755209 0.0061332102497955229 0 0.0015363554086821798 0.006261731808106779 0 0.0016684790560128665 0.0046060878658857373 0 0.0013208864476640665 0.0065607194399175395 0 0.00108710987755209 0.0061332102497955229 0 0.0015363554086821798 0.006261731808106779 0 0.0010339259522482366 0.0065352385281825321 0 0.0024172898545175908 0.0057715168871087736 0 0.0016184756659597221 0.0061919560382302785 0 0.0022619469938026117 0.0063246837692656991 0 0.0016684790560128665 0.0046060878658857373 0 0.002193634075149485 0.0052442513293880387 0 0.0010070453040172617 0.0028202113884497337 0 0.002458547260604326 0.003299367545000632 0 0.0017229967588453081 0.0043177707369661308 0 0.002458547260604326 0.003299367545000632 0 0.0038565688198490527 0.0026871697235106508 0 0.0024147814008457593 0.0021906168153301478 0 0.0016684790560128665 0.0046060878658857373 0 0.0025345915200829443 0.0022478168594428217 0 0.0010070453040172617 0.0028202113884497337 0 0.002458547260604326 0.003299367545000632 0 0.0024147814008457593 0.0021906168153301478 0 0.0038565688198490527 0.0026871697235106508 0 0.0051845992371501448 0.0035027583849573268 0 0.0034031087886347389 0.0041680772412183726 0 0.002458547260604326 0.003299367545000632 0 0.0038565688198490527 0.0026871697235106508 0 0.0034031087886347389 0.0041680772412183726 0 0.0038352126597991617 0.0025070430461929206 0 0.0041884086363471384 -0.00019707703868359114 0 0.0038565688198490527 0.0026871697235106508 0 0.0036010710512813042 0.0016856024341941572 0 0.0024147814008457593 0.0021906168153301478 0 0.0038565688198490527 0.0026871697235106508 0 0.0036010710512813042 0.0016856024341941572 0 0.0042488588081084347 0.00065512576846449809 0 0.0034253847803283775 0.0017710964282726808 0 0.0025345915200829443 0.0022478168594428217 0 0.0036010710512813042 0.0016856024341941572 0 0.0024881244138041611 0.0022697239717307085 0 0.0024913412806829376 0.00086851475400824411 0 0.0016642441456255306 0.0014864314054083907 0 0.0024881244138041611 0.0022697239717307085 0 0.0024913412806829376 0.00086851475400824411 0 0.0016642441456255306 0.0014864314054083907 0 0.0013875500169421105 0.0028160752828109994 0 0.0024881244138041611 0.0022697239717307085 0 0.0014744640292060267 0.00040079943493371239 0 0.0016642441456255306 0.0014864314054083907 0 0.0024913412806829376 0.00086851475400824411 0 0.0014744640292060267 0.00040079943493371239 0 0.0024913412806829376 0.00086851475400824411 0 0.0022036909948458519 -0.00023459220387168583 0 0.0024913412806829376 0.00086851475400824411 0 0.0032714159330665292 -0.00019710813984149118 0 0.0022036909948458519 -0.00023459220387168583 0 0.0036010710512813042 0.0016856024341941572 0 0.0024913412806829376 0.00086851475400824411 0 0.0034057056237145836 0.00075900765422227891 0 0.0036010710512813042 0.0016856024341941572 0 0.0034057056237145836 0.00075900765422227891 0 0.0042488588081084347 0.00065512576846449809 0 0.0034057056237145836 0.00075900765422227891 0 0.0032714159330665292 -0.00019710813984149118 0 0.0042488588081084347 0.00065512576846449809 0 0.0024913412806829376 0.00086851475400824411 0 0.0034057056237145836 0.00075900765422227891 0 0.0032714159330665292 -0.00019710813984149118 0 0.0032560415454878449 -0.0013712366811251956 0 0.0047725106671988307 -0.0015909123944266362 0 0.0032714159330665292 -0.00019710813984149118 0 0.0047725106671988307 -0.0015909123944266362 0 0.0032714159330665292 -0.00019710813984149118 0 0.0042488588081084347 0.00065512576846449809 0 0.0032560415454878449 -0.0013712366811251956 0 0.0032714159330665292 -0.00019710813984149118 0 0.0026321887789861544 -0.00089956751377337615 0 0.0013217195939916027 -0.00071086794464191331 0 0.0019558851398051458 -0.0010961277249284891 0 0.0022036909948458519 -0.00023459220387168583 0 0.0026321887789861544 -0.00089956751377337615 0 0.0019558851398051458 -0.0010961277249284891 0 0.0022036909948458519 -0.00023459220387168583 0 0.0024786270649778401 -0.0016148514923566581 0 0.0026321887789861544 -0.00089956751377337615 0 0.0019558851398051458 -0.0010961277249284891 0 0.0032714159330665292 -0.00019710813984149118 0 0.0026321887789861544 -0.00089956751377337615 0 0.0022036909948458519 -0.00023459220387168583 0 0.0054474937178413552 -0.0039133726782842829 0 0.0057079968228224412 -0.0032803506650345583 0 0.0057237877114394049 -0.0037832830059418439 0 0.0057079968228224412 -0.0032803506650345583 0 0.0057237877114394049 -0.0037832830059418439 0 0.0058415896203647911 -0.003999482062781029 0 0.0049852317343597819 -0.0039714417956537651 0 0.0057079968228224412 -0.0032803506650345583 0 0.0040409381738653475 -0.0011288583446493927 0 0.0048452270853392918 -0.002762185455646811 0 0.0041884086363471384 -0.00019707703868359114 0 0.0057079968228224412 -0.0032803506650345583 0 0.0040409381738653475 -0.0011288583446493927 0 0.005989782168773829 -0.00079373958664167318 0 0.0059046229478256513 -0.0030812708054762049 0 0.0066684683817892004 -0.002632771054868777 0 0.0057079968228224412 -0.0032803506650345583 0 0.005989782168773829 -0.00079373958664167318 0 0.0081439401502217627 -0.00031303561792592969 0 0.0061139519355792498 0.0015033185926684274 0 0.0078648586957082763 0.0019780974471093138 0 0.0081439401502217627 -0.00031303561792592969 0 0.005989782168773829 -0.00079373958664167318 0 0.0061139519355792498 0.0015033185926684274 0 0.0081439401502217627 -0.00031303561792592969 0 0.0038565688198490527 0.0026871697235106508 0 0.0040409381738653475 -0.0011288583446493927 0 0.0061139519355792498 0.0015033185926684274 0 0.0040409381738653475 -0.0011288583446493927 0 0.005989782168773829 -0.00079373958664167318 0 0.0061139519355792498 0.0015033185926684274 0 0.0061139519355792498 0.0015033185926684274 0 0.0051845992371501448 0.0035027583849573268 0 0.00656880951282654 0.0039527327752145649 0 0.0038565688198490527 0.0026871697235106508 0 0.0061139519355792498 0.0015033185926684274 0 0.0051845992371501448 0.0035027583849573268 0 0.0061139519355792498 0.0015033185926684274 0 0.0078648586957082763 0.0019780974471093138 0 0.00656880951282654 0.0039527327752145649 0 0.0078648586957082763 0.0019780974471093138 0 0.0081861347723819824 0.0035710644931144339 0 0.00656880951282654 0.0039527327752145649 0 0.0058648433604640889 -0.004343513570488974 0 0.0057401492861611347 -0.0042046421621134006 0 0.0058415896203647911 -0.003999482062781029 0 0.0078648586957082763 0.0019780974471093138 0 0.0097774446686531968 0.0021481976283356584 0 0.0081861347723819824 0.0035710644931144339 0 0.0086845679326405505 0.00097807854568203608 0 0.0066684683817892004 -0.002632771054868777 0 0.0078648586957082763 0.0019780974471093138 0 0.0097774446686531968 0.0021481976283356584 0 0.0081439401502217627 -0.00031303561792592969 0 0.0086845679326405505 0.00097807854568203608 0 0.0063531235038528774 -0.010941335142540637 0 0.0058648433604640889 -0.004343513570488974 0 0.0056444523447538664 -0.0045012733257328028 0 0.0057342931939840004 -0.0047091230913505391 0 0.0016941703795884868 -0.028654421259653715 0 0.0014822248031409826 -0.028788728420860017 0 0.0016124056435184576 -0.028263268210831374 0 0.0016941703795884868 -0.028654421259653715 0 0.0014822248031409826 -0.028788728420860017 0 0.0016181732082655462 -0.028863957990346072 0 0.0037213596396985563 -0.017349684591705748 0 0.0036081716341795269 -0.016462864310950023 0 0.0056444523447538664 -0.0045012733257328028 0 0.0057401492861611347 -0.0042046421621134006 0 0.0056302387525817791 -0.0043869990144516638 0 0.0058648433604640889 -0.004343513570488974 0 0.0056444523447538664 -0.0045012733257328028 0 0.0057401492861611347 -0.0042046421621134006 0 0.0057401492861611347 -0.0042046421621134006 0 0.0056941459574928058 -0.0042684530992259523 0 0.0056302387525817791 -0.0043869990144516638 0 0.0057401492861611347 -0.0042046421621134006 0 0.0056941459574928058 -0.0042684530992259523 0 0.0057848235673663645 -0.004179079979469944 0 0.0056941459574928058 -0.0042684530992259523 0 0.0057848235673663645 -0.004179079979469944 0 0.0055866276997413805 -0.004310309898649764 0 0.0070688794953632089 -0.00091745611126453337 0 0.0041550972411156899 -0.014116246916844349 0 0.0057401492861611347 -0.0042046421621134006 0 0.0057848235673663645 -0.004179079979469944 0 0.0057486575602577472 -0.0040146676010557056 0 0.0057848235673663645 -0.004179079979469944 0 0.0057486575602577472 -0.0040146676010557056 0 0.0057431130753948919 -0.0041141103312650864 0 0.0057486575602577472 -0.0040146676010557056 0 0.0057237877114394049 -0.0037832830059418439 0 0.0057431130753948919 -0.0041141103312650864 0 0.0057401492861611347 -0.0042046421621134006 0 0.0057486575602577472 -0.0040146676010557056 0 0.0058415896203647911 -0.003999482062781029 0 0.0057486575602577472 -0.0040146676010557056 0 0.0057237877114394049 -0.0037832830059418439 0 0.0058415896203647911 -0.003999482062781029 0 -0.0011139595923452639 -0.023901419945331331 0 0.00011325035011968741 -0.024040209056910632 0 -0.00024262708134942024 -0.023126778343069646 0 -0.00076287434746467896 -0.027813869052749858 0 0.00057057914266589872 -0.025994119826306093 0 -0.00015599244792107128 -0.02895863398500978 0 0.00049457140509120512 -0.028534556910789644 0 0.00020457619870265401 -0.029036974311923546 0 0.00049457140509120512 -0.028534556910789644 0 0.0004592985379473031 -0.029112734156531431 0 0.00070108049154166119 -0.028941563890201867 0 0.00049457140509120512 -0.028534556910789644 0 0.00020457619870265401 -0.029036974311923546 0 0.0004592985379473031 -0.029112734156531431 0 0.00020457619870265401 -0.029036974311923546 0 0.00023479346098342251 -0.029366466606856528 0 0.0004592985379473031 -0.029112734156531431 0 0.00023479346098342251 -0.029366466606856528 0 0.0004592985379473031 -0.029112734156531431 0 0.00037791358938534919 -0.029473965664761043 0 0.0004592985379473031 -0.029112734156531431 0 0.00037791358938534919 -0.029473965664761043 0 0.00060263606713123507 -0.029295803601144435 0 0.0004592985379473031 -0.029112734156531431 0 0.00070108049154166119 -0.028941563890201867 0 0.00060263606713123507 -0.029295803601144435 0 0.00070108049154166119 -0.028941563890201867 0 0.00092356444193995261 -0.029048943058151065 0 0.00092845216834165579 -0.028607257561079825 0 0.00070108049154166119 -0.028941563890201867 0 0.00092356444193995261 -0.029048943058151065 0 0.00060263606713123507 -0.029295803601144435 0 0.00049457140509120512 -0.028534556910789644 0 0.00070108049154166119 -0.028941563890201867 0 0.00092845216834165579 -0.028607257561079825 0 0.00049457140509120512 -0.028534556910789644 0 0.00092845216834165579 -0.028607257561079825 0 0.00092948984121407326 -0.028141166945340121 0 0.00057057914266589872 -0.025994119826306093 0 0.00026536932766101822 -0.026995657199915844 0 0.00092845216834165579 -0.028607257561079825 0 0.0012501425597787272 -0.028308823019920128 0 0.00092948984121407326 -0.028141166945340121 0 0.00092845216834165579 -0.028607257561079825 0 0.0012501425597787272 -0.028308823019920128 0 0.0012210905964555431 -0.028718224727803377 0 0.00092356444193995261 -0.029048943058151065 0 0.00092845216834165579 -0.028607257561079825 0 0.0012210905964555431 -0.028718224727803377 0 0.00092356444193995261 -0.029048943058151065 0 0.0012210905964555431 -0.028718224727803377 0 0.0011422146701164572 -0.029127602739736511 0 0.0012210905964555431 -0.028718224727803377 0 0.0014822248031409826 -0.028788728420860017 0 0.0011422146701164572 -0.029127602739736511 0 0.0012210905964555431 -0.028718224727803377 0 0.0014822248031409826 -0.028788728420860017 0 0.0016124056435184576 -0.028263268210831374 0 0.0012501425597787272 -0.028308823019920128 0 0.0012210905964555431 -0.028718224727803377 0 0.0016124056435184576 -0.028263268210831374 0 0.0056941459574928058 -0.0042684530992259523 0 0.0056302387525817791 -0.0043869990144516638 0 0.0055866276997413805 -0.004310309898649764 0 0.0036081716341795269 -0.016462864310950023 0 0.0041550972411156899 -0.014116246916844349 0 0.0012501425597787272 -0.028308823019920128 0 0.0016124056435184576 -0.028263268210831374 0 0.0014206649988179922 -0.027736579632368023 0 0.0059509620022168645 -0.004276780778449259 0 0.0060778613739227872 -0.0043695116015522025 0 0.0059361836768791996 -0.0043099108046911958 0 0.0057848235673663645 -0.004179079979469944 0 0.0059509620022168645 -0.004276780778449259 0 0.0059361836768791996 -0.0043099108046911958 0 0.0041550972411156899 -0.014116246916844349 0 0.004002775385482279 -0.012472019065632783 0 0.0028448085461204036 -0.022317762574496674 0 0.0013691015250884501 -0.021766175886990931 0 0.001939863794182302 -0.02087691210685845 0 0.0028448085461204036 -0.022317762574496674 0 0.0014953468059228237 -0.023172333175527794 0 0.0013691015250884501 -0.021766175886990931 0 0.0041550972411156899 -0.014116246916844349 0 0.00026536932766101822 -0.026995657199915844 0 0.0012501425597787272 -0.028308823019920128 0 0.0014206649988179922 -0.027736579632368023 0 0.00092948984121407326 -0.028141166945340121 0 0.0014953468059228237 -0.023172333175527794 0 0.00054003162970320273 -0.022525106240784052 0 0.0013691015250884501 -0.021766175886990931 0 0.00011325035011968741 -0.024040209056910632 0 0.0014953468059228237 -0.023172333175527794 0 0.00054003162970320273 -0.022525106240784052 0 0.00054003162970320273 -0.022525106240784052 0 0.0013691015250884501 -0.021766175886990931 0 0.00054402790624914939 -0.021336256271140414 0 0.00054402790624914939 -0.021336256271140414 0 -0.00059610208381208742 -0.022116585835175784 0 -0.0001650025513705005 -0.020639025199018751 0 -0.00046727437940199696 -0.023545163503072616 0 -0.00023949642455783993 -0.023747547537552389 0 -0.00038512166190560735 -0.025549841340476612 0 -0.00039167638089886782 -0.025777677438318252 0 -0.00014813609414590022 -0.025046312524326455 0 0.00054003162970320273 -0.022525106240784052 0 0.00054402790624914939 -0.021336256271140414 0 -0.00059610208381208742 -0.022116585835175784 0 -0.00052446564459415496 -0.026073188466145637 0 -0.00038512166190560735 -0.025549841340476612 0 -0.00039167638089886782 -0.025777677438318252 0 0.00054003162970320273 -0.022525106240784052 0 -0.00059610208381208742 -0.022116585835175784 0 -0.00024262708134942024 -0.023126778343069646 0 0.00011325035011968741 -0.024040209056910632 0 0.00054003162970320273 -0.022525106240784052 0 -0.00024262708134942024 -0.023126778343069646 0 -0.0011139595923452639 -0.023901419945331331 0 -0.00059610208381208742 -0.022116585835175784 0 -0.00024262708134942024 -0.023126778343069646 0 -0.00074489548029772843 -0.030432706099479397 0 -0.0015951357543385013 -0.029810288234550522 0 -0.0014768427404503047 -0.029255133371913256 0 7.0981468395818487e-05 -0.01988345271670347 0 0.00034116579909156564 -0.019835638703875825 0 0.00031707014385542142 -0.019231390696929328 0 0.00034116579909156564 -0.019835638703875825 0 9.5094759843087167e-05 -0.020543377804316875 0 0.00090248666593275434 -0.02055593114832675 0 0.00046898994949268516 -0.019452389820254639 0 -0.00033538191522398394 -0.02299305787296603 0 0.00034116579909156564 -0.019835638703875825 0 -0.00010630782603849472 -0.020704990529718852 0 0.00010076456598613914 -0.021001353709512782 0 7.0981468395818487e-05 -0.01988345271670347 0 0.00034116579909156564 -0.019835638703875825 0 -0.00010630782603849472 -0.020704990529718852 0 -0.00010514249294335981 -0.023535006795816667 0 -0.00021256960991410239 -0.02775377887603021 0 -0.00097481804299095847 -0.028862539944363681 0 -0.00018950159066425759 -0.025054542145708032 0 9.898595378971278e-05 -0.02620538303136594 0 -0.00050431080827437723 -0.029324065976317062 0 -0.00021256960991410239 -0.02775377887603021 0 -0.00018950159066425759 -0.025054542145708032 0 9.898595378971278e-05 -0.02620538303136594 0 0.00024260481914031664 -0.025671235028383553 0 -0.00021256960991410239 -0.02775377887603021 0 -0.00033538191522398394 -0.02299305787296603 0 -0.00023949642455783993 -0.023747547537552389 0 -0.00033538191522398394 -0.02299305787296603 0 -0.00050431080827437723 -0.029324065976317062 0 -0.00023949642455783993 -0.023747547537552389 0 0.00054402790624914939 -0.021336256271140414 0 -0.0001650025513705005 -0.020639025199018751 0 -0.00011306436814629715 -0.020440031628447302 0 8.9971635367661718e-05 -0.020804624774241477 0 -0.00033538191522398394 -0.02299305787296603 0 0.00090248666593275434 -0.02055593114832675 0 0.0011032700852093929 -0.019672886525318057 0 0.001939863794182302 -0.02087691210685845 0 0.0013691015250884501 -0.021766175886990931 0 0.00054402790624914939 -0.021336256271140414 0 0.00090248666593275434 -0.02055593114832675 0 0.0013691015250884501 -0.021766175886990931 0 0.00090248666593275434 -0.02055593114832675 0 0.001939863794182302 -0.02087691210685845 0 0.00054402790624914939 -0.021336256271140414 0 9.5094759843087167e-05 -0.020543377804316875 0 0.00090248666593275434 -0.02055593114832675 0 0.00034116579909156564 -0.019835638703875825 0 0.00090248666593275434 -0.02055593114832675 0 0.0011032700852093929 -0.019672886525318057 0 0.00034116579909156564 -0.019835638703875825 0 0.0011032700852093929 -0.019672886525318057 0 0.00031707014385542142 -0.019231390696929328 0 0.0037904330077961294 -0.012313363200021207 0 0.004002775385482279 -0.012472019065632783 0 0.0063801856992754232 -0.0046632207069799052 0 0.0060557799295751016 -0.0045402909084468705 0 0.005894232463293167 -0.0047325248404891853 0 0.0063801856992754232 -0.0046632207069799052 0 0.0060557799295751016 -0.0045402909084468705 0 0.0060778613739227872 -0.0043695116015522025 0 0.0060557799295751016 -0.0045402909084468705 0 0.0060778613739227872 -0.0043695116015522025 0 0.0059207096327659157 -0.0044533112675830154 0 0.0060778613739227872 -0.0043695116015522025 0 0.0059361836768791996 -0.0043099108046911958 0 0.0059207096327659157 -0.0044533112675830154 0 0.0059207096327659157 -0.0044533112675830154 0 0.005894232463293167 -0.0047325248404891853 0 0.0058416502748643165 -0.0044398035970241905 0 0.0060557799295751016 -0.0045402909084468705 0 0.0059207096327659157 -0.0044533112675830154 0 0.005894232463293167 -0.0047325248404891853 0 0.0058639795772406217 -0.0047429733348551741 0 0.005530608286512576 -0.0049815444083127387 0 0.0059205283458724405 -0.0055267486461400344 0 0.005135238851761887 -0.0053298134700224195 0 0.0053500910217538188 -0.0059834209542378837 0 0.005894232463293167 -0.0047325248404891853 0 0.0059205283458724405 -0.0055267486461400344 0 0.005135238851761887 -0.0053298134700224195 0 0.0059205283458724405 -0.0055267486461400344 0 0.0062851715656026168 -0.0051035840812495691 0 0.0063769591890985898 -0.0055194655383811195 0 0.0059205283458724405 -0.0055267486461400344 0 0.0063769591890985898 -0.0055194655383811195 0 0.0062536352020478468 -0.0058620743663569475 0 0.0063801856992754232 -0.0046632207069799052 0 0.005894232463293167 -0.0047325248404891853 0 0.0062851715656026168 -0.0051035840812495691 0 0.005894232463293167 -0.0047325248404891853 0 0.0059205283458724405 -0.0055267486461400344 0 0.0062851715656026168 -0.0051035840812495691 0 0.0011032700852093929 -0.019672886525318057 0 0.00047166750761984942 -0.01874673131594987 0 0.00031707014385542142 -0.019231390696929328 0 0.0037904330077961294 -0.012313363200021207 0 0.0035617512053798561 -0.011516086099652779 0 0.0063801856992754232 -0.0046632207069799052 0 0.0062851715656026168 -0.0051035840812495691 0 0.0067934569777885357 -0.0053012362584449902 0 0.0063769591890985898 -0.0055194655383811195 0 0.0067934569777885357 -0.0053012362584449902 0 0.0066087440213306557 -0.0057920190245881881 0 0.0062851715656026168 -0.0051035840812495691 0 0.0063769591890985898 -0.0055194655383811195 0 0.0067934569777885357 -0.0053012362584449902 0 -6.5461184328242844e-05 -0.01813087023286326 0 0.00012153156823977801 -0.018449968932484125 0 3.3296813216059279e-05 -0.018850994331186959 0 0.0035617512053798561 -0.011516086099652779 0 0.0031543043562307386 -0.014810581184051468 0 0.00047166750761984942 -0.01874673131594987 0 0.00012153156823977801 -0.018449968932484125 0 5.3090905571074293e-05 -0.018076273941135045 0 0.0067934569777885357 -0.0053012362584449902 0 0.0071402574964232867 -0.0060340567126362203 0 0.0066087440213306557 -0.0057920190245881881 0 0.00047166750761984942 -0.01874673131594987 0 0.00012153156823977801 -0.018449968932484125 0 3.3296813216059279e-05 -0.018850994331186959 0 -0.00074489548029772843 -0.030432706099479397 0 -0.0015951357543385013 -0.029810288234550522 0 -0.0012644216589203299 -0.03103864068759821 0 0.00016942734028889289 -0.019816069116744793 0 3.3296813216059279e-05 -0.018850994331186959 0 0.00031707014385542142 -0.019231390696929328 0 -0.00010514249294335981 -0.023535006795816667 0 -0.00067425539516904767 -0.025447899929035962 0 0.00047166750761984942 -0.01874673131594987 0 3.3296813216059279e-05 -0.018850994331186959 0 0.00031707014385542142 -0.019231390696929328 0 -0.00010514249294335981 -0.023535006795816667 0 0.00052705363232676005 -0.018504729134181309 0 0.0057431130753948919 -0.0041141103312650864 0 0.0058416502748643165 -0.0044398035970241905 0 0.0056673403790459195 -0.004360050972061858 0 0.0055320204936047807 -0.004030283197392944 0 0.0054474265213762304 -0.0042270306684732487 0 0.0056673403790459195 -0.004360050972061858 0 0.0055320204936047807 -0.004030283197392944 0 0.0057431130753948919 -0.0041141103312650864 0 0.0056673403790459195 -0.004360050972061858 0 0.0055320204936047807 -0.004030283197392944 0 0.0057237877114394049 -0.0037832830059418439 0 0.0057431130753948919 -0.0041141103312650864 0 0.0057848235673663645 -0.004179079979469944 0 0.0057431130753948919 -0.0041141103312650864 0 0.0058416502748643165 -0.0044398035970241905 0 0.0057848235673663645 -0.004179079979469944 0 0.0059207096327659157 -0.0044533112675830154 0 0.0058416502748643165 -0.0044398035970241905 0 0.0057848235673663645 -0.004179079979469944 0 0.0059361836768791996 -0.0043099108046911958 0 0.0059207096327659157 -0.0044533112675830154 0 0.0058416502748643165 -0.0044398035970241905 0 0.0057907151700906812 -0.0045804564868448137 0 0.0056673403790459195 -0.004360050972061858 0 0.005894232463293167 -0.0047325248404891853 0 0.0058416502748643165 -0.0044398035970241905 0 0.0059002603478565631 -0.0046421240877692962 0 0.0058416502748643165 -0.0044398035970241905 0 0.0059002603478565631 -0.0046421240877692962 0 0.0057907151700906812 -0.0045804564868448137 0 0.005530608286512576 -0.0049815444083127387 0 0.0051545041874761369 -0.0054003013888957469 0 0.0059002603478565631 -0.0046421240877692962 0 0.0057907151700906812 -0.0045804564868448137 0 0.0058171361543793076 -0.004798829984138245 0 0.0057907151700906812 -0.0045804564868448137 0 0.0056377974333340266 -0.0046976209558473566 0 0.0058171361543793076 -0.004798829984138245 0 0.0057907151700906812 -0.0045804564868448137 0 0.0056377974333340266 -0.0046976209558473566 0 0.0056673403790459195 -0.004360050972061858 0 0.0054497168045726354 -0.0045021725191402833 0 0.0056377974333340266 -0.0046976209558473566 0 0.0056673403790459195 -0.004360050972061858 0 0.0054474265213762304 -0.0042270306684732487 0 0.0054497168045726354 -0.0045021725191402833 0 0.0056673403790459195 -0.004360050972061858 0 0.0054497168045726354 -0.0045021725191402833 0 0.0056377974333340266 -0.0046976209558473566 0 0.0053438997400567616 -0.0048996580812849652 0 0.0056377974333340266 -0.0046976209558473566 0 0.0056292770926932596 -0.0050276186567440075 0 0.0053438997400567616 -0.0048996580812849652 0 0.0046205575337781041 -0.0052734918191275097 0 0.0040864974815985177 -0.0042387300615448617 0 0.0037958101170968454 -0.0046797733210113424 0 0.0038986519529906447 -0.0045919032211399237 0 0.0028364201721482207 -0.0037259343985954381 0 0.0032019586785804457 -0.0048332798129585306 0 0.0037958101170968454 -0.0046797733210113424 0 0.0028364201721482207 -0.0037259343985954381 0 0.0032019586785804457 -0.0048332798129585306 0 0.0037958101170968454 -0.0046797733210113424 0 0.003666018432721701 -0.0049516507333114976 0 0.0039169831363798976 -0.0048621092392581574 0 0.0038884238945649336 -0.0046042281335450432 0 0.004189245415686025 -0.0050731601633038637 0 0.0038167654420806821 -0.0048982080436277102 0 0.0037958101170968454 -0.0046797733210113424 0 0.003666018432721701 -0.0049516507333114976 0 0.0039169831363798976 -0.0048621092392581574 0 0.0038167654420806821 -0.0048982080436277102 0 0.0037958101170968454 -0.0046797733210113424 0 0.0039169831363798976 -0.0048621092392581574 0 0.0037958101170968454 -0.0046797733210113424 0 0.0038884238945649336 -0.0046042281335450432 0 0.0045291562129789222 -0.0052483684129511028 0 0.0046205575337781041 -0.0052734918191275097 0 0.0056377974333340266 -0.0046976209558473566 0 0.0056292770926932596 -0.0050276186567440075 0 0.0058171361543793076 -0.004798829984138245 0 0.0046205575337781041 -0.0052734918191275097 0 0.0051545041874761369 -0.0054003013888957469 0 0.0045049970149630258 -0.0058752931166860629 0 0.0049253835784284668 -0.0063885438303121793 0 0.0053500910217538188 -0.0059834209542378837 0 0.005135238851761887 -0.0053298134700224195 0 0.0045049970149630258 -0.0058752931166860629 0 0.0053500910217538188 -0.0059834209542378837 0 0.0049253835784284668 -0.0063885438303121793 0 0.0046103998876891733 -0.0069736498176486365 0 0.0055056169187684507 -0.0066334309651504596 0 0.0049253835784284668 -0.0063885438303121793 0 0.0053500910217538188 -0.0059834209542378837 0 0.0055056169187684507 -0.0066334309651504596 0 0.0049253835784284668 -0.0063885438303121793 0 0.004501619509489083 -0.0064175517914830445 0 0.0046103998876891733 -0.0069736498176486365 0 0.0038939823337944741 -0.0064042349785907527 0 0.0045049970149630258 -0.0058752931166860629 0 0.004501619509489083 -0.0064175517914830445 0 0.0038939823337944741 -0.0064042349785907527 0 0.004501619509489083 -0.0064175517914830445 0 0.0046103998876891733 -0.0069736498176486365 0 0.0045049970149630258 -0.0058752931166860629 0 0.0049253835784284668 -0.0063885438303121793 0 0.004501619509489083 -0.0064175517914830445 0 0.0031336698101349361 -0.0072134533742986345 0 0.0027905497409714368 -0.0070180687956792965 0 0.0048328574359176053 -0.0053801624939736805 0 0.004189245415686025 -0.0050731601633038637 0 0.0041693452316738612 -0.0056340824934371769 0 0.0014869223532858369 -0.0084963771317580605 0 0.0014521263741546721 -0.0084737755996726095 0 0.0014441902685541489 -0.0085335980205379063 0 0.0014869223532858369 -0.0084963771317580605 0 0.0014534548167270869 -0.0085249534698795659 0 0.0014441902685541489 -0.0085335980205379063 0 0.0031336698101349361 -0.0072134533742986345 0 0.0034052929029658638 -0.007678224153210335 0 0.0031336698101349361 -0.0072134533742986345 0 0.0013461151432503486 -0.0082998959581763506 0 0.0014521263741546721 -0.0084737755996726095 0 0.0014283454363385542 -0.0083865749950393 0 0.0014454232212981399 -0.0084800941816230643 0 0.0014411337475105685 -0.008402805722135101 0 0.0014521263741546721 -0.0084737755996726095 0 0.0014283454363385542 -0.0083865749950393 0 0.0014411337475105685 -0.008402805722135101 0 0.0014283454363385542 -0.0083865749950393 0 0.0014438515672359131 -0.0083752067357665133 0 0.0014283454363385542 -0.0083865749950393 0 0.0014438515672359131 -0.0083752067357665133 0 0.0014350536515771633 -0.0082540364561672058 0 0.0015343193070260725 -0.0083267623868400961 0 0.0014438515672359131 -0.0083752067357665133 0 0.0014350536515771633 -0.0082540364561672058 0 0.0027636888404225148 -0.0071128953643654633 0 0.0027905497409714368 -0.0070180687956792965 0 0.0027636888404225148 -0.0071128953643654633 0 0.0015121212879811582 -0.0081561123038620259 0 0.001411191434555651 -0.0081211356061201504 0 0.0013841445040103156 -0.0081730627565074643 0 0.0013881395054121694 -0.0080062895301218368 0 0.0027636888404225148 -0.0071128953643654633 0 0.0023027680336582413 -0.0074918568370732743 0 0.0032019586785804457 -0.0048332798129585306 0 0.0036150974259404659 -0.0052882847695716762 0 0.0025943929269094538 -0.0049155980168744725 0 0.0034836240727785035 -0.0059136932135838002 0 0.0036150974259404659 -0.0052882847695716762 0 0.0025943929269094538 -0.0049155980168744725 0 0.0027636888404225148 -0.0071128953643654633 0 0.0030655752480412074 -0.0046772288132129504 0 0.0032019586785804457 -0.0048332798129585306 0 0.0036150974259404659 -0.0052882847695716762 0 0.003666018432721701 -0.0049516507333114976 0 0.0036150974259404659 -0.0052882847695716762 0 0.003666018432721701 -0.0049516507333114976 0 0.0038887313511145926 -0.0050981479307970036 0 0.0046205575337781041 -0.0052734918191275097 0 0.0031336698101349361 -0.0072134533742986345 0 0.0038884238945649336 -0.0046042281335450432 0 0.0048328574359176053 -0.0053801624939736805 0 0.004189245415686025 -0.0050731601633038637 0 0.0038167654420806821 -0.0048982080436277102 0 0.003666018432721701 -0.0049516507333114976 0 0.0038887313511145926 -0.0050981479307970036 0 0.0039169831363798976 -0.0048621092392581574 0 0.0038167654420806821 -0.0048982080436277102 0 0.0038887313511145926 -0.0050981479307970036 0 0.0039169831363798976 -0.0048621092392581574 0 0.0038887313511145926 -0.0050981479307970036 0 0.004189245415686025 -0.0050731601633038637 0 0.0038887313511145926 -0.0050981479307970036 0 0.004189245415686025 -0.0050731601633038637 0 0.0041693452316738612 -0.0056340824934371769 0 0.0034836240727785035 -0.0059136932135838002 0 0.0036150974259404659 -0.0052882847695716762 0 0.0041693452316738612 -0.0056340824934371769 0 0.0036150974259404659 -0.0052882847695716762 0 0.0038887313511145926 -0.0050981479307970036 0 0.0041693452316738612 -0.0056340824934371769 0 0.0019664301366836426 -0.008582851455417935 0 0.0018449025878340311 -0.0085655615624549795 0 0.0017551318416672984 -0.0084107081211508752 0 0.0015077890521188572 -0.013819868341254182 0 0.0038988760181995793 -0.010133283377582968 0 0.0017580005517310901 -0.0085579622175561386 0 0.0017551318416672984 -0.0084107081211508752 0 0.0016422767660827099 -0.0085472342874582542 0 0.0018449025878340311 -0.0085655615624549795 0 0.0017580005517310901 -0.0085579622175561386 0 0.0018255563739443482 -0.0086365771439803653 0 0.0018449025878340311 -0.0085655615624549795 0 0.0017580005517310901 -0.0085579622175561386 0 0.0017551318416672984 -0.0084107081211508752 0 0.0033719215103079777 -0.014988368118971182 0 0.003019003076266152 -0.014353963171765795 0 0.00247744538862629 -0.014548317271343123 0 0.0071402574964232867 -0.0060340567126362203 0 0.0068350270632501955 -0.0061196877518233149 0 0.0066087440213306557 -0.0057920190245881881 0 0.0031543043562307386 -0.014810581184051468 0 0.0038988760181995793 -0.010133283377582968 0 -6.5461184328242844e-05 -0.01813087023286326 0 0.00012153156823977801 -0.018449968932484125 0 5.3090905571074293e-05 -0.018076273941135045 0 0.0066087440213306557 -0.0057920190245881881 0 0.0063641450373607914 -0.0062862344148835328 0 0.0062536352020478468 -0.0058620743663569475 0 0.0068350270632501955 -0.0061196877518233149 0 0.0066087440213306557 -0.0057920190245881881 0 0.0063641450373607914 -0.0062862344148835328 0 0.0063769591890985898 -0.0055194655383811195 0 0.0066087440213306557 -0.0057920190245881881 0 0.0062536352020478468 -0.0058620743663569475 0 0.0038988760181995793 -0.010133283377582968 0 0.0041734301585037064 -0.0072709178282568277 0 0.0015965089913290422 -0.0084673573646099256 0 0.0016422767660827099 -0.0085472342874582542 0 0.0015252737829259838 -0.0085875347487289391 0 0.0017551318416672984 -0.0084107081211508752 0 0.0015965089913290422 -0.0084673573646099256 0 0.0016422767660827099 -0.0085472342874582542 0 0.0041734301585037064 -0.0072709178282568277 0 0.0034052929029658638 -0.007678224153210335 0 0.0063641450373607914 -0.0062862344148835328 0 0.0058856922867375153 -0.0060627720110674943 0 0.0055056169187684507 -0.0066334309651504596 0 0.0015965089913290422 -0.0084673573646099256 0 0.0014534548167270869 -0.0085249534698795659 0 0.0015252737829259838 -0.0085875347487289391 0 0.0063641450373607914 -0.0062862344148835328 0 0.0058856922867375153 -0.0060627720110674943 0 0.0062536352020478468 -0.0058620743663569475 0 0.0059205283458724405 -0.0055267486461400344 0 0.0058856922867375153 -0.0060627720110674943 0 0.0062536352020478468 -0.0058620743663569475 0 0.0059205283458724405 -0.0055267486461400344 0 0.0058856922867375153 -0.0060627720110674943 0 0.0053500910217538188 -0.0059834209542378837 0 0.0058856922867375153 -0.0060627720110674943 0 0.0053500910217538188 -0.0059834209542378837 0 0.0055056169187684507 -0.0066334309651504596 0 0.0014441902685541489 -0.0085335980205379063 0 0.0014472015183490017 -0.0085935682512111485 0 0.0015252737829259838 -0.0085875347487289391 0 0.0014534548167270869 -0.0085249534698795659 0 0.0014441902685541489 -0.0085335980205379063 0 0.0015252737829259838 -0.0085875347487289391 0 0.0014521263741546721 -0.0084737755996726095 0 0.0014441902685541489 -0.0085335980205379063 0 0.0014472015183490017 -0.0085935682512111485 0 0.0014521263741546721 -0.0084737755996726095 0 0.0014472015183490017 -0.0085935682512111485 0 0.0014454232212981399 -0.0084800941816230643 0 0.0014472015183490017 -0.0085935682512111485 0 0.0015014274279671691 -0.0086702150155548996 0 0.0015252737829259838 -0.0085875347487289391 0 0.0014472015183490017 -0.0085935682512111485 0 0.001444971878698662 -0.0086634839399363922 0 0.0014451212798949904 -0.0085698321652746996 0 0.0014472015183490017 -0.0085935682512111485 0 0.0015014274279671691 -0.0086702150155548996 0 0.001444971878698662 -0.0086634839399363922 0 0.0015014274279671691 -0.0086702150155548996 0 0.0014628575459368521 -0.0088012954588283111 0 0.001444971878698662 -0.0086634839399363922 0 0.0016422767660827099 -0.0085472342874582542 0 0.0015252737829259838 -0.0085875347487289391 0 0.0016011126326804721 -0.0086453719392084738 0 0.0016422767660827099 -0.0085472342874582542 0 0.0016011126326804721 -0.0086453719392084738 0 0.00171242361941414 -0.0086350449719156536 0 0.0017580005517310901 -0.0085579622175561386 0 0.0016422767660827099 -0.0085472342874582542 0 0.00171242361941414 -0.0086350449719156536 0 0.0016011126326804721 -0.0086453719392084738 0 0.0016417590083899504 -0.0087364182042153696 0 0.00171242361941414 -0.0086350449719156536 0 0.0015014274279671691 -0.0086702150155548996 0 0.0015252737829259838 -0.0085875347487289391 0 0.0016011126326804721 -0.0086453719392084738 0 0.0015014274279671691 -0.0086702150155548996 0 0.0016011126326804721 -0.0086453719392084738 0 0.0016417590083899504 -0.0087364182042153696 0 0.0015014274279671691 -0.0086702150155548996 0 0.0016417590083899504 -0.0087364182042153696 0 0.0014628575459368521 -0.0088012954588283111 0 0.0016417590083899504 -0.0087364182042153696 0 0.0017678324083517151 -0.0088165165548836043 0 0.0016598476621532299 -0.0089458538615364951 0 0.0016417590083899504 -0.0087364182042153696 0 0.0017678324083517151 -0.0088165165548836043 0 0.0017936018914083611 -0.0087169786478092631 0 0.0018821136810678819 -0.0088138125505802592 0 0.0017678324083517151 -0.0088165165548836043 0 0.00184065963118722 -0.0089364341468893323 0 0.0018821136810678819 -0.0088138125505802592 0 0.0017678324083517151 -0.0088165165548836043 0 0.0017936018914083611 -0.0087169786478092631 0 0.0019031759528195949 -0.0087298456971590058 0 0.0018821136810678819 -0.0088138125505802592 0 0.0017936018914083611 -0.0087169786478092631 0 0.0019031759528195949 -0.0087298456971590058 0 0.0017936018914083611 -0.0087169786478092631 0 0.0018255563739443482 -0.0086365771439803653 0 0.0016417590083899504 -0.0087364182042153696 0 0.0017936018914083611 -0.0087169786478092631 0 0.00171242361941414 -0.0086350449719156536 0 0.0017936018914083611 -0.0087169786478092631 0 0.00171242361941414 -0.0086350449719156536 0 0.0018255563739443482 -0.0086365771439803653 0 0.0017580005517310901 -0.0085579622175561386 0 0.00171242361941414 -0.0086350449719156536 0 0.0018255563739443482 -0.0086365771439803653 0 0.0019105500012530292 -0.0086521430330484938 0 0.0018449025878340311 -0.0085655615624549795 0 0.0018255563739443482 -0.0086365771439803653 0 0.0017832180041868423 -0.0091725080928828188 0 0.0016598476621532299 -0.0089458538615364951 0 0.0015714956888362003 -0.0092736806556639462 0 0.0019606674675064048 -0.0093250094728781346 0 0.0017832180041868423 -0.0091725080928828188 0 0.0016584917274718089 -0.0095690739208929045 0 0.0017832180041868423 -0.0091725080928828188 0 0.0015714956888362003 -0.0092736806556639462 0 0.0016584917274718089 -0.0095690739208929045 0 0.0017832180041868423 -0.0091725080928828188 0 0.00184065963118722 -0.0089364341468893323 0 0.0016598476621532299 -0.0089458538615364951 0 0.0017678324083517151 -0.0088165165548836043 0 0.00184065963118722 -0.0089364341468893323 0 0.0016598476621532299 -0.0089458538615364951 0 0.0016417590083899504 -0.0087364182042153696 0 0.0016598476621532299 -0.0089458538615364951 0 0.0014628575459368521 -0.0088012954588283111 0 0.0016598476621532299 -0.0089458538615364951 0 0.0014628575459368521 -0.0088012954588283111 0 0.001441316156893982 -0.0091183910750592904 0 0.0015714956888362003 -0.0092736806556639462 0 0.001441316156893982 -0.0091183910750592904 0 0.0013492949196053478 -0.0095172635477885677 0 0.0016598476621532299 -0.0089458538615364951 0 0.0015714956888362003 -0.0092736806556639462 0 0.001441316156893982 -0.0091183910750592904 0 0.0012970326275533804 -0.0083606643163598397 0 0.0012120428285439381 -0.0084259801182856239 0 0.0013252374273626708 -0.0084706055759932678 0 0.0013174049410946379 -0.0086875265183706599 0 0.0013322724728264323 -0.0089922287345634185 0 0.001441316156893982 -0.0091183910750592904 0 0.0011961657860975648 -0.0090554374144483727 0 0.0013492949196053478 -0.0095172635477885677 0 0.0014628575459368521 -0.0088012954588283111 0 0.001441316156893982 -0.0091183910750592904 0 0.0011961657860975648 -0.0090554374144483727 0 0.0014239145002239008 -0.0087797072371274543 0 0.0013174049410946379 -0.0086875265183706599 0 0.0014628575459368521 -0.0088012954588283111 0 0.001444971878698662 -0.0086634839399363922 0 0.0014245442696115183 -0.0085636640044618236 0 0.001444971878698662 -0.0086634839399363922 0 0.0014245442696115183 -0.0085636640044618236 0 0.0014451212798949904 -0.0085698321652746996 0 0.0014472015183490017 -0.0085935682512111485 0 0.0014451212798949904 -0.0085698321652746996 0 0.0014454232212981399 -0.0084800941816230643 0 0.0014245442696115183 -0.0085636640044618236 0 0.0014451212798949904 -0.0085698321652746996 0 0.0014410029488788577 -0.0085035930258808515 0 0.0014451212798949904 -0.0085698321652746996 0 0.0014410029488788577 -0.0085035930258808515 0 0.0014454232212981399 -0.0084800941816230643 0 0.0013174049410946379 -0.0086875265183706599 0 0.0013516805922972267 -0.0083938211796739503 0 0.0014410029488788577 -0.0085035930258808515 0 0.0014371974913899243 -0.0084207687316970176 0 0.0014405811288537994 -0.0084320662708808492 0 0.0014245442696115183 -0.0085636640044618236 0 0.0014410029488788577 -0.0085035930258808515 0 0.0014371974913899243 -0.0084207687316970176 0 0.0012120428285439381 -0.0084259801182856239 0 0.0012313536812940686 -0.0085137931888660794 0 0.0013252374273626708 -0.0084706055759932678 0 0.0012313536812940686 -0.0085137931888660794 0 0.0013907512425851249 -0.0086069081114964596 0 0.0011585268019881374 -0.0086035917713841222 0 0.0013322724728264323 -0.0089922287345634185 0 0.0014551498508118209 -0.0092079885790025892 0 0.0012313536812940686 -0.0085137931888660794 0 0.0013252374273626708 -0.0084706055759932678 0 0.0013907512425851249 -0.0086069081114964596 0 0.0015714956888362003 -0.0092736806556639462 0 0.0013492949196053478 -0.0095172635477885677 0 0.0016584917274718089 -0.0095690739208929045 0 0.0013492949196053478 -0.0095172635477885677 0 0.0016584917274718089 -0.0095690739208929045 0 0.0015170435610867697 -0.0098277485345434276 0 0.0016584917274718089 -0.0095690739208929045 0 0.0016490447766070527 -0.009942486955373581 0 0.0015170435610867697 -0.0098277485345434276 0 0.0019825021853470989 -0.0096626329998567295 0 0.0016584917274718089 -0.0095690739208929045 0 0.0016490447766070527 -0.009942486955373581 0 0.0013885844213376807 -0.0082950500621767273 0 0.0013168187576082871 -0.008358399787341271 0 0.0013232519658205385 -0.0082608795460421668 0 0.0013885844213376807 -0.0082950500621767273 0 0.0013841445040103156 -0.0081730627565074643 0 0.0013232519658205385 -0.0082608795460421668 0 0.0013841445040103156 -0.0081730627565074643 0 0.0013232519658205385 -0.0082608795460421668 0 0.0013406579659953561 -0.0080834735005737846 0 0.001411191434555651 -0.0081211356061201504 0 0.0013841445040103156 -0.0081730627565074643 0 0.0014350536515771633 -0.0082540364561672058 0 0.0013885844213376807 -0.0082950500621767273 0 0.0014350536515771633 -0.0082540364561672058 0 0.0014238240256519317 -0.008325729817798444 0 0.0013885844213376807 -0.0082950500621767273 0 0.0013841445040103156 -0.0081730627565074643 0 0.0014350536515771633 -0.0082540364561672058 0 0.0013885844213376807 -0.0082950500621767273 0 0.0014238240256519317 -0.008325729817798444 0 0.0014318057046189766 -0.0083829497159139676 0 0.0014283454363385542 -0.0083865749950393 0 0.0014350536515771633 -0.0082540364561672058 0 0.0014238240256519317 -0.008325729817798444 0 0.0014283454363385542 -0.0083865749950393 0 0.0014238240256519317 -0.008325729817798444 0 0.0014318057046189766 -0.0083829497159139676 0 0.0014283454363385542 -0.0083865749950393 0 0.0014318057046189766 -0.0083829497159139676 0 0.0014454232212981399 -0.0084800941816230643 0 0.0014318057046189766 -0.0083829497159139676 0 0.0014454232212981399 -0.0084800941816230643 0 0.0014405811288537994 -0.0084320662708808492 0 0.0014410029488788577 -0.0085035930258808515 0 0.0014454232212981399 -0.0084800941816230643 0 0.0014405811288537994 -0.0084320662708808492 0 0.0014371974913899243 -0.0084207687316970176 0 0.0014405811288537994 -0.0084320662708808492 0 0.0014196258753684753 -0.0083721907359883187 0 0.0014318057046189766 -0.0083829497159139676 0 0.0014405811288537994 -0.0084320662708808492 0 0.0014196258753684753 -0.0083721907359883187 0 0.0013885844213376807 -0.0082950500621767273 0 0.0014196258753684753 -0.0083721907359883187 0 0.0013168187576082871 -0.008358399787341271 0 0.0013885844213376807 -0.0082950500621767273 0 0.0014318057046189766 -0.0083829497159139676 0 0.0014196258753684753 -0.0083721907359883187 0 0.001413361575742289 -0.0083986211271265074 0 0.001228557713493684 -0.0084832023541501472 0 0.0013168187576082871 -0.008358399787341271 0 0.0014196258753684753 -0.0083721907359883187 0 0.001413361575742289 -0.0083986211271265074 0 0.0013168187576082871 -0.008358399787341271 0 0.0014371974913899243 -0.0084207687316970176 0 0.0014196258753684753 -0.0083721907359883187 0 0.001413361575742289 -0.0083986211271265074 0 0.0013516805922972267 -0.0083938211796739503 0 0.0012742343376793009 -0.0084541217019526906 0 0.0012120428285439381 -0.0084259801182856239 0 0.0012313536812940686 -0.0085137931888660794 0 0.0011422731433243232 -0.0085019656300859281 0 0.0012313536812940686 -0.0085137931888660794 0 0.0011422731433243232 -0.0085019656300859281 0 0.0011585268019881374 -0.0086035917713841222 0 0.0011422731433243232 -0.0085019656300859281 0 0.0011585268019881374 -0.0086035917713841222 0 0.0011141317340557331 -0.0085628398606980623 0 0.0012742343376793009 -0.0084541217019526906 0 0.001239735548790571 -0.0084756562210192583 0 0.0011422731433243232 -0.0085019656300859281 0 0.001228557713493684 -0.0084832023541501472 0 0.0011141317340557331 -0.0085628398606980623 0 0.001228557713493684 -0.0084832023541501472 0 0.0013168187576082871 -0.008358399787341271 0 0.0012385250760552859 -0.0083918660590091825 0 0.0013168187576082871 -0.008358399787341271 0 0.0013232519658205385 -0.0082608795460421668 0 0.0012385250760552859 -0.0083918660590091825 0 0.0013232519658205385 -0.0082608795460421668 0 0.0012385250760552859 -0.0083918660590091825 0 0.0012612614819103754 -0.0082644247019849574 0 0.0012385250760552859 -0.0083918660590091825 0 0.001184732227628211 -0.0083471970140522895 0 0.0012612614819103754 -0.0082644247019849574 0 0.001184732227628211 -0.0083471970140522895 0 0.0011812740637091191 -0.0082071523829880099 0 0.0012612614819103754 -0.0082644247019849574 0 0.0011783741636196799 -0.0081929452363381956 0 0.0011721618094374497 -0.0081522547653176854 0 0.001184732227628211 -0.0083471970140522895 0 0.0011812740637091191 -0.0082071523829880099 0 0.0011085139712569574 -0.0083558704167060356 0 0.0011812740637091191 -0.0082071523829880099 0 0.0013406579659953561 -0.0080834735005737846 0 0.0012368004699670472 -0.0081230771320498739 0 0.0011812740637091191 -0.0082071523829880099 0 0.0011618644399818386 -0.0081458791235470302 0 0.0012368004699670472 -0.0081230771320498739 0 0.0011812740637091191 -0.0082071523829880099 0 0.0012612614819103754 -0.0082644247019849574 0 0.0013406579659953561 -0.0080834735005737846 0 0.0013232519658205385 -0.0082608795460421668 0 0.0012612614819103754 -0.0082644247019849574 0 0.0013406579659953561 -0.0080834735005737846 0 0.0012243493697967013 -0.0080627336278225967 0 0.0013661611986152265 -0.0079403496721494188 0 0.0013304926859232082 -0.0078957767208503015 0 0.0012243493697967013 -0.0080627336278225967 0 0.0013304926859232082 -0.0078957767208503015 0 0.0012114653375434072 -0.0079456028705666773 0 0.0011812740637091191 -0.0082071523829880099 0 0.0012243493697967013 -0.0080627336278225967 0 0.0012114653375434072 -0.0079456028705666773 0 0.0011812740637091191 -0.0082071523829880099 0 0.0011618644399818386 -0.0081458791235470302 0 0.0012243493697967013 -0.0080627336278225967 0 0.0011618644399818386 -0.0081458791235470302 0 0.0012243493697967013 -0.0080627336278225967 0 0.0012005732494738766 -0.0081163371556882188 0 0.0012243493697967013 -0.0080627336278225967 0 0.0012889895650501481 -0.0081131225964735775 0 0.0013661611986152265 -0.0079403496721494188 0 -0.00045880563468400057 -0.0012555919589528647 0 0.00073701851137996754 -0.002429116973109673 0 0.0012243493697967013 -0.0080627336278225967 0 0.0012005732494738766 -0.0081163371556882188 0 0.0012889895650501481 -0.0081131225964735775 0 -0.00069986632715770159 -0.0017511796951824796 0 0.0012263280503778447 -0.0059075599073864279 0 -0.00045880563468400057 -0.0012555919589528647 0 0.0012263280503778447 -0.0059075599073864279 0 -0.00022410695006527915 -0.0027693878265311628 0 -0.00036643446055728492 -0.0034246156228486158 0 0.00084837832832972636 -0.0031693472262333028 0 0.0012005732494738766 -0.0081163371556882188 0 0.0012889895650501481 -0.0081131225964735775 0 0.001086068032014462 -0.008160548712991704 0 -0.00069986632715770159 -0.0017511796951824796 0 -0.00045880563468400057 -0.0012555919589528647 0 -0.001999261486602644 0.0025281946676989275 0 -0.0019050123485770379 0.0029988622614471145 0 -0.0015592158538049834 0.0026551353181048717 0 2.9667906441473807e-05 -0.0079718148317323347 0 0.001086068032014462 -0.008160548712991704 0 0.000929566131036592 -0.0077391155314047548 0 0.0011618644399818386 -0.0081458791235470302 0 0.0012005732494738766 -0.0081163371556882188 0 0.001086068032014462 -0.008160548712991704 0 0.0011618644399818386 -0.0081458791235470302 0 0.001086068032014462 -0.008160548712991704 0 0.0012368004699670472 -0.0081230771320498739 0 0.001086068032014462 -0.008160548712991704 0 0.000929566131036592 -0.0077391155314047548 0 0.0012789150952632949 -0.0079863242292165966 0 0.001086068032014462 -0.008160548712991704 0 0.0012368004699670472 -0.0081230771320498739 0 0.0012789150952632949 -0.0079863242292165966 0 0.000929566131036592 -0.0077391155314047548 0 0.0010574368611416301 -0.0066846861956851604 0 0.00011485628178668346 -0.0068387209660838695 0 0.000929566131036592 -0.0077391155314047548 0 0.0014721759571145602 -0.0076617879742966171 0 0.0010574368611416301 -0.0066846861956851604 0 0.000929566131036592 -0.0077391155314047548 0 0.0012789150952632949 -0.0079863242292165966 0 0.0014721759571145602 -0.0076617879742966171 0 2.9667906441473807e-05 -0.0079718148317323347 0 0.000929566131036592 -0.0077391155314047548 0 0.00011485628178668346 -0.0068387209660838695 0 -0.0015637992422992682 0.0019044625892215919 0 -0.001720803114812323 0.0012493343180885812 0 -0.0012310620933969889 0.0013946920324812919 0 -0.00069986632715770159 -0.0017511796951824796 0 -0.000855244526760282 -0.0029032736314451974 0 0.0013406579659953561 -0.0080834735005737846 0 0.0012368004699670472 -0.0081230771320498739 0 0.0012789150952632949 -0.0079863242292165966 0 0.0013406579659953561 -0.0080834735005737846 0 0.0012789150952632949 -0.0079863242292165966 0 0.0014721759571145602 -0.0076617879742966171 0 0.0015171191717877829 -0.0076834056279074395 0 0.0023027680336582413 -0.0074918568370732743 0 0.0013406579659953561 -0.0080834735005737846 0 0.0014721759571145602 -0.0076617879742966171 0 0.0013881395054121694 -0.0080062895301218368 0 0.0013841445040103156 -0.0081730627565074643 0 0.0013406579659953561 -0.0080834735005737846 0 0.0013881395054121694 -0.0080062895301218368 0 0.0031864681775239053 -0.0069887574156996821 0 0.0020600317867681332 -0.0060945472384363163 0 0.0031411657859871508 -0.0046734629862649063 0 0.0046905283658151909 -0.0063924574569432591 0 0.0031864681775239053 -0.0069887574156996821 0 0.0031411657859871508 -0.0046734629862649063 0 0.0020418098786251734 -0.0050252236154611869 0 0.0020600317867681332 -0.0060945472384363163 0 0.0031411657859871508 -0.0046734629862649063 0 0.0020418098786251734 -0.0050252236154611869 0 0.0013729160912321302 -0.0055667515406111869 0 0.0013506054689402824 -0.004730423126187485 0 0.0020418098786251734 -0.0050252236154611869 0 0.0020600317867681332 -0.0060945472384363163 0 0.0013729160912321302 -0.0055667515406111869 0 0.0020600317867681332 -0.0060945472384363163 0 0.0010574368611416301 -0.0066846861956851604 0 0.0013729160912321302 -0.0055667515406111869 0 0.0014721759571145602 -0.0076617879742966171 0 0.0031864681775239053 -0.0069887574156996821 0 0.0020600317867681332 -0.0060945472384363163 0 0.0014721759571145602 -0.0076617879742966171 0 0.0020600317867681332 -0.0060945472384363163 0 0.0010574368611416301 -0.0066846861956851604 0 0.0010574368611416301 -0.0066846861956851604 0 0.00011485628178668346 -0.0068387209660838695 0 0.0006432420166192377 -0.0057327290074193592 0 0.0010574368611416301 -0.0066846861956851604 0 0.0013729160912321302 -0.0055667515406111869 0 0.0006432420166192377 -0.0057327290074193592 0 -0.001720803114812323 0.0012493343180885812 0 -0.001568437412310894 0.00079014958939916356 0 -0.0018772788201541519 0.00056054153132316842 0 0.00011485628178668346 -0.0068387209660838695 0 0.00031677153653998435 -0.0053359791636125699 0 0.0006432420166192377 -0.0057327290074193592 0 -0.001720803114812323 0.0012493343180885812 0 -0.0012409708220621379 0.00086461563903322467 0 -0.0012310620933969889 0.0013946920324812919 0 -0.000855244526760282 -0.0029032736314451974 0 -0.00016138527645813725 -0.0030923910966562445 0 -0.001720803114812323 0.0012493343180885812 0 -0.001568437412310894 0.00079014958939916356 0 -0.0012409708220621379 0.00086461563903322467 0 -0.0018772788201541519 0.00056054153132316842 0 -0.0014314436970406063 0.00048169651684926162 0 -0.0014106117206514174 -4.3062921601685011e-05 0 -0.001568437412310894 0.00079014958939916356 0 -0.0014314436970406063 0.00048169651684926162 0 -0.0012409708220621379 0.00086461563903322467 0 -0.001568437412310894 0.00079014958939916356 0 -0.0018772788201541519 0.00056054153132316842 0 -0.0014314436970406063 0.00048169651684926162 0 0.00032675368598339102 -0.0052584952797794142 0 0.00091348466418823425 -0.0050399132905780261 0 0.00090602362120459075 -0.0040001975961508835 0 0.0013729160912321302 -0.0055667515406111869 0 0.0006432420166192377 -0.0057327290074193592 0 0.00091348466418823425 -0.0050399132905780261 0 0.00032675368598339102 -0.0052584952797794142 0 0.0006432420166192377 -0.0057327290074193592 0 0.00091348466418823425 -0.0050399132905780261 0 -0.00016138527645813725 -0.0030923910966562445 0 0.00081312470728393143 -0.0048800110024574605 0 0.0013729160912321302 -0.0055667515406111869 0 0.00091348466418823425 -0.0050399132905780261 0 0.0013506054689402824 -0.004730423126187485 0 -0.00016138527645813725 -0.0030923910966562445 0 0.00065817026254299594 -0.0046445670003072486 0 0.00090602362120459075 -0.0040001975961508835 0 0.00096754030000925195 -0.0032840650475358187 0 0.0015864565696214047 -0.0041223579960418333 0 0.0013506054689402824 -0.004730423126187485 0 0.00090602362120459075 -0.0040001975961508835 0 0.0015864565696214047 -0.0041223579960418333 0 0.00091348466418823425 -0.0050399132905780261 0 0.0013506054689402824 -0.004730423126187485 0 0.00090602362120459075 -0.0040001975961508835 0 0.00074598852962172999 -0.0046706781805217418 0 0.00090602362120459075 -0.0040001975961508835 0 0.00010532093436513809 -0.0038011034596087327 0 -0.00016138527645813725 -0.0030923910966562445 0 -0.00075952733734700848 -0.0017267580681509167 0 0.00090602362120459075 -0.0040001975961508835 0 0.00096754030000925195 -0.0032840650475358187 0 0.00010532093436513809 -0.0038011034596087327 0 0.0003983770116903015 -0.0024666660431084887 0 0.00094449425182751353 -0.003203584398771523 0 2.4155544742425106e-05 -0.0019348648125199256 0 0.00096754030000925195 -0.0032840650475358187 0 0.00013379467645842464 -0.0028842211507381708 0 0.00096754030000925195 -0.0032840650475358187 0 0.00013379467645842464 -0.0028842211507381708 0 0.00010532093436513809 -0.0038011034596087327 0 0.0010211455271240024 -0.0028829898869112409 0 0.00096754030000925195 -0.0032840650475358187 0 0.0016585219660087279 -0.0032783011849755296 0 0.00096754030000925195 -0.0032840650475358187 0 0.0016585219660087279 -0.0032783011849755296 0 0.0015864565696214047 -0.0041223579960418333 0 0.0017642513209653126 -0.0029245548993749124 0 0.0016984434838148144 -0.003858362513593022 0 0.0028364201721482207 -0.0037259343985954381 0 0.0016984434838148144 -0.003858362513593022 0 0.0028364201721482207 -0.0037259343985954381 0 0.0025943929269094538 -0.0049155980168744725 0 0.0032019586785804457 -0.0048332798129585306 0 0.0028364201721482207 -0.0037259343985954381 0 0.0025943929269094538 -0.0049155980168744725 0 0.0016585219660087279 -0.0032783011849755296 0 0.0031411657859871508 -0.0046734629862649063 0 0.0015864565696214047 -0.0041223579960418333 0 0.0020418098786251734 -0.0050252236154611869 0 0.0031411657859871508 -0.0046734629862649063 0 0.0015864565696214047 -0.0041223579960418333 0 0.0016626446672575259 -0.0035968266564072849 0 0.0030655752480412074 -0.0046772288132129504 0 0.0020418098786251734 -0.0050252236154611869 0 0.0013506054689402824 -0.004730423126187485 0 0.0015864565696214047 -0.0041223579960418333 0 4.6101009274751294e-05 -4.1310188776550817e-05 0 -0.00032160178229546357 0.00018075023664873203 0 -7.079828216663192e-05 0.00055108903300309358 0 4.6101009274751294e-05 -4.1310188776550817e-05 0 -0.00030608550043185058 -0.00045107187114846629 0 -0.00032160178229546357 0.00018075023664873203 0 4.6101009274751294e-05 -4.1310188776550817e-05 0 0.00030262827996896044 0.00027287858450980611 0 -7.079828216663192e-05 0.00055108903300309358 0 0.00050400238363586898 -0.00015932319302279876 0 0.00067425351956384397 0.00045927745017126768 0 0.00090912091397288622 0.00011299018341339129 0 0.00030262827996896044 0.00027287858450980611 0 0.00050400238363586898 -0.00015932319302279876 0 0.00067425351956384397 0.00045927745017126768 0 4.6101009274751294e-05 -4.1310188776550817e-05 0 0.00030262827996896044 0.00027287858450980611 0 0.00050400238363586898 -0.00015932319302279876 0 0.00028927063419544415 -0.00080891033710660059 0 0.00050400238363586898 -0.00015932319302279876 0 0.00090604967817660182 -0.00063624626848973276 0 0.00050400238363586898 -0.00015932319302279876 0 0.00090604967817660182 -0.00063624626848973276 0 0.00090912091397288622 0.00011299018341339129 0 0.00028927063419544415 -0.00080891033710660059 0 0.00050400238363586898 -0.00015932319302279876 0 7.5546670581637878e-05 -0.00044544747470540527 0 0.00028927063419544415 -0.00080891033710660059 0 -9.7057337141251673e-05 -0.00091877667429171215 0 7.5546670581637878e-05 -0.00044544747470540527 0 4.6101009274751294e-05 -4.1310188776550817e-05 0 0.00050400238363586898 -0.00015932319302279876 0 7.5546670581637878e-05 -0.00044544747470540527 0 4.6101009274751294e-05 -4.1310188776550817e-05 0 7.5546670581637878e-05 -0.00044544747470540527 0 -0.00030608550043185058 -0.00045107187114846629 0 -9.7057337141251673e-05 -0.00091877667429171215 0 -0.00042480099760968228 -0.00082842283079401181 0 -0.00030608550043185058 -0.00045107187114846629 0 -9.7057337141251673e-05 -0.00091877667429171215 0 7.5546670581637878e-05 -0.00044544747470540527 0 -0.00030608550043185058 -0.00045107187114846629 0 -0.00042480099760968228 -0.00082842283079401181 0 -0.00030608550043185058 -0.00045107187114846629 0 -0.00091428259454118819 -0.00071752485616277087 0 -0.00030608550043185058 -0.00045107187114846629 0 -0.00091428259454118819 -0.00071752485616277087 0 -0.00072307076545868887 -2.2097938786233655e-05 0 -0.00063060297019834849 -0.0016827577899949737 0 -0.00075952733734700848 -0.0017267580681509167 0 -0.00091428259454118819 -0.00071752485616277087 0 -0.0014106117206514174 -4.3062921601685011e-05 0 -0.00072307076545868887 -2.2097938786233655e-05 0 0.00013379467645842464 -0.0028842211507381708 0 -0.00051090206539458388 -0.0025299710290710427 0 0.00010532093436513809 -0.0038011034596087327 0 2.4155544742425106e-05 -0.0019348648125199256 0 0.00013379467645842464 -0.0028842211507381708 0 -0.00051090206539458388 -0.0025299710290710427 0 -0.0014106117206514174 -4.3062921601685011e-05 0 -0.00072307076545868887 -2.2097938786233655e-05 0 -0.0010645472620206516 0.00035384645548737649 0 -0.0014314436970406063 0.00048169651684926162 0 -0.0014106117206514174 -4.3062921601685011e-05 0 -0.0010645472620206516 0.00035384645548737649 0 -0.00032160178229546357 0.00018075023664873203 0 -0.00072307076545868887 -2.2097938786233655e-05 0 -0.0006659679699647505 0.00062231499268800667 0 -0.00030608550043185058 -0.00045107187114846629 0 -0.00032160178229546357 0.00018075023664873203 0 -0.00072307076545868887 -2.2097938786233655e-05 0 -0.00072307076545868887 -2.2097938786233655e-05 0 -0.0006659679699647505 0.00062231499268800667 0 -0.0010645472620206516 0.00035384645548737649 0 -0.00032160178229546357 0.00018075023664873203 0 -0.0006659679699647505 0.00062231499268800667 0 -7.079828216663192e-05 0.00055108903300309358 0 -0.0006659679699647505 0.00062231499268800667 0 -0.00029551477692855852 0.0010044434915689614 0 -7.079828216663192e-05 0.00055108903300309358 0 -0.0006659679699647505 0.00062231499268800667 0 -0.0010645472620206516 0.00035384645548737649 0 -0.0012409708220621379 0.00086461563903322467 0 -0.0014314436970406063 0.00048169651684926162 0 -0.0010645472620206516 0.00035384645548737649 0 -0.0012409708220621379 0.00086461563903322467 0 -0.0006659679699647505 0.00062231499268800667 0 -0.0012409708220621379 0.00086461563903322467 0 -0.00075677117391075087 0.0012189922130647691 0 -0.0012409708220621379 0.00086461563903322467 0 -0.00075677117391075087 0.0012189922130647691 0 -0.0012310620933969889 0.0013946920324812919 0 -0.00075677117391075087 0.0012189922130647691 0 -0.00029551477692855852 0.0010044434915689614 0 -0.00012569532668729291 0.0015492804830592353 0 -0.0006659679699647505 0.00062231499268800667 0 -0.00075677117391075087 0.0012189922130647691 0 -0.00029551477692855852 0.0010044434915689614 0 -0.00029551477692855852 0.0010044434915689614 0 0.0002695324249966079 0.0011045502941781458 0 -0.00012569532668729291 0.0015492804830592353 0 -7.079828216663192e-05 0.00055108903300309358 0 0.00034656907605727357 0.00065680291715692761 0 0.0002695324249966079 0.0011045502941781458 0 -0.00029551477692855852 0.0010044434915689614 0 -7.079828216663192e-05 0.00055108903300309358 0 0.0002695324249966079 0.0011045502941781458 0 0.00030262827996896044 0.00027287858450980611 0 -7.079828216663192e-05 0.00055108903300309358 0 0.00034656907605727357 0.00065680291715692761 0 0.00067425351956384397 0.00045927745017126768 0 0.00069181060413750527 0.00081104892247464309 0 0.0010471739335789292 0.00063570870400024332 0 0.00067425351956384397 0.00045927745017126768 0 0.00034656907605727357 0.00065680291715692761 0 0.00069181060413750527 0.00081104892247464309 0 0.00030262827996896044 0.00027287858450980611 0 0.00067425351956384397 0.00045927745017126768 0 0.00034656907605727357 0.00065680291715692761 0 0.00034656907605727357 0.00065680291715692761 0 0.00069181060413750527 0.00081104892247464309 0 0.0002695324249966079 0.0011045502941781458 0 0.0002695324249966079 0.0011045502941781458 0 0.00075526731924800325 0.0014492837427496181 0 -0.00012569532668729291 0.0015492804830592353 0 0.0006596471084438525 0.0014726811994550419 0 -5.8882215440524805e-05 0.0016550004862703556 0 0.00022820008443689673 0.0011601455536315902 0 0.0014088872226511511 0.00092778578595940236 0 0.0002695324249966079 0.0011045502941781458 0 0.00075526731924800325 0.0014492837427496181 0 0.0012454578965501873 0.0012346155378099846 0 0.00069181060413750527 0.00081104892247464309 0 0.0002695324249966079 0.0011045502941781458 0 0.0010675714853791856 0.0011478007777250309 0 0.00075526731924800325 0.0014492837427496181 0 0.00073076100080741828 0.0019190614965385589 0 -0.00023609276410823621 0.0018877248483304006 0 0.00075526731924800325 0.0014492837427496181 0 0.00073076100080741828 0.0019190614965385589 0 0.001212747382709466 0.00176012076942562 0 0.00073076100080741828 0.0019190614965385589 0 0.00055089755054279729 0.0023177368281581609 0 -0.00023609276410823621 0.0018877248483304006 0 0.00073076100080741828 0.0019190614965385589 0 0.00055089755054279729 0.0023177368281581609 0 0.0013767445061864999 0.0022093808568637466 0 0.00055089755054279729 0.0023177368281581609 0 4.0361563169252764e-05 0.0024138326619741741 0 0.00036994118070689518 0.0026878874822850378 0 -0.00023609276410823621 0.0018877248483304006 0 4.0361563169252764e-05 0.0024138326619741741 0 -0.00037035479988935629 0.0028433923953347573 0 0.00055089755054279729 0.0023177368281581609 0 -0.00023609276410823621 0.0018877248483304006 0 4.0361563169252764e-05 0.0024138326619741741 0 4.0361563169252764e-05 0.0024138326619741741 0 -0.00037035479988935629 0.0028433923953347573 0 0.00036994118070689518 0.0026878874822850378 0 -0.00037035479988935629 0.0028433923953347573 0 0.00043439266550557396 0.0033011754082170413 0 -2.8718060117755642e-06 0.0032616318146583365 0 -0.00028805466456882162 0.0029036368442041803 0 0.00046984947582377604 0.0031291608167476745 0 -0.00037035479988935629 0.0028433923953347573 0 -0.00073323333466936212 0.0033516026784741232 0 -2.8718060117755642e-06 0.0032616318146583365 0 -0.00037035479988935629 0.0028433923953347573 0 0.00071542295228592108 0.0031567698980440023 0 0.00036994118070689518 0.0026878874822850378 0 0.00055089755054279729 0.0023177368281581609 0 0.00036994118070689518 0.0026878874822850378 0 0.00092225677717378528 0.0027025864358124754 0 0.00071542295228592108 0.0031567698980440023 0 0.00036994118070689518 0.0026878874822850378 0 0.00092225677717378528 0.0027025864358124754 0 -0.00069986632715770159 -0.0017511796951824796 0 -0.0013694640546860711 0.0024043591377594193 0 -0.0015637992422992682 0.0019044625892215919 0 -0.0012310620933969889 0.0013946920324812919 0 -0.00086476149205093377 0.0017122838321729829 0 -0.001999261486602644 0.0025281946676989275 0 -0.0011422946096926291 0.0022428680744258382 0 -0.0015592158538049834 0.0026551353181048717 0 -0.00075677117391075087 0.0012189922130647691 0 -0.0012310620933969889 0.0013946920324812919 0 -0.00086476149205093377 0.0017122838321729829 0 -0.00075677117391075087 0.0012189922130647691 0 -0.00012569532668729291 0.0015492804830592353 0 -0.00086476149205093377 0.0017122838321729829 0 -5.8882215440524805e-05 0.0016550004862703556 0 -0.0013694640546860711 0.0024043591377594193 0 -0.00023609276410823621 0.0018877248483304006 0 -0.00037035479988935629 0.0028433923953347573 0 -0.0011422946096926291 0.0022428680744258382 0 -0.00037035479988935629 0.0028433923953347573 0 -0.0011873916276810218 0.002849527408258641 0 -0.00073323333466936212 0.0033516026784741232 0 -0.00037035479988935629 0.0028433923953347573 0 -0.0011422946096926291 0.0022428680744258382 0 -0.0011873916276810218 0.002849527408258641 0 -0.0019050123485770379 0.0029988622614471145 0 -0.0011873916276810218 0.002849527408258641 0 -0.00073323333466936212 0.0033516026784741232 0 -0.0019050123485770379 0.0029988622614471145 0 -0.0011873916276810218 0.002849527408258641 0 -0.0015592158538049834 0.0026551353181048717 0 -0.0011422946096926291 0.0022428680744258382 0 -0.0011873916276810218 0.002849527408258641 0 -0.0015592158538049834 0.0026551353181048717 0 -0.00021657015841107844 0.0032924218424941888 0 -6.5944464496752643e-05 0.0034806732715323987 0 -0.00011743553432514022 0.0036595363886072615 0 -0.00021657015841107844 0.0032924218424941888 0 -6.5944464496752643e-05 0.0034806732715323987 0 0.00011889384852925253 0.0034658704329140633 0 -0.00045880563468400057 -0.0012555919589528647 0 -0.00035056202182225771 0.004052365344000817 0 -6.5944464496752643e-05 0.0034806732715323987 0 0.00011889384852925253 0.0034658704329140633 0 5.6421303364972459e-05 0.0036332876804952576 0 0.00011889384852925253 0.0034658704329140633 0 5.6421303364972459e-05 0.0036332876804952576 0 0.00021674801519359305 0.0037075483244737775 0 5.6421303364972459e-05 0.0036332876804952576 0 0.00021674801519359305 0.0037075483244737775 0 0.0001131374091677973 0.0038325394837354899 0 5.6421303364972459e-05 0.0036332876804952576 0 -0.00011743553432514022 0.0036595363886072615 0 0.0001131374091677973 0.0038325394837354899 0 -6.5944464496752643e-05 0.0034806732715323987 0 5.6421303364972459e-05 0.0036332876804952576 0 -0.00011743553432514022 0.0036595363886072615 0 0.00034781545613539407 0.0036406731217932696 0 0.00056618036342433317 0.0036573034694079281 0 0.00051236393402143132 0.00382140662395396 0 0.00043439266550557396 0.0033011754082170413 0 0.00034781545613539407 0.0036406731217932696 0 0.00056618036342433317 0.0036573034694079281 0 0.00043439266550557396 0.0033011754082170413 0 0.00034781545613539407 0.0036406731217932696 0 -2.8718060117755642e-06 0.0032616318146583365 0 -0.00073323333466936212 0.0033516026784741232 0 0.00034781545613539407 0.0036406731217932696 0 -2.8718060117755642e-06 0.0032616318146583365 0 -0.00035056202182225771 0.004052365344000817 0 0.00031240642503781423 0.0034401377389396293 0 0.00011889384852925253 0.0034658704329140633 0 0.00034781545613539407 0.0036406731217932696 0 0.00021674801519359305 0.0037075483244737775 0 0.00034781545613539407 0.0036406731217932696 0 0.00021674801519359305 0.0037075483244737775 0 0.00035465661706292795 0.0037870246744881771 0 0.00021674801519359305 0.0037075483244737775 0 0.00035465661706292795 0.0037870246744881771 0 0.00030218023773950932 0.0039063954886095122 0 0.00034781545613539407 0.0036406731217932696 0 0.00035465661706292795 0.0037870246744881771 0 0.00051236393402143132 0.00382140662395396 0 0.00035465661706292795 0.0037870246744881771 0 0.00045336082016379721 0.0038969379991861991 0 0.00051236393402143132 0.00382140662395396 0 0.00045336082016379721 0.0038969379991861991 0 0.00030218023773950932 0.0039063954886095122 0 0.00045629856740604912 0.0040202320777589185 0 0.00035465661706292795 0.0037870246744881771 0 0.00045336082016379721 0.0038969379991861991 0 0.00030218023773950932 0.0039063954886095122 0 0.00030218023773950932 0.0039063954886095122 0 0.00023282364330935113 0.0039937490922303783 0 0.0001131374091677973 0.0038325394837354899 0 0.00021674801519359305 0.0037075483244737775 0 0.00030218023773950932 0.0039063954886095122 0 0.0001131374091677973 0.0038325394837354899 0 0.00030218023773950932 0.0039063954886095122 0 0.00023282364330935113 0.0039937490922303783 0 0.00032492688130249096 0.0040614193545648932 0 0.00023282364330935113 0.0039937490922303783 0 0.00032492688130249096 0.0040614193545648932 0 0.0002003845049952722 0.0040714465938785091 0 0.00032492688130249096 0.0040614193545648932 0 0.00045629856740604912 0.0040202320777589185 0 0.00043674701647202028 0.0042008108376601194 0 0.00030218023773950932 0.0039063954886095122 0 0.00032492688130249096 0.0040614193545648932 0 0.00045629856740604912 0.0040202320777589185 0 0.00032492688130249096 0.0040614193545648932 0 0.00043674701647202028 0.0042008108376601194 0 0.000287106778397138 0.0041617192413817899 0 0.00032492688130249096 0.0040614193545648932 0 0.000287106778397138 0.0041617192413817899 0 0.0002003845049952722 0.0040714465938785091 0 0.000287106778397138 0.0041617192413817899 0 0.00020255370159514893 0.0041798535411179533 0 0.0002003845049952722 0.0040714465938785091 0 0.000287106778397138 0.0041617192413817899 0 0.00027372059191942052 0.0042780193352693367 0 0.00020255370159514893 0.0041798535411179533 0 0.00027372059191942052 0.0042780193352693367 0 0.00019198805021797337 0.0042400637095112992 0 0.00020255370159514893 0.0041798535411179533 0 0.0031101209526876268 0.016356127066586314 0 0.0045036251301041903 0.015001167178795117 0 0.0027584551040876859 0.015085118477888897 0 0.00043674701647202028 0.0042008108376601194 0 0.000287106778397138 0.0041617192413817899 0 0.00027372059191942052 0.0042780193352693367 0 0.0018554093818562987 0.010044039511661348 0 0.0022085448988778756 0.010794022059835878 0 0.0014976114505263428 -0.0079606940895272545 0 0.0015531526159993517 -0.0079950631191807106 0 0.0015093001457657368 -0.0079878282906670709 0 0.0013639059716600186 -0.0080290544160875124 0 0.0014374758818125109 -0.0079176458354764719 0 0.001313921491993096 -0.007942440780955887 0 0.0014976114505263428 -0.0079606940895272545 0 0.0013639059716600186 -0.0080290544160875124 0 0.0014374758818125109 -0.0079176458354764719 0 0.0014976114505263428 -0.0079606940895272545 0 0.0015093001457657368 -0.0079878282906670709 0 0.0013639059716600186 -0.0080290544160875124 0 0.0014374758818125109 -0.0079176458354764719 0 0.001313921491993096 -0.007942440780955887 0 0.0014571173413051512 -0.0077749455784945362 0 0.0014976114505263428 -0.0079606940895272545 0 0.0015531526159993517 -0.0079950631191807106 0 0.0015516310615679943 -0.0078314920829183291 0 0.0014374758818125109 -0.0079176458354764719 0 0.0015516310615679943 -0.0078314920829183291 0 0.0014571173413051512 -0.0077749455784945362 0 0.0014976114505263428 -0.0079606940895272545 0 0.0014374758818125109 -0.0079176458354764719 0 0.0015516310615679943 -0.0078314920829183291 0 0.00010553292221616263 0.0041681364626637556 0 0.00019198805021797337 0.0042400637095112992 0 0.00020255370159514893 0.0041798535411179533 0 0.00010553292221616263 0.0041681364626637556 0 0.00020255370159514893 0.0041798535411179533 0 0.00014719792832264161 0.0041112379163349517 0 0.00020255370159514893 0.0041798535411179533 0 0.00014719792832264161 0.0041112379163349517 0 0.0002003845049952722 0.0040714465938785091 0 0.00010553292221616263 0.0041681364626637556 0 0.00014719792832264161 0.0041112379163349517 0 0.0001045592348282267 0.0040453561055824715 0 0.00014719792832264161 0.0041112379163349517 0 0.0002003845049952722 0.0040714465938785091 0 0.0001045592348282267 0.0040453561055824715 0 0.00010553292221616263 0.0041681364626637556 0 0.0001045592348282267 0.0040453561055824715 0 -5.6404741607439201e-06 0.0039440518573431657 0 0.00059269301138652869 -0.002779959450228844 0 0.00074067720800278733 -0.0016906384411668079 0 0.0015093001457657368 -0.0079878282906670709 0 0.001400182340592863 -0.0078226980415455356 0 0.0013777227436878386 -0.0078239952718825393 0 0.0014812665522577757 -0.0079941775605967165 0 0.0012955495125623281 -0.0080954092427808436 0 0.0015531526159993517 -0.0079950631191807106 0 0.0015093001457657368 -0.0079878282906670709 0 0.001400182340592863 -0.0078226980415455356 0 0.0015093001457657368 -0.0079878282906670709 0 0.0013639059716600186 -0.0080290544160875124 0 0.0012067870979139512 -0.0083620015803216371 0 0.00023282364330935113 0.0039937490922303783 0 0.00012552275135074517 0.0039742148048061846 0 0.0001131374091677973 0.0038325394837354899 0 -5.6404741607439201e-06 0.0039440518573431657 0 0.00012552275135074517 0.0039742148048061846 0 0.0001131374091677973 0.0038325394837354899 0 0.0002003845049952722 0.0040714465938785091 0 0.0001045592348282267 0.0040453561055824715 0 0.00012552275135074517 0.0039742148048061846 0 0.00023282364330935113 0.0039937490922303783 0 0.0002003845049952722 0.0040714465938785091 0 0.00012552275135074517 0.0039742148048061846 0 0.0001045592348282267 0.0040453561055824715 0 -5.6404741607439201e-06 0.0039440518573431657 0 0.00012552275135074517 0.0039742148048061846 0 0.0013661611986152265 -0.0079403496721494188 0 0.001400182340592863 -0.0078226980415455356 0 0.0013304926859232082 -0.0078957767208503015 0 0.00073701851137996754 -0.002429116973109673 0 0.00074067720800278733 -0.0016906384411668079 0 -0.00011743553432514022 0.0036595363886072615 0 -5.6404741607439201e-06 0.0039440518573431657 0 0.0001131374091677973 0.0038325394837354899 0 0.0013304926859232082 -0.0078957767208503015 0 0.0012114653375434072 -0.0079456028705666773 0 0.0013777227436878386 -0.0078239952718825393 0 0.0011721618094374497 -0.0081522547653176854 0 0.0012955495125623281 -0.0080954092427808436 0 0.0011085139712569574 -0.0083558704167060356 0 0.0011221097685159657 -0.008340560435567591 0 0.0011321203559696556 -0.0083572922033025073 0 0.0011221097685159657 -0.008340560435567591 0 0.0011321203559696556 -0.0083572922033025073 0 0.0010882230583508824 -0.0082910352293259978 0 0.0011085139712569574 -0.0083558704167060356 0 0.0011221097685159657 -0.008340560435567591 0 0.0012067870979139512 -0.0083620015803216371 0 0.001400182340592863 -0.0078226980415455356 0 0.0013304926859232082 -0.0078957767208503015 0 0.0013777227436878386 -0.0078239952718825393 0 0.0011221097685159657 -0.008340560435567591 0 0.0012067870979139512 -0.0083620015803216371 0 0.0011264931992786284 -0.0082681757276313536 0 0.0012385250760552859 -0.0083918660590091825 0 0.001184732227628211 -0.0083471970140522895 0 0.0011796974607573331 -0.0084086539411566217 0 0.001184732227628211 -0.0083471970140522895 0 0.0011796974607573331 -0.0084086539411566217 0 0.0011321203559696556 -0.0083572922033025073 0 0.001184732227628211 -0.0083471970140522895 0 0.0011085139712569574 -0.0083558704167060356 0 0.0011321203559696556 -0.0083572922033025073 0 0.0011321203559696556 -0.0083572922033025073 0 0.0011328866177562171 -0.0083310240392380358 0 0.0010882230583508824 -0.0082910352293259978 0 0.0011796974607573331 -0.0084086539411566217 0 0.0011328866177562171 -0.0083310240392380358 0 0.0011672093610742664 -0.0084034333144682588 0 0.0011796974607573331 -0.0084086539411566217 0 0.0011321203559696556 -0.0083572922033025073 0 0.0011328866177562171 -0.0083310240392380358 0 0.0011328866177562171 -0.0083310240392380358 0 0.0011672093610742664 -0.0084034333144682588 0 0.0011884842600750629 -0.0083571924271395349 0 0.0011328866177562171 -0.0083310240392380358 0 0.0010507902464657495 -0.008238280751383921 0 0.0010882230583508824 -0.0082910352293259978 0 0.0011152821791637416 -0.008304550049695332 0 0.0010507902464657495 -0.008238280751383921 0 0.00092671880395665991 -0.0081554580033622714 0 0.0011152821791637416 -0.008304550049695332 0 0.00092671880395665991 -0.0081554580033622714 0 0.0009168612328070894 -0.0084365151279701504 0 0.0011328866177562171 -0.0083310240392380358 0 0.0011152821791637416 -0.008304550049695332 0 0.0010507902464657495 -0.008238280751383921 0 0.0011328866177562171 -0.0083310240392380358 0 0.0011152821791637416 -0.008304550049695332 0 0.0011884842600750629 -0.0083571924271395349 0 0.0013639059716600186 -0.0080290544160875124 0 0.0012067870979139512 -0.0083620015803216371 0 0.0012050719130647883 -0.0081346645961147459 0 0.0012067870979139512 -0.0083620015803216371 0 0.0012050719130647883 -0.0081346645961147459 0 0.0011264931992786284 -0.0082681757276313536 0 0.0012050719130647883 -0.0081346645961147459 0 0.0011264931992786284 -0.0082681757276313536 0 0.0010611223831224665 -0.0081770060890593906 0 0.0011221097685159657 -0.008340560435567591 0 0.0011264931992786284 -0.0082681757276313536 0 0.0010882230583508824 -0.0082910352293259978 0 0.0010507902464657495 -0.008238280751383921 0 0.0010882230583508824 -0.0082910352293259978 0 0.0010611223831224665 -0.0081770060890593906 0 0.0011264931992786284 -0.0082681757276313536 0 0.0010882230583508824 -0.0082910352293259978 0 0.0010611223831224665 -0.0081770060890593906 0 0.0010611223831224665 -0.0081770060890593906 0 0.00092671880395665991 -0.0081554580033622714 0 0.0011526107794273838 -0.008023734295456492 0 0.0010507902464657495 -0.008238280751383921 0 0.0010611223831224665 -0.0081770060890593906 0 0.00092671880395665991 -0.0081554580033622714 0 0.00092671880395665991 -0.0081554580033622714 0 0.0011526107794273838 -0.008023734295456492 0 0.001103380287928652 -0.0078283113889218488 0 0.0011526107794273838 -0.008023734295456492 0 0.0012392077590509729 -0.0078338494000298204 0 0.001103380287928652 -0.0078283113889218488 0 0.0012050719130647883 -0.0081346645961147459 0 0.0010611223831224665 -0.0081770060890593906 0 0.0011526107794273838 -0.008023734295456492 0 0.0012050719130647883 -0.0081346645961147459 0 0.0011526107794273838 -0.008023734295456492 0 0.001313921491993096 -0.007942440780955887 0 0.0013639059716600186 -0.0080290544160875124 0 0.0012050719130647883 -0.0081346645961147459 0 0.001313921491993096 -0.007942440780955887 0 0.0011526107794273838 -0.008023734295456492 0 0.001313921491993096 -0.007942440780955887 0 0.0012392077590509729 -0.0078338494000298204 0 0.001313921491993096 -0.007942440780955887 0 0.0013546184977387063 -0.0077526790594172907 0 0.0012392077590509729 -0.0078338494000298204 0 0.0013546184977387063 -0.0077526790594172907 0 0.0012392077590509729 -0.0078338494000298204 0 0.00126644757217785 -0.0075867783105861876 0 0.0013546184977387063 -0.0077526790594172907 0 0.00126644757217785 -0.0075867783105861876 0 0.0014581083827030846 -0.0075309843266396599 0 0.00126644757217785 -0.0075867783105861876 0 0.001109104282047443 -0.0075498995204348841 0 0.001103380287928652 -0.0078283113889218488 0 0.0012392077590509729 -0.0078338494000298204 0 0.00126644757217785 -0.0075867783105861876 0 0.001103380287928652 -0.0078283113889218488 0 0.00088773247062365291 -0.0081266813171459763 0 0.00087873422195477904 -0.0081194243689086971 0 0.00092671880395665991 -0.0081554580033622714 0 0.0009168612328070894 -0.0084365151279701504 0 0.00073963853225619543 -0.008578917459864074 0 0.00092671880395665991 -0.0081554580033622714 0 0.001103380287928652 -0.0078283113889218488 0 0.00087916039548464615 -0.0075548011696012253 0 0.00076015918445466893 -0.0084260623905514156 0 0.00087873422195477904 -0.0081194243689086971 0 0.001109104282047443 -0.0075498995204348841 0 0.001103380287928652 -0.0078283113889218488 0 0.00087916039548464615 -0.0075548011696012253 0 0.0009168612328070894 -0.0084365151279701504 0 0.00067174727546120668 -0.0086629887472358166 0 0.00074387010370214788 -0.0090733517390044587 0 0.00067174727546120668 -0.0086629887472358166 0 0.00074387010370214788 -0.0090733517390044587 0 0.00066398093716611034 -0.0091949554944914334 0 0.00082359365165434015 -0.0080486172584838343 0 0.00144322207240571 -0.0074981729330491423 0 0.00097763694522569593 -0.0070285329777218658 0 0.00087873422195477904 -0.0081194243689086971 0 0.00076422053990573115 -0.0083310575434461034 0 0.0011797460964729667 -0.0072455430203901784 0 0.0014667449846046479 -0.0069561409491634193 0 0.0014570934078189583 -0.0072480532917031494 0 0.0010689205880687258 -0.0075851110256231749 0 0.002582620919207454 -0.0046444904000215803 0 0.00126644757217785 -0.0075867783105861876 0 0.0011797460964729667 -0.0072455430203901784 0 0.0014570934078189583 -0.0072480532917031494 0 0.001109104282047443 -0.0075498995204348841 0 0.00087916039548464615 -0.0075548011696012253 0 0.0011797460964729667 -0.0072455430203901784 0 0.00087873422195477904 -0.0081194243689086971 0 0.0010689205880687258 -0.0075851110256231749 0 0.00126644757217785 -0.0075867783105861876 0 0.001109104282047443 -0.0075498995204348841 0 0.0011797460964729667 -0.0072455430203901784 0 0.00085547419127668021 -0.0089336027008897183 0 0.0008263441472825694 -0.0088358531397779039 0 0.0011152821791637416 -0.008304550049695332 0 0.0011903145978055724 -0.0085005559533775626 0 0.0011884842600750629 -0.0083571924271395349 0 0.00055323494088331461 -0.00935723087421776 0 0.00050378017474843697 -0.0093396391946378426 0 0.00044766298509807628 -0.0093137046219652162 0 0.0011152821791637416 -0.008304550049695332 0 0.0009168612328070894 -0.0084365151279701504 0 0.0011903145978055724 -0.0085005559533775626 0 0.00074387010370214788 -0.0090733517390044587 0 0.00055323494088331461 -0.00935723087421776 0 0.00061182810941538585 -0.0092104477345061331 0 0.0009168612328070894 -0.0084365151279701504 0 0.00074387010370214788 -0.0090733517390044587 0 0.0011903145978055724 -0.0085005559533775626 0 0.00073713955574916548 -0.0090714124432480312 0 0.00085547419127668021 -0.0089336027008897183 0 0.00055323494088331461 -0.00935723087421776 0 0.00061182810941538585 -0.0092104477345061331 0 0.00050378017474843697 -0.0093396391946378426 0 0.00050378017474843697 -0.0093396391946378426 0 0.00050896724783641603 -0.0092050983663458652 0 0.00044278708040640494 -0.0094181124028928555 0 0.00061182810941538585 -0.0092104477345061331 0 0.00050896724783641603 -0.0092050983663458652 0 0.00061011345637322916 -0.0091420464017784205 0 0.00061182810941538585 -0.0092104477345061331 0 0.00050378017474843697 -0.0093396391946378426 0 0.00050896724783641603 -0.0092050983663458652 0 0.00061182810941538585 -0.0092104477345061331 0 0.00061011345637322916 -0.0091420464017784205 0 0.00068139507098517109 -0.0091558116141205893 0 0.00074387010370214788 -0.0090733517390044587 0 0.00061182810941538585 -0.0092104477345061331 0 0.00068139507098517109 -0.0091558116141205893 0 0.00061011345637322916 -0.0091420464017784205 0 0.00068139507098517109 -0.0091558116141205893 0 0.00066930642255813642 -0.009127315856243122 0 0.00061011345637322916 -0.0091420464017784205 0 0.0006189385420425612 -0.0090637620249497744 0 0.00052267223849250348 -0.0090802310157854591 0 0.00061011345637322916 -0.0091420464017784205 0 0.0006189385420425612 -0.0090637620249497744 0 0.00066930642255813642 -0.009127315856243122 0 0.00050896724783641603 -0.0092050983663458652 0 0.00052267223849250348 -0.0090802310157854591 0 0.00043470783779543676 -0.0090983819280376268 0 0.00050896724783641603 -0.0092050983663458652 0 0.00061011345637322916 -0.0091420464017784205 0 0.00052267223849250348 -0.0090802310157854591 0 0.0014021746404696176 -0.0068714571469339408 0 0.00097763694522569593 -0.0070285329777218658 0 0.0011304651143592551 -0.0060220248290803122 0 0.0013177581500385242 -0.0066062401885615711 0 0.002582620919207454 -0.0046444904000215803 0 0.0014021746404696176 -0.0068714571469339408 0 0.0011304651143592551 -0.0060220248290803122 0 0.0020580092979105499 -0.00694374245491787 0 0.00144322207240571 -0.0074981729330491423 0 0.0014021746404696176 -0.0068714571469339408 0 0.0020580092979105499 -0.00694374245491787 0 0.00144322207240571 -0.0074981729330491423 0 0.0014021746404696176 -0.0068714571469339408 0 0.00097763694522569593 -0.0070285329777218658 0 0.00076422053990573115 -0.0083310575434461034 0 0.0013177581500385242 -0.0066062401885615711 0 0.00066398093716611034 -0.0091949554944914334 0 0.00066930642255813642 -0.009127315856243122 0 0.00073233322121153167 -0.009080100499801019 0 0.00074387010370214788 -0.0090733517390044587 0 0.00066398093716611034 -0.0091949554944914334 0 0.00068139507098517109 -0.0091558116141205893 0 0.00066398093716611034 -0.0091949554944914334 0 0.00068139507098517109 -0.0091558116141205893 0 0.00066930642255813642 -0.009127315856243122 0 0.0006189385420425612 -0.0090637620249497744 0 0.00066930642255813642 -0.009127315856243122 0 0.00073233322121153167 -0.009080100499801019 0 0.0021961067845020672 -0.0040930289229914683 0 0.0027869778016943285 -0.0040844053388628078 0 0.0027605867839750812 -0.0046505417381682368 0 0.0021961067845020672 -0.0040930289229914683 0 0.0027869778016943285 -0.0040844053388628078 0 0.0025043356225299173 -0.0037822147481639035 0 0.0027869778016943285 -0.0040844053388628078 0 0.0027605867839750812 -0.0046505417381682368 0 0.0031501085745433786 -0.0043063248105024848 0 0.0027869778016943285 -0.0040844053388628078 0 0.0031464655987819006 -0.003932166725190942 0 0.002927676688187773 -0.0037080916329982898 0 0.0027869778016943285 -0.0040844053388628078 0 0.0031501085745433786 -0.0043063248105024848 0 0.0031464655987819006 -0.003932166725190942 0 0.002582620919207454 -0.0046444904000215803 0 0.0033925836222260075 -0.0023089385191510116 0 0.0036981968305973933 -0.0002664919296372444 0 0.0035605078082391385 -0.00020092889560476237 0 0.0035476113232654318 -0.00037927564985567816 0 0.0046038698337159522 0.004208434077172786 0 0.003583972530525377 0.0040383819247054526 0 0.0049341499854697168 0.0057651053653486571 0 0.0035605078082391385 -0.00020092889560476237 0 0.0034499334896797747 -0.00028700077260194963 0 0.0034918333350890717 -4.9051540653965881e-05 0 0.0035605078082391385 -0.00020092889560476237 0 0.0034499334896797747 -0.00028700077260194963 0 0.0035476113232654318 -0.00037927564985567816 0 0.0033925836222260075 -0.0023089385191510116 0 0.0036490485533385146 2.9555638518006325e-05 0 0.0040352100984930757 0.00197783944996347 0 0.0036490485533385146 2.9555638518006325e-05 0 0.0034499334896797747 -0.00028700077260194963 0 0.0035476113232654318 -0.00037927564985567816 0 0.0034143301273410038 -0.00049280387013930945 0 0.0031501085745433786 -0.0043063248105024848 0 0.0031464655987819006 -0.003932166725190942 0 0.0035503543017057332 -0.0039526185915525281 0 0.0042991551264580921 0.0025866438499240856 0 0.0036453777167686206 0.0024440628936070268 0 0.003329819045972026 0.0029996359661729503 0 0.0042991551264580921 0.0025866438499240856 0 0.003329819045972026 0.0029996359661729503 0 0.003583972530525377 0.0040383819247054526 0 0.003329819045972026 0.0029996359661729503 0 0.0025401983848562749 0.0038410040730102171 0 0.003034413311045989 0.0016246850317375109 0 0.0046038698337159522 0.004208434077172786 0 0.0042991551264580921 0.0025866438499240856 0 0.003583972530525377 0.0040383819247054526 0 0.0036453777167686206 0.0024440628936070268 0 0.003329819045972026 0.0029996359661729503 0 0.003034413311045989 0.0016246850317375109 0 0.003329819045972026 0.0029996359661729503 0 0.0025401983848562749 0.0038410040730102171 0 0.003583972530525377 0.0040383819247054526 0 0.0025705752952436549 0.0036559161294719839 0 0.0029773896357611208 0.0020653961085670774 0 0.0023347633659142213 0.0028646228211303085 0 0.0025401983848562749 0.0038410040730102171 0 0.0029637567040898443 0.0021624186657803299 0 0.0019436888426784373 0.0027365753152182324 0 0.0023347633659142213 0.0028646228211303085 0 0.001835929461151059 0.003537263964871602 0 0.0023347633659142213 0.0028646228211303085 0 0.001835929461151059 0.003537263964871602 0 0.0025401983848562749 0.0038410040730102171 0 0.001835929461151059 0.003537263964871602 0 0.0027920508664836729 0.0046931961330303985 0 0.0009031194044048414 0.0037262271118694203 0 0.001835929461151059 0.003537263964871602 0 0.0025401983848562749 0.0038410040730102171 0 0.0027920508664836729 0.0046931961330303985 0 0.0038178521153603689 0.0095298996457668806 0 0.0014544773929052617 0.0080058578156291561 0 0.0027920508664836729 0.0046931961330303985 0 0.003583972530525377 0.0040383819247054526 0 0.0049341499854697168 0.0057651053653486571 0 0.0025401983848562749 0.0038410040730102171 0 0.0027920508664836729 0.0046931961330303985 0 0.003583972530525377 0.0040383819247054526 0 0.0040301037112370737 0.01257832577016499 0 0.0047099170482999735 0.013685814893629475 0 0.0057739854887257792 0.013398536494138337 0 0.0038178521153603689 0.0095298996457668806 0 0.0043540829808600716 0.0037758894769667293 0 0.0040301037112370737 0.01257832577016499 0 0.0034336246552976461 0.013892530687353615 0 0.0027075859784037909 0.013058320566208523 0 0.0040301037112370737 0.01257832577016499 0 0.0047099170482999735 0.013685814893629475 0 0.0034336246552976461 0.013892530687353615 0 0.0045036251301041903 0.015001167178795117 0 0.0034336246552976461 0.013892530687353615 0 0.0027584551040876859 0.015085118477888897 0 0.0022085448988778756 0.010794022059835878 0 0.0021958085086124447 0.0022559955017770125 0 0.0045036251301041903 0.015001167178795117 0 0.0047099170482999735 0.013685814893629475 0 0.0034336246552976461 0.013892530687353615 0 0.0045036251301041903 0.015001167178795117 0 0.0047099170482999735 0.013685814893629475 0 0.0058135133779877264 0.013566190250509045 0 0.00010553292221616263 0.0041681364626637556 0 0.00019198805021797337 0.0042400637095112992 0 0.00018610252391821724 0.0043253741059133084 0 0.0015531526159993517 -0.0079950631191807106 0 0.0015516310615679943 -0.0078314920829183291 0 0.0018733867641694971 -0.0073225008017892262 0 0.00059269301138652869 -0.002779959450228844 0 0.0021958085086124447 0.0022559955017770125 0 0.00027372059191942052 0.0042780193352693367 0 0.00019198805021797337 0.0042400637095112992 0 0.00018610252391821724 0.0043253741059133084 0 0.0015516310615679943 -0.0078314920829183291 0 0.0015893491855683056 -0.0076660307929326786 0 0.0018733867641694971 -0.0073225008017892262 0 0.0015516310615679943 -0.0078314920829183291 0 0.0015893491855683056 -0.0076660307929326786 0 0.0014571173413051512 -0.0077749455784945362 0 0.0015893491855683056 -0.0076660307929326786 0 0.0014571173413051512 -0.0077749455784945362 0 0.0015104260543345514 -0.0076469855208537961 0 0.0013546184977387063 -0.0077526790594172907 0 0.0015104260543345514 -0.0076469855208537961 0 0.0014581083827030846 -0.0075309843266396599 0 0.001313921491993096 -0.007942440780955887 0 0.0013546184977387063 -0.0077526790594172907 0 0.0014571173413051512 -0.0077749455784945362 0 0.0013546184977387063 -0.0077526790594172907 0 0.0014571173413051512 -0.0077749455784945362 0 0.0015104260543345514 -0.0076469855208537961 0 0.0015893491855683056 -0.0076660307929326786 0 0.0016075262754042822 -0.0075112580142919251 0 0.0018733867641694971 -0.0073225008017892262 0 0.0015104260543345514 -0.0076469855208537961 0 0.0014581083827030846 -0.0075309843266396599 0 0.0016075262754042822 -0.0075112580142919251 0 0.0015893491855683056 -0.0076660307929326786 0 0.0015104260543345514 -0.0076469855208537961 0 0.0016075262754042822 -0.0075112580142919251 0 0.0014581083827030846 -0.0075309843266396599 0 0.0015629821926331699 -0.0074437342821899056 0 0.0016075262754042822 -0.0075112580142919251 0 0.0015629821926331699 -0.0074437342821899056 0 0.0016075262754042822 -0.0075112580142919251 0 0.0016822091773815281 -0.0073744653856992219 0 0.0036981968305973933 -0.0002664919296372444 0 0.0035605078082391385 -0.00020092889560476237 0 0.0035166079769642054 -3.7894852427115771e-05 0 0.0016822091773815281 -0.0073744653856992219 0 0.0014570934078189583 -0.0072480532917031494 0 0.001811995539302427 -0.0072935278682488914 0 0.002582620919207454 -0.0046444904000215803 0 0.0028398243652782377 0.00015563579521182659 0 0.0015629821926331699 -0.0074437342821899056 0 0.0016822091773815281 -0.0073744653856992219 0 0.0014570934078189583 -0.0072480532917031494 0 0.0014667449846046479 -0.0069561409491634193 0 0.0014570934078189583 -0.0072480532917031494 0 0.001811995539302427 -0.0072935278682488914 0 0.00126644757217785 -0.0075867783105861876 0 0.0014581083827030846 -0.0075309843266396599 0 0.0014570934078189583 -0.0072480532917031494 0 0.0014581083827030846 -0.0075309843266396599 0 0.0015629821926331699 -0.0074437342821899056 0 0.0014570934078189583 -0.0072480532917031494 0 0.0035605078082391385 -0.00020092889560476237 0 0.0034918333350890717 -4.9051540653965881e-05 0 0.0035166079769642054 -3.7894852427115771e-05 0 0.0047099170482999735 0.013685814893629475 0 0.0058135133779877264 0.013566190250509045 0 0.0057739854887257792 0.013398536494138337 0 0.0040352100984930757 0.00197783944996347 0 0.0043540829808600716 0.0037758894769667293 0 0.0016075262754042822 -0.0075112580142919251 0 0.0016822091773815281 -0.0073744653856992219 0 0.0018733867641694971 -0.0073225008017892262 0 0.0021958085086124447 0.0022559955017770125 0 0.0028398243652782377 0.00015563579521182659 0 0.00065588787278629416 -0.0032357096204847051 0 0.0028398243652782377 0.00015563579521182659 0 0.0016822091773815281 -0.0073744653856992219 0 0.0018733867641694971 -0.0073225008017892262 0 0.0018349333517034862 -0.0072784906992519978 0 0.0021958085086124447 0.0022559955017770125 0 0.0043540829808600716 0.0037758894769667293 0 0.0023242040198281208 0.0011199332386025228 0 0.0021666024057969036 0.0003764959486204119 0 0.0027614129163728196 0.00067811996396610879 0 0.0043540829808600716 0.0037758894769667293 0 0.0028398243652782377 0.00015563579521182659 0 0.001589865910989838 -0.0096229236099075414 0 0.0016303108494832661 -0.009659581933865867 0 0.0015651061909443935 -0.0096065337437244453 0 0.0015651061909443935 -0.0096065337437244453 0 0.0015096467904474097 -0.0094599319798092853 0 0.0014369169961211566 -0.0097077235446718872 0 0.001589865910989838 -0.0096229236099075414 0 0.0015651061909443935 -0.0096065337437244453 0 0.0015096467904474097 -0.0094599319798092853 0 0.0016303108494832661 -0.009659581933865867 0 0.0015651061909443935 -0.0096065337437244453 0 0.001620190999309623 -0.0097766780272504333 0 0.0015248871356888032 -0.009448281242741146 0 0.0015375715660925719 -0.0093169602735767749 0 0.0015096467904474097 -0.0094599319798092853 0 0.0016181670572665223 -0.0097592133658334339 0 0.001628931740812376 -0.009727529088321793 0 0.0015096467904474097 -0.0094599319798092853 0 0.0014786331379610734 -0.0088993271434472717 0 0.001265237623393343 -0.0092380306463284139 0 0.001589865910989838 -0.0096229236099075414 0 0.0015096467904474097 -0.0094599319798092853 0 0.0016181670572665223 -0.0097592133658334339 0 0.0016181670572665223 -0.0097592133658334339 0 0.0016490447766070527 -0.009942486955373581 0 0.0015170435610867697 -0.0098277485345434276 0 0.0015375715660925719 -0.0093169602735767749 0 0.0014551498508118209 -0.0092079885790025892 0 0.0016181670572665223 -0.0097592133658334339 0 0.001628931740812376 -0.009727529088321793 0 0.0015170435610867697 -0.0098277485345434276 0 0.0014786331379610734 -0.0088993271434472717 0 0.0013907512425851249 -0.0086069081114964596 0 0.0011932504451244617 -0.0088686288716812757 0 0.0013907512425851249 -0.0086069081114964596 0 0.0011585268019881374 -0.0086035917713841222 0 0.0011932504451244617 -0.0088686288716812757 0 0.0011932504451244617 -0.0088686288716812757 0 0.001265237623393343 -0.0092380306463284139 0 0.0010804377428853191 -0.0092567459484261348 0 0.001265237623393343 -0.0092380306463284139 0 0.0010804377428853191 -0.0092567459484261348 0 0.0011193205876070872 -0.0096807747052201076 0 0.0015096467904474097 -0.0094599319798092853 0 0.001265237623393343 -0.0092380306463284139 0 0.0011193205876070872 -0.0096807747052201076 0 0.0014786331379610734 -0.0088993271434472717 0 0.0011932504451244617 -0.0088686288716812757 0 0.001265237623393343 -0.0092380306463284139 0 0.0010804377428853191 -0.0092567459484261348 0 0.00082209806026103873 -0.0092760337460571479 0 0.00099945726584430255 -0.0094910233696799302 0 0.00082209806026103873 -0.0092760337460571479 0 0.00058989637293745806 -0.0090788803195406657 0 0.00060329520978872752 -0.0093908226371812956 0 0.00098796656331564636 -0.0087031116995049673 0 0.00087142852888074166 -0.0087524140808743593 0 0.00082209806026103873 -0.0092760337460571479 0 0.00099228847145491463 -0.0087136237326497258 0 0.00058989637293745806 -0.0090788803195406657 0 0.0011932504451244617 -0.0088686288716812757 0 0.0010804377428853191 -0.0092567459484261348 0 0.00099228847145491463 -0.0087136237326497258 0 0.0010804377428853191 -0.0092567459484261348 0 0.00082209806026103873 -0.0092760337460571479 0 0.00099228847145491463 -0.0087136237326497258 0 0.0011585268019881374 -0.0086035917713841222 0 0.0011932504451244617 -0.0088686288716812757 0 0.00099228847145491463 -0.0087136237326497258 0 0.0011585268019881374 -0.0086035917713841222 0 0.0011141317340557331 -0.0085628398606980623 0 0.00099228847145491463 -0.0087136237326497258 0 0.001228557713493684 -0.0084832023541501472 0 0.0011141317340557331 -0.0085628398606980623 0 0.0011505734028108274 -0.0085202218290275668 0 0.00099228847145491463 -0.0087136237326497258 0 0.0011505734028108274 -0.0085202218290275668 0 0.0011258481219882488 -0.0084237243179420447 0 0.0011141317340557331 -0.0085628398606980623 0 0.00099228847145491463 -0.0087136237326497258 0 0.0011505734028108274 -0.0085202218290275668 0 0.001228557713493684 -0.0084832023541501472 0 0.0012385250760552859 -0.0083918660590091825 0 0.0011505734028108274 -0.0085202218290275668 0 0.0012385250760552859 -0.0083918660590091825 0 0.0011796974607573331 -0.0084086539411566217 0 0.0011505734028108274 -0.0085202218290275668 0 0.0011796974607573331 -0.0084086539411566217 0 0.0011505734028108274 -0.0085202218290275668 0 0.0011672093610742664 -0.0084034333144682588 0 0.0011672093610742664 -0.0084034333144682588 0 0.0011258481219882488 -0.0084237243179420447 0 0.0011884842600750629 -0.0083571924271395349 0 0.0011505734028108274 -0.0085202218290275668 0 0.0011672093610742664 -0.0084034333144682588 0 0.0011258481219882488 -0.0084237243179420447 0 0.00058989637293745806 -0.0090788803195406657 0 0.00044766298509807628 -0.0093137046219652162 0 0.00060329520978872752 -0.0093908226371812956 0 0.00087142852888074166 -0.0087524140808743593 0 0.0008263441472825694 -0.0088358531397779039 0 0.00050378017474843697 -0.0093396391946378426 0 0.00044766298509807628 -0.0093137046219652162 0 0.00044278708040640494 -0.0094181124028928555 0 0.00044766298509807628 -0.0093137046219652162 0 0.00060329520978872752 -0.0093908226371812956 0 0.00044278708040640494 -0.0094181124028928555 0 0.00060329520978872752 -0.0093908226371812956 0 0.00044278708040640494 -0.0094181124028928555 0 0.00063863718960940441 -0.0096143373550510239 0 0.00045365706968394129 -0.0095409589516307434 0 0.00037682856485060797 -0.0092101684275344049 0 0.00050896724783641603 -0.0092050983663458652 0 0.00044278708040640494 -0.0094181124028928555 0 0.00037517099222622179 -0.0091732179153111281 0 0.00050896724783641603 -0.0092050983663458652 0 0.00037517099222622179 -0.0091732179153111281 0 0.00043470783779543676 -0.0090983819280376268 0 0.00037517099222622179 -0.0091732179153111281 0 0.00043470783779543676 -0.0090983819280376268 0 0.00034407668475969352 -0.0090442473755592504 0 0.00037682856485060797 -0.0092101684275344049 0 0.00019937480990358608 -0.01103338431544537 0 0.00043916951988163123 -0.0098071346006414085 0 0.00063915217994453099 -0.0099047255852029066 0 0.00050013366218593731 -0.010078089741222396 0 0.00080839514104009871 -0.0096540702433805161 0 0.00019937480990358608 -0.01103338431544537 0 0.00063915217994453099 -0.0099047255852029066 0 0.00065654152439021405 -0.010087033684064968 0 0.00045297540263991175 -0.010120451146298269 0 0.00044278708040640494 -0.0094181124028928555 0 0.00043916951988163123 -0.0098071346006414085 0 0.00063863718960940441 -0.0096143373550510239 0 0.00043916951988163123 -0.0098071346006414085 0 0.00063863718960940441 -0.0096143373550510239 0 0.00063915217994453099 -0.0099047255852029066 0 0.00063863718960940441 -0.0096143373550510239 0 0.00077098545626246994 -0.0097601056080099825 0 0.00063915217994453099 -0.0099047255852029066 0 0.00063915217994453099 -0.0099047255852029066 0 0.00082651463605499739 -0.01002566744151305 0 0.00065654152439021405 -0.010087033684064968 0 0.00077098545626246994 -0.0097601056080099825 0 0.00063915217994453099 -0.0099047255852029066 0 0.00082651463605499739 -0.01002566744151305 0 0.00082651463605499739 -0.01002566744151305 0 0.00095635293898183602 -0.0097764394115493636 0 0.0010324993557596432 -0.0099689714059726896 0 0.00077098545626246994 -0.0097601056080099825 0 0.00082651463605499739 -0.01002566744151305 0 0.00095635293898183602 -0.0097764394115493636 0 0.00077098545626246994 -0.0097601056080099825 0 0.00095635293898183602 -0.0097764394115493636 0 0.00083302820309669428 -0.0095725248040235082 0 0.00095635293898183602 -0.0097764394115493636 0 0.00083302820309669428 -0.0095725248040235082 0 0.0010387826849702258 -0.0096485439728748925 0 0.00083302820309669428 -0.0095725248040235082 0 0.00099945726584430255 -0.0094910233696799302 0 0.0010387826849702258 -0.0096485439728748925 0 0.00060329520978872752 -0.0093908226371812956 0 0.00063863718960940441 -0.0096143373550510239 0 0.00083302820309669428 -0.0095725248040235082 0 0.00063863718960940441 -0.0096143373550510239 0 0.00077098545626246994 -0.0097601056080099825 0 0.00083302820309669428 -0.0095725248040235082 0 0.00082209806026103873 -0.0092760337460571479 0 0.00060329520978872752 -0.0093908226371812956 0 0.00083302820309669428 -0.0095725248040235082 0 0.00082209806026103873 -0.0092760337460571479 0 0.00083302820309669428 -0.0095725248040235082 0 0.00099945726584430255 -0.0094910233696799302 0 0.0010804377428853191 -0.0092567459484261348 0 0.00099945726584430255 -0.0094910233696799302 0 0.0011193205876070872 -0.0096807747052201076 0 0.00107493184845796 -0.0097278248220242954 0 0.00090593813071670711 -0.010039201147069904 0 0.0011193205876070872 -0.0096807747052201076 0 0.0010387826849702258 -0.0096485439728748925 0 0.0011734369019126107 -0.0097600921235641291 0 0.0011193205876070872 -0.0096807747052201076 0 0.00063373468720371196 -0.010276796222769917 0 0.0012616618756114797 -0.0099768157146721097 0 0.00099945726584430255 -0.0094910233696799302 0 0.0011193205876070872 -0.0096807747052201076 0 0.0010387826849702258 -0.0096485439728748925 0 0.00095635293898183602 -0.0097764394115493636 0 0.0010324993557596432 -0.0099689714059726896 0 0.0011734369019126107 -0.0097600921235641291 0 0.00095635293898183602 -0.0097764394115493636 0 0.0010387826849702258 -0.0096485439728748925 0 0.0011734369019126107 -0.0097600921235641291 0 0.0010324993557596432 -0.0099689714059726896 0 0.0012057961629298752 -0.010031350746850579 0 0.0011734369019126107 -0.0097600921235641291 0 0.00066215481688063418 -0.01063354957563019 0 0.00090593813071670711 -0.010039201147069904 0 0.00013584573848949083 -0.011115917645621816 0 0.00063373468720371196 -0.010276796222769917 0 0.00074030386599947481 -0.010817165185342507 0 0.00013584573848949083 -0.011115917645621816 0 0.00074030386599947481 -0.010817165185342507 0 0.00066450265175652394 -0.011343687285310685 0 0.00063373468720371196 -0.010276796222769917 0 0.0012079113315509491 -0.010545835578640859 0 0.0012616618756114797 -0.0099768157146721097 0 0.00063373468720371196 -0.010276796222769917 0 0.0012079113315509491 -0.010545835578640859 0 0.00074030386599947481 -0.010817165185342507 0 0.0012079113315509491 -0.010545835578640859 0 0.00074030386599947481 -0.010817165185342507 0 0.0010579073949099822 -0.010955072616593634 0 0.00074030386599947481 -0.010817165185342507 0 0.0010579073949099822 -0.010955072616593634 0 0.00066450265175652394 -0.011343687285310685 0 0.0012079113315509491 -0.010545835578640859 0 0.0010579073949099822 -0.010955072616593634 0 0.0015856260175465722 -0.011134720383396173 0 0.0017084879120069093 -0.010576173998639056 0 0.0012079113315509491 -0.010545835578640859 0 0.0015856260175465722 -0.011134720383396173 0 0.0012079113315509491 -0.010545835578640859 0 0.0015504855969583719 -0.010172430148545171 0 0.0012616618756114797 -0.0099768157146721097 0 0.0017084879120069093 -0.010576173998639056 0 0.0012079113315509491 -0.010545835578640859 0 0.0015504855969583719 -0.010172430148545171 0 0.0017238699890692476 -0.0099817297491055657 0 0.0015504855969583719 -0.010172430148545171 0 0.0015150207433789818 -0.0099062586243369305 0 0.0017238699890692476 -0.0099817297491055657 0 0.0015150207433789818 -0.0099062586243369305 0 0.001620190999309623 -0.0097766780272504333 0 0.0015504855969583719 -0.010172430148545171 0 0.0015150207433789818 -0.0099062586243369305 0 0.0012616618756114797 -0.0099768157146721097 0 0.0011193205876070872 -0.0096807747052201076 0 0.0012616618756114797 -0.0099768157146721097 0 0.0014369169961211566 -0.0097077235446718872 0 0.0015150207433789818 -0.0099062586243369305 0 0.0012616618756114797 -0.0099768157146721097 0 0.0014369169961211566 -0.0097077235446718872 0 0.0015096467904474097 -0.0094599319798092853 0 0.0011193205876070872 -0.0096807747052201076 0 0.0014369169961211566 -0.0097077235446718872 0 0.0015651061909443935 -0.0096065337437244453 0 0.0014369169961211566 -0.0097077235446718872 0 0.001620190999309623 -0.0097766780272504333 0 0.0015150207433789818 -0.0099062586243369305 0 0.0014369169961211566 -0.0097077235446718872 0 0.001620190999309623 -0.0097766780272504333 0 0.0012750246393983793 -0.017256890404031645 0 0.0010293123470251305 -0.01610986097658865 0 0.0031506709505769517 -0.015399363462179549 0 0.0022168485747359416 -0.014708619500537985 0 0.0016654302569550062 -0.01574016402452395 0 0.0022168485747359416 -0.014708619500537985 0 0.0014473888483500772 -0.014637016026243489 0 0.0018779131619943619 -0.013989611746237054 0 0.0031506709505769517 -0.015399363462179549 0 0.0022168485747359416 -0.014708619500537985 0 0.0026812052759752599 -0.014514129249380937 0 0.0022168485747359416 -0.014708619500537985 0 0.0014473888483500772 -0.014637016026243489 0 0.0016654302569550062 -0.01574016402452395 0 0.00087961438190575347 -0.015073475860171033 0 0.0014473888483500772 -0.014637016026243489 0 0.0016654302569550062 -0.01574016402452395 0 0.00087961438190575347 -0.015073475860171033 0 -0.00039936019182210667 -0.016265121340691389 0 0.0016654302569550062 -0.01574016402452395 0 0.00087961438190575347 -0.015073475860171033 0 0.00013092977889974728 -0.015089989537052663 0 -0.00039936019182210667 -0.016265121340691389 0 0.00013092977889974728 -0.015089989537052663 0 0.00073637197576891509 -0.014440492687563708 0 0.00024746118619622102 -0.014439803337508101 0 0.00087961438190575347 -0.015073475860171033 0 0.00013092977889974728 -0.015089989537052663 0 0.00073637197576891509 -0.014440492687563708 0 0.00087961438190575347 -0.015073475860171033 0 0.00073637197576891509 -0.014440492687563708 0 0.0014473888483500772 -0.014637016026243489 0 0.00073637197576891509 -0.014440492687563708 0 0.0014473888483500772 -0.014637016026243489 0 0.0012774129523247144 -0.013999099424570083 0 0.00073637197576891509 -0.014440492687563708 0 0.0012774129523247144 -0.013999099424570083 0 0.0008160941172475274 -0.013607416866193392 0 0.0012774129523247144 -0.013999099424570083 0 0.0014279289525315137 -0.013306401014786747 0 0.0018779131619943619 -0.013989611746237054 0 0.00073637197576891509 -0.014440492687563708 0 0.0008160941172475274 -0.013607416866193392 0 0.0002370545425994354 -0.013951851860157792 0 0.00073637197576891509 -0.014440492687563708 0 0.0002370545425994354 -0.013951851860157792 0 0.00024746118619622102 -0.014439803337508101 0 0.0008160941172475274 -0.013607416866193392 0 0.0014279289525315137 -0.013306401014786747 0 0.00070283371275462977 -0.012700580236943888 0 0.0008160941172475274 -0.013607416866193392 0 0.00021436801851893261 -0.013305664334372519 0 0.0002370545425994354 -0.013951851860157792 0 0.0008160941172475274 -0.013607416866193392 0 0.00070283371275462977 -0.012700580236943888 0 0.00021436801851893261 -0.013305664334372519 0 0.0012774129523247144 -0.013999099424570083 0 0.0008160941172475274 -0.013607416866193392 0 0.0014279289525315137 -0.013306401014786747 0 0.0014279289525315137 -0.013306401014786747 0 0.0020622955771658165 -0.013453852836348283 0 0.0018779131619943619 -0.013989611746237054 0 0.0014473888483500772 -0.014637016026243489 0 0.0012774129523247144 -0.013999099424570083 0 0.0018779131619943619 -0.013989611746237054 0 0.0020622955771658165 -0.013453852836348283 0 0.0018779131619943619 -0.013989611746237054 0 0.0024734025715158338 -0.013950601031495155 0 0.0022168485747359416 -0.014708619500537985 0 0.0026812052759752599 -0.014514129249380937 0 0.0024734025715158338 -0.013950601031495155 0 0.0022168485747359416 -0.014708619500537985 0 0.0018779131619943619 -0.013989611746237054 0 0.0024734025715158338 -0.013950601031495155 0 0.0028830266713213248 -0.013996975281894218 0 0.0026812052759752599 -0.014514129249380937 0 0.0024734025715158338 -0.013950601031495155 0 0.0029815739363460761 -0.013769861144898071 0 0.0024734025715158338 -0.013950601031495155 0 0.0025650132795949124 -0.01337609177111198 0 0.0020622955771658165 -0.013453852836348283 0 0.0024734025715158338 -0.013950601031495155 0 0.0025650132795949124 -0.01337609177111198 0 0.0028923358570691563 -0.012949419764901247 0 0.0025650132795949124 -0.01337609177111198 0 0.0020257497251992889 -0.01274331874305684 0 0.0020622955771658165 -0.013453852836348283 0 0.0025650132795949124 -0.01337609177111198 0 0.0020257497251992889 -0.01274331874305684 0 0.0014279289525315137 -0.013306401014786747 0 0.0020622955771658165 -0.013453852836348283 0 0.0020257497251992889 -0.01274331874305684 0 0.0018320675165067531 -0.012683019337605085 0 0.0018400000187439685 -0.012128233416844103 0 0.001311341008915964 -0.011956368291923276 0 0.0023301991471957268 -0.012327365605571136 0 0.0018320675165067531 -0.012683019337605085 0 0.0018400000187439685 -0.012128233416844103 0 0.0023301991471957268 -0.012327365605571136 0 0.0018400000187439685 -0.012128233416844103 0 0.0020466884333887434 -0.011443426411219527 0 0.0018400000187439685 -0.012128233416844103 0 0.0020466884333887434 -0.011443426411219527 0 0.001311341008915964 -0.011956368291923276 0 0.0018500497900063705 -0.011059698797443038 0 0.00068841533475831108 -0.01138864337491587 0 0.0020466884333887434 -0.011443426411219527 0 0.00066450265175652394 -0.011343687285310685 0 0.001311341008915964 -0.011956368291923276 0 0.0010579073949099822 -0.010955072616593634 0 0.0015856260175465722 -0.011134720383396173 0 0.00066450265175652394 -0.011343687285310685 0 0.00066450265175652394 -0.011343687285310685 0 0.001311341008915964 -0.011956368291923276 0 0.0004435642171967818 -0.011950637827473078 0 0.0014279289525315137 -0.013306401014786747 0 0.0020257497251992889 -0.01274331874305684 0 0.00070283371275462977 -0.012700580236943888 0 0.0020123318824350062 -0.012664613357347592 0 0.00078735861910951229 -0.012699225040628625 0 0.001311341008915964 -0.011956368291923276 0 0.00070283371275462977 -0.012700580236943888 0 0.0004435642171967818 -0.011950637827473078 0 0.0018320675165067531 -0.012683019337605085 0 0.001311341008915964 -0.011956368291923276 0 0.00070283371275462977 -0.012700580236943888 0 0.00070283371275462977 -0.012700580236943888 0 -0.00036707085736387152 -0.012539156875055177 0 0.00021436801851893261 -0.013305664334372519 0 0.00070283371275462977 -0.012700580236943888 0 -0.00036707085736387152 -0.012539156875055177 0 0.0004435642171967818 -0.011950637827473078 0 -0.00036707085736387152 -0.012539156875055177 0 -0.00017130478774480916 -0.013665742442842735 0 0.00021436801851893261 -0.013305664334372519 0 0.0012057961629298752 -0.010031350746850579 0 0.0012104432707735115 -0.010355558798713773 0 0.0010876467878666465 -0.010163583471104652 0 0.00013584573848949083 -0.011115917645621816 0 -0.00036707085736387152 -0.012539156875055177 0 0.0004435642171967818 -0.011950637827473078 0 0.00066215481688063418 -0.01063354957563019 0 0.00047737002897647613 -0.011345689717128224 0 0.00013584573848949083 -0.011115917645621816 0 0.00066450265175652394 -0.011343687285310685 0 0.0004435642171967818 -0.011950637827473078 0 0.0010324993557596432 -0.0099689714059726896 0 0.0010876467878666465 -0.010163583471104652 0 0.00097217795193128083 -0.010154976385411317 0 0.0010324993557596432 -0.0099689714059726896 0 0.0012057961629298752 -0.010031350746850579 0 0.0010876467878666465 -0.010163583471104652 0 0.0010876467878666465 -0.010163583471104652 0 0.0010227080809263587 -0.010326564030976223 0 0.00097217795193128083 -0.010154976385411317 0 0.0012104432707735115 -0.010355558798713773 0 0.0010876467878666465 -0.010163583471104652 0 0.0010227080809263587 -0.010326564030976223 0 0.0012104432707735115 -0.010355558798713773 0 0.0010227080809263587 -0.010326564030976223 0 0.0010785024995458802 -0.010474658250811449 0 0.0010227080809263587 -0.010326564030976223 0 0.0010785024995458802 -0.010474658250811449 0 0.00091167535429542332 -0.01049292901333794 0 0.0012104432707735115 -0.010355558798713773 0 0.0010785024995458802 -0.010474658250811449 0 0.0011746873768150744 -0.010717855284933603 0 -0.0020899069663870887 -0.01363711851418822 0 -0.0017130691799694168 -0.013757375430166804 0 -0.0019334763400361478 -0.013751568955019272 0 -0.00024278020037181973 -0.013015353572643754 0 -0.00055180598702046888 -0.012000298873603817 0 0.0010785024995458802 -0.010474658250811449 0 0.0011746873768150744 -0.010717855284933603 0 0.00091167535429542332 -0.01049292901333794 0 -0.00036707085736387152 -0.012539156875055177 0 -0.00017130478774480916 -0.013665742442842735 0 -0.00070941494887913055 -0.014203519417193196 0 0.00047737002897647613 -0.011345689717128224 0 -0.00024278020037181973 -0.013015353572643754 0 -0.00017130478774480916 -0.013665742442842735 0 0.00021436801851893261 -0.013305664334372519 0 0.0002370545425994354 -0.013951851860157792 0 -0.00017130478774480916 -0.013665742442842735 0 0.0002370545425994354 -0.013951851860157792 0 -0.00010432826656087032 -0.014291200522053451 0 0.0002370545425994354 -0.013951851860157792 0 -0.00010432826656087032 -0.014291200522053451 0 0.00024746118619622102 -0.014439803337508101 0 -0.00017130478774480916 -0.013665742442842735 0 -0.00010432826656087032 -0.014291200522053451 0 -0.00070941494887913055 -0.014203519417193196 0 -0.0015380205091482034 -0.014242718082077489 0 -0.0009719396489086446 -0.015299931905802049 0 -0.00160797299763373 -0.016124812603654524 0 -0.00024278020037181973 -0.013015353572643754 0 -0.00050793339564690664 -0.013629888173354152 0 0.00013092977889974728 -0.015089989537052663 0 -0.0014891747326775282 -0.013749610792133217 0 -0.0015380205091482034 -0.014242718082077489 0 0.00013092977889974728 -0.015089989537052663 0 -0.0015380205091482034 -0.014242718082077489 0 -0.0009719396489086446 -0.015299931905802049 0 0.00013092977889974728 -0.015089989537052663 0 -0.00010432826656087032 -0.014291200522053451 0 0.00024746118619622102 -0.014439803337508101 0 -4.3019643794138289e-05 -0.014971647896528271 0 -0.00024278020037181973 -0.013015353572643754 0 0.00013092977889974728 -0.015089989537052663 0 -0.00010432826656087032 -0.014291200522053451 0 -0.00070941494887913055 -0.014203519417193196 0 0.00013092977889974728 -0.015089989537052663 0 -0.0009719396489086446 -0.015299931905802049 0 -0.00039936019182210667 -0.016265121340691389 0 -0.0020823312833980799 -0.013810049602079561 0 -0.0023376837684798333 -0.013941720109752873 0 -0.0020899069663870887 -0.01363711851418822 0 -0.0017569317410429885 -0.012817083334920152 0 -0.0021775920705030534 -0.012373858593763691 0 -0.0020899069663870887 -0.01363711851418822 0 -0.0015380205091482034 -0.014242718082077489 0 -0.00160797299763373 -0.016124812603654524 0 -0.0020899069663870887 -0.01363711851418822 0 -0.0021775920705030534 -0.012373858593763691 0 -0.0028261693433304829 -0.012168387413319682 0 -0.0020899069663870887 -0.01363711851418822 0 -0.0017130691799694168 -0.013757375430166804 0 -0.0015380205091482034 -0.014242718082077489 0 -0.0012954466569070949 -0.013037593415833699 0 -0.0017569317410429885 -0.012817083334920152 0 -0.0017357691480543917 -0.013456557809589563 0 -0.0020899069663870887 -0.01363711851418822 0 -0.0017569317410429885 -0.012817083334920152 0 -0.0017357691480543917 -0.013456557809589563 0 -0.0017569317410429885 -0.012817083334920152 0 -0.0013653432433721473 -0.012510978134337098 0 -0.0018240923625881084 -0.011957171254008431 0 -0.0012954466569070949 -0.013037593415833699 0 -0.0017569317410429885 -0.012817083334920152 0 -0.0013653432433721473 -0.012510978134337098 0 -0.0012954466569070949 -0.013037593415833699 0 -0.0013653432433721473 -0.012510978134337098 0 -0.00094868676301339326 -0.012679865484489078 0 -0.0013653432433721473 -0.012510978134337098 0 -0.00094868676301339326 -0.012679865484489078 0 -0.00098619804174902219 -0.011975268334187182 0 -0.00094868676301339326 -0.012679865484489078 0 -0.00028663515863730727 -0.012683235855311586 0 -0.00098619804174902219 -0.011975268334187182 0 -0.00094868676301339326 -0.012679865484489078 0 -0.0007316896724660917 -0.013193089765844877 0 -0.00028663515863730727 -0.012683235855311586 0 -0.0012954466569070949 -0.013037593415833699 0 -0.00094868676301339326 -0.012679865484489078 0 -0.0007316896724660917 -0.013193089765844877 0 -0.0012954466569070949 -0.013037593415833699 0 -0.0007316896724660917 -0.013193089765844877 0 -0.0010219341772925688 -0.013661900393883614 0 -0.0007316896724660917 -0.013193089765844877 0 -0.0010219341772925688 -0.013661900393883614 0 -0.00020441590612466369 -0.013871323882040768 0 -0.0010219341772925688 -0.013661900393883614 0 -0.0017357691480543917 -0.013456557809589563 0 -0.0019334763400361478 -0.013751568955019272 0 -0.0012954466569070949 -0.013037593415833699 0 -0.0010219341772925688 -0.013661900393883614 0 -0.0017357691480543917 -0.013456557809589563 0 -0.0020899069663870887 -0.01363711851418822 0 -0.0017357691480543917 -0.013456557809589563 0 -0.0019334763400361478 -0.013751568955019272 0 0.0010227080809263587 -0.010326564030976223 0 0.00091167535429542332 -0.01049292901333794 0 0.0008706112875273732 -0.010285634889513347 0 0.00091167535429542332 -0.01049292901333794 0 0.0008706112875273732 -0.010285634889513347 0 0.0006981717245266387 -0.010299164272704888 0 -0.00055180598702046888 -0.012000298873603817 0 -2.5590406514076627e-06 -0.012573435334327242 0 0.00082651463605499739 -0.01002566744151305 0 0.0010324993557596432 -0.0099689714059726896 0 0.00097217795193128083 -0.010154976385411317 0 0.00082651463605499739 -0.01002566744151305 0 0.0008706112875273732 -0.010285634889513347 0 0.00097217795193128083 -0.010154976385411317 0 0.00082651463605499739 -0.01002566744151305 0 0.0008706112875273732 -0.010285634889513347 0 0.0006981717245266387 -0.010299164272704888 0 0.0010227080809263587 -0.010326564030976223 0 0.0008706112875273732 -0.010285634889513347 0 0.00097217795193128083 -0.010154976385411317 0 0.00082651463605499739 -0.01002566744151305 0 0.00065654152439021405 -0.010087033684064968 0 0.0006981717245266387 -0.010299164272704888 0 0.00065654152439021405 -0.010087033684064968 0 0.0006981717245266387 -0.010299164272704888 0 0.00045297540263991175 -0.010120451146298269 0 -0.0010219341772925688 -0.013661900393883614 0 -0.00087654129727621005 -0.014434300830349796 0 -0.00020441590612466369 -0.013871323882040768 0 -0.0010219341772925688 -0.013661900393883614 0 -0.0019334763400361478 -0.013751568955019272 0 -0.00087654129727621005 -0.014434300830349796 0 -0.00087654129727621005 -0.014434300830349796 0 -3.5884276481055516e-05 -0.014941096197431737 0 -0.00020441590612466369 -0.013871323882040768 0 -0.00030736797894037577 -0.011188131756418378 0 -0.00024064261764545811 -0.011098942746549132 0 -0.00034069467172494628 -0.011052807529683156 0 0.00019937480990358608 -0.01103338431544537 0 -0.00027729823047278342 -0.012916496034392627 0 -2.5590406514076627e-06 -0.012573435334327242 0 0.00019937480990358608 -0.01103338431544537 0 0.00034407668475969352 -0.0090442473755592504 0 0.00044459781868406273 -0.0090218929758885853 0 0.00042776817051393097 -0.0089399490543814117 0 0.00019937480990358608 -0.01103338431544537 0 4.7940309232278447e-05 -0.010038104651859848 0 0.00052267223849250348 -0.0090802310157854591 0 0.00043470783779543676 -0.0090983819280376268 0 0.00044459781868406273 -0.0090218929758885853 0 0.00043470783779543676 -0.0090983819280376268 0 0.00034407668475969352 -0.0090442473755592504 0 0.00044459781868406273 -0.0090218929758885853 0 0.00044459781868406273 -0.0090218929758885853 0 0.00042776817051393097 -0.0089399490543814117 0 0.00051965531616608761 -0.0089716996689886783 0 -0.00024064261764545811 -0.011098942746549132 0 -0.00023722349282394585 -0.011032877518211037 0 -0.00034069467172494628 -0.011052807529683156 0 -0.00024064261764545811 -0.011098942746549132 0 -0.00023722349282394585 -0.011032877518211037 0 -0.00017203014594391276 -0.01100832076498197 0 4.7940309232278447e-05 -0.010038104651859848 0 0.00032532298934641785 -0.008866363373775556 0 -0.00023722349282394585 -0.011032877518211037 0 -0.00021967307729066452 -0.010970161450049219 0 -0.00017203014594391276 -0.01100832076498197 0 -0.00021967307729066452 -0.010970161450049219 0 -0.00028767180857597834 -0.010999989447357165 0 -0.0003226233206965776 -0.010936951257434416 0 -0.00023722349282394585 -0.011032877518211037 0 -0.00028767180857597834 -0.010999989447357165 0 -0.00034069467172494628 -0.011052807529683156 0 -0.00023722349282394585 -0.011032877518211037 0 -0.00021967307729066452 -0.010970161450049219 0 -0.00028767180857597834 -0.010999989447357165 0 -0.00027729823047278342 -0.012916496034392627 0 -0.00036324041583349543 -0.011666608327043441 0 -0.0007316896724660917 -0.013193089765844877 0 -0.00020441590612466369 -0.013871323882040768 0 -0.00028663515863730727 -0.012683235855311586 0 -0.00028767180857597834 -0.010999989447357165 0 -0.00034069467172494628 -0.011052807529683156 0 -0.0003226233206965776 -0.010936951257434416 0 -0.00034069467172494628 -0.011052807529683156 0 -0.0003226233206965776 -0.010936951257434416 0 -0.00038356557793531142 -0.010918238653459712 0 -0.00038356557793531142 -0.010918238653459712 0 -0.00032683924904200121 -0.010905737379341527 0 -0.00041217912221679076 -0.010863638633691731 0 -0.0003226233206965776 -0.010936951257434416 0 -0.00038356557793531142 -0.010918238653459712 0 -0.00032683924904200121 -0.010905737379341527 0 8.2201182058077037e-05 -0.010397976207420879 0 -0.00033889827685919108 -0.011017874235696118 0 -0.00024690775349558248 -0.010962169767862471 0 -0.0003226233206965776 -0.010936951257434416 0 -0.00032683924904200121 -0.010905737379341527 0 8.2201182058077037e-05 -0.010397976207420879 0 -0.00032857009891166969 -0.010949485707541532 0 -0.00022138598919797673 -0.010937725726127652 0 -0.00032683924904200121 -0.010905737379341527 0 -0.000264041520124644 -0.010904708167202659 0 -0.00022138598919797673 -0.010937725726127652 0 -0.000264041520124644 -0.010904708167202659 0 -0.00016859758747531399 -0.010934403884503601 0 -2.5511057519921372e-05 -0.011471825737163018 0 0.00081795602313991208 -0.0082707516924882575 0 9.8078652549664239e-05 -0.011071950912157767 0 0.00049771469967299631 -0.01111403394108201 0 0.00035897101697234121 -0.010897611133408147 0 9.8078652549664239e-05 -0.011071950912157767 0 0.00010192106307560762 -0.010741280055281133 0 -0.00038936576995700958 -0.010775550093169002 0 0.00010192106307560762 -0.010741280055281133 0 0.00029853588609724696 -0.010423046568592536 0 0.00047630835180003295 -0.010651773955866365 0 0.00010192106307560762 -0.010741280055281133 0 0.00047630835180003295 -0.010651773955866365 0 0.00035897101697234121 -0.010897611133408147 0 9.8078652549664239e-05 -0.011071950912157767 0 0.00010192106307560762 -0.010741280055281133 0 0.00035897101697234121 -0.010897611133408147 0 -0.00032683924904200121 -0.010905737379341527 0 -0.000264041520124644 -0.010904708167202659 0 -0.00038936576995700958 -0.010775550093169002 0 -0.00032683924904200121 -0.010905737379341527 0 -0.00041217912221679076 -0.010863638633691731 0 -0.00038936576995700958 -0.010775550093169002 0 0.00010192106307560762 -0.010741280055281133 0 -0.00038936576995700958 -0.010775550093169002 0 -0.00011392192941001188 -0.010576597187826175 0 -2.5511057519921372e-05 -0.011471825737163018 0 -0.00043737764992520081 -0.010606770139324248 0 -0.00041217912221679076 -0.010863638633691731 0 -0.00038936576995700958 -0.010775550093169002 0 -0.00056367941366760709 -0.010851321816039807 0 -0.00038936576995700958 -0.010775550093169002 0 -0.00011392192941001188 -0.010576597187826175 0 -0.00034031384228530977 -0.010296135076194271 0 -0.00038936576995700958 -0.010775550093169002 0 -0.00034031384228530977 -0.010296135076194271 0 -0.00056367941366760709 -0.010851321816039807 0 -0.00011392192941001188 -0.010576597187826175 0 -0.00034031384228530977 -0.010296135076194271 0 -0.00012129463395014557 -0.010072833902495859 0 -0.00011392192941001188 -0.010576597187826175 0 -0.00012129463395014557 -0.010072833902495859 0 0.0001594938937076338 -0.0096507885031585847 0 -0.00011392192941001188 -0.010576597187826175 0 0.00029853588609724696 -0.010423046568592536 0 0.00039441081942169894 -0.0098150551963744077 0 -9.4839388208470298e-05 -0.010482737578098875 0 0.0001975057566750892 -0.0098510790450219935 0 0.00010192106307560762 -0.010741280055281133 0 -0.00011392192941001188 -0.010576597187826175 0 0.00029853588609724696 -0.010423046568592536 0 -0.00012129463395014557 -0.010072833902495859 0 -0.00016896502493542558 -0.0098765503800567079 0 0.0001594938937076338 -0.0096507885031585847 0 -3.2228501320584338e-07 -0.0088535925107392551 0 -0.00016896502493542558 -0.0098765503800567079 0 -7.7537121552715858e-07 -0.010531349532646079 0 -3.2228501320584338e-07 -0.0088535925107392551 0 -0.00016896502493542558 -0.0098765503800567079 0 0.0001594938937076338 -0.0096507885031585847 0 -0.00016896502493542558 -0.0098765503800567079 0 -7.7537121552715858e-07 -0.010531349532646079 0 -0.00020819821613523185 -0.010739416287392303 0 -0.00034031384228530977 -0.010296135076194271 0 -0.00012129463395014557 -0.010072833902495859 0 -0.00016896502493542558 -0.0098765503800567079 0 -0.00027792534167717987 -0.010026539053338836 0 -0.00033575580088870889 -0.010203305645660658 0 -0.00034031384228530977 -0.010296135076194271 0 -0.00016896502493542558 -0.0098765503800567079 0 -0.00060548045786386741 -0.0099250549838151066 0 -0.00060548045786386741 -0.0099250549838151066 0 -0.0010502233106697335 -0.010474410290015574 0 -0.00063078900605077217 -0.010366441920398711 0 -0.00034031384228530977 -0.010296135076194271 0 -0.00060548045786386741 -0.0099250549838151066 0 -0.00063078900605077217 -0.010366441920398711 0 -0.00060548045786386741 -0.0099250549838151066 0 -0.0014599541996916077 -0.010069674669877406 0 -0.0010502233106697335 -0.010474410290015574 0 -0.00033575580088870889 -0.010203305645660658 0 -0.00067729606255753552 -0.011484069624941714 0 -7.7537121552715858e-07 -0.010531349532646079 0 -0.00020819821613523185 -0.010739416287392303 0 1.2004370421914369e-06 -0.012203820558848433 0 -0.00020819821613523185 -0.010739416287392303 0 1.2004370421914369e-06 -0.012203820558848433 0 0.00061423956355773535 -0.010541572460967867 0 6.1320467465865316e-07 -0.012208020774489617 0 -0.00067729606255753552 -0.011484069624941714 0 1.4983685613623127e-06 -0.012209474044756505 0 0.00031744876061250377 -0.014035365863894875 0 -0.00013980315012994841 -0.013704785483237187 0 -0.00067729606255753552 -0.011484069624941714 0 -0.0013214411130342985 -0.012503399415356864 0 -0.0016268209604765652 -0.010618249243525826 0 -0.0017381474286367207 -0.011295788493762166 0 -0.0024104988008758379 -0.010870197419509404 0 -0.001695405944287085 -0.01083365250364266 0 -0.0010502233106697335 -0.010474410290015574 0 -0.0011853035522742859 -0.011241955497839729 0 -0.00067729606255753552 -0.011484069624941714 0 -0.0016343110242477165 -0.010961826733662737 0 -0.0014599541996916077 -0.010069674669877406 0 -0.001695405944287085 -0.01083365250364266 0 -0.0010502233106697335 -0.010474410290015574 0 -0.0010502233106697335 -0.010474410290015574 0 -0.00063078900605077217 -0.010366441920398711 0 -0.00056367941366760709 -0.010851321816039807 0 -0.00034031384228530977 -0.010296135076194271 0 -0.00063078900605077217 -0.010366441920398711 0 -0.00056367941366760709 -0.010851321816039807 0 -0.0010502233106697335 -0.010474410290015574 0 -0.00056367941366760709 -0.010851321816039807 0 -0.0011853035522742859 -0.011241955497839729 0 -0.00056367941366760709 -0.010851321816039807 0 -0.0011853035522742859 -0.011241955497839729 0 -0.00098619804174902219 -0.011975268334187182 0 -0.00028663515863730727 -0.012683235855311586 0 -0.00056367941366760709 -0.010851321816039807 0 -0.00098619804174902219 -0.011975268334187182 0 -0.00036324041583349543 -0.011666608327043441 0 -0.00054216023983763627 -0.010938259836863803 0 -0.00038356557793531142 -0.010918238653459712 0 -0.00041217912221679076 -0.010863638633691731 0 -0.00056367941366760709 -0.010851321816039807 0 -0.0013653432433721473 -0.012510978134337098 0 -0.00098619804174902219 -0.011975268334187182 0 -0.0018240923625881084 -0.011957171254008431 0 -0.0017569317410429885 -0.012817083334920152 0 -0.0018240923625881084 -0.011957171254008431 0 -0.0021775920705030534 -0.012373858593763691 0 -0.0017381474286367207 -0.011295788493762166 0 -0.0018240923625881084 -0.011957171254008431 0 -0.0023689296633970709 -0.01155220992327247 0 -0.0016343110242477165 -0.010961826733662737 0 -0.0018154406611420877 -0.011861234673634428 0 -0.001695405944287085 -0.01083365250364266 0 -0.0011853035522742859 -0.011241955497839729 0 -0.0018240923625881084 -0.011957171254008431 0 -0.0011853035522742859 -0.011241955497839729 0 -0.00098619804174902219 -0.011975268334187182 0 -0.0018240923625881084 -0.011957171254008431 0 -0.0018240923625881084 -0.011957171254008431 0 -0.0021775920705030534 -0.012373858593763691 0 -0.0023689296633970709 -0.01155220992327247 0 -0.0021775920705030534 -0.012373858593763691 0 -0.0028261693433304829 -0.012168387413319682 0 -0.0023689296633970709 -0.01155220992327247 0 -0.0028261693433304829 -0.012168387413319682 0 -0.0032108212540652428 -0.011137161161778597 0 -0.0023689296633970709 -0.01155220992327247 0 -0.00160797299763373 -0.016124812603654524 0 -0.00073541661718508312 -0.017679096039829471 0 -0.00031646929413103268 -0.017062891463483772 0 -0.0009719396489086446 -0.015299931905802049 0 -0.00160797299763373 -0.016124812603654524 0 -0.00039936019182210667 -0.016265121340691389 0 -0.00160797299763373 -0.016124812603654524 0 -0.00039936019182210667 -0.016265121340691389 0 -0.00031646929413103268 -0.017062891463483772 0 -0.0023376837684798333 -0.013941720109752873 0 -0.00075124819631217283 -0.015035109767797943 0 -0.00075124819631217283 -0.015035109767797943 0 -0.0013214411130342985 -0.012503399415356864 0 -0.0032108212540652428 -0.011137161161778597 0 -0.0023689296633970709 -0.01155220992327247 0 -0.0024104988008758379 -0.010870197419509404 0 -0.0017381474286367207 -0.011295788493762166 0 -0.0023689296633970709 -0.01155220992327247 0 -0.0024104988008758379 -0.010870197419509404 0 0.00031744876061250377 -0.014035365863894875 0 -0.00013817933584380767 -0.014129902550989675 0 -0.00013980315012994841 -0.013704785483237187 0 -0.00013817933584380767 -0.014129902550989675 0 -0.00013980315012994841 -0.013704785483237187 0 -0.00012791449849517051 -0.014101649720722703 0 -1.4817581089046998e-06 -0.014127676326136417 0 -0.00013980315012994841 -0.013704785483237187 0 -0.00012791449849517051 -0.014101649720722703 0 1.4983685613623127e-06 -0.012209474044756505 0 -1.4817581089046998e-06 -0.014127676326136417 0 -0.00013980315012994841 -0.013704785483237187 0 -1.4817581089046998e-06 -0.014127676326136417 0 -3.0693809675869495e-05 -0.014455358352153398 0 1.4438757369208427e-06 -0.015980779358698752 0 -1.4817581089046998e-06 -0.014127676326136417 0 -0.00012791449849517051 -0.014101649720722703 0 -3.0693809675869495e-05 -0.014455358352153398 0 -0.00075124819631217283 -0.015035109767797943 0 0.00023113569431468256 -0.016101931088908769 0 -0.00010820600706641317 -0.014124249592434305 0 -0.00012791449849517051 -0.014101649720722703 0 -3.0693809675869495e-05 -0.014455358352153398 0 -0.00010820600706641317 -0.014124249592434305 0 -0.00013817933584380767 -0.014129902550989675 0 -0.00012791449849517051 -0.014101649720722703 0 0.00019346911596149568 -0.017552137190898251 0 0.00041000114582363464 -0.017439266272301999 0 0.0001882385434285762 -0.017554539486382605 0 0.00041000114582363464 -0.017439266272301999 0 3.6694163525801506e-05 -0.01708795903045331 0 3.9167309585071391e-05 -0.017714710105541813 0 0.00041000114582363464 -0.017439266272301999 0 3.9167309585071391e-05 -0.017714710105541813 0 0.0001882385434285762 -0.017554539486382605 0 0.00041000114582363464 -0.017439266272301999 0 3.6694163525801506e-05 -0.01708795903045331 0 1.1377126206255241e-06 -0.015987070753298131 0 0.00023113569431468256 -0.016101931088908769 0 -1.1042522554511061e-06 -0.015846062215113834 0 3.6694163525801506e-05 -0.01708795903045331 0 1.1377126206255241e-06 -0.015987070753298131 0 -1.8750754474946936e-05 -0.017547132646470665 0 -3.0131876416971773e-07 -0.017968574099465996 0 1.1377126206255241e-06 -0.015987070753298131 0 -1.8750754474946936e-05 -0.017547132646470665 0 3.6694163525801506e-05 -0.01708795903045331 0 -1.8750754474946936e-05 -0.017547132646470665 0 3.9167309585071391e-05 -0.017714710105541813 0 0.00019493701632601178 -0.018487675213186821 0 -1.8750754474946936e-05 -0.017547132646470665 0 3.9167309585071391e-05 -0.017714710105541813 0 0.00058666146608403588 -0.017372480636129835 0 3.9167309585071391e-05 -0.017714710105541813 0 0.00034825757433038591 -0.017137393705180772 0 3.9167309585071391e-05 -0.017714710105541813 0 0.00011318741040604706 -0.017350436446023482 0 0.00034825757433038591 -0.017137393705180772 0 0.00019346911596149568 -0.017552137190898251 0 0.0001882385434285762 -0.017554539486382605 0 0.00011318741040604706 -0.017350436446023482 0 -0.00075124819631217283 -0.015035109767797943 0 3.5158169307881169e-05 -0.017602057001153897 0 3.9167309585071391e-05 -0.017714710105541813 0 0.0001882385434285762 -0.017554539486382605 0 0.00011318741040604706 -0.017350436446023482 0 -0.00073541661718508312 -0.017679096039829471 0 -0.00031646929413103268 -0.017062891463483772 0 0.00011318741040604706 -0.017350436446023482 0 -0.00031646929413103268 -0.017062891463483772 0 0.00011318741040604706 -0.017350436446023482 0 0.00021901374023377637 -0.016648357443724851 0 -0.00036419084398126229 -0.0163139686357038 0 0.0010293123470251305 -0.01610986097658865 0 -0.00039936019182210667 -0.016265121340691389 0 -0.00031646929413103268 -0.017062891463483772 0 0.00021901374023377637 -0.016648357443724851 0 0.00011318741040604706 -0.017350436446023482 0 0.00034825757433038591 -0.017137393705180772 0 0.00021901374023377637 -0.016648357443724851 0 0.00067602016394166281 -0.0166833914277673 0 0.00034825757433038591 -0.017137393705180772 0 0.00021901374023377637 -0.016648357443724851 0 0.0033649166203021091 -0.0027238222742047404 0 0.0028117583096975863 -0.0028467018237689559 0 0.0031632935612128815 -0.0023679860887336449 0 0.0033649166203021091 -0.0027238222742047404 0 0.0028117583096975863 -0.0028467018237689559 0 0.0031046767123414035 -0.0031749776644268372 0 0.0033649166203021091 -0.0027238222742047404 0 0.003811754417159985 -0.0028965635074158004 0 0.0034899716470259594 -0.0031198713963655872 0 0.0028117583096975863 -0.0028467018237689559 0 0.0026745461347404999 -0.0023985540672889589 0 0.0024190761506026046 -0.0027409211860695611 0 0.0028117583096975863 -0.0028467018237689559 0 0.0026745461347404999 -0.0023985540672889589 0 0.0031632935612128815 -0.0023679860887336449 0 0.0026745461347404999 -0.0023985540672889589 0 0.0031632935612128815 -0.0023679860887336449 0 0.0031428969477226495 -0.0017978780879577675 0 0.0026745461347404999 -0.0023985540672889589 0 0.0031428969477226495 -0.0017978780879577675 0 0.0027839257292615487 -0.001608558204421134 0 0.0033649166203021091 -0.0027238222742047404 0 0.0031632935612128815 -0.0023679860887336449 0 0.0036535193762818083 -0.0021650774343571232 0 0.0031632935612128815 -0.0023679860887336449 0 0.0036535193762818083 -0.0021650774343571232 0 0.0031428969477226495 -0.0017978780879577675 0 0.0035872217317665348 0.0022881930798969406 0 0.0044438439944908164 0.00029425058642709647 0 0.0043430620454619441 0.002904604169003195 0 0.0045708907627030008 0.004218326706300477 0 0.0057111547838626662 0.0016768017815702398 0 0.003494989904483423 -0.00061993460172296523 0 0.0031448920020747174 7.8292346850729286e-06 0 0.0032768421565498649 -0.00097696430792763205 0 0.0026329274002514073 0.00019441647495167433 0 0.0031448920020747174 7.8292346850729286e-06 0 0.0032768421565498649 -0.00097696430792763205 0 0.0045992617437105397 0.0018585965717531708 0 0.0043430620454619441 0.002904604169003195 0 0.0057111547838626662 0.0016768017815702398 0 0.0023079094222359701 0.002590555272975123 0 0.0020927190465230066 0.0035050725915300161 0 0.002197924856383524 0.000657091289346757 0 0.0020169527712697762 0.00023351896736736638 0 0.0011864873076847017 0.0014417908246916018 0 0.0045992617437105397 0.0018585965717531708 0 0.0043430620454619441 0.002904604169003195 0 0.0030608111145990881 0.0029858038982351017 0 0.0035202710433763144 0.0011365731484949796 0 0.0020927190465230066 0.0035050725915300161 0 0.0043430620454619441 0.002904604169003195 0 0.0037530116804040197 0.0037884650850506028 0 0.0030608111145990881 0.0029858038982351017 0 0.0043430620454619441 0.002904604169003195 0 0.0037530116804040197 0.0037884650850506028 0 0.0045708907627030008 0.004218326706300477 0 0.0037530116804040197 0.0037884650850506028 0 0.0045708907627030008 0.004218326706300477 0 0.0037272978732304971 0.0047607684851983566 0 0.0037530116804040197 0.0037884650850506028 0 0.0037272978732304971 0.0047607684851983566 0 0.0030440508995893869 0.0044348653986706751 0 0.0035724206406708685 -0.0014811406550525 0 0.0034896549414515231 -0.00072775735711583115 0 0.0033649166203021091 -0.0027238222742047404 0 0.0036535193762818083 -0.0021650774343571232 0 0.003811754417159985 -0.0028965635074158004 0 0.003494989904483423 -0.00061993460172296523 0 0.0031448920020747174 7.8292346850729286e-06 0 0.0032500007832480891 0.00043997912097385161 0 0.0026329274002514073 0.00019441647495167433 0 0.0031448920020747174 7.8292346850729286e-06 0 0.0033348753704959969 0.00053897015994732345 0 0.0034110815104715251 0.00017823739387500844 0 0.0034896549414515231 -0.00072775735711583115 0 0.0034896549414515231 -0.00072775735711583115 0 0.0037922071516646228 -0.0015061142988494292 0 0.0036534228644283886 -0.00066571665540777949 0 0.0040089934321332951 0.00097251600910797835 0 0.003034413311045989 0.0016246850317375109 0 0.003811754417159985 -0.0028965635074158004 0 0.0036741720314443574 -0.0034343812950495775 0 0.0034899716470259594 -0.0031198713963655872 0 0.0033348753704959969 0.00053897015994732345 0 0.0026325093283900694 0.0013215709497119419 0 0.0029637567040898443 0.0021624186657803299 0 0.0034896549414515231 -0.00072775735711583115 0 0.0029773896357611208 0.0020653961085670774 0 0.0026329274002514073 0.00019441647495167433 0 0.0033348753704959969 0.00053897015994732345 0 0.0026325093283900694 0.0013215709497119419 0 0.0045708907627030008 0.004218326706300477 0 0.0037272978732304971 0.0047607684851983566 0 0.0034097956855784674 0.0068586369880797304 0 0.0026329274002514073 0.00019441647495167433 0 0.0026325093283900694 0.0013215709497119419 0 0.0017871086174111677 0.0019113364560488187 0 0.0035872217317665348 0.0022881930798969406 0 0.0026513685426263443 0.0041104499580434098 0 0.0037272978732304971 0.0047607684851983566 0 0.0034097956855784674 0.0068586369880797304 0 0.0032450270144298052 0.0053116969829437059 0 0.0026325093283900694 0.0013215709497119419 0 0.0023608386471423285 0.0020314516802591122 0 0.0017871086174111677 0.0019113364560488187 0 0.0026325093283900694 0.0013215709497119419 0 0.0023608386471423285 0.0020314516802591122 0 0.0029637567040898443 0.0021624186657803299 0 0.0023608386471423285 0.0020314516802591122 0 0.0024029176470745607 0.0023656940569452547 0 0.0029637567040898443 0.0021624186657803299 0 0.0023347633659142213 0.0028646228211303085 0 0.0024029176470745607 0.0023656940569452547 0 0.0029637567040898443 0.0021624186657803299 0 0.0019436888426784373 0.0027365753152182324 0 0.0023608386471423285 0.0020314516802591122 0 0.0017871086174111677 0.0019113364560488187 0 0.0019436888426784373 0.0027365753152182324 0 0.0023608386471423285 0.0020314516802591122 0 0.0024029176470745607 0.0023656940569452547 0 0.0019436888426784373 0.0027365753152182324 0 0.0023347633659142213 0.0028646228211303085 0 0.0024029176470745607 0.0023656940569452547 0 0.0043344319503241307 0.0025622577028920337 0 0.0040089934321332951 0.00097251600910797835 0 0.0035706972362833703 0.0018960519644035207 0 0.0036490485533385146 2.9555638518006325e-05 0 0.0037922071516646228 -0.0015061142988494292 0 0.0040089934321332951 0.00097251600910797835 0 0.003034413311045989 0.0016246850317375109 0 0.0035706972362833703 0.0018960519644035207 0 0.0036453777167686206 0.0024440628936070268 0 0.003034413311045989 0.0016246850317375109 0 0.0035706972362833703 0.0018960519644035207 0 0.0042991551264580921 0.0025866438499240856 0 0.0036453777167686206 0.0024440628936070268 0 0.0035706972362833703 0.0018960519644035207 0 0.0036490485533385146 2.9555638518006325e-05 0 0.0042941098259738309 0.0019511158956129495 0 0.0033253411043803797 -0.003603568807833594 0 0.0031046767123414035 -0.0031749776644268372 0 0.002927676688187773 -0.0037080916329982898 0 0.0031464655987819006 -0.003932166725190942 0 0.0035503543017057332 -0.0039526185915525281 0 0.0033253411043803797 -0.003603568807833594 0 0.0035503543017057332 -0.0039526185915525281 0 0.0036741720314443574 -0.0034343812950495775 0 0.0033253411043803797 -0.003603568807833594 0 0.0031464655987819006 -0.003932166725190942 0 0.0033253411043803797 -0.003603568807833594 0 0.002927676688187773 -0.0037080916329982898 0 0.0033253411043803797 -0.003603568807833594 0 0.0031046767123414035 -0.0031749776644268372 0 0.0034899716470259594 -0.0031198713963655872 0 0.0036741720314443574 -0.0034343812950495775 0 0.0033253411043803797 -0.003603568807833594 0 0.0034899716470259594 -0.0031198713963655872 0 0.0033649166203021091 -0.0027238222742047404 0 0.0031046767123414035 -0.0031749776644268372 0 0.0034899716470259594 -0.0031198713963655872 0 0.0031046767123414035 -0.0031749776644268372 0 0.0026537245604603501 -0.0032664583591992908 0 0.002927676688187773 -0.0037080916329982898 0 0.0028117583096975863 -0.0028467018237689559 0 0.0026537245604603501 -0.0032664583591992908 0 0.0024735558865089475 -0.0030036815811534537 0 0.0028117583096975863 -0.0028467018237689559 0 0.0031046767123414035 -0.0031749776644268372 0 0.0026537245604603501 -0.0032664583591992908 0 0.0027869778016943285 -0.0040844053388628078 0 0.002927676688187773 -0.0037080916329982898 0 0.0025043356225299173 -0.0037822147481639035 0 0.002927676688187773 -0.0037080916329982898 0 0.0025043356225299173 -0.0037822147481639035 0 0.0022981107277267824 -0.003418544907030167 0 0.0013177581500385242 -0.0066062401885615711 0 0.0021828907129168812 -0.0041408774228237667 0 0.0026537245604603501 -0.0032664583591992908 0 0.002927676688187773 -0.0037080916329982898 0 0.0022341317567687894 -0.0033844330494540958 0 0.0028574387717091704 -0.0035179769376887668 0 0.0021828907129168812 -0.0041408774228237667 0 0.0021961067845020672 -0.0040930289229914683 0 0.0025043356225299173 -0.0037822147481639035 0 0.0022981107277267824 -0.003418544907030167 0 0.001183909485516073 -0.0064731017471755248 0 0.0011917819795280477 -0.0064111093796870066 0 0.0011284673487001293 -0.0064298661953173684 0 0.0013177581500385242 -0.0066062401885615711 0 0.00090835380730030851 -0.007706687901830306 0 0.0006189385420425612 -0.0090637620249497744 0 0.00073233322121153167 -0.009080100499801019 0 0.00063151680260489806 -0.0089688170886311255 0 0.0011917819795280477 -0.0064111093796870066 0 0.0011284673487001293 -0.0064298661953173684 0 0.0011283121454322524 -0.0064402019814285985 0 0.0021828907129168812 -0.0041408774228237667 0 0.0013915771780949795 -0.0046204515782876428 0 0.0011917819795280477 -0.0064111093796870066 0 0.0011283121454322524 -0.0064402019814285985 0 0.0011432996878631282 -0.0064029477130084118 0 0.0019864953981023089 -0.0030545112305350773 0 0.002232367408301393 -0.0033763911598764964 0 0.0016702623096871165 -0.0030587567708196825 0 0.0019864953981023089 -0.0030545112305350773 0 0.0022614731270732599 -0.0031987382445729851 0 0.0022357446608355404 -0.002959076442567498 0 0.0022614731270732599 -0.0031987382445729851 0 0.0024735558865089475 -0.0030036815811534537 0 0.0022357446608355404 -0.002959076442567498 0 0.0026537245604603501 -0.0032664583591992908 0 0.0022614731270732599 -0.0031987382445729851 0 0.0024735558865089475 -0.0030036815811534537 0 0.0026537245604603501 -0.0032664583591992908 0 0.0022614731270732599 -0.0031987382445729851 0 0.0022341317567687894 -0.0033844330494540958 0 0.0019864953981023089 -0.0030545112305350773 0 0.0022614731270732599 -0.0031987382445729851 0 0.002232367408301393 -0.0033763911598764964 0 0.0022616757116838923 -0.0034815568202987085 0 0.0021828907129168812 -0.0041408774228237667 0 0.00052267223849250348 -0.0090802310157854591 0 0.00044459781868406273 -0.0090218929758885853 0 0.00051965531616608761 -0.0089716996689886783 0 0.0006189385420425612 -0.0090637620249497744 0 0.00052267223849250348 -0.0090802310157854591 0 0.00051965531616608761 -0.0089716996689886783 0 0.0006189385420425612 -0.0090637620249497744 0 0.00051965531616608761 -0.0089716996689886783 0 0.00063151680260489806 -0.0089688170886311255 0 0.0011283121454322524 -0.0064402019814285985 0 0.0011432996878631282 -0.0064029477130084118 0 0.0010352775697777593 -0.0063450893113381089 0 0.0011284673487001293 -0.0064298661953173684 0 0.0011283121454322524 -0.0064402019814285985 0 0.0011909524888609664 -0.0065443293688741515 0 0.0012323256030585146 -0.006461090083635942 0 0.00070437116450180559 -0.0065337786375600755 0 0.00042776817051393097 -0.0089399490543814117 0 0.00051965531616608761 -0.0089716996689886783 0 0.00050274100671418359 -0.0088460278278869719 0 0.00090835380730030851 -0.007706687901830306 0 0.00032532298934641785 -0.008866363373775556 0 0.00051965531616608761 -0.0089716996689886783 0 0.00063151680260489806 -0.0089688170886311255 0 0.00050274100671418359 -0.0088460278278869719 0 0.0011283121454322524 -0.0064402019814285985 0 0.0011909524888609664 -0.0065443293688741515 0 0.0011723178924511741 -0.0065486838879168499 0 0.00056723139991464509 -0.0094627538154516359 0 0.00020334456122557323 -0.0090860816237841313 0 6.6875656106008755e-05 -0.0092551122697146129 0 8.2201182058077037e-05 -0.010397976207420879 0 0.00032532298934641785 -0.008866363373775556 0 8.2201182058077037e-05 -0.010397976207420879 0 0.00081795602313991208 -0.0082707516924882575 0 0.0011909524888609664 -0.0065443293688741515 0 0.0011723178924511741 -0.0065486838879168499 0 0.001179909043957732 -0.0065600513405130925 0 0.00032532298934641785 -0.008866363373775556 0 0.00081795602313991208 -0.0082707516924882575 0 0.00070437116450180559 -0.0065337786375600755 0 0.00081795602313991208 -0.0082707516924882575 0 0.0016073858902490076 -0.0029303420154315959 0 0.0016487893428943261 -0.0029536932620823149 0 0.0015597138223619909 -0.0029303201336688227 0 0.0013915771780949795 -0.0046204515782876428 0 0.00070437116450180559 -0.0065337786375600755 0 0.0016487893428943261 -0.0029536932620823149 0 0.0015597138223619909 -0.0029303201336688227 0 0.0015595878271076713 -0.0033703466397618578 0 0.0016702623096871165 -0.0030587567708196825 0 0.0016073858902490076 -0.0029303420154315959 0 0.0015597138223619909 -0.0029303201336688227 0 0.0015597138223619909 -0.0029303201336688227 0 0.0018000545605487725 -0.0028399782455363724 0 0.0018804754922043354 -0.0023464386575574731 0 0.0016702623096871165 -0.0030587567708196825 0 0.0015597138223619909 -0.0029303201336688227 0 0.0018000545605487725 -0.0028399782455363724 0 0.0015595878271076713 -0.0033703466397618578 0 0.0010287113658596864 -0.003376973473214796 0 0.0011787047168834346 -0.003962003117285123 0 0.0015597138223619909 -0.0029303201336688227 0 0.0015595878271076713 -0.0033703466397618578 0 0.0010287113658596864 -0.003376973473214796 0 0.0015714632990902237 -0.002880873427108784 0 0.0014040426661444138 -0.002920241888818518 0 0.000548929996587039 -0.011507023293466281 0 0.00088701517564868993 -0.011131671619487457 0 0.00049771469967299631 -0.01111403394108201 0 0.00081795602313991208 -0.0082707516924882575 0 0.0013280622544687133 -0.0070748103662008699 0 9.8078652549664239e-05 -0.011071950912157767 0 0.000548929996587039 -0.011507023293466281 0 0.00049771469967299631 -0.01111403394108201 0 0.00088701517564868993 -0.011131671619487457 0 0.00049771469967299631 -0.01111403394108201 0 0.00064502855490374445 -0.010897963346696366 0 0.00049771469967299631 -0.01111403394108201 0 0.00035897101697234121 -0.010897611133408147 0 0.00064502855490374445 -0.010897963346696366 0 0.0024190761506026046 -0.0027409211860695611 0 0.0020826629637047062 -0.0027458160098233525 0 0.0022666797472690767 -0.0024229376095237999 0 0.0026745461347404999 -0.0023985540672889589 0 0.0024190761506026046 -0.0027409211860695611 0 0.0022666797472690767 -0.0024229376095237999 0 0.0028117583096975863 -0.0028467018237689559 0 0.0024735558865089475 -0.0030036815811534537 0 0.0024190761506026046 -0.0027409211860695611 0 0.0024735558865089475 -0.0030036815811534537 0 0.0024190761506026046 -0.0027409211860695611 0 0.0022357446608355404 -0.002959076442567498 0 0.0024190761506026046 -0.0027409211860695611 0 0.0022357446608355404 -0.002959076442567498 0 0.0020826629637047062 -0.0027458160098233525 0 0.0018000545605487725 -0.0028399782455363724 0 0.0020826629637047062 -0.0027458160098233525 0 0.0018804754922043354 -0.0023464386575574731 0 0.0019864953981023089 -0.0030545112305350773 0 0.0018000545605487725 -0.0028399782455363724 0 0.0020826629637047062 -0.0027458160098233525 0 0.0019864953981023089 -0.0030545112305350773 0 0.0022357446608355404 -0.002959076442567498 0 0.0020826629637047062 -0.0027458160098233525 0 0.0019864953981023089 -0.0030545112305350773 0 0.0016702623096871165 -0.0030587567708196825 0 0.0018000545605487725 -0.0028399782455363724 0 0.0020826629637047062 -0.0027458160098233525 0 0.0018804754922043354 -0.0023464386575574731 0 0.0022666797472690767 -0.0024229376095237999 0 0.0027082429564110593 -0.0020643023358879616 0 0.0017010300155383608 -0.0027256097397823707 0 0.0018804754922043354 -0.0023464386575574731 0 0.0022666797472690767 -0.0024229376095237999 0 0.0023435260809232146 -0.0018906639563333937 0 0.0026745461347404999 -0.0023985540672889589 0 0.0022666797472690767 -0.0024229376095237999 0 0.0023435260809232146 -0.0018906639563333937 0 0.0017010300155383608 -0.0027256097397823707 0 0.0024506768284431424 -0.0025129922046956505 0 0.00041577634121876589 -0.0039506555385011308 0 0.0011787047168834346 -0.003962003117285123 0 0.00072818411328904199 -0.004557558540629913 0 0.0014040426661444138 -0.002920241888818518 0 0.0017010300155383608 -0.0027256097397823707 0 0.0010287113658596864 -0.003376973473214796 0 0.00041577634121876589 -0.0039506555385011308 0 0.0011787047168834346 -0.003962003117285123 0 0.0012705239188570048 -0.01070339266657269 0 0.0012898100238184073 -0.010117952414944623 0 0.0016524921916593442 -0.010229245388282895 0 0.001125332419861136 -0.0074821943039435667 0 0.0013124611203691864 -0.0065435746783765927 0 0.0012898100238184073 -0.010117952414944623 0 0.0016524921916593442 -0.010229245388282895 0 0.0014182791727550667 -0.0097939858956307396 0 0.0017649830013160062 -0.0041028193647647676 0 0.0017076169872218669 -0.0040153216320203168 0 0.0018574834462007398 -0.0040199431871371901 0 0.0017076169872218669 -0.0040153216320203168 0 0.0017751046281657197 -0.0039264525419536976 0 0.0018574834462007398 -0.0040199431871371901 0 0.0013124611203691864 -0.0065435746783765927 0 0.0014600163957011669 -0.0052551158424926281 0 0.0017010300155383608 -0.0027256097397823707 0 0.0013124611203691864 -0.0065435746783765927 0 0.00047630835180003295 -0.010651773955866365 0 0.00035897101697234121 -0.010897611133408147 0 0.00064502855490374445 -0.010897963346696366 0 0.00047630835180003295 -0.010651773955866365 0 0.00064502855490374445 -0.010897963346696366 0 0.00089109859971750471 -0.010637203038648946 0 0.0013280622544687133 -0.0070748103662008699 0 0.001125332419861136 -0.0074821943039435667 0 0.00088701517564868993 -0.011131671619487457 0 0.0012705239188570048 -0.01070339266657269 0 0.00089109859971750471 -0.010637203038648946 0 0.00088701517564868993 -0.011131671619487457 0 0.00064502855490374445 -0.010897963346696366 0 0.00089109859971750471 -0.010637203038648946 0 0.0012705239188570048 -0.01070339266657269 0 0.00089109859971750471 -0.010637203038648946 0 0.0009793455813305197 -0.010278259648414913 0 0.0012705239188570048 -0.01070339266657269 0 0.0012898100238184073 -0.010117952414944623 0 0.0009793455813305197 -0.010278259648414913 0 0.0012898100238184073 -0.010117952414944623 0 0.0009793455813305197 -0.010278259648414913 0 0.0010852759722906869 -0.0099851075395479272 0 0.0009793455813305197 -0.010278259648414913 0 0.00064089275062171214 -0.010286543122811768 0 0.00085449070045172121 -0.009897435235161435 0 0.00089109859971750471 -0.010637203038648946 0 0.0009793455813305197 -0.010278259648414913 0 0.00064089275062171214 -0.010286543122811768 0 0.00029853588609724696 -0.010423046568592536 0 0.00064089275062171214 -0.010286543122811768 0 0.00039441081942169894 -0.0098150551963744077 0 0.00047630835180003295 -0.010651773955866365 0 0.00089109859971750471 -0.010637203038648946 0 0.00064089275062171214 -0.010286543122811768 0 0.00029853588609724696 -0.010423046568592536 0 0.00047630835180003295 -0.010651773955866365 0 0.00064089275062171214 -0.010286543122811768 0 0.00039441081942169894 -0.0098150551963744077 0 0.00085449070045172121 -0.009897435235161435 0 0.0010077950573488701 -0.0095006710201401643 0 0.00064089275062171214 -0.010286543122811768 0 0.00039441081942169894 -0.0098150551963744077 0 0.00085449070045172121 -0.009897435235161435 0 0.00085449070045172121 -0.009897435235161435 0 0.001048002896055254 -0.0097915418496535931 0 0.0010077950573488701 -0.0095006710201401643 0 0.0009793455813305197 -0.010278259648414913 0 0.00085449070045172121 -0.009897435235161435 0 0.0010852759722906869 -0.0099851075395479272 0 0.0012898100238184073 -0.010117952414944623 0 0.0010852759722906869 -0.0099851075395479272 0 0.0012439780835105552 -0.0097781715193180994 0 0.00085449070045172121 -0.009897435235161435 0 0.0010852759722906869 -0.0099851075395479272 0 0.001048002896055254 -0.0097915418496535931 0 0.0010852759722906869 -0.0099851075395479272 0 0.001048002896055254 -0.0097915418496535931 0 0.0012439780835105552 -0.0097781715193180994 0 0.001048002896055254 -0.0097915418496535931 0 0.0010077950573488701 -0.0095006710201401643 0 0.0012439780835105552 -0.0097781715193180994 0 0.0010077950573488701 -0.0095006710201401643 0 0.0012439780835105552 -0.0097781715193180994 0 0.0014302692165438764 -0.0097950297996483339 0 0.00039441081942169894 -0.0098150551963744077 0 0.0010077950573488701 -0.0095006710201401643 0 0.00097080918374078918 -0.0091230159038118465 0 0.0010077950573488701 -0.0095006710201401643 0 0.0010796413599405926 -0.0091287536452153688 0 0.0014302692165438764 -0.0097950297996483339 0 0.0010077950573488701 -0.0095006710201401643 0 0.0010796413599405926 -0.0091287536452153688 0 0.00097080918374078918 -0.0091230159038118465 0 1.3783658477097115e-07 -0.0069640061713897115 0 2.5004523461656525e-05 -0.0070098642181432805 0 -1.3693006734970994e-07 -0.0071451207141231664 0 0.00054106139066232922 -0.0070251358468436621 0 0.00034557983507750361 -0.0075796542301177112 0 2.5553434056739415e-06 -0.0069633018356416278 0 0.00054106139066232922 -0.0070251358468436621 0 -3.2228501320584338e-07 -0.0088535925107392551 0 0.0001594938937076338 -0.0096507885031585847 0 1.089064029704714e-06 -0.00714832611374429 0 0.0001975057566750892 -0.0098510790450219935 0 0.00034557983507750361 -0.0075796542301177112 0 0.0011570355011211043 -0.0051472389553180705 0 0.0012828673835497625 -0.0051826268033999074 0 0.0012058648739944285 -0.0052221846747195783 0 0.0014600163957011669 -0.0052551158424926281 0 0.0014074050763442938 -0.0078687723945658327 0 0.0011313537409215083 -0.005169128653019466 0 0.0012058648739944285 -0.0052221846747195783 0 0.0011228261844013873 -0.0052312029350030636 0 0.0011313537409215083 -0.005169128653019466 0 0.0011570355011211043 -0.0051472389553180705 0 0.0012058648739944285 -0.0052221846747195783 0 0.0013282680381166312 -0.0052709830129985648 0 0.0014600163957011669 -0.0052551158424926281 0 0.0013124611203691864 -0.0065435746783765927 0 0.0014074050763442938 -0.0078687723945658327 0 0.0014114773969868145 -0.0064999848281337138 0 0.0013462692004534002 -0.0065773135489791308 0 0.0014632153790676513 -0.0066001878407383136 0 0.0012898100238184073 -0.010117952414944623 0 0.0012439780835105552 -0.0097781715193180994 0 0.0014182791727550667 -0.0097939858956307396 0 0.001427146713193606 -0.00844545071381002 0 0.0014074050763442938 -0.0078687723945658327 0 0.0013543661819991582 -0.0053388139725185661 0 0.0012018412222154209 -0.0053078382130943161 0 0.0012058648739944285 -0.0052221846747195783 0 9.6083430810611072e-08 -0.0069634696975778643 0 1.6695809417114688e-06 -0.0068766332748703626 0 -8.7700304995291482e-08 -0.0054618121870015765 0 0.00054106139066232922 -0.0070251358468436621 0 0.00051560821435008702 -0.0052119180795905679 0 1.6695809417114688e-06 -0.0068766332748703626 0 -8.7700304995291482e-08 -0.0054618121870015765 0 -3.4376135860602946e-06 -0.0052749672178325751 0 0.0013543661819991582 -0.0053388139725185661 0 0.0012828673835497625 -0.0051826268033999074 0 0.0012058648739944285 -0.0052221846747195783 0 0.00054106139066232922 -0.0070251358468436621 0 0.0014074050763442938 -0.0078687723945658327 0 -8.7700304995291482e-08 -0.0054618121870015765 0 -3.4376135860602946e-06 -0.0052749672178325751 0 9.8960035711136068e-08 -0.0039614223974719694 0 0.00051560821435008702 -0.0052119180795905679 0 0.00046721364289168397 -0.0045978680636912534 0 0.0012018412222154209 -0.0053078382130943161 0 0.0011228261844013873 -0.0052312029350030636 0 0.0010367763738250888 -0.0052816400129439903 0 0.0012018412222154209 -0.0053078382130943161 0 0.0012058648739944285 -0.0052221846747195783 0 0.0011228261844013873 -0.0052312029350030636 0 -3.4376135860602946e-06 -0.0052749672178325751 0 9.8960035711136068e-08 -0.0039614223974719694 0 9.0592398299052512e-06 -0.0038028013845773658 0 0.0010367763738250888 -0.0052816400129439903 0 0.00091242161902249956 -0.0051189922643008487 0 0.001027898293065904 -0.0051727660091191357 0 1.5729899436016999e-07 -0.0039608281097656683 0 0.00046721364289168397 -0.0045978680636912534 0 -6.6413029047964114e-08 -0.0039596522825186414 0 9.31370714572786e-08 -0.0037500221577329079 0 4.1884713453601139e-06 -0.0037279964589500571 0 0.0011228261844013873 -0.0052312029350030636 0 0.0010367763738250888 -0.0052816400129439903 0 0.001027898293065904 -0.0051727660091191357 0 9.31370714572786e-08 -0.0037500221577329079 0 4.1884713453601139e-06 -0.0037279964589500571 0 -4.305405954965912e-05 -0.0036552481641705312 0 4.1884713453601139e-06 -0.0037279964589500571 0 -1.7137719442021117e-05 -0.0036368909849367344 0 -4.305405954965912e-05 -0.0036552481641705312 0 -9.0908424199860972e-07 -0.0037488430381931079 0 0.00059984272711283615 -0.0017023144147785523 0 4.2593738851897567e-07 -0.0037480531223290561 0 0.00019567681722817382 -0.0010726061124582953 0 4.9677526955791193e-07 -0.0017604419328368171 0 0.00046721364289168397 -0.0045978680636912534 0 0.001292034201627213 -0.0026528721883159684 0 0.001292034201627213 -0.0026528721883159684 0 0.00059984272711283615 -0.0017023144147785523 0 0.00091242161902249956 -0.0051189922643008487 0 0.0009614824794344052 -0.0050771276604722687 0 0.001027898293065904 -0.0051727660091191357 0 0.001292034201627213 -0.0026528721883159684 0 0.0019547855281897503 -0.0027139565605021373 0 0.0019774463745278943 -0.0015052611758428623 0 0.0019349353501582262 -0.0015465945742711286 0 0.0020239122042655018 -0.001548201322822969 0 0.0032938270839303371 -0.00094392869730145184 0 0.0033577714628725834 -0.0010267955180535643 0 0.0031931561143601138 -0.0011210046980915614 0 0.0019547855281897503 -0.0027139565605021373 0 0.0026473348236032107 0.00020121657424723062 0 0.001292034201627213 -0.0026528721883159684 0 0.0026473348236032107 0.00020121657424723062 0 0.0020970438246772521 -6.4102629688416092e-05 0 0.0018302212458103401 0.00024623108128915897 0 0.0017614525316997176 -5.5885695104747603e-05 0 0.0011313537409215083 -0.005169128653019466 0 0.0011632591062817306 -0.0051311554916473818 0 0.0009614824794344052 -0.0050771276604722687 0 0.0011313537409215083 -0.005169128653019466 0 0.0009614824794344052 -0.0050771276604722687 0 0.001027898293065904 -0.0051727660091191357 0 0.0014600163957011669 -0.0052551158424926281 0 0.0019547855281897503 -0.0027139565605021373 0 0.0011313537409215083 -0.005169128653019466 0 0.0011228261844013873 -0.0052312029350030636 0 0.001027898293065904 -0.0051727660091191357 0 0.0017751046281657197 -0.0039264525419536976 0 0.0019520836004978564 -0.0039267688234385046 0 0.0018574834462007398 -0.0040199431871371901 0 0.0028115449416228028 -0.0011482646848286677 0 0.0031484829817096027 -0.0011898626537987186 0 0.0027839257292615487 -0.001608558204421134 0 0.0032938270839303371 -0.00094392869730145184 0 0.0028115449416228028 -0.0011482646848286677 0 0.0031484829817096027 -0.0011898626537987186 0 0.0019547855281897503 -0.0027139565605021373 0 0.0024506768284431424 -0.0025129922046956505 0 0.0033352719155743333 -0.0010357492720280642 0 0.0041964126470997939 -9.7758659280877339e-06 0 0.0033577714628725834 -0.0010267955180535643 0 0.0034078711526615815 -0.0012952062524927857 0 0.0033484705196199171 -0.001240565509624059 0 0.0033577714628725834 -0.0010267955180535643 0 0.0031307178470658687 -9.1570495873649724e-05 0 0.0031064849876312238 -0.0008088484634174094 0 0.0032938270839303371 -0.00094392869730145184 0 0.0033577714628725834 -0.0010267955180535643 0 0.0031484829817096027 -0.0011898626537987186 0 0.0033577714628725834 -0.0010267955180535643 0 0.0031064849876312238 -0.0008088484634174094 0 0.0031931561143601138 -0.0011210046980915614 0 0.0033577714628725834 -0.0010267955180535643 0 0.0031484829817096027 -0.0011898626537987186 0 0.0034078711526615815 -0.0012952062524927857 0 0.0035724206406708685 -0.0014811406550525 0 0.0034283697010848036 -0.0012430147491733516 0 0.0031484829817096027 -0.0011898626537987186 0 0.0034078711526615815 -0.0012952062524927857 0 0.0031428969477226495 -0.0017978780879577675 0 0.0036535193762818083 -0.0021650774343571232 0 0.0034078711526615815 -0.0012952062524927857 0 0.0031428969477226495 -0.0017978780879577675 0 0.0031484829817096027 -0.0011898626537987186 0 0.0031428969477226495 -0.0017978780879577675 0 0.0027839257292615487 -0.001608558204421134 0 0.0026745461347404999 -0.0023985540672889589 0 0.0022600410466761651 -0.0015971995327048068 0 0.0027839257292615487 -0.001608558204421134 0 0.0022600410466761651 -0.0015971995327048068 0 0.0028115449416228028 -0.0011482646848286677 0 0.0027839257292615487 -0.001608558204421134 0 0.002704048992446916 0.0049636683822454793 0 0.0020813657603356169 0.0042695042714186024 0 0.0016427519878879919 0.0047939701047902692 0 0.002704048992446916 0.0049636683822454793 0 0.0031924345828552377 0.0041699514974868944 0 0.0026688240595601478 0.0042263348959200205 0 0.002704048992446916 0.0049636683822454793 0 0.0026688240595601478 0.0042263348959200205 0 0.0020813657603356169 0.0042695042714186024 0 0.002197924856383524 0.000657091289346757 0 0.0020169527712697762 0.00023351896736736638 0 0.0031307178470658687 -9.1570495873649724e-05 0 0.003494989904483423 -0.00061993460172296523 0 0.0034078711526615815 -0.0012952062524927857 0 0.0032768421565498649 -0.00097696430792763205 0 0.0020169527712697762 0.00023351896736736638 0 0.0031307178470658687 -9.1570495873649724e-05 0 0.002783010789655589 -0.00084148974550212179 0 0.0035202710433763144 0.0011365731484949796 0 0.0041964126470997939 -9.7758659280877339e-06 0 0.0045992617437105397 0.0018585965717531708 0 0.0057111547838626662 0.0016768017815702398 0 0.006134310520475454 0.00074956033358954783 0 0.0044438439944908164 0.00029425058642709647 0 0.0041964126470997939 -9.7758659280877339e-06 0 0.0034078711526615815 -0.0012952062524927857 0 0.0032768421565498649 -0.00097696430792763205 0 0.0033484705196199171 -0.001240565509624059 0 0.0023079094222359701 0.002590555272975123 0 0.0031381390336476128 0.0020046434905627289 0 0.0034891978265206513 0.003827099937219297 0 0.0026981402705846479 0.0035040359096485687 0 0.0039110094913916904 0.0033267302131440931 0 0.002704048992446916 0.0049636683822454793 0 0.0031924345828552377 0.0041699514974868944 0 0.003493965469869984 0.0038244890913225033 0 0.0027342538561814442 0.0033582033369303908 0 0.0031381390336476128 0.0020046434905627289 0 0.0031307178470658687 -9.1570495873649724e-05 0 0.0031064849876312238 -0.0008088484634174094 0 0.002783010789655589 -0.00084148974550212179 0 0.0031381390336476128 0.0020046434905627289 0 0.0026473348236032107 0.00020121657424723062 0 0.0031064849876312238 -0.0008088484634174094 0 0.002783010789655589 -0.00084148974550212179 0 0.0031931561143601138 -0.0011210046980915614 0 0.0031924345828552377 0.0041699514974868944 0 0.0034891978265206513 0.003827099937219297 0 0.0026981402705846479 0.0035040359096485687 0 0.0031924345828552377 0.0041699514974868944 0 0.0026981402705846479 0.0035040359096485687 0 0.0026688240595601478 0.0042263348959200205 0 0.0026981402705846479 0.0035040359096485687 0 0.0026688240595601478 0.0042263348959200205 0 0.0020813657603356169 0.0042695042714186024 0 0.00094991066901541586 0.00037064628937737826 0 0.00088270913990483378 3.0742662201408208e-05 0 7.0437471185791139e-05 0.00050049304039848357 0 0.00094991066901541586 0.00037064628937737826 0 0.00088270913990483378 3.0742662201408208e-05 0 0.0014230599675769291 2.5103167641214363e-05 0 0.00022589194228470996 0.00082947477515529788 0 8.9860056460860371e-05 -0.00013508295148530934 0 9.9083213451161179e-05 0.0010685247580323287 0 0.00088270913990483378 3.0742662201408208e-05 0 0.0014230599675769291 2.5103167641214363e-05 0 0.0016952075512749673 -0.00043164918585735608 0 0.0004426500773388789 0.00051330868584015981 0 0.00059984272711283615 -0.0017023144147785523 0 0.00094991066901541586 0.00037064628937737826 0 0.0018302212458103401 0.00024623108128915897 0 0.0014230599675769291 2.5103167641214363e-05 0 0.00022589194228470996 0.00082947477515529788 0 0.0003869509723467759 -0.00080382737222181827 0 0.00019883496860369272 -0.0009715913581718553 0 0.0018842115555223 0.0020172658085436659 0 0.0026473348236032107 0.00020121657424723062 0 0.0018302212458103401 0.00024623108128915897 0 0.0014230599675769291 2.5103167641214363e-05 0 0.0017614525316997176 -5.5885695104747603e-05 0 0.0014230599675769291 2.5103167641214363e-05 0 0.0017614525316997176 -5.5885695104747603e-05 0 0.0016952075512749673 -0.00043164918585735608 0 0.0020970438246772521 -6.4102629688416092e-05 0 0.0017614525316997176 -5.5885695104747603e-05 0 0.0016952075512749673 -0.00043164918585735608 0 0.00019567681722817382 -0.0010726061124582953 0 0.00019883496860369272 -0.0009715913581718553 0 4.9677526955791193e-07 -0.0017604419328368171 0 0.00059984272711283615 -0.0017023144147785523 0 0.00057998626302528092 -0.001493142692843008 0 0.00019883496860369272 -0.0009715913581718553 0 4.9677526955791193e-07 -0.0017604419328368171 0 8.9860056460860371e-05 -0.00013508295148530934 0 8.9860056460860371e-05 -0.00013508295148530934 0 1.0266867696831879e-08 0.00022724080650358324 0 9.9083213451161179e-05 0.0010685247580323287 0 4.9677526955791193e-07 -0.0017604419328368171 0 8.9860056460860371e-05 -0.00013508295148530934 0 1.0266867696831879e-08 0.00022724080650358324 0 0.00022589194228470996 0.00082947477515529788 0 0.00019883496860369272 -0.0009715913581718553 0 8.9860056460860371e-05 -0.00013508295148530934 0 1.0266867696831879e-08 0.00022724080650358324 0 -1.3563364734540117e-05 0.0015442586619950382 0 9.9083213451161179e-05 0.0010685247580323287 0 -1.3563364734540117e-05 0.0015442586619950382 0 -4.235352779042142e-05 0.0024580452452797959 0 -2.2971455896687572e-07 0.0022148029260619824 0 1.0266867696831879e-08 0.00022724080650358324 0 -1.3563364734540117e-05 0.0015442586619950382 0 -2.2971455896687572e-07 0.0022148029260619824 0 -1.3563364734540117e-05 0.0015442586619950382 0 -4.235352779042142e-05 0.0024580452452797959 0 9.2722378294133334e-05 0.0020010832651229994 0 -4.235352779042142e-05 0.0024580452452797959 0 9.8186971325048129e-05 0.0024310000507708237 0 9.2722378294133334e-05 0.0020010832651229994 0 0.00022589194228470996 0.00082947477515529788 0 9.9083213451161179e-05 0.0010685247580323287 0 0.00021412793124903496 0.0022904657965453048 0 9.2722378294133334e-05 0.0020010832651229994 0 9.9083213451161179e-05 0.0010685247580323287 0 0.00021412793124903496 0.0022904657965453048 0 9.8186971325048129e-05 0.0024310000507708237 0 9.2722378294133334e-05 0.0020010832651229994 0 0.00021412793124903496 0.0022904657965453048 0 0.0004426500773388789 0.00051330868584015981 0 0.00055910035910501741 0.0020349936405077819 0 -1.3563364734540117e-05 0.0015442586619950382 0 9.2722378294133334e-05 0.0020010832651229994 0 9.9083213451161179e-05 0.0010685247580323287 0 -9.9893138745319875e-07 0.004202027402534619 0 -0.00028229508672583236 0.0032286977027437425 0 -0.00034505534783767287 0.0040233086798856258 0 -4.235352779042142e-05 0.0024580452452797959 0 -2.2971455896687572e-07 0.0022148029260619824 0 -0.00028229508672583236 0.0032286977027437425 0 -9.9893138745319875e-07 0.004202027402534619 0 -2.2971455896687572e-07 0.0022148029260619824 0 -0.00028229508672583236 0.0032286977027437425 0 -4.235352779042142e-05 0.0024580452452797959 0 -0.00028229508672583236 0.0032286977027437425 0 -0.00016191684927144358 0.0033708912072139517 0 -0.00028229508672583236 0.0032286977027437425 0 -0.00047645373656965461 0.00378096528804774 0 -0.00034505534783767287 0.0040233086798856258 0 -0.00047645373656965461 0.00378096528804774 0 -0.00061440574311075733 0.0037736989666657013 0 -0.00034505534783767287 0.0040233086798856258 0 -0.00047645373656965461 0.00378096528804774 0 -0.00052013808907271726 0.0053930131998979258 0 -0.00061440574311075733 0.0037736989666657013 0 -0.00028229508672583236 0.0032286977027437425 0 -0.00047645373656965461 0.00378096528804774 0 -0.00016191684927144358 0.0033708912072139517 0 -0.00047645373656965461 0.00378096528804774 0 -0.00016191684927144358 0.0033708912072139517 0 -9.8241697461721173e-05 0.0045132975905939621 0 -0.00016191684927144358 0.0033708912072139517 0 -9.8241697461721173e-05 0.0045132975905939621 0 0.00017113098776128213 0.0032984057839322662 0 -0.00013477556610780273 0.0043452497284382306 0 0.00029631555624532791 0.0037629635410672381 0 -0.00047645373656965461 0.00378096528804774 0 -9.8241697461721173e-05 0.0045132975905939621 0 -0.00052013808907271726 0.0053930131998979258 0 -9.8241697461721173e-05 0.0045132975905939621 0 8.588549544208457e-05 0.0053563829527711864 0 0.00076086275181373709 0.0049150431952410109 0 -9.8241697461721173e-05 0.0045132975905939621 0 8.588549544208457e-05 0.0053563829527711864 0 -0.00052013808907271726 0.0053930131998979258 0 8.588549544208457e-05 0.0053563829527711864 0 -0.00052013808907271726 0.0053930131998979258 0 -0.00030687356937907247 0.0058977990287036189 0 -0.00052013808907271726 0.0053930131998979258 0 -0.00060037685255141316 0.006168032535661846 0 -0.00073253795776789029 0.0068934394389585391 0 -0.00052013808907271726 0.0053930131998979258 0 -0.00060037685255141316 0.006168032535661846 0 -0.0005390820039216631 0.006123688467099265 0 -0.00045159845063549734 0.0054738726608263549 0 -0.0005975985546503883 0.0054075993871156329 0 0.0026981402705846479 0.0035040359096485687 0 0.0020813657603356169 0.0042695042714186024 0 0.0015019413674524701 0.0036830860853262581 0 0.0018842115555223 0.0020172658085436659 0 0.00055910035910501741 0.0020349936405077819 0 0.0012844076617124201 0.0042801305283674792 0 0.0020813657603356169 0.0042695042714186024 0 0.0015019413674524701 0.0036830860853262581 0 9.8186971325048129e-05 0.0024310000507708237 0 0.00021412793124903496 0.0022904657965453048 0 0.00017113098776128213 0.0032984057839322662 0 0.00055910035910501741 0.0020349936405077819 0 0.00029631555624532791 0.0037629635410672381 0 -4.235352779042142e-05 0.0024580452452797959 0 9.8186971325048129e-05 0.0024310000507708237 0 0.00017113098776128213 0.0032984057839322662 0 -4.235352779042142e-05 0.0024580452452797959 0 -0.00016191684927144358 0.0033708912072139517 0 0.00017113098776128213 0.0032984057839322662 0 0.0012844076617124201 0.0042801305283674792 0 0.0015019413674524701 0.0036830860853262581 0 0.00069022665909520815 0.0041515375412010573 0 0.0012844076617124201 0.0042801305283674792 0 0.00069022665909520815 0.0041515375412010573 0 0.00076086275181373709 0.0049150431952410109 0 -9.8241697461721173e-05 0.0045132975905939621 0 0.00069022665909520815 0.0041515375412010573 0 0.00076086275181373709 0.0049150431952410109 0 8.588549544208457e-05 0.0053563829527711864 0 0.00076086275181373709 0.0049150431952410109 0 0.00058964582499643333 0.0055549428771359292 0 0.00076086275181373709 0.0049150431952410109 0 0.0014850538361374825 0.0054798644095394857 0 0.00058964582499643333 0.0055549428771359292 0 0.002704048992446916 0.0049636683822454793 0 0.0016427519878879919 0.0047939701047902692 0 0.0014850538361374825 0.0054798644095394857 0 0.00076086275181373709 0.0049150431952410109 0 0.0016427519878879919 0.0047939701047902692 0 0.0014850538361374825 0.0054798644095394857 0 0.0012844076617124201 0.0042801305283674792 0 0.00076086275181373709 0.0049150431952410109 0 0.0016427519878879919 0.0047939701047902692 0 0.0012844076617124201 0.0042801305283674792 0 0.0020813657603356169 0.0042695042714186024 0 0.0016427519878879919 0.0047939701047902692 0 0.002704048992446916 0.0049636683822454793 0 0.0014850538361374825 0.0054798644095394857 0 0.0019014622180179937 0.0060834135430345541 0 0.0019014622180179937 0.0060834135430345541 0 0.0010883577809867621 0.006643338329093619 0 0.000918421477890046 0.0059262484008574109 0 0.0014850538361374825 0.0054798644095394857 0 0.0019014622180179937 0.0060834135430345541 0 0.000918421477890046 0.0059262484008574109 0 0.0037530116804040197 0.0037884650850506028 0 0.0030608111145990881 0.0029858038982351017 0 0.0030440508995893869 0.0044348653986706751 0 0.0025546678325050667 0.0036844149541189536 0 0.0016040389598009864 0.0050352471807232806 0 0.0015340118904475567 0.0044308207693325979 0 0.0030608111145990881 0.0029858038982351017 0 0.0018432104364270174 0.0046882977065219574 0 0.0030440508995893869 0.0044348653986706751 0 0.0020927190465230066 0.0035050725915300161 0 0.0017978140584296919 0.0048168825756743465 0 0.0020927190465230066 0.0035050725915300161 0 0.001225203342039378 0.005572074319062436 0 0.0018432104364270174 0.0046882977065219574 0 0.0030440508995893869 0.0044348653986706751 0 0.0025083402830149851 0.0052829511758386866 0 0.0037272978732304971 0.0047607684851983566 0 0.0030440508995893869 0.0044348653986706751 0 0.0032450270144298052 0.0053116969829437059 0 0.00034003127182599582 0.007181682354647799 0 0.0010883577809867621 0.006643338329093619 0 0.000918421477890046 0.0059262484008574109 0 0.0003985331053103014 0.0063822796933491127 0 0.00080113783735873535 0.0061681134567325401 0 0.00023439894671253053 0.0066717305983854417 0 0.00029769749274383063 0.0062460123417362665 0 0.000918421477890046 0.0059262484008574109 0 0.0016040389598009864 0.0050352471807232806 0 0.00045904865660583111 0.0051822740741964638 0 0.0015340118904475567 0.0044308207693325979 0 0.0003985331053103014 0.0063822796933491127 0 0.001225203342039378 0.005572074319062436 0 0.00029769749274383063 0.0062460123417362665 0 0.00038854205350965316 0.0059288860737528211 0 0.000918421477890046 0.0059262484008574109 0 0.0014850538361374825 0.0054798644095394857 0 0.000918421477890046 0.0059262484008574109 0 0.00058964582499643333 0.0055549428771359292 0 0.00038854205350965316 0.0059288860737528211 0 0.000918421477890046 0.0059262484008574109 0 0.00058964582499643333 0.0055549428771359292 0 0.00038854205350965316 0.0059288860737528211 0 0.00058964582499643333 0.0055549428771359292 0 0.00017296211453144935 0.0057626057592249248 0 8.588549544208457e-05 0.0053563829527711864 0 0.00017296211453144935 0.0057626057592249248 0 -0.00030687356937907247 0.0058977990287036189 0 0.00017296211453144935 0.0057626057592249248 0 -0.00030687356937907247 0.0058977990287036189 0 2.6211296828914235e-05 0.0060944584998406642 0 8.588549544208457e-05 0.0053563829527711864 0 0.00058964582499643333 0.0055549428771359292 0 0.00017296211453144935 0.0057626057592249248 0 -0.00030687356937907247 0.0058977990287036189 0 2.6211296828914235e-05 0.0060944584998406642 0 -0.0002460347123114247 0.0062873124657971688 0 0.00038854205350965316 0.0059288860737528211 0 0.00017296211453144935 0.0057626057592249248 0 2.6211296828914235e-05 0.0060944584998406642 0 0.00029769749274383063 0.0062460123417362665 0 0.00038854205350965316 0.0059288860737528211 0 2.6211296828914235e-05 0.0060944584998406642 0 -0.00030687356937907247 0.0058977990287036189 0 -0.0005390820039216631 0.006123688467099265 0 -0.00040149416813507413 0.0061753525147441382 0 -0.00052013808907271726 0.0053930131998979258 0 -0.00030687356937907247 0.0058977990287036189 0 -0.0005390820039216631 0.006123688467099265 0 -0.00030687356937907247 0.0058977990287036189 0 -0.00040149416813507413 0.0061753525147441382 0 -0.0002460347123114247 0.0062873124657971688 0 -0.0005390820039216631 0.006123688467099265 0 -0.00045182072450353065 0.0063569203882442755 0 -0.00054365563823880283 0.0063341966952848794 0 -0.0005390820039216631 0.006123688467099265 0 -0.00040149416813507413 0.0061753525147441382 0 -0.00045182072450353065 0.0063569203882442755 0 -0.00045182072450353065 0.0063569203882442755 0 -0.00023070238297429713 0.006543794298865091 0 -0.00037156555449776208 0.0066455459017699323 0 -0.00040149416813507413 0.0061753525147441382 0 -0.00045182072450353065 0.0063569203882442755 0 -0.0002460347123114247 0.0062873124657971688 0 -0.00045182072450353065 0.0063569203882442755 0 -0.00023070238297429713 0.006543794298865091 0 -0.0002460347123114247 0.0062873124657971688 0 0.00029769749274383063 0.0062460123417362665 0 2.6211296828914235e-05 0.0060944584998406642 0 3.0512980571699338e-06 0.0064891716261748864 0 2.6211296828914235e-05 0.0060944584998406642 0 -0.0002460347123114247 0.0062873124657971688 0 3.0512980571699338e-06 0.0064891716261748864 0 -0.00023070238297429713 0.006543794298865091 0 3.0512980571699338e-06 0.0064891716261748864 0 -8.2379346956715438e-05 0.006606514146568248 0 -0.00023070238297429713 0.006543794298865091 0 -0.0002460347123114247 0.0062873124657971688 0 3.0512980571699338e-06 0.0064891716261748864 0 3.0512980571699338e-06 0.0064891716261748864 0 4.5899288374353899e-05 0.0066877134352226223 0 -8.2379346956715438e-05 0.006606514146568248 0 0.00023439894671253053 0.0066717305983854417 0 3.0512980571699338e-06 0.0064891716261748864 0 4.5899288374353899e-05 0.0066877134352226223 0 0.00023439894671253053 0.0066717305983854417 0 0.00029769749274383063 0.0062460123417362665 0 3.0512980571699338e-06 0.0064891716261748864 0 0.0003985331053103014 0.0063822796933491127 0 0.00014297384343139345 0.0065921972085215353 0 0.0003985331053103014 0.0063822796933491127 0 -0.00013578884410426516 0.0065898507810991502 0 0.00045904865660583111 0.0051822740741964638 0 -0.00032504451710523941 0.0067325328702287817 0 0.00060725520746876831 0.0064775384336356566 0 0.0001243064826083467 0.006650051681115059 0 4.5899288374353899e-05 0.0066877134352226223 0 -4.7822853854057172e-05 0.0068263148140832652 0 4.5899288374353899e-05 0.0066877134352226223 0 -8.2379346956715438e-05 0.006606514146568248 0 -0.00014217856818785394 0.0067141756908127579 0 -0.00023070238297429713 0.006543794298865091 0 -8.2379346956715438e-05 0.006606514146568248 0 -0.00014217856818785394 0.0067141756908127579 0 4.5899288374353899e-05 0.0066877134352226223 0 -0.00014217856818785394 0.0067141756908127579 0 -4.7822853854057172e-05 0.0068263148140832652 0 -0.00023070238297429713 0.006543794298865091 0 -0.00014217856818785394 0.0067141756908127579 0 -0.00037156555449776208 0.0066455459017699323 0 -0.00014217856818785394 0.0067141756908127579 0 -0.00037156555449776208 0.0066455459017699323 0 -0.00023754772353680185 0.0068542647174396724 0 -0.00037156555449776208 0.0066455459017699323 0 -0.00023754772353680185 0.0068542647174396724 0 -0.00038790002454454082 0.0068233876928372019 0 -0.00023754772353680185 0.0068542647174396724 0 -0.00016289193521136597 0.0070306070198467218 0 -0.00029480598216296758 0.007026554171470017 0 -0.00023754772353680185 0.0068542647174396724 0 -0.00038790002454454082 0.0068233876928372019 0 -0.00029480598216296758 0.007026554171470017 0 -0.00032504451710523941 0.0067325328702287817 0 -0.00028464364597140723 0.0076884622042287642 0 -0.0011762723861436313 0.0084876400430045663 0 -0.00013578884410426516 0.0065898507810991502 0 -0.00041093941315384184 0.0086336077373529631 0 -0.00023754772353680185 0.0068542647174396724 0 -4.7822853854057172e-05 0.0068263148140832652 0 -0.00016289193521136597 0.0070306070198467218 0 -0.00032504451710523941 0.0067325328702287817 0 6.5789517408520396e-05 0.0072557498064208907 0 0.00060725520746876831 0.0064775384336356566 0 -0.00032504451710523941 0.0067325328702287817 0 6.5789517408520396e-05 0.0072557498064208907 0 -0.00028464364597140723 0.0076884622042287642 0 -0.00014217856818785394 0.0067141756908127579 0 -0.00023754772353680185 0.0068542647174396724 0 -4.7822853854057172e-05 0.0068263148140832652 0 -0.00028464364597140723 0.0076884622042287642 0 0.00023946674790618661 0.0079113705594779545 0 -0.0011762723861436313 0.0084876400430045663 0 6.5789517408520396e-05 0.0072557498064208907 0 0.00023946674790618661 0.0079113705594779545 0 0.00059884117316263052 0.0074152060911594651 0 6.5789517408520396e-05 0.0072557498064208907 0 -0.00028464364597140723 0.0076884622042287642 0 0.00023946674790618661 0.0079113705594779545 0 0.00023946674790618661 0.0079113705594779545 0 0.00059884117316263052 0.0074152060911594651 0 0.0011909833165676751 0.0076121832454287526 0 0.0011909833165676751 0.0076121832454287526 0 0.0028301393920232847 0.0075980432646205421 0 0.00071692463852293881 0.0084329609588081385 0 0.00023946674790618661 0.0079113705594779545 0 0.0011909833165676751 0.0076121832454287526 0 0.00071692463852293881 0.0084329609588081385 0 0.00059884117316263052 0.0074152060911594651 0 0.0011402714479373632 0.0070494914809060647 0 0.0011909833165676751 0.0076121832454287526 0 0.00059884117316263052 0.0074152060911594651 0 0.0011402714479373632 0.0070494914809060647 0 0.00060725520746876831 0.0064775384336356566 0 6.5789517408520396e-05 0.0072557498064208907 0 0.00059884117316263052 0.0074152060911594651 0 0.00060725520746876831 0.0064775384336356566 0 0.0015967641608700576 0.0065244305024195325 0 0.0011402714479373632 0.0070494914809060647 0 0.00060725520746876831 0.0064775384336356566 0 0.0011402714479373632 0.0070494914809060647 0 0.0017249039768708905 0.0072080738923259134 0 0.0011909833165676751 0.0076121832454287526 0 0.0015967641608700576 0.0065244305024195325 0 0.0011402714479373632 0.0070494914809060647 0 0.0017249039768708905 0.0072080738923259134 0 0.0017249039768708905 0.0072080738923259134 0 0.0011909833165676751 0.0076121832454287526 0 0.0028301393920232847 0.0075980432646205421 0 0.0028301393920232847 0.0075980432646205421 0 0.0034097956855784674 0.0068586369880797304 0 0.0021537191115161515 0.0096845065312767577 0 0.0028301393920232847 0.0075980432646205421 0 0.0034097956855784674 0.0068586369880797304 0 0.0027802235119770017 0.0066544752292299397 0 0.0034097956855784674 0.0068586369880797304 0 0.0027802235119770017 0.0066544752292299397 0 0.0028479227039748122 0.006045936339090674 0 0.0028301393920232847 0.0075980432646205421 0 0.0027802235119770017 0.0066544752292299397 0 0.0022180592496227488 0.0068261938752712439 0 0.0017249039768708905 0.0072080738923259134 0 0.0028301393920232847 0.0075980432646205421 0 0.0022180592496227488 0.0068261938752712439 0 0.0027802235119770017 0.0066544752292299397 0 0.0022180592496227488 0.0068261938752712439 0 0.00227604495779281 0.006136809898733042 0 0.0015967641608700576 0.0065244305024195325 0 0.0017249039768708905 0.0072080738923259134 0 0.0022180592496227488 0.0068261938752712439 0 0.0015967641608700576 0.0065244305024195325 0 0.00227604495779281 0.006136809898733042 0 0.0017676409187224356 0.0058221061053465488 0 0.0015967641608700576 0.0065244305024195325 0 0.0022180592496227488 0.0068261938752712439 0 0.00227604495779281 0.006136809898733042 0 0.00227604495779281 0.006136809898733042 0 0.0028479227039748122 0.006045936339090674 0 0.0025083402830149851 0.0052829511758386866 0 0.00227604495779281 0.006136809898733042 0 0.0025083402830149851 0.0052829511758386866 0 0.0017676409187224356 0.0058221061053465488 0 0.0034097956855784674 0.0068586369880797304 0 0.0028479227039748122 0.006045936339090674 0 0.0032450270144298052 0.0053116969829437059 0 0.0027802235119770017 0.0066544752292299397 0 0.00227604495779281 0.006136809898733042 0 0.0028479227039748122 0.006045936339090674 0 0.0030440508995893869 0.0044348653986706751 0 0.0032450270144298052 0.0053116969829437059 0 0.0025083402830149851 0.0052829511758386866 0 0.0028479227039748122 0.006045936339090674 0 0.0032450270144298052 0.0053116969829437059 0 0.0025083402830149851 0.0052829511758386866 0 0.0018432104364270174 0.0046882977065219574 0 0.0025083402830149851 0.0052829511758386866 0 0.0017676409187224356 0.0058221061053465488 0 0.0017978140584296919 0.0048168825756743465 0 0.00066745909300540049 0.0063719293132183299 0 0.0016040389598009864 0.0050352471807232806 0 0.00045904865660583111 0.0051822740741964638 0 0.00060725520746876831 0.0064775384336356566 0 0.0018432104364270174 0.0046882977065219574 0 0.00060725520746876831 0.0064775384336356566 0 0.0017676409187224356 0.0058221061053465488 0 0.0015967641608700576 0.0065244305024195325 0 0.00060725520746876831 0.0064775384336356566 0 0.0017676409187224356 0.0058221061053465488 0 0.0012607974938195696 0.01629870713663166 0 0.0011741844131297893 0.016276961769867669 0 0.001233373719525691 0.016341440899684381 0 0.0012607974938195696 0.01629870713663166 0 0.0012120414273493977 0.016104639929834439 0 0.0011741844131297893 0.016276961769867669 0 0.0016262636785410102 0.016874148851427222 0 0.001175843709228547 0.017818113886279376 0 0.0016072819631517475 0.01768003013484909 0 0.0010701560794662273 0.017576466237895366 0 0.0012146377011333363 0.01789372823790775 0 0.0014945879995812777 0.017189091891217076 0 0.001889748218262474 0.017727762907780848 0 0.0010701560794662273 0.017576466237895366 0 0.0013496779248897603 0.01673552710971582 0 0.0016262636785410102 0.016874148851427222 0 0.0012120414273493977 0.016104639929834439 0 0.0011741844131297893 0.016276961769867669 0 0.0010374135510238193 0.016029594200506318 0 -0.00047672852536030143 0.0066762096884633356 0 -0.00053947030436302167 0.0065782990895927734 0 -0.00055865722036123257 0.0069492215783439415 0 0.0016262636785410102 0.016874148851427222 0 -0.00010816438011184882 0.01228566588812467 0 0.00035237512609458685 0.011233308490689226 0 -0.00010816438011184882 0.01228566588812467 0 -0.00038790002454454082 0.0068233876928372019 0 -0.00029480598216296758 0.007026554171470017 0 -0.00055865722036123257 0.0069492215783439415 0 -0.00038790002454454082 0.0068233876928372019 0 -0.00047672852536030143 0.0066762096884633356 0 -0.00055865722036123257 0.0069492215783439415 0 -0.00037156555449776208 0.0066455459017699323 0 -0.00047672852536030143 0.0066762096884633356 0 -0.00050540360476552095 0.0064822453092943559 0 -0.00037156555449776208 0.0066455459017699323 0 -0.00038790002454454082 0.0068233876928372019 0 -0.00047672852536030143 0.0066762096884633356 0 -0.00047672852536030143 0.0066762096884633356 0 -0.00053947030436302167 0.0065782990895927734 0 -0.00050540360476552095 0.0064822453092943559 0 -0.00053947030436302167 0.0065782990895927734 0 -0.00050540360476552095 0.0064822453092943559 0 -0.0004420003611917279 0.0065006227092166014 0 -0.00045182072450353065 0.0063569203882442755 0 -0.00050540360476552095 0.0064822453092943559 0 -0.00054365563823880283 0.0063341966952848794 0 -0.00045182072450353065 0.0063569203882442755 0 -0.00037156555449776208 0.0066455459017699323 0 -0.00050540360476552095 0.0064822453092943559 0 -0.00054365563823880283 0.0063341966952848794 0 -0.0004420003611917279 0.0065006227092166014 0 -0.00051097818158400189 0.0065530378202937681 0 -0.00050540360476552095 0.0064822453092943559 0 -0.00054365563823880283 0.0063341966952848794 0 -0.0004420003611917279 0.0065006227092166014 0 -0.00060037685255141316 0.006168032535661846 0 -0.0005390820039216631 0.006123688467099265 0 -0.00054365563823880283 0.0063341966952848794 0 -0.0004420003611917279 0.0065006227092166014 0 -0.00024008762628864073 0.0065494027482922348 0 -0.00024518407110838433 0.0069008486430543426 0 0.0011741844131297893 0.016276961769867669 0 0.0013529337585721037 0.016218524310803905 0 0.001233373719525691 0.016341440899684381 0 0.00035237512609458685 0.011233308490689226 0 0.00055074198710939302 0.011600177224497021 0 -0.00053947030436302167 0.0065782990895927734 0 -0.0004420003611917279 0.0065006227092166014 0 -0.00024008762628864073 0.0065494027482922348 0 0.0012607974938195696 0.01629870713663166 0 0.001233373719525691 0.016341440899684381 0 0.0010628378394743768 0.016491362737517438 0 0.0013496779248897603 0.01673552710971582 0 0.0010872892814841465 0.016483478729879347 0 0.001233373719525691 0.016341440899684381 0 0.0011654771286170901 0.016250824587598377 0 0.0010628378394743768 0.016491362737517438 0 0.0013529337585721037 0.016218524310803905 0 0.001233373719525691 0.016341440899684381 0 0.0011654771286170901 0.016250824587598377 0 0.0013529337585721037 0.016218524310803905 0 0.0011654771286170901 0.016250824587598377 0 0.0011659497802890644 0.015981333539558919 0 0.0011654771286170901 0.016250824587598377 0 0.0011659497802890644 0.015981333539558919 0 0.00093320553868318974 0.016123034055345025 0 0.0011659497802890644 0.015981333539558919 0 0.0013418059885187377 0.015588885458212309 0 0.00093864039512076534 0.015690843104489764 0 0.0013529337585721037 0.016218524310803905 0 0.0011659497802890644 0.015981333539558919 0 0.0013418059885187377 0.015588885458212309 0 0.00038047471160808198 0.010076649069990555 0 0.00089927060615443576 0.010584963313173556 0 -0.00024008762628864073 0.0065494027482922348 0 3.1863506559158562e-05 0.0072772819718116286 0 -0.00024518407110838433 0.0069008486430543426 0 -0.00024008762628864073 0.0065494027482922348 0 3.1863506559158562e-05 0.0072772819718116286 0 0.00012300701165573563 0.0073193758522870824 0 0.00055074198710939302 0.011600177224497021 0 0.00089927060615443576 0.010584963313173556 0 -0.00024518407110838433 0.0069008486430543426 0 -0.0002284101987540829 0.0070816764307121477 0 -0.00012494671972464064 0.0072464812486536332 0 -0.00024518407110838433 0.0069008486430543426 0 -0.0002284101987540829 0.0070816764307121477 0 -0.00033768499914372933 0.0068547224905244706 0 3.1863506559158562e-05 0.0072772819718116286 0 -0.00024518407110838433 0.0069008486430543426 0 -0.00012494671972464064 0.0072464812486536332 0 3.1863506559158562e-05 0.0072772819718116286 0 -0.00012494671972464064 0.0072464812486536332 0 -1.4515115339001146e-05 0.007504221631463733 0 -0.00012494671972464064 0.0072464812486536332 0 -9.1414679644526858e-05 0.0075488216747211182 0 -1.4515115339001146e-05 0.007504221631463733 0 -0.00012494671972464064 0.0072464812486536332 0 -9.1414679644526858e-05 0.0075488216747211182 0 -0.00016264289917786021 0.0073528799768573351 0 -9.1414679644526858e-05 0.0075488216747211182 0 -3.4262887383301387e-05 0.0077703581013678939 0 -1.4515115339001146e-05 0.007504221631463733 0 -0.00016264289917786021 0.0073528799768573351 0 -0.00013308222329811291 0.0075861652317323804 0 -0.00025778737774184197 0.0071630967964752719 0 -0.0002284101987540829 0.0070816764307121477 0 -0.00016264289917786021 0.0073528799768573351 0 -0.00025778737774184197 0.0071630967964752719 0 -0.0002284101987540829 0.0070816764307121477 0 -0.00012494671972464064 0.0072464812486536332 0 -0.00016264289917786021 0.0073528799768573351 0 -9.1414679644526858e-05 0.0075488216747211182 0 -0.00016264289917786021 0.0073528799768573351 0 -0.00013308222329811291 0.0075861652317323804 0 -9.1414679644526858e-05 0.0075488216747211182 0 -0.00013308222329811291 0.0075861652317323804 0 -8.2636137891284382e-05 0.0077461660058741159 0 -9.1414679644526858e-05 0.0075488216747211182 0 -8.2636137891284382e-05 0.0077461660058741159 0 -3.4262887383301387e-05 0.0077703581013678939 0 0.00089927060615443576 0.010584963313173556 0 0.00030768832947093136 0.011723613444079781 0 -3.4262887383301387e-05 0.0077703581013678939 0 2.2902075820972075e-05 0.0076281115905586548 0 -5.3064200352309232e-05 0.0080890293632583897 0 -8.2636137891284382e-05 0.0077461660058741159 0 -3.4262887383301387e-05 0.0077703581013678939 0 -7.101220342849393e-05 0.0079509584017650719 0 -3.4262887383301387e-05 0.0077703581013678939 0 -5.3064200352309232e-05 0.0080890293632583897 0 -7.101220342849393e-05 0.0079509584017650719 0 2.2902075820972075e-05 0.0076281115905586548 0 2.9419459359164768e-05 0.0075425784276663601 0 6.369222668076941e-05 0.0083144632766782578 0 2.2902075820972075e-05 0.0076281115905586548 0 -5.3064200352309232e-05 0.0080890293632583897 0 6.369222668076941e-05 0.0083144632766782578 0 3.1863506559158562e-05 0.0072772819718116286 0 -1.4515115339001146e-05 0.007504221631463733 0 7.3265544571853443e-05 0.0074196973656219878 0 2.2902075820972075e-05 0.0076281115905586548 0 -1.4515115339001146e-05 0.007504221631463733 0 7.3265544571853443e-05 0.0074196973656219878 0 0.00055838736584458925 0.0096098615035812643 0 0.00089927060615443576 0.010584963313173556 0 -3.4262887383301387e-05 0.0077703581013678939 0 2.2902075820972075e-05 0.0076281115905586548 0 -1.4515115339001146e-05 0.007504221631463733 0 -0.00060037685255141316 0.006168032535661846 0 -0.00051097818158400189 0.0065530378202937681 0 -0.00073253795776789029 0.0068934394389585391 0 -0.00060037685255141316 0.006168032535661846 0 -0.00054365563823880283 0.0063341966952848794 0 -0.00051097818158400189 0.0065530378202937681 0 -0.0004420003611917279 0.0065006227092166014 0 -0.00024518407110838433 0.0069008486430543426 0 -0.00033768499914372933 0.0068547224905244706 0 -0.0004420003611917279 0.0065006227092166014 0 -0.00051097818158400189 0.0065530378202937681 0 -0.00033768499914372933 0.0068547224905244706 0 -0.00051097818158400189 0.0065530378202937681 0 -0.00033768499914372933 0.0068547224905244706 0 -0.00034253256259080266 0.0071434923894084443 0 -0.0002284101987540829 0.0070816764307121477 0 -0.00033768499914372933 0.0068547224905244706 0 -0.00025778737774184197 0.0071630967964752719 0 -0.00033768499914372933 0.0068547224905244706 0 -0.00025778737774184197 0.0071630967964752719 0 -0.00034253256259080266 0.0071434923894084443 0 -0.00013308222329811291 0.0075861652317323804 0 -0.00025778737774184197 0.0071630967964752719 0 -0.00034253256259080266 0.0071434923894084443 0 -0.00034253256259080266 0.0071434923894084443 0 -0.00073253795776789029 0.0068934394389585391 0 -0.00021397586580743146 0.0077223969241168129 0 -0.00051097818158400189 0.0065530378202937681 0 -0.00034253256259080266 0.0071434923894084443 0 -0.00073253795776789029 0.0068934394389585391 0 -0.00061440574311075733 0.0037736989666657013 0 -0.00034505534783767287 0.0040233086798856258 0 8.4573639509379241e-05 0.0045737529748633692 0 -0.0005975985546503883 0.0054075993871156329 0 -0.00015632022425712241 0.0061440146681813355 0 -0.00013308222329811291 0.0075861652317323804 0 -0.00034253256259080266 0.0071434923894084443 0 -0.00021397586580743146 0.0077223969241168129 0 -0.00034505534783767287 0.0040233086798856258 0 8.4573639509379241e-05 0.0045737529748633692 0 4.6330153568264279e-07 0.0061898319712619622 0 -0.00015632022425712241 0.0061440146681813355 0 4.5226754778564382e-06 0.0069586471449094127 0 8.4573639509379241e-05 0.0045737529748633692 0 4.6330153568264279e-07 0.0061898319712619622 0 4.157068327675501e-05 0.0071794464118273577 0 -9.9893138745319875e-07 0.004202027402534619 0 -0.00034505534783767287 0.0040233086798856258 0 4.6330153568264279e-07 0.0061898319712619622 0 -0.00010830404889155272 0.0081511817738337961 0 -0.00010163367600788795 0.0079584686054799455 0 -0.00011075085065405189 0.0087760738653451294 0 -0.00010830404889155272 0.0081511817738337961 0 -9.3808861646458292e-05 0.0078902842229353516 0 -0.00010163367600788795 0.0079584686054799455 0 -0.00010830404889155272 0.0081511817738337961 0 -5.3064200352309232e-05 0.0080890293632583897 0 -0.00011075085065405189 0.0087760738653451294 0 -0.00010830404889155272 0.0081511817738337961 0 -7.101220342849393e-05 0.0079509584017650719 0 -9.3808861646458292e-05 0.0078902842229353516 0 -8.2636137891284382e-05 0.0077461660058741159 0 -7.101220342849393e-05 0.0079509584017650719 0 -9.3808861646458292e-05 0.0078902842229353516 0 -0.00010830404889155272 0.0081511817738337961 0 -5.3064200352309232e-05 0.0080890293632583897 0 -7.101220342849393e-05 0.0079509584017650719 0 -0.00013308222329811291 0.0075861652317323804 0 -9.3808861646458292e-05 0.0078902842229353516 0 -0.00010015864367978962 0.0077643955091294117 0 -0.00013308222329811291 0.0075861652317323804 0 -0.00021397586580743146 0.0077223969241168129 0 -0.00010015864367978962 0.0077643955091294117 0 -0.00013308222329811291 0.0075861652317323804 0 -8.2636137891284382e-05 0.0077461660058741159 0 -9.3808861646458292e-05 0.0078902842229353516 0 -9.3808861646458292e-05 0.0078902842229353516 0 -0.00010015864367978962 0.0077643955091294117 0 -0.00010163367600788795 0.0079584686054799455 0 -0.00010015864367978962 0.0077643955091294117 0 4.157068327675501e-05 0.0071794464118273577 0 -0.00010163367600788795 0.0079584686054799455 0 -0.00021397586580743146 0.0077223969241168129 0 -0.00010015864367978962 0.0077643955091294117 0 4.157068327675501e-05 0.0071794464118273577 0 4.6330153568264279e-07 0.0061898319712619622 0 4.157068327675501e-05 0.0071794464118273577 0 -2.494716524568003e-07 0.0081782957718106852 0 4.157068327675501e-05 0.0071794464118273577 0 -2.494716524568003e-07 0.0081782957718106852 0 -0.00010163367600788795 0.0079584686054799455 0 -2.494716524568003e-07 0.0081782957718106852 0 -0.00010163367600788795 0.0079584686054799455 0 -0.00011075085065405189 0.0087760738653451294 0 -2.494716524568003e-07 0.0081782957718106852 0 -0.00011075085065405189 0.0087760738653451294 0 -5.3278247075551437e-07 0.010166203121134825 0 -5.3064200352309232e-05 0.0080890293632583897 0 -0.00011075085065405189 0.0087760738653451294 0 6.369222668076941e-05 0.0083144632766782578 0 -0.00011075085065405189 0.0087760738653451294 0 0.00034917305819723716 0.0093578603481224779 0 6.369222668076941e-05 0.0083144632766782578 0 0.00022252999891308225 0.013188608267657592 0 0.00030768832947093136 0.011723613444079781 0 -0.00011075085065405189 0.0087760738653451294 0 -5.3278247075551437e-07 0.010166203121134825 0 0.00034917305819723716 0.0093578603481224779 0 -5.3278247075551437e-07 0.010166203121134825 0 1.8034537414960977e-06 0.012150635292573006 0 0.00034917305819723716 0.0093578603481224779 0 -8.249157518383372e-08 0.012151662294258436 0 0.00022252999891308225 0.013188608267657592 0 4.8028259160063152e-07 0.01215564458200616 0 -7.19001066505308e-06 0.01279737634213555 0 0.0013382924402814197 0.014169788875064577 0 0.00057501338762050197 0.014847453018346031 0 0.00062004346931257429 0.014603107229381865 0 -7.281963582471766e-05 0.012948493605671846 0 4.8028259160063152e-07 0.01215564458200616 0 -4.8209310624320326e-07 0.013494621694721263 0 -7.281963582471766e-05 0.012948493605671846 0 -5.7973424052227884e-05 0.012840419073344326 0 2.9598335706127039e-06 0.013261842219572167 0 -7.281963582471766e-05 0.012948493605671846 0 4.8028259160063152e-07 0.01215564458200616 0 -7.19001066505308e-06 0.01279737634213555 0 0.00045526304686042799 0.013005912455666865 0 0.00057501338762050197 0.014847453018346031 0 -7.281963582471766e-05 0.012948493605671846 0 -7.19001066505308e-06 0.01279737634213555 0 -5.7973424052227884e-05 0.012840419073344326 0 0.0021332196483094257 0.016401215257971488 0 0.0016977348637383148 0.017700493799950767 0 0.0013116411666224978 0.01694998103903482 0 0.00057501338762050197 0.014847453018346031 0 0.00075273040821468857 0.016830235575180735 0 -7.19001066505308e-06 0.01279737634213555 0 -0.00016248613965229493 0.013490033143956979 0 0.0013382924402814197 0.014169788875064577 0 0.00057501338762050197 0.014847453018346031 0 0.00022252999891308225 0.013188608267657592 0 -0.00018368756370723668 0.014854313772486355 0 0.0002844599211356861 0.015071776570011592 0 0.00013012690958120205 0.015528846965912833 0 -0.00018368756370723668 0.014854313772486355 0 0.00013012690958120205 0.015528846965912833 0 -0.00035072300445002601 0.015570488745109386 0 -0.00035072300445002601 0.015570488745109386 0 -0.00013713381187309623 0.015976437691009593 0 -0.0005132332734274675 0.016277457071483443 0 0.00075273040821468857 0.016830235575180735 0 0.00013291968497052882 0.017291818546478415 0 0.00013012690958120205 0.015528846965912833 0 -0.00035072300445002601 0.015570488745109386 0 -0.00013713381187309623 0.015976437691009593 0 0.00013012690958120205 0.015528846965912833 0 -0.00013713381187309623 0.015976437691009593 0 0.0002449981869726449 0.01599199028267918 0 0.0002449981869726449 0.01599199028267918 0 0.00060863058866607366 0.016009390703479755 0 0.00061879303855356482 0.015614937780779608 0 0.00013012690958120205 0.015528846965912833 0 0.0002449981869726449 0.01599199028267918 0 0.00061879303855356482 0.015614937780779608 0 0.00063526563723710888 0.015913988810325103 0 0.00084565288621606485 0.015962423968014214 0 0.0011659497802890644 0.015981333539558919 0 0.00093864039512076534 0.015690843104489764 0 0.00093320553868318974 0.016123034055345025 0 0.00060863058866607366 0.016009390703479755 0 0.00061879303855356482 0.015614937780779608 0 0.00093320553868318974 0.016123034055345025 0 0.00093864039512076534 0.015690843104489764 0 0.0004644414266160674 0.015547237584942373 0 0.00093320553868318974 0.016123034055345025 0 0.0013418059885187377 0.015588885458212309 0 0.00093864039512076534 0.015690843104489764 0 0.00076602943020479897 0.015212021549856881 0 0.00093864039512076534 0.015690843104489764 0 0.00076602943020479897 0.015212021549856881 0 0.0004644414266160674 0.015547237584942373 0 0.0002844599211356861 0.015071776570011592 0 0.00013012690958120205 0.015528846965912833 0 0.00061879303855356482 0.015614937780779608 0 1.8179070799395646e-05 0.014818081731958459 0 0.00076602943020479897 0.015212021549856881 0 0.0004644414266160674 0.015547237584942373 0 0.00022252999891308225 0.013188608267657592 0 0.00063526563723710888 0.015913988810325103 0 -0.00035038489279412246 0.01726243981890456 0 -0.00046261280295282944 0.017710444487786085 0 -0.00048704658121255122 0.018052447330067504 0 -0.00034430745676207816 0.017471767630777985 0 -0.00046261280295282944 0.017710444487786085 0 -0.00049801209500287432 0.017842720142962055 0 -0.00034430745676207816 0.017471767630777985 0 -0.00035038489279412246 0.01726243981890456 0 -0.00046261280295282944 0.017710444487786085 0 -0.0001201665723475769 0.016668996343977501 0 -0.00024260984678223729 0.017964541857486697 0 -1.0287919014213499e-06 0.016666979894001125 0 -0.00013179933257679224 0.016397211869088015 0 -8.8816725624839703e-06 0.017908457019156526 0 -0.00035038489279412246 0.01726243981890456 0 -0.00013179933257679224 0.016397211869088015 0 -0.00048704658121255122 0.018052447330067504 0 -1.0287919014213499e-06 0.016666979894001125 0 -0.00013179933257679224 0.016397211869088015 0 1.7518806432117386e-06 0.014839514429481105 0 -0.00013179933257679224 0.016397211869088015 0 -4.5491496786053587e-05 0.016917025092865443 0 0.00021479306751992806 0.016214890141372881 0 -0.00035038489279412246 0.01726243981890456 0 -0.00013179933257679224 0.016397211869088015 0 -4.5491496786053587e-05 0.016917025092865443 0 -0.00034430745676207816 0.017471767630777985 0 -0.00035038489279412246 0.01726243981890456 0 -4.5491496786053587e-05 0.016917025092865443 0 -0.00034430745676207816 0.017471767630777985 0 -4.5491496786053587e-05 0.016917025092865443 0 -6.041549208815701e-05 0.017408930219998873 0 -4.5491496786053587e-05 0.016917025092865443 0 0.00047927188663714269 0.017008363894620709 0 -6.041549208815701e-05 0.017408930219998873 0 0.00047927188663714269 0.017008363894620709 0 0.00021479306751992806 0.016214890141372881 0 0.0013570172824629637 0.015914319293021489 0 -4.5491496786053587e-05 0.016917025092865443 0 0.00047927188663714269 0.017008363894620709 0 0.00021479306751992806 0.016214890141372881 0 -0.00013179933257679224 0.016397211869088015 0 1.7518806432117386e-06 0.014839514429481105 0 0.00021479306751992806 0.016214890141372881 0 1.7518806432117386e-06 0.014839514429481105 0 0.00021479306751992806 0.016214890141372881 0 0.0013570172824629637 0.015914319293021489 0 -1.3532856317820222e-07 0.014835920102204397 0 0.00062004346931257429 0.014603107229381865 0 4.9164077220698179e-07 0.014835616201746556 0 -4.8209310624320326e-07 0.013494621694721263 0 2.9598335706127039e-06 0.013261842219572167 0 -7.281963582471766e-05 0.012948493605671846 0 -4.8209310624320326e-07 0.013494621694721263 0 2.9598335706127039e-06 0.013261842219572167 0 0.0021332196483094257 0.016401215257971488 0 0.0013570172824629637 0.015914319293021489 0 0.0013116411666224978 0.01694998103903482 0 0.00047927188663714269 0.017008363894620709 0 0.0013570172824629637 0.015914319293021489 0 0.0013116411666224978 0.01694998103903482 0 0.00047927188663714269 0.017008363894620709 0 0.0013116411666224978 0.01694998103903482 0 0.00076784858235515413 0.017616696503551899 0 0.0016977348637383148 0.017700493799950767 0 0.0013116411666224978 0.01694998103903482 0 0.00076784858235515413 0.017616696503551899 0 0.0016977348637383148 0.017700493799950767 0 0.00064046342665144353 0.018498538547547631 0 0.0013667443894294377 0.018786019174606591 0 0.0016977348637383148 0.017700493799950767 0 0.00076784858235515413 0.017616696503551899 0 0.00064046342665144353 0.018498538547547631 0 -2.50826257333974e-05 0.018089481383343362 0 0.00041226665643752104 0.018330232061008474 0 0.00026729974288927595 0.017892808217540957 0 -8.7343695754716729e-06 0.018067837866255057 0 0.00064046342665144353 0.018498538547547631 0 0.00026729974288927595 0.017892808217540957 0 0.00076784858235515413 0.017616696503551899 0 0.00064046342665144353 0.018498538547547631 0 0.00026729974288927595 0.017892808217540957 0 0.00025632229672966072 0.017553045658618951 0 -7.0732792987283693e-05 0.017755541466983934 0 0.00026729974288927595 0.017892808217540957 0 0.00076784858235515413 0.017616696503551899 0 0.00025632229672966072 0.017553045658618951 0 0.00047927188663714269 0.017008363894620709 0 0.00076784858235515413 0.017616696503551899 0 0.00025632229672966072 0.017553045658618951 0 0.00047927188663714269 0.017008363894620709 0 0.00025632229672966072 0.017553045658618951 0 -6.041549208815701e-05 0.017408930219998873 0 -0.00034430745676207816 0.017471767630777985 0 -6.041549208815701e-05 0.017408930219998873 0 -0.00039027572881837147 0.01772981890125018 0 -6.041549208815701e-05 0.017408930219998873 0 -7.0732792987283693e-05 0.017755541466983934 0 -0.00039027572881837147 0.01772981890125018 0 0.00025632229672966072 0.017553045658618951 0 -6.041549208815701e-05 0.017408930219998873 0 -7.0732792987283693e-05 0.017755541466983934 0 0.00026729974288927595 0.017892808217540957 0 -7.0732792987283693e-05 0.017755541466983934 0 -8.7343695754716729e-06 0.018067837866255057 0 -8.7343695754716729e-06 0.018067837866255057 0 -0.00010073166989852259 0.018028806210888745 0 -4.8104705178176783e-05 0.018027530850447573 0 -6.5157905425566092e-05 0.017753571981437479 0 -0.00023685654843634514 0.017919363580206044 0 -7.0732792987283693e-05 0.017755541466983934 0 -8.7343695754716729e-06 0.018067837866255057 0 -0.00010073166989852259 0.018028806210888745 0 -0.00038675218060070076 0.017827542391624498 0 -0.00041034966195260277 0.017781368803308405 0 -0.00037876015298086556 0.017759995433387177 0 -0.00038675218060070076 0.017827542391624498 0 -0.00041034966195260277 0.017781368803308405 0 -0.00039027572881837147 0.01772981890125018 0 -7.0732792987283693e-05 0.017755541466983934 0 -0.00038675218060070076 0.017827542391624498 0 -0.00039027572881837147 0.01772981890125018 0 -0.00041034966195260277 0.017781368803308405 0 -0.00039027572881837147 0.01772981890125018 0 -0.00044151646168827787 0.017786442540281212 0 -0.00039027572881837147 0.01772981890125018 0 -0.00049801209500287432 0.017842720142962055 0 -0.00044151646168827787 0.017786442540281212 0 -0.00034430745676207816 0.017471767630777985 0 -0.00039027572881837147 0.01772981890125018 0 -0.00049801209500287432 0.017842720142962055 0 -5.3169093269271455e-05 0.017992782889391302 0 -4.9009530259054972e-05 0.017972667337565407 0 -6.5072852867104742e-05 0.017990391600184001 0 -5.3169093269271455e-05 0.017992782889391302 0 -4.6857255559931963e-05 0.017944356390376771 0 -4.9009530259054972e-05 0.017972667337565407 0 -0.00010073166989852259 0.018028806210888745 0 -5.3169093269271455e-05 0.017992782889391302 0 -6.3169186110625681e-05 0.017985541947211359 0 -0.00010073166989852259 0.018028806210888745 0 -5.3169093269271455e-05 0.017992782889391302 0 -4.8104705178176783e-05 0.018027530850447573 0 -5.3169093269271455e-05 0.017992782889391302 0 -4.8104705178176783e-05 0.018027530850447573 0 -5.2442636956989577e-05 0.017995495282233247 0 -8.7343695754716729e-06 0.018067837866255057 0 -4.8104705178176783e-05 0.018027530850447573 0 -5.2442636956989577e-05 0.017995495282233247 0 -5.3169093269271455e-05 0.017992782889391302 0 -5.2442636956989577e-05 0.017995495282233247 0 -4.6857255559931963e-05 0.017944356390376771 0 -5.2442636956989577e-05 0.017995495282233247 0 -8.2038434065356469e-05 0.017915193030146378 0 -4.6857255559931963e-05 0.017944356390376771 0 -5.2442636956989577e-05 0.017995495282233247 0 -8.2038434065356469e-05 0.017915193030146378 0 -0.00012060517044126765 0.017979813688656403 0 -8.7343695754716729e-06 0.018067837866255057 0 -5.2442636956989577e-05 0.017995495282233247 0 -0.00010180688908287432 0.01804083845114416 0 -5.2442636956989577e-05 0.017995495282233247 0 -0.00010180688908287432 0.01804083845114416 0 -0.00012060517044126765 0.017979813688656403 0 -0.00010180688908287432 0.01804083845114416 0 -0.00018212748935804437 0.018010896226756931 0 -0.00012060517044126765 0.017979813688656403 0 0.00041226665643752104 0.018330232061008474 0 0.00013291968497052882 0.017291818546478415 0 0.00013291968497052882 0.017291818546478415 0 -0.00014686890892325586 0.017610251474221187 0 -0.00018212748935804437 0.018010896226756931 0 -0.00012060517044126765 0.017979813688656403 0 -0.00017275301985502522 0.017916408301899014 0 -8.2038434065356469e-05 0.017915193030146378 0 -0.00012060517044126765 0.017979813688656403 0 -0.00017275301985502522 0.017916408301899014 0 -8.2038434065356469e-05 0.017915193030146378 0 -0.00017275301985502522 0.017916408301899014 0 -0.00010992830696729992 0.017727818288277918 0 -0.00014686890892325586 0.017610251474221187 0 -0.00011949580293628659 0.017690422479041696 0 -0.00010609410240183379 0.017229708530781783 0 -0.00010992830696729992 0.017727818288277918 0 0.00016595322627300851 0.017471058627719405 0 -7.0625205861828217e-05 0.017854968561938508 0 -4.4653122438464004e-05 0.017940410887290918 0 -8.655831244319635e-05 0.017915055624625312 0 -0.00010992830696729992 0.017727818288277918 0 -7.0625205861828217e-05 0.017854968561938508 0 -8.655831244319635e-05 0.017915055624625312 0 -8.2038434065356469e-05 0.017915193030146378 0 -7.0625205861828217e-05 0.017854968561938508 0 -4.6857255559931963e-05 0.017944356390376771 0 -8.2038434065356469e-05 0.017915193030146378 0 -0.00010992830696729992 0.017727818288277918 0 -7.0625205861828217e-05 0.017854968561938508 0 -4.6857255559931963e-05 0.017944356390376771 0 -4.4653122438464004e-05 0.017940410887290918 0 -4.9009530259054972e-05 0.017972667337565407 0 -7.0625205861828217e-05 0.017854968561938508 0 -4.6857255559931963e-05 0.017944356390376771 0 -4.4653122438464004e-05 0.017940410887290918 0 -3.5208762581910757e-05 0.01800123525697804 0 -5.3098561975642534e-05 0.018003524951210707 0 -6.8771811699935655e-05 0.018098680546963897 0 -4.4653122438464004e-05 0.017940410887290918 0 -3.5208762581910757e-05 0.01800123525697804 0 -5.3098561975642534e-05 0.018003524951210707 0 -4.4653122438464004e-05 0.017940410887290918 0 -5.3098561975642534e-05 0.018003524951210707 0 -4.9009530259054972e-05 0.017972667337565407 0 -5.3098561975642534e-05 0.018003524951210707 0 -4.9009530259054972e-05 0.017972667337565407 0 -6.5072852867104742e-05 0.017990391600184001 0 0.00077670267723722885 0.016883240447950056 0 0.0006215361116123151 0.016309229682109426 0 8.3588234826934495e-05 0.01652326437246248 0 0.00081087523415634478 0.016928707114960671 0 0.00013244121804558537 0.016639206117400385 0 0.00077670267723722885 0.016883240447950056 0 0.00037772263543350761 0.016979952742944036 0 0.00047330703345042295 0.017255114601548216 0 0.00077670267723722885 0.016883240447950056 0 0.0010628378394743768 0.016491362737517438 0 0.0010144783932130818 0.017132707446332236 0 0.00077670267723722885 0.016883240447950056 0 0.0010628378394743768 0.016491362737517438 0 0.0006215361116123151 0.016309229682109426 0 0.0010628378394743768 0.016491362737517438 0 0.00093320553868318974 0.016123034055345025 0 0.0006215361116123151 0.016309229682109426 0 0.0011654771286170901 0.016250824587598377 0 0.0010628378394743768 0.016491362737517438 0 0.00093320553868318974 0.016123034055345025 0 0.00060863058866607366 0.016009390703479755 0 0.00093320553868318974 0.016123034055345025 0 0.0006215361116123151 0.016309229682109426 0 0.0002449981869726449 0.01599199028267918 0 0.00060863058866607366 0.016009390703479755 0 0.0006215361116123151 0.016309229682109426 0 0.0002449981869726449 0.01599199028267918 0 0.0006215361116123151 0.016309229682109426 0 8.3588234826934495e-05 0.01652326437246248 0 -0.00013713381187309623 0.015976437691009593 0 0.0002449981869726449 0.01599199028267918 0 8.3588234826934495e-05 0.01652326437246248 0 0.00013291968497052882 0.017291818546478415 0 0.00013244121804558537 0.016639206117400385 0 -0.00013713381187309623 0.015976437691009593 0 -0.0005132332734274675 0.016277457071483443 0 8.3588234826934495e-05 0.01652326437246248 0 -0.00010609410240183379 0.017229708530781783 0 0.00037772263543350761 0.016979952742944036 0 0.00016595322627300851 0.017471058627719405 0 -3.5128368410016693e-05 0.016865452231250654 0 -0.00010609410240183379 0.017229708530781783 0 0.00037772263543350761 0.016979952742944036 0 0.00047330703345042295 0.017255114601548216 0 0.00016595322627300851 0.017471058627719405 0 0.00041183373490021491 0.017578934222753466 0 0.00037772263543350761 0.016979952742944036 0 0.00047330703345042295 0.017255114601548216 0 0.00016595322627300851 0.017471058627719405 0 0.00016595322627300851 0.017471058627719405 0 0.00041183373490021491 0.017578934222753466 0 0.00011867799227751072 0.017927726687605033 0 -0.00010992830696729992 0.017727818288277918 0 0.00016595322627300851 0.017471058627719405 0 0.00011867799227751072 0.017927726687605033 0 0.00073217910089755475 0.017368912206254122 0 0.0010701560794662273 0.017576466237895366 0 0.00062008814405295064 0.017928875913365172 0 0.00041183373490021491 0.017578934222753466 0 0.00073217910089755475 0.017368912206254122 0 0.00062008814405295064 0.017928875913365172 0 0.00047330703345042295 0.017255114601548216 0 0.00041183373490021491 0.017578934222753466 0 0.00073217910089755475 0.017368912206254122 0 0.00077670267723722885 0.016883240447950056 0 0.00047330703345042295 0.017255114601548216 0 0.00073217910089755475 0.017368912206254122 0 0.00073217910089755475 0.017368912206254122 0 0.0010144783932130818 0.017132707446332236 0 0.0010701560794662273 0.017576466237895366 0 0.0014945879995812777 0.017189091891217076 0 0.0010628378394743768 0.016491362737517438 0 0.0010144783932130818 0.017132707446332236 0 0.0014945879995812777 0.017189091891217076 0 0.0010144783932130818 0.017132707446332236 0 0.0010701560794662273 0.017576466237895366 0 0.00077670267723722885 0.016883240447950056 0 0.00073217910089755475 0.017368912206254122 0 0.0010144783932130818 0.017132707446332236 0 0.0010701560794662273 0.017576466237895366 0 0.00062008814405295064 0.017928875913365172 0 0.0012146377011333363 0.01789372823790775 0 0.00085940738672704857 0.017813039172285119 0 0.0013883990490255928 0.017911543279171042 0 0.001425613589267051 0.017773104127342423 0 0.0011296565224942618 0.017718298420748516 0 0.0014323336789102566 0.017735578291675019 0 0.0014104033841791837 0.017786949768937736 0 0.0013306107548621958 0.01785238408090491 0 0.001425613589267051 0.017773104127342423 0 0.0012207302773902338 0.01789124454136044 0 0.0012034975334947646 0.018165511234067681 0 0.001425613589267051 0.017773104127342423 0 0.0014616743785251108 0.017541838162717597 0 0.0014294044968921468 0.01762301221521544 0 0.001425613589267051 0.017773104127342423 0 0.0012207302773902338 0.01789124454136044 0 0.0011296565224942618 0.017718298420748516 0 0.0012207302773902338 0.01789124454136044 0 0.0011296565224942618 0.017718298420748516 0 0.00089211094119647091 0.018069633128475513 0 0.00041183373490021491 0.017578934222753466 0 0.00062008814405295064 0.017928875913365172 0 0.00011867799227751072 0.017927726687605033 0 0.00085940738672704857 0.017813039172285119 0 0.00042395755274758981 0.017860575650667652 0 0.00070480248953986527 0.017791580887229951 0 0.00089211094119647091 0.018069633128475513 0 0.00048697819890410933 0.01807666521094381 0 0.0011296565224942618 0.017718298420748516 0 0.00070480248953986527 0.017791580887229951 0 0.00089211094119647091 0.018069633128475513 0 0.00089211094119647091 0.018069633128475513 0 0.00094378378833176642 0.018471233812317897 0 0.0012034975334947646 0.018165511234067681 0 0.00089211094119647091 0.018069633128475513 0 0.00048697819890410933 0.01807666521094381 0 0.00058757800649984 0.018354959730517571 0 0.001008803575245031 0.018154261461779921 0 0.00061302311611882091 0.018385934060665417 0 0.00089211094119647091 0.018069633128475513 0 0.00094378378833176642 0.018471233812317897 0 0.00058757800649984 0.018354959730517571 0 0.00075292070242578715 0.018443125668121601 0 0.00087013209651048398 0.018427848773108744 0 0.00066467113687561623 0.018343379141925905 0 0.00075292070242578715 0.018443125668121601 0 0.00066467113687561623 0.018343379141925905 0 0.00070620377988635805 0.018462982032085004 0 0.001008803575245031 0.018154261461779921 0 0.0010430492025768838 0.018095095513510087 0 0.0015381305221795361 0.017647493226702289 0 0.0014616743785251108 0.017541838162717597 0 0.0013847914164781205 0.017752880069370338 0 0.0012025885977605449 0.017767278507487105 0 0.0014616743785251108 0.017541838162717597 0 0.0013847914164781205 0.017752880069370338 0 0.001149029622235453 0.01774774148424995 0 0.0012025885977605449 0.017767278507487105 0 0.0014616743785251108 0.017541838162717597 0 0.001008803575245031 0.018154261461779921 0 0.0013306107548621958 0.01785238408090491 0 0.0015381305221795361 0.017647493226702289 0 0.0014682558531894196 0.017562470475682018 0 0.0014616743785251108 0.017541838162717597 0 0.0015381305221795361 0.017647493226702289 0 0.0014682558531894196 0.017562470475682018 0 0.0014225204006059256 0.017483008416061818 0 0.0014682558531894196 0.017562470475682018 0 0.0014616743785251108 0.017541838162717597 0 0.0014294044968921468 0.01762301221521544 0 0.0012207302773902338 0.01789124454136044 0 0.00089211094119647091 0.018069633128475513 0 0.0012034975334947646 0.018165511234067681 0 9.5172944590671426e-07 0.018018135161297449 0 2.7792874778262703e-05 0.018198824761388913 0 -6.8771811699935655e-05 0.018098680546963897 0 2.7792874778262703e-05 0.018198824761388913 0 -6.8771811699935655e-05 0.018098680546963897 0 -0.00012722477141164238 0.01828567044781447 0 -3.5208762581910757e-05 0.01800123525697804 0 9.5172944590671426e-07 0.018018135161297449 0 -6.8771811699935655e-05 0.018098680546963897 0 -4.4653122438464004e-05 0.017940410887290918 0 -3.5208762581910757e-05 0.01800123525697804 0 9.5172944590671426e-07 0.018018135161297449 0 -4.4653122438464004e-05 0.017940410887290918 0 9.5172944590671426e-07 0.018018135161297449 0 -8.655831244319635e-05 0.017915055624625312 0 4.9050922423329613e-06 0.017998175477110061 0 0.00012799340162500855 0.0179109958770521 0 9.5172944590671426e-07 0.018018135161297449 0 0.00017589157997217089 0.018089448603679427 0 2.7792874778262703e-05 0.018198824761388913 0 9.5172944590671426e-07 0.018018135161297449 0 0.00017589157997217089 0.018089448603679427 0 0.00033478428998029328 0.017889862301873751 0 0.00017589157997217089 0.018089448603679427 0 0.00033478428998029328 0.017889862301873751 0 0.00048697819890410933 0.01807666521094381 0 0.00042395755274758981 0.017860575650667652 0 0.00012799340162500855 0.0179109958770521 0 -0.00010992830696729992 0.017727818288277918 0 0.00011867799227751072 0.017927726687605033 0 -8.655831244319635e-05 0.017915055624625312 0 0.00070480248953986527 0.017791580887229951 0 0.00033478428998029328 0.017889862301873751 0 0.00048697819890410933 0.01807666521094381 0 0.00061302311611882091 0.018385934060665417 0 0.00031661598924521094 0.018253437577739947 0 0.00048697819890410933 0.01807666521094381 0 0.00058757800649984 0.018354959730517571 0 0.00026714257206426998 0.018255779293272351 0 0.00066467113687561623 0.018343379141925905 0 0.00036868102761355678 0.018254703621234176 0 0.00051624736255154494 0.018483525488128389 0 0.00066467113687561623 0.018343379141925905 0 0.00051624736255154494 0.018483525488128389 0 0.00070620377988635805 0.018462982032085004 0 0.00036868102761355678 0.018254703621234176 0 0.00020258189722538309 0.018429778574640891 0 0.00051624736255154494 0.018483525488128389 0 0.00017589157997217089 0.018089448603679427 0 0.00048697819890410933 0.01807666521094381 0 0.00026714257206426998 0.018255779293272351 0 0.00017589157997217089 0.018089448603679427 0 0.00026714257206426998 0.018255779293272351 0 2.7792874778262703e-05 0.018198824761388913 0 0.00031661598924521094 0.018253437577739947 0 4.7034280480094165e-05 0.018197632769868022 0 0.00036868102761355678 0.018254703621234176 0 0.00020258189722538309 0.018429778574640891 0 2.7792874778262703e-05 0.018198824761388913 0 0.00020258189722538309 0.018429778574640891 0 -5.2106748064330789e-05 0.018403715968547146 0 2.7792874778262703e-05 0.018198824761388913 0 0.00020258189722538309 0.018429778574640891 0 -5.2106748064330789e-05 0.018403715968547146 0 7.9911786155253392e-05 0.018579126524044452 0 -5.2106748064330789e-05 0.018403715968547146 0 2.7792874778262703e-05 0.018198824761388913 0 -0.00012722477141164238 0.01828567044781447 0 4.1746779676648828e-05 0.018771032613106812 0 7.9911786155253392e-05 0.018579126524044452 0 -0.00015702653877363199 0.018603034447525521 0 -5.2106748064330789e-05 0.018403715968547146 0 7.9911786155253392e-05 0.018579126524044452 0 -0.00015702653877363199 0.018603034447525521 0 4.1746779676648828e-05 0.018771032613106812 0 7.9911786155253392e-05 0.018579126524044452 0 0.00037326607780491748 0.018688118073184695 0 0.00020258189722538309 0.018429778574640891 0 7.9911786155253392e-05 0.018579126524044452 0 0.00037326607780491748 0.018688118073184695 0 4.2055809853338893e-05 0.018721152503263557 0 0.00042734903391166958 0.018626513098662197 0 5.2112894724717504e-05 0.018671069182910695 0 0.00048226411487790861 0.018568770352557426 0 0.00036996251854903655 0.01893486166942325 0 0.00048226411487790861 0.018568770352557426 0 0.00062913389314615635 0.018613927587704422 0 0.00061564771567780357 0.018810107332306217 0 0.00020258189722538309 0.018429778574640891 0 0.00037326607780491748 0.018688118073184695 0 0.00051624736255154494 0.018483525488128389 0 0.00042734903391166958 0.018626513098662197 0 0.00068916067772714813 0.018550038460147612 0 0.00037326607780491748 0.018688118073184695 0 0.00051624736255154494 0.018483525488128389 0 0.00070812689830019096 0.018538634912116481 0 0.00051624736255154494 0.018483525488128389 0 0.00070620377988635805 0.018462982032085004 0 0.00070812689830019096 0.018538634912116481 0 0.00062913389314615635 0.018613927587704422 0 0.00070812689830019096 0.018538634912116481 0 0.00072017557619409752 0.018530171459328022 0 0.00048226411487790861 0.018568770352557426 0 0.00062913389314615635 0.018613927587704422 0 0.00070812689830019096 0.018538634912116481 0 0.00062913389314615635 0.018613927587704422 0 0.00072350734985226648 0.018686678854492978 0 0.00072017557619409752 0.018530171459328022 0 0.00072350734985226648 0.018686678854492978 0 0.00061564771567780357 0.018810107332306217 0 0.00083185643992334532 0.018886166719679576 0 0.00062913389314615635 0.018613927587704422 0 0.00072350734985226648 0.018686678854492978 0 0.00061564771567780357 0.018810107332306217 0 0.00061564771567780357 0.018810107332306217 0 0.00060770213823635834 0.019154188966667443 0 0.00083185643992334532 0.018886166719679576 0 0.00060770213823635834 0.019154188966667443 0 0.00083185643992334532 0.018886166719679576 0 0.00086387648470427061 0.01932809380517737 0 0.00061564771567780357 0.018810107332306217 0 0.00060770213823635834 0.019154188966667443 0 0.00036996251854903655 0.01893486166942325 0 0.00048226411487790861 0.018568770352557426 0 0.00061564771567780357 0.018810107332306217 0 0.00036996251854903655 0.01893486166942325 0 5.2112894724717504e-05 0.018671069182910695 0 0.00036996251854903655 0.01893486166942325 0 9.4159868934434461e-05 0.019071378733548732 0 0.00036996251854903655 0.01893486166942325 0 0.00025891270817527887 0.019347770437240844 0 9.4159868934434461e-05 0.019071378733548732 0 0.00060770213823635834 0.019154188966667443 0 0.00036996251854903655 0.01893486166942325 0 0.00025891270817527887 0.019347770437240844 0 0.00025891270817527887 0.019347770437240844 0 -4.2581986110737884e-05 0.019348604409779844 0 9.4159868934434461e-05 0.019071378733548732 0 -4.2581986110737884e-05 0.019348604409779844 0 9.4159868934434461e-05 0.019071378733548732 0 -0.00017863536362855428 0.019100726408626194 0 5.2112894724717504e-05 0.018671069182910695 0 9.4159868934434461e-05 0.019071378733548732 0 -0.00017863536362855428 0.019100726408626194 0 0.001188410010160888 0.018208661739409684 0 0.0010581887222584677 0.018457490753159157 0 0.001382889083057326 0.018419509832584557 0 0.0013591755421791419 0.017985987272276772 0 0.001188410010160888 0.018208661739409684 0 0.001382889083057326 0.018419509832584557 0 0.0016372857083320925 0.018030532160697891 0 0.0013591755421791419 0.017985987272276772 0 0.001382889083057326 0.018419509832584557 0 0.0016372857083320925 0.018030532160697891 0 0.001382889083057326 0.018419509832584557 0 0.0018657077827689732 0.018270314991180869 0 0.0015381305221795361 0.017647493226702289 0 0.0016372857083320925 0.018030532160697891 0 0.0013591755421791419 0.017985987272276772 0 0.0015381305221795361 0.017647493226702289 0 0.0013847914164781205 0.017752880069370338 0 0.0013591755421791419 0.017985987272276772 0 0.0012025885977605449 0.017767278507487105 0 0.0013847914164781205 0.017752880069370338 0 0.0013591755421791419 0.017985987272276772 0 0.001109577966545063 0.017737288348888196 0 0.0012025885977605449 0.017767278507487105 0 0.0010837138157336241 0.017985769877098816 0 0.0013591755421791419 0.017985987272276772 0 0.0010837138157336241 0.017985769877098816 0 0.001188410010160888 0.018208661739409684 0 0.0012025885977605449 0.017767278507487105 0 0.0013591755421791419 0.017985987272276772 0 0.0010837138157336241 0.017985769877098816 0 0.001008803575245031 0.018154261461779921 0 0.00083817474571452129 0.018296653011652106 0 0.00075292070242578715 0.018443125668121601 0 0.00087013209651048398 0.018427848773108744 0 0.00076693143490967554 0.018524437389606338 0 0.001109577966545063 0.017737288348888196 0 0.0010837138157336241 0.017985769877098816 0 0.00087351940234047085 0.018078436104035259 0 0.0010837138157336241 0.017985769877098816 0 0.00087351940234047085 0.018078436104035259 0 0.0010263857069083004 0.018212824520605565 0 0.0010837138157336241 0.017985769877098816 0 0.001188410010160888 0.018208661739409684 0 0.0010263857069083004 0.018212824520605565 0 0.00075292070242578715 0.018443125668121601 0 0.00070620377988635805 0.018462982032085004 0 0.00076693143490967554 0.018524437389606338 0 0.00076693143490967554 0.018524437389606338 0 0.00070812689830019096 0.018538634912116481 0 0.00072017557619409752 0.018530171459328022 0 0.00070620377988635805 0.018462982032085004 0 0.00076693143490967554 0.018524437389606338 0 0.00070812689830019096 0.018538634912116481 0 0.00083817474571452129 0.018296653011652106 0 0.00072936490285960807 0.018480341713936109 0 0.00087351940234047085 0.018078436104035259 0 0.00072017557619409752 0.018530171459328022 0 0.00090627180587464593 0.018399371540107779 0 0.00072017557619409752 0.018530171459328022 0 0.00090627180587464593 0.018399371540107779 0 0.0008655403506772825 0.018631373498448785 0 0.00090627180587464593 0.018399371540107779 0 0.0010581887222584677 0.018457490753159157 0 0.0008655403506772825 0.018631373498448785 0 0.00072350734985226648 0.018686678854492978 0 0.00072017557619409752 0.018530171459328022 0 0.0008655403506772825 0.018631373498448785 0 0.001188410010160888 0.018208661739409684 0 0.0010263857069083004 0.018212824520605565 0 0.0010581887222584677 0.018457490753159157 0 0.00087351940234047085 0.018078436104035259 0 0.00090627180587464593 0.018399371540107779 0 0.0010263857069083004 0.018212824520605565 0 0.00090627180587464593 0.018399371540107779 0 0.0010263857069083004 0.018212824520605565 0 0.0010581887222584677 0.018457490753159157 0 0.0010581887222584677 0.018457490753159157 0 0.0010998574170668774 0.018728144761208973 0 0.0008655403506772825 0.018631373498448785 0 0.0010581887222584677 0.018457490753159157 0 0.0010998574170668774 0.018728144761208973 0 0.001382889083057326 0.018419509832584557 0 0.0010998574170668774 0.018728144761208973 0 0.0008655403506772825 0.018631373498448785 0 0.00083185643992334532 0.018886166719679576 0 0.00072350734985226648 0.018686678854492978 0 0.0008655403506772825 0.018631373498448785 0 0.00083185643992334532 0.018886166719679576 0 0.0010998574170668774 0.018728144761208973 0 0.00083185643992334532 0.018886166719679576 0 0.0011344580125739368 0.019057156515090344 0 0.0010998574170668774 0.018728144761208973 0 0.0013528701412656424 0.018829421697036032 0 0.0011344580125739368 0.019057156515090344 0 0.0010998574170668774 0.018728144761208973 0 0.0013528701412656424 0.018829421697036032 0 0.001382889083057326 0.018419509832584557 0 0.0013528701412656424 0.018829421697036032 0 0.001382889083057326 0.018419509832584557 0 0.001714401063898107 0.018745871133169226 0 0.001382889083057326 0.018419509832584557 0 0.001714401063898107 0.018745871133169226 0 0.0018657077827689732 0.018270314991180869 0 0.0013528701412656424 0.018829421697036032 0 0.001714401063898107 0.018745871133169226 0 0.0014617628903555652 0.019192273907977106 0 0.001714401063898107 0.018745871133169226 0 0.0019979470575768456 0.018849155338070106 0 0.0021577956065377663 0.018509660118749438 0 0.0019979470575768456 0.018849155338070106 0 0.0021577956065377663 0.018509660118749438 0 0.0022542717333074074 0.018966505182964236 0 0.0021577956065377663 0.018509660118749438 0 0.0022195917952023592 0.018116304101554549 0 0.0025078775491328251 0.018236793254216694 0 0.0021577956065377663 0.018509660118749438 0 0.0018657077827689732 0.018270314991180869 0 0.0022195917952023592 0.018116304101554549 0 0.001714401063898107 0.018745871133169226 0 0.0021577956065377663 0.018509660118749438 0 0.0018657077827689732 0.018270314991180869 0 0.0016372857083320925 0.018030532160697891 0 0.0018657077827689732 0.018270314991180869 0 0.002072270341482716 0.017815675825363413 0 0.0018657077827689732 0.018270314991180869 0 0.0022195917952023592 0.018116304101554549 0 0.002072270341482716 0.017815675825363413 0 0.0022195917952023592 0.018116304101554549 0 0.002072270341482716 0.017815675825363413 0 0.0025388704963841468 0.017881468393451925 0 0.001702776930312258 0.017526328903686734 0 0.0017887327798413416 0.017407818175345049 0 0.0015381305221795361 0.017647493226702289 0 0.0016372857083320925 0.018030532160697891 0 0.002072270341482716 0.017815675825363413 0 0.0015371418272883866 0.017616216666530623 0 0.001702776930312258 0.017526328903686734 0 0.00078574745165711269 0.016902550047018582 0 0.00091240007997529901 0.017089986315039704 0 0.00076244634484699 0.017150272964005561 0 0.00078574745165711269 0.016902550047018582 0 0.00091240007997529901 0.017089986315039704 0 0.0010560282371113597 0.016927083858609696 0 0.0013633915266927012 0.017234683122018327 0 0.0010560282371113597 0.016927083858609696 0 0.001068454143141133 0.017191979771049162 0 0.00091240007997529901 0.017089986315039704 0 0.0010560282371113597 0.016927083858609696 0 0.001068454143141133 0.017191979771049162 0 0.0022195917952023592 0.018116304101554549 0 0.0025388704963841468 0.017881468393451925 0 0.0025078775491328251 0.018236793254216694 0 0.0025388704963841468 0.017881468393451925 0 0.0027664954612280916 0.017812748935627554 0 0.0027217387894533456 0.017798472268174114 0 0.0017887327798413416 0.017407818175345049 0 0.0016443203422447088 0.017240698755270747 0 0.00078574745165711269 0.016902550047018582 0 0.0010560282371113597 0.016927083858609696 0 0.00052839701952333456 0.016714710001936826 0 0.0025388704963841468 0.017881468393451925 0 0.0025078775491328251 0.018236793254216694 0 0.0027664954612280916 0.017812748935627554 0 0.0025078775491328251 0.018236793254216694 0 0.002828015800180252 0.018507735809349096 0 0.0027664954612280916 0.017812748935627554 0 0.0029324746092632636 0.017397510591587464 0 0.00279068960531886 0.017875856816221593 0 0.0021577956065377663 0.018509660118749438 0 0.0025458327173526205 0.01875189612904634 0 0.0022542717333074074 0.018966505182964236 0 0.0021577956065377663 0.018509660118749438 0 0.0025078775491328251 0.018236793254216694 0 0.0025458327173526205 0.01875189612904634 0 0.0029324746092632636 0.017397510591587464 0 0.003241577215813465 0.018043746850136759 0 0.0025458327173526205 0.01875189612904634 0 0.002828015800180252 0.018507735809349096 0 0.0027455732882850242 0.019056821345331203 0 0.0025078775491328251 0.018236793254216694 0 0.0025458327173526205 0.01875189612904634 0 0.002828015800180252 0.018507735809349096 0 0.0018781169509996709 0.016225417923409105 0 0.002472925104755812 0.017028540940653553 0 0.0027638079368093689 0.016031131223825108 0 0.0030828843694683901 0.016602916356235318 0 0.002472925104755812 0.017028540940653553 0 0.0027638079368093689 0.016031131223825108 0 0.0018781169509996709 0.016225417923409105 0 0.0018835499637490417 0.016795200069667296 0 0.002472925104755812 0.017028540940653553 0 0.0018835499637490417 0.016795200069667296 0 0.002472925104755812 0.017028540940653553 0 0.0015860492641444619 0.016973220477340796 0 0.002472925104755812 0.017028540940653553 0 0.0015860492641444619 0.016973220477340796 0 0.0027217387894533456 0.017798472268174114 0 0.0030828843694683901 0.016602916356235318 0 0.002472925104755812 0.017028540940653553 0 0.0027664954612280916 0.017812748935627554 0 0.00045336082016379721 0.0038969379991861991 0 0.00045629856740604912 0.0040202320777589185 0 0.00060981196970552761 0.0039374141484534346 0 0.00045629856740604912 0.0040202320777589185 0 0.00060981196970552761 0.0039374141484534346 0 0.00060756539641882205 0.0040675152989715791 0 0.00063958313923052315 0.0039481410493973027 0 0.00060981196970552761 0.0039374141484534346 0 0.00060756539641882205 0.0040675152989715791 0 0.0018781169509996709 0.016225417923409105 0 0.0018835499637490417 0.016795200069667296 0 0.001769407011774093 0.017048308714974102 0 0.0012267927605497519 0.010176809905133232 0 0.0012074618898918186 0.010543533253753705 0 0.001769407011774093 0.017048308714974102 0 0.0020169493314574852 0.016525178733889107 0 0.0015860492641444619 0.016973220477340796 0 0.0018835499637490417 0.016795200069667296 0 0.001769407011774093 0.017048308714974102 0 0.0015860492641444619 0.016973220477340796 0 0.00045629856740604912 0.0040202320777589185 0 0.00043674701647202028 0.0042008108376601194 0 0.00060756539641882205 0.0040675152989715791 0 0.0031101209526876268 0.016356127066586314 0 0.001769407011774093 0.017048308714974102 0 0.0020169493314574852 0.016525178733889107 0 0.0031101209526876268 0.016356127066586314 0 0.0020169493314574852 0.016525178733889107 0 0.0021820158039481527 0.015888497527287958 0 0.0018554093818562987 0.010044039511661348 0 0.0012074618898918186 0.010543533253753705 0 0.0020169493314574852 0.016525178733889107 0 0.0016267396938487637 0.016146877931567966 0 0.0021820158039481527 0.015888497527287958 0 0.0020169493314574852 0.016525178733889107 0 0.0015860492641444619 0.016973220477340796 0 0.0016267396938487637 0.016146877931567966 0 0.0015860492641444619 0.016973220477340796 0 0.0016267396938487637 0.016146877931567966 0 0.0012614613132349377 0.016380399236795191 0 0.0016267396938487637 0.016146877931567966 0 0.0017098341185571616 0.015305316681884756 0 0.00099877753404311199 0.015675038342670783 0 0.0017098341185571616 0.015305316681884756 0 0.00099877753404311199 0.015675038342670783 0 0.001295831568078194 0.014900376879090535 0 0.0016267396938487637 0.016146877931567966 0 0.0017098341185571616 0.015305316681884756 0 0.0021820158039481527 0.015888497527287958 0 0.0017098341185571616 0.015305316681884756 0 0.0027584551040876859 0.015085118477888897 0 0.0021820158039481527 0.015888497527287958 0 0.0031101209526876268 0.016356127066586314 0 0.0027584551040876859 0.015085118477888897 0 0.0021820158039481527 0.015888497527287958 0 0.002472925104755812 0.017028540940653553 0 0.0027664954612280916 0.017812748935627554 0 0.0027217387894533456 0.017798472268174114 0 0.00052839701952333456 0.016714710001936826 0 0.0008094118511005659 0.016657560486207854 0 0.00067373474777939889 0.016758371702961714 0 0.00052839701952333456 0.016714710001936826 0 0.00067373474777939889 0.016758371702961714 0 0.00065158065925065289 0.016816219571190047 0 0.00078574745165711269 0.016902550047018582 0 0.00052839701952333456 0.016714710001936826 0 0.00065158065925065289 0.016816219571190047 0 0.0015860492641444619 0.016973220477340796 0 0.00052839701952333456 0.016714710001936826 0 0.0008094118511005659 0.016657560486207854 0 0.0015960742648865973 0.017026898838461701 0 0.0016443203422447088 0.017240698755270747 0 0.0015860492641444619 0.016973220477340796 0 0.0012614613132349377 0.016380399236795191 0 0.0008094118511005659 0.016657560486207854 0 0.0012614613132349377 0.016380399236795191 0 0.0008094118511005659 0.016657560486207854 0 0.00099877753404311199 0.015675038342670783 0 0.0008094118511005659 0.016657560486207854 0 0.00046330139170652919 0.016904967171507017 0 0.00067373474777939889 0.016758371702961714 0 0.00077138210177854277 0.016551305198077557 0 0.0007023202201068996 0.016413418577686151 0 0.0016267396938487637 0.016146877931567966 0 0.0012614613132349377 0.016380399236795191 0 0.00099877753404311199 0.015675038342670783 0 0.00046330139170652919 0.016904967171507017 0 0.00066473652805378502 0.016925733693583449 0 0.00054592687561674921 0.017124206384930986 0 0.00078574745165711269 0.016902550047018582 0 0.00066473652805378502 0.016925733693583449 0 0.00076244634484699 0.017150272964005561 0 0.00046330139170652919 0.016904967171507017 0 0.00066473652805378502 0.016925733693583449 0 0.00067373474777939889 0.016758371702961714 0 0.00066473652805378502 0.016925733693583449 0 0.00067373474777939889 0.016758371702961714 0 0.00065158065925065289 0.016816219571190047 0 0.00078574745165711269 0.016902550047018582 0 0.00066473652805378502 0.016925733693583449 0 0.00065158065925065289 0.016816219571190047 0 0.00064083693313170904 0.017255642406820211 0 0.00054592687561674921 0.017124206384930986 0 0.00052474130097350503 0.017374584265205988 0 0.00076244634484699 0.017150272964005561 0 0.00064083693313170904 0.017255642406820211 0 0.00054592687561674921 0.017124206384930986 0 0.00066473652805378502 0.016925733693583449 0 0.00076244634484699 0.017150272964005561 0 0.00054592687561674921 0.017124206384930986 0 0.00076244634484699 0.017150272964005561 0 0.00074293987172449497 0.017309948397714915 0 0.00064083693313170904 0.017255642406820211 0 0.00054592687561674921 0.017124206384930986 0 0.00032907584299530764 0.017152457059357626 0 0.00052474130097350503 0.017374584265205988 0 0.00046330139170652919 0.016904967171507017 0 0.00054592687561674921 0.017124206384930986 0 0.00032907584299530764 0.017152457059357626 0 0.0007023202201068996 0.016413418577686151 0 0.00080217828060759745 0.015231689536329621 0 0.00080217828060759745 0.015231689536329621 0 -0.00045770584325460176 0.015020718764843935 0 -0.0012925862892187113 0.012732874545925806 0 0.0011912647479141894 0.012018112644027679 0 -0.00048051537137112834 0.011045616305431013 0 0.000142413996847086 0.014284756831708125 0 -0.0012925862892187113 0.012732874545925806 0 0.0011912647479141894 0.012018112644027679 0 -0.0012925862892187113 0.012732874545925806 0 -0.00154012894892149 0.011290441686556964 0 -0.00048051537137112834 0.011045616305431013 0 -0.0012925862892187113 0.012732874545925806 0 -0.0027073880810397554 0.011198693194337422 0 -0.00154012894892149 0.011290441686556964 0 -0.00045770584325460176 0.015020718764843935 0 -0.00041761583558680697 0.014365405086799427 0 0.00052474130097350503 0.017374584265205988 0 0.00067797460953324758 0.017390723327075065 0 0.00070869472929998266 0.017554131511867233 0 0.00076077768307115229 0.017467286097833198 0 0.00067797460953324758 0.017390723327075065 0 0.00078550468713917631 0.017403230791480671 0 0.00076077768307115229 0.017467286097833198 0 0.00067797460953324758 0.017390723327075065 0 0.00070869472929998266 0.017554131511867233 0 0.00074293987172449497 0.017309948397714915 0 0.00067797460953324758 0.017390723327075065 0 0.00078550468713917631 0.017403230791480671 0 0.00074293987172449497 0.017309948397714915 0 0.00064083693313170904 0.017255642406820211 0 0.00067797460953324758 0.017390723327075065 0 0.00064083693313170904 0.017255642406820211 0 0.00052474130097350503 0.017374584265205988 0 0.00067797460953324758 0.017390723327075065 0 0.0017098341185571616 0.015305316681884756 0 0.0027584551040876859 0.015085118477888897 0 0.0021937758554563119 0.014103042620121246 0 0.0034336246552976461 0.013892530687353615 0 0.0027584551040876859 0.015085118477888897 0 0.0021937758554563119 0.014103042620121246 0 0.0017098341185571616 0.015305316681884756 0 0.00096359741295750474 0.014540516701149413 0 0.0021937758554563119 0.014103042620121246 0 0.0015088532966664376 0.015252661582040224 0 0.00080217828060759745 0.015231689536329621 0 0.00080217828060759745 0.015231689536329621 0 0.0013604946728214638 0.012846394145825479 0 0.00096359741295750474 0.014540516701149413 0 0.0021937758554563119 0.014103042620121246 0 0.0015997121603626863 0.013069569252782435 0 0.0021937758554563119 0.014103042620121246 0 0.0015997121603626863 0.013069569252782435 0 0.0027075859784037909 0.013058320566208523 0 0.0034336246552976461 0.013892530687353615 0 0.0021937758554563119 0.014103042620121246 0 0.0027075859784037909 0.013058320566208523 0 0.0015997121603626863 0.013069569252782435 0 0.0027075859784037909 0.013058320566208523 0 0.0022485354203629119 0.011648896582232631 0 0.0040301037112370737 0.01257832577016499 0 0.0027075859784037909 0.013058320566208523 0 0.0022485354203629119 0.011648896582232631 0 0.0013604946728214638 0.012846394145825479 0 0.0014544773929052617 0.0080058578156291561 0 0.0011912647479141894 0.012018112644027679 0 0.00061165608980738183 0.010161582017238307 0 -0.00048051537137112834 0.011045616305431013 0 0.0011912647479141894 0.012018112644027679 0 0.00061165608980738183 0.010161582017238307 0 0.0022229173158247232 0.0097374919193259982 0 0.00061165608980738183 0.010161582017238307 0 0.00032480316935430486 0.0096463752635883079 0 -0.00028785180776943331 0.0099058143600842877 0 0.0028301393920232847 0.0075980432646205421 0 0.00044313924842413548 0.008807633097649337 0 0.00071692463852293881 0.0084329609588081385 0 0.0028301393920232847 0.0075980432646205421 0 0.00031037367353869055 0.0090091600905948446 0 0.0013552674900772119 0.0092943133306982017 0 0.0027697184931917149 0.0077023401437663662 0 0.00021596222466625334 0.008721006993882981 0 0.00066641718582094586 0.0095155559550979315 0 0.00031037367353869055 0.0090091600905948446 0 0.0013552674900772119 0.0092943133306982017 0 0.00061165608980738183 0.010161582017238307 0 0.00032480316935430486 0.0096463752635883079 0 0.00066641718582094586 0.0095155559550979315 0 0.00061165608980738183 0.010161582017238307 0 0.00066641718582094586 0.0095155559550979315 0 0.0013552674900772119 0.0092943133306982017 0 0.00032480316935430486 0.0096463752635883079 0 0.00066641718582094586 0.0095155559550979315 0 0.00031037367353869055 0.0090091600905948446 0 0.00061165608980738183 0.010161582017238307 0 0.0013552674900772119 0.0092943133306982017 0 0.0022229173158247232 0.0097374919193259982 0 0.0019002746895618525 0.0088928450705186464 0 0.0014544773929052617 0.0080058578156291561 0 0.0028301393920232847 0.0075980432646205421 0 0.0013552674900772119 0.0092943133306982017 0 0.0021537191115161515 0.0096845065312767577 0 0.0026513685426263443 0.0041104499580434098 0 0.0014544773929052617 0.0080058578156291561 0 0.0019436888426784373 0.0027365753152182324 0 0.0017871086174111677 0.0019113364560488187 0 0.0009031194044048414 0.0037262271118694203 0 0.0019436888426784373 0.0027365753152182324 0 0.001835929461151059 0.003537263964871602 0 0.0009031194044048414 0.0037262271118694203 0 -0.0023598746919727583 0.010448370222023598 0 -0.00154012894892149 0.011290441686556964 0 -0.0011047209839252668 0.010304486326480813 0 -0.0001081046089655236 0.011987562954540032 0 -0.00013355480985698744 0.01200516423213149 0 -0.00013211198517352096 0.011956443854434921 0 -0.00088610242413754317 0.011741813369203753 0 -1.0354028401801486e-05 0.014059787389446144 0 -0.00043760897758779894 0.012958129194263089 0 -0.00068484688775017656 0.013487817097256603 0 -0.00093176521339218639 0.013221199982985977 0 -0.00088610242413754317 0.011741813369203753 0 -0.00041761583558680697 0.014365405086799427 0 0.00073952850167890169 0.01751347302005786 0 0.00076479020517097884 0.017538092850971947 0 0.00079487688752285981 0.017499030047638049 0 -0.00041761583558680697 0.014365405086799427 0 -1.0354028401801486e-05 0.014059787389446144 0 -0.00037974625884140207 0.016837237410266808 0 -0.00041761583558680697 0.014365405086799427 0 0.00076077768307115229 0.017467286097833198 0 0.00073952850167890169 0.01751347302005786 0 0.00079487688752285981 0.017499030047638049 0 -0.0023598746919727583 0.010448370222023598 0 -0.0027073880810397554 0.011198693194337422 0 -0.00154012894892149 0.011290441686556964 0 -0.00154012894892149 0.011290441686556964 0 -0.00048051537137112834 0.011045616305431013 0 -0.0011047209839252668 0.010304486326480813 0 0.00031037367353869055 0.0090091600905948446 0 -0.0023598746919727583 0.010448370222023598 0 -0.0011047209839252668 0.010304486326480813 0 0.00061165608980738183 0.010161582017238307 0 -0.00048051537137112834 0.011045616305431013 0 -0.00028785180776943331 0.0099058143600842877 0 -0.00048051537137112834 0.011045616305431013 0 -0.0011047209839252668 0.010304486326480813 0 -0.00028785180776943331 0.0099058143600842877 0 0.00044313924842413548 0.008807633097649337 0 -0.0018226490054356025 0.010043044884445131 0 -0.00062443462558977323 0.0088846668405372226 0 0.00028514921331782418 0.0084409675578280361 0 -0.00041093941315384184 0.0086336077373529631 0 0.00021596222466625334 0.008721006993882981 0 -0.00088610242413754317 0.011741813369203753 0 0.00071692463852293881 0.0084329609588081385 0 -0.00062443462558977323 0.0088846668405372226 0 -0.0011308806293560331 0.0085440900425536072 0 0.00023946674790618661 0.0079113705594779545 0 0.00071692463852293881 0.0084329609588081385 0 -0.0011762723861436313 0.0084876400430045663 0 0.00032480316935430486 0.0096463752635883079 0 0.00031037367353869055 0.0090091600905948446 0 -0.00028785180776943331 0.0099058143600842877 0 0.00031037367353869055 0.0090091600905948446 0 -0.0011047209839252668 0.010304486326480813 0 -0.00028785180776943331 0.0099058143600842877 0 0.00044313924842413548 0.008807633097649337 0 0.00071692463852293881 0.0084329609588081385 0 -0.00062443462558977323 0.0088846668405372226 0 -0.00062443462558977323 0.0088846668405372226 0 -0.0011308806293560331 0.0085440900425536072 0 -0.0012379305682477082 0.0087731563185081025 0 -0.00084538777452867456 0.0093739045515226563 0 -0.00054645967031081608 0.0097060517589296312 0 -0.00041093941315384184 0.0086336077373529631 0 -0.00037539906885184599 0.0098209609813756076 0 -0.00054645967031081608 0.0097060517589296312 0 -0.00037539906885184599 0.0098209609813756076 0 -0.00073772555454415555 0.0094109676852951584 0 -0.00069116773504010356 0.0093134426810196763 0 -0.00027092009191356694 0.0093984912728232017 0 -0.00041093941315384184 0.0086336077373529631 0 -0.00054645967031081608 0.0097060517589296312 0 -0.00088610242413754317 0.011741813369203753 0 -0.00054645967031081608 0.0097060517589296312 0 -0.0001081046089655236 0.011987562954540032 0 -8.3016112960936726e-05 0.011920077198169251 0 -0.00013211198517352096 0.011956443854434921 0 -0.0018226490054356025 0.010043044884445131 0 -0.00062443462558977323 0.0088846668405372226 0 -0.0012384486396179921 0.0087746664658477219 0 -8.3016112960936726e-05 0.011920077198169251 0 -0.00013211198517352096 0.011956443854434921 0 -0.00012532197765602589 0.011919829681497537 0 -1.0354028401801486e-05 0.014059787389446144 0 0.00013633140446892139 0.013137220357746789 0 -0.00013211198517352096 0.011956443854434921 0 -0.00012532197765602589 0.011919829681497537 0 -0.00019624008766525573 0.011935665267275051 0 -0.00058593863947908192 0.011763523428497168 0 0.00027650105375896561 0.011761083591593462 0 0.00034171853546973699 0.011833474764686663 0 -2.8799385083453685e-06 0.014385223505769242 0 0.00019874970970999129 0.015344962841622321 0 -0.0001536899873851867 0.014392051225724229 0 -0.00058593863947908192 0.011763523428497168 0 0.00034171853546973699 0.011833474764686663 0 0.00054662187845076792 0.012019608803760309 0 -0.00013355480985698744 0.01200516423213149 0 -0.00013211198517352096 0.011956443854434921 0 -0.00019624008766525573 0.011935665267275051 0 -0.00037539906885184599 0.0098209609813756076 0 -0.00010816438011184882 0.01228566588812467 0 -0.00037539906885184599 0.0098209609813756076 0 0.00013633140446892139 0.013137220357746789 0 0.00013633140446892139 0.013137220357746789 0 7.8482685455844237e-05 0.013010659733954088 0 0.001021297033478599 0.017600447091969649 0 0.00098700200377751265 0.017589838442847266 0 0.00096997283214863986 0.017350293375824652 0 0.00050134166694417012 0.016983171661297022 0 0.00040646587219013544 0.01467545028438322 0 0.0006547591592436212 0.015099761647587057 0 -2.8799385083453685e-06 0.014385223505769242 0 0.00019874970970999129 0.015344962841622321 0 0.00098522115271505511 0.017588336753225825 0 0.00098700200377751265 0.017589838442847266 0 0.0010220278416190364 0.017549473717017646 0 0.00098522115271505511 0.017588336753225825 0 0.001021297033478599 0.017600447091969649 0 0.00098700200377751265 0.017589838442847266 0 0.00057530371337226674 0.017022755973408386 0 0.00050134166694417012 0.016983171661297022 0 0.00076479020517097884 0.017538092850971947 0 0.00085871248910269972 0.017506890902410931 0 0.00079487688752285981 0.017499030047638049 0 -1.0354028401801486e-05 0.014059787389446144 0 0.00050134166694417012 0.016983171661297022 0 0.00099984972353499486 0.017741399109027028 0 0.0011208130692800116 0.017131923515530528 0 0.00098700200377751265 0.017589838442847266 0 0.0012036062545478839 0.017837531543436251 0 0.0011867424640575933 0.01766200753488709 0 0.0010917667102976444 0.01757772057939623 0 0.00098700200377751265 0.017589838442847266 0 0.0011867424640575933 0.01766200753488709 0 0.0010917667102976444 0.01757772057939623 0 0.0011867424640575933 0.01766200753488709 0 0.0011801435780264627 0.017590334362290717 0 0.0010917667102976444 0.01757772057939623 0 0.00098700200377751265 0.017589838442847266 0 0.0010220278416190364 0.017549473717017646 0 0.0016537376389351227 0.015791512401922898 0 3.3881833665436281e-05 0.015469975247210714 0 0.0010350712348125106 0.01495036676632246 0 0.00098700200377751265 0.017589838442847266 0 0.00096997283214863986 0.017350293375824652 0 0.00082055595505344003 0.017353601719249531 0 0.00027769710674742869 0.011766775770137206 0 0.00034171853546973699 0.011833474764686663 0 0.00045070335766804768 0.01175924735419042 0 0.00013633140446892139 0.013137220357746789 0 0.00040646587219013544 0.01467545028438322 0 0.00040646587219013544 0.01467545028438322 0 -0.00010816438011184882 0.01228566588812467 0 0.00034171853546973699 0.011833474764686663 0 0.00045070335766804768 0.01175924735419042 0 0.00054662187845076792 0.012019608803760309 0 -0.0001474199031295852 0.014987935776566749 0 3.3881833665436281e-05 0.015469975247210714 0 0.0010350712348125106 0.01495036676632246 0 0.00040646587219013544 0.01467545028438322 0 0.0011208130692800116 0.017131923515530528 0 0.0011208130692800116 0.017131923515530528 0 0.0013883990490255928 0.017911543279171042 0 0.0016262636785410102 0.016874148851427222 0 0.0011208130692800116 0.017131923515530528 0 0.0012036062545478839 0.017837531543436251 0 0.0013252692725073583 0.017742199277654958 0 0.0011867424640575933 0.01766200753488709 0 0.0012036062545478839 0.017837531543436251 0 0.0013252692725073583 0.017742199277654958 0 0.0014323336789102566 0.017735578291675019 0 0.0016072819631517475 0.01768003013484909 0 0.0017363476269697821 0.017855090355704498 0 0.0012146377011333363 0.01789372823790775 0 0.0013252692725073583 0.017742199277654958 0 0.0014323336789102566 0.017735578291675019 0 0.0013957910149704287 0.017738202957049028 0 0.001425613589267051 0.017773104127342423 0 0.0014323336789102566 0.017735578291675019 0 0.0013957910149704287 0.017738202957049028 0 0.001425613589267051 0.017773104127342423 0 0.0013957910149704287 0.017738202957049028 0 0.0013709559529903005 0.017685469854722299 0 0.0013252692725073583 0.017742199277654958 0 0.0013957910149704287 0.017738202957049028 0 0.0013709559529903005 0.017685469854722299 0 0.0013709559529903005 0.017685469854722299 0 0.0012837494325330823 0.017623347381013087 0 0.0013639246168705482 0.017563229335998343 0 0.001425613589267051 0.017773104127342423 0 0.0013709559529903005 0.017685469854722299 0 0.0014294044968921468 0.01762301221521544 0 0.0013252692725073583 0.017742199277654958 0 0.0011867424640575933 0.01766200753488709 0 0.0012837494325330823 0.017623347381013087 0 0.0013252692725073583 0.017742199277654958 0 0.0013709559529903005 0.017685469854722299 0 0.0012837494325330823 0.017623347381013087 0 0.0011867424640575933 0.01766200753488709 0 0.0012837494325330823 0.017623347381013087 0 0.0011801435780264627 0.017590334362290717 0 0.0012837494325330823 0.017623347381013087 0 0.0011801435780264627 0.017590334362290717 0 0.0012236472214995915 0.017516411266278269 0 0.0012837494325330823 0.017623347381013087 0 0.0012236472214995915 0.017516411266278269 0 0.0013639246168705482 0.017563229335998343 0 0.0012236472214995915 0.017516411266278269 0 0.0013639246168705482 0.017563229335998343 0 0.0013090921872345544 0.017444950852307337 0 0.0013709559529903005 0.017685469854722299 0 0.0014294044968921468 0.01762301221521544 0 0.0013639246168705482 0.017563229335998343 0 0.0014682558531894196 0.017562470475682018 0 0.0013639246168705482 0.017563229335998343 0 0.0014225204006059256 0.017483008416061818 0 0.0014682558531894196 0.017562470475682018 0 0.0014294044968921468 0.01762301221521544 0 0.0013639246168705482 0.017563229335998343 0 0.0015381305221795361 0.017647493226702289 0 0.0013633915266927012 0.017234683122018327 0 0.0014225204006059256 0.017483008416061818 0 0.0013633915266927012 0.017234683122018327 0 0.0014225204006059256 0.017483008416061818 0 0.0013090921872345544 0.017444950852307337 0 0.0013639246168705482 0.017563229335998343 0 0.0014225204006059256 0.017483008416061818 0 0.0013090921872345544 0.017444950852307337 0 0.0013633915266927012 0.017234683122018327 0 0.0013090921872345544 0.017444950852307337 0 0.0011478174334645739 0.017372725488492936 0 0.0013633915266927012 0.017234683122018327 0 0.0011478174334645739 0.017372725488492936 0 0.001068454143141133 0.017191979771049162 0 0.0012236472214995915 0.017516411266278269 0 0.0013090921872345544 0.017444950852307337 0 0.0011478174334645739 0.017372725488492936 0 0.0011478174334645739 0.017372725488492936 0 0.0010213383610707656 0.017371409130442422 0 0.001068454143141133 0.017191979771049162 0 0.0010213383610707656 0.017371409130442422 0 0.001068454143141133 0.017191979771049162 0 0.00091959601424895635 0.017237340198865216 0 0.00091240007997529901 0.017089986315039704 0 0.001068454143141133 0.017191979771049162 0 0.00091959601424895635 0.017237340198865216 0 0.00091240007997529901 0.017089986315039704 0 0.00076244634484699 0.017150272964005561 0 0.00091959601424895635 0.017237340198865216 0 0.00076244634484699 0.017150272964005561 0 0.00091959601424895635 0.017237340198865216 0 0.00086768321709978049 0.017348100982151164 0 0.00076244634484699 0.017150272964005561 0 0.00074293987172449497 0.017309948397714915 0 0.00086768321709978049 0.017348100982151164 0 0.0010213383610707656 0.017371409130442422 0 0.00091959601424895635 0.017237340198865216 0 0.00086768321709978049 0.017348100982151164 0 0.00086768321709978049 0.017348100982151164 0 0.00085767006086014683 0.017461887975894298 0 0.00098041998597741013 0.017470982504187008 0 0.0010213383610707656 0.017371409130442422 0 0.00086768321709978049 0.017348100982151164 0 0.00098041998597741013 0.017470982504187008 0 0.00078550468713917631 0.017403230791480671 0 0.00086768321709978049 0.017348100982151164 0 0.00085767006086014683 0.017461887975894298 0 0.00074293987172449497 0.017309948397714915 0 0.00078550468713917631 0.017403230791480671 0 0.00086768321709978049 0.017348100982151164 0 0.00076077768307115229 0.017467286097833198 0 0.00078550468713917631 0.017403230791480671 0 0.00085767006086014683 0.017461887975894298 0 0.00076077768307115229 0.017467286097833198 0 0.00079487688752285981 0.017499030047638049 0 0.00085767006086014683 0.017461887975894298 0 0.00085871248910269972 0.017506890902410931 0 0.00079487688752285981 0.017499030047638049 0 0.00085767006086014683 0.017461887975894298 0 0.00098522115271505511 0.017588336753225825 0 0.00085767006086014683 0.017461887975894298 0 0.00098041998597741013 0.017470982504187008 0 0.00098522115271505511 0.017588336753225825 0 0.00092608179923165193 0.017618535180390946 0 0.00085767006086014683 0.017461887975894298 0 0.00050134166694417012 0.016983171661297022 0 0.00078210734826574457 0.017508199615220627 0 0.00098522115271505511 0.017588336753225825 0 0.00098041998597741013 0.017470982504187008 0 0.0010220278416190364 0.017549473717017646 0 0.00098041998597741013 0.017470982504187008 0 0.0010220278416190364 0.017549473717017646 0 0.0010912925151259087 0.017502135160528776 0 0.0010917667102976444 0.01757772057939623 0 0.0010220278416190364 0.017549473717017646 0 0.0010912925151259087 0.017502135160528776 0 0.0010917667102976444 0.01757772057939623 0 0.0011801435780264627 0.017590334362290717 0 0.0010912925151259087 0.017502135160528776 0 0.0011801435780264627 0.017590334362290717 0 0.0012236472214995915 0.017516411266278269 0 0.0010912925151259087 0.017502135160528776 0 0.0012236472214995915 0.017516411266278269 0 0.0011478174334645739 0.017372725488492936 0 0.0010912925151259087 0.017502135160528776 0 0.0011478174334645739 0.017372725488492936 0 0.0010213383610707656 0.017371409130442422 0 0.0010912925151259087 0.017502135160528776 0 0.0010213383610707656 0.017371409130442422 0 0.00098041998597741013 0.017470982504187008 0 0.0010912925151259087 0.017502135160528776 0 1.8664504138018e-05 0.034952043222336686 0 1.079777177610017e-07 0.035000068491401207 0 4.2996973665397708e-09 0.034999899260089451 0 1.8664504138018e-05 0.034952043222336686 0 -3.2676945851015657e-05 0.034800357315006358 0 -8.3869386785359745e-06 0.034918512125019806 0 -6.2745949899282424e-05 0.03426985023520699 0 -5.056916149130161e-05 0.034764461143383434 0 1.8664504138018e-05 0.034952043222336686 0 3.303197835076902e-05 0.034940695032996877 0 -3.2676945851015657e-05 0.034800357315006358 0 0.00030895992566818157 0.0343253442939997 0 -0.0001928132632904989 0.033678889236263443 0 -3.2676945851015657e-05 0.034800357315006358 0 0.00030895992566818157 0.0343253442939997 0 -0.0001928132632904989 0.033678889236263443 0 0.00070263922670446349 0.03327830323165739 0 1.8664504138018e-05 0.034952043222336686 0 3.303197835076902e-05 0.034940695032996877 0 3.7801590028247302e-05 0.03491444105603362 0 3.303197835076902e-05 0.034940695032996877 0 0.00015963808718787192 0.034850792306496556 0 3.7801590028247302e-05 0.03491444105603362 0 -0.00013261888234558642 0.032362599909847536 0 0.00063292451770101768 0.032233903462047589 0 0.00070263922670446349 0.03327830323165739 0 -6.2745949899282424e-05 0.03426985023520699 0 6.3477169439822359e-06 0.033713050271715055 0 -0.0001928132632904989 0.033678889236263443 0 -0.00013261888234558642 0.032362599909847536 0 0.00070263922670446349 0.03327830323165739 0 0.00015963808718787192 0.034850792306496556 0 0.00010958475606875254 0.034745187584121449 0 0.00025567837374357506 0.034587176376461679 0 6.3477169439822359e-06 0.033713050271715055 0 0.00016445124507621738 0.03229257654385085 0 -0.00013261888234558642 0.032362599909847536 0 0.00036140757879792691 0.031682285842017467 0 3.3184393076177523e-05 0.031040593567722943 0 -0.00013261888234558642 0.032362599909847536 0 0.00036140757879792691 0.031682285842017467 0 0.00063292451770101768 0.032233903462047589 0 0.00015963808718787192 0.034850792306496556 0 0.00010958475606875254 0.034745187584121449 0 3.7801590028247302e-05 0.03491444105603362 0 3.7801590028247302e-05 0.03491444105603362 0 1.079777177610017e-07 0.035000068491401207 0 1.6323566552463333e-05 0.034731425832792401 0 0.00010958475606875254 0.034745187584121449 0 3.7801590028247302e-05 0.03491444105603362 0 1.6323566552463333e-05 0.034731425832792401 0 1.8664504138018e-05 0.034952043222336686 0 3.7801590028247302e-05 0.03491444105603362 0 1.079777177610017e-07 0.035000068491401207 0 1.079777177610017e-07 0.035000068491401207 0 1.6323566552463333e-05 0.034731425832792401 0 -0.00019684746370836291 0.034257420333104013 0 1.079777177610017e-07 0.035000068491401207 0 -1.4163281068148963e-06 0.034996408112504325 0 -0.00019684746370836291 0.034257420333104013 0 1.6323566552463333e-05 0.034731425832792401 0 -0.00019684746370836291 0.034257420333104013 0 0.00011436215869589554 0.034578973688214241 0 -1.4163281068148963e-06 0.034996408112504325 0 -0.00019684746370836291 0.034257420333104013 0 2.538540865361051e-06 0.030860884454633083 0 -0.00019684746370836291 0.034257420333104013 0 0.00059765095731758677 0.033527069716005276 0 0.00029069415082576033 0.034164986057432345 0 -0.00019684746370836291 0.034257420333104013 0 2.538540865361051e-06 0.030860884454633083 0 0.00059765095731758677 0.033527069716005276 0 9.9703140271349898e-07 0.0308511915807686 0 0.00031816470086370676 0.029555209108842764 0 -0.00013002017532773969 0.029676210861561914 0 1.6861590227210838e-07 0.030854416496943558 0 0.00044532860783963755 0.031477847442601493 0 0.00059765095731758677 0.033527069716005276 0 0.00029069415082576033 0.034164986057432345 0 0.00057479721372765465 0.034656702232593824 0 0.00044532860783963755 0.031477847442601493 0 0.00016445124507621738 0.03229257654385085 0 0.00031816470086370676 0.029555209108842764 0 0.00031438222365478326 0.029163483858412286 0 0.00012991258723690956 0.029381833214477539 0 0.00031438222365478326 0.029163483858412286 0 0.00012639052764584793 0.029148378831546057 0 0.00012991258723690956 0.029381833214477539 0 -0.00019684746370836291 0.034257420333104013 0 0.00029069415082576033 0.034164986057432345 0 0.00011436215869589554 0.034578973688214241 0 0.00029069415082576033 0.034164986057432345 0 0.00011436215869589554 0.034578973688214241 0 0.00057479721372765465 0.034656702232593824 0 0.00023511992284371412 0.034322831516887906 0 0.00016445124507621738 0.03229257654385085 0 0.00010958475606875254 0.034745187584121449 0 0.00011436215869589554 0.034578973688214241 0 0.00025567837374357506 0.034587176376461679 0 0.00010958475606875254 0.034745187584121449 0 1.6323566552463333e-05 0.034731425832792401 0 0.00011436215869589554 0.034578973688214241 0 3.3184393076177523e-05 0.031040593567722943 0 0.0004959326014204675 0.031228831068388366 0 0.00064992254547249263 0.031029845991005583 0 0.00016445124507621738 0.03229257654385085 0 0.00057921730103496348 0.028869074523179064 0 0.00036140757879792691 0.031682285842017467 0 3.3184393076177523e-05 0.031040593567722943 0 0.0004959326014204675 0.031228831068388366 0 0.00097000744859575716 0.03116361127036801 0 0.00069655294098261303 0.031063869183190207 0 0.0011182051546712245 0.031110657660374214 0 0.00057921730103496348 0.028869074523179064 0 0.0010830637124475393 0.02820080787076127 0 0.0007510761699001064 0.031549262300119868 0 0.00097000744859575716 0.03116361127036801 0 0.00069655294098261303 0.031063869183190207 0 0.00036140757879792691 0.031682285842017467 0 0.0004959326014204675 0.031228831068388366 0 0.0007510761699001064 0.031549262300119868 0 0.0004959326014204675 0.031228831068388366 0 0.0007510761699001064 0.031549262300119868 0 0.00069655294098261303 0.031063869183190207 0 0.00015817259972527578 0.029841259376019936 0 0.00057921730103496348 0.028869074523179064 0 0.00097000744859575716 0.03116361127036801 0 0.0011182051546712245 0.031110657660374214 0 0.0010592290706651838 0.031130256267471974 0 0.00085316093022493186 0.025379860257888666 0 0.0010992842677164402 0.025856320574210213 0 0.00046288396455231663 0.025760321044377081 0 0.00057921730103496348 0.028869074523179064 0 0.00063737893420971043 0.027406210366988787 0 0.0014332230552937242 0.025422891554881321 0 0.00085316093022493186 0.025379860257888666 0 0.0010992842677164402 0.025856320574210213 0 0.00012639052764584793 0.029148378831546057 0 -0.00011125692046164852 0.029473058890452399 0 0.00012991258723690956 0.029381833214477539 0 0.00031816470086370676 0.029555209108842764 0 0.00012991258723690956 0.029381833214477539 0 -0.00013002017532773969 0.029676210861561914 0 -0.00011125692046164852 0.029473058890452399 0 0.00012991258723690956 0.029381833214477539 0 -0.00013002017532773969 0.029676210861561914 0 0.0010992842677164402 0.025856320574210213 0 0.00079645522974628922 0.02641599035375309 0 0.00046288396455231663 0.025760321044377081 0 0.00063737893420971043 0.027406210366988787 0 0.00029016364220752616 0.027920952308276389 0 -0.00011125692046164852 0.029473058890452399 0 -0.00013002017532773969 0.029676210861561914 0 1.5246135981528606e-06 0.02933700438887259 0 1.5246135981528606e-06 0.02933700438887259 0 -1.0165481759997935e-06 0.029253485874443735 0 1.0659719549397572e-06 0.027653886693643 0 -0.00013002017532773969 0.029676210861561914 0 1.5246135981528606e-06 0.02933700438887259 0 -1.0165481759997935e-06 0.029253485874443735 0 9.9703140271349898e-07 0.0308511915807686 0 -0.00013002017532773969 0.029676210861561914 0 -1.0165481759997935e-06 0.029253485874443735 0 -0.00015930528964571919 0.026141829523477291 0 1.335502044403269e-06 0.027648786204555312 0 -6.4022028016590138e-05 0.026049462447036754 0 -0.00015930528964571919 0.026141829523477291 0 1.335502044403269e-06 0.027648786204555312 0 -1.2407624317849628e-06 0.025821922865077153 0 0.00079645522974628922 0.02641599035375309 0 1.335502044403269e-06 0.027648786204555312 0 -6.4022028016590138e-05 0.026049462447036754 0 0.00029016364220752616 0.027920952308276389 0 8.1302874057809419e-08 0.027652293372930761 0 0.00079645522974628922 0.02641599035375309 0 -6.4022028016590138e-05 0.026049462447036754 0 0.00046288396455231663 0.025760321044377081 0 -0.00015930528964571919 0.026141829523477291 0 -6.4022028016590138e-05 0.026049462447036754 0 -0.00027952602412181066 0.025615357517903812 0 -6.4022028016590138e-05 0.026049462447036754 0 -3.234354618382254e-05 0.025657753959579532 0 0.00046288396455231663 0.025760321044377081 0 -6.4022028016590138e-05 0.026049462447036754 0 -3.234354618382254e-05 0.025657753959579532 0 -0.00027866903558109606 0.025726078262510412 0 0.00085316093022493186 0.025379860257888666 0 0.00046288396455231663 0.025760321044377081 0 0.00022754974641675895 0.025376252986437007 0 -3.234354618382254e-05 0.025657753959579532 0 0.00046288396455231663 0.025760321044377081 0 0.00022754974641675895 0.025376252986437007 0 0.0011182051546712245 0.031110657660374214 0 0.0010550454900861994 0.031082907174513206 0 0.0010779330018340118 0.031085841466177034 0 0.0010830637124475393 0.02820080787076127 0 0.00055693985553334968 0.028256480653932579 0 0.0010550454900861994 0.031082907174513206 0 0.0010400845656419004 0.031062374644599624 0 0.0010779330018340118 0.031085841466177034 0 0.0010550454900861994 0.031082907174513206 0 0.0010400845656419004 0.031062374644599624 0 0.00090381970281877403 0.031009491233695532 0 0.00055693985553334968 0.028256480653932579 0 0.00067172098954619 0.02786201490721716 0 0.0010550454900861994 0.031082907174513206 0 0.00090381970281877403 0.031009491233695532 0 0.00084670922918739233 0.031006491858374452 0 0.0010400845656419004 0.031062374644599624 0 0.00090381970281877403 0.031009491233695532 0 0.0010833366092253807 0.031082610046648727 0 -3.234354618382254e-05 0.025657753959579532 0 0.00022754974641675895 0.025376252986437007 0 -0.00024860495677641936 0.025434326540823199 0 0.00090381970281877403 0.031009491233695532 0 0.00085001266338760031 0.030463883234678787 0 0.0011626843381392015 0.030442214687111214 0 0.00086057894707325421 0.031124815122716625 0 0.0011937795816303867 0.03048755978033341 0 0.00085001266338760031 0.030463883234678787 0 0.0010301208267515002 0.030244790753376653 0 0.00098224888399521082 0.030012820275301808 0 0.000971525732284064 0.030032188326219355 0 0.00097973442618250802 0.029856790022973489 0 0.00085001266338760031 0.030463883234678787 0 0.0010301208267515002 0.030244790753376653 0 0.0011626843381392015 0.030442214687111214 0 0.0010562987018144585 0.028961756568874838 0 0.00098224888399521082 0.030012820275301808 0 0.0011452597415135706 0.030016785049873217 0 0.0010301208267515002 0.030244790753376653 0 0.001122117350662085 0.03016671699277132 0 0.0010592431461703875 0.030117226376959839 0 0.0010301208267515002 0.030244790753376653 0 0.00098224888399521082 0.030012820275301808 0 0.0010592431461703875 0.030117226376959839 0 0.001122117350662085 0.03016671699277132 0 0.0011626843381392015 0.030442214687111214 0 0.0012574239928760575 0.030098590557914744 0 0.0011937795816303867 0.03048755978033341 0 0.0010426055783164373 0.032014874037394184 0 0.0010301208267515002 0.030244790753376653 0 0.001122117350662085 0.03016671699277132 0 0.0011626843381392015 0.030442214687111214 0 0.0010833366092253807 0.031082610046648727 0 0.0010779330018340118 0.031085841466177034 0 0.0010592290706651838 0.031130256267471974 0 0.0010400845656419004 0.031062374644599624 0 0.0010833366092253807 0.031082610046648727 0 0.0010779330018340118 0.031085841466177034 0 0.0011182051546712245 0.031110657660374214 0 0.0010779330018340118 0.031085841466177034 0 0.0010592290706651838 0.031130256267471974 0 0.00099285751025568751 0.031170152611841327 0 0.0013075541833491825 0.03176908028079372 0 0.0007510761699001064 0.031549262300119868 0 0.00097000744859575716 0.03116361127036801 0 0.0014892340436146435 0.032288786605287952 0 0.0007510761699001064 0.031549262300119868 0 0.0014892340436146435 0.032288786605287952 0 0.00063292451770101768 0.032233903462047589 0 0.00036140757879792691 0.031682285842017467 0 0.0007510761699001064 0.031549262300119868 0 0.00063292451770101768 0.032233903462047589 0 0.0014892340436146435 0.032288786605287952 0 0.00063292451770101768 0.032233903462047589 0 0.00070263922670446349 0.03327830323165739 0 0.0010833366092253807 0.031082610046648727 0 0.0010592290706651838 0.031130256267471974 0 0.0010675269032549201 0.031157607922876699 0 0.0014892340436146435 0.032288786605287952 0 0.0018399002689314728 0.03335082305284684 0 0.00070263922670446349 0.03327830323165739 0 0.0013075541833491825 0.03176908028079372 0 0.0010426055783164373 0.032014874037394184 0 0.0010426055783164373 0.032014874037394184 0 0.00060593917702939722 0.034484373502594305 0 0.0018399002689314728 0.03335082305284684 0 0.00070263922670446349 0.03327830323165739 0 0.00096468200931971114 0.034446387073521392 0 0.00030895992566818157 0.0343253442939997 0 0.00070263922670446349 0.03327830323165739 0 0.00096468200931971114 0.034446387073521392 0 0.00040432257953636549 0.033805841958454624 0 0.00034605135855853578 0.03393313335555493 0 0.00042191441740244351 0.033919897349409957 0 0.0011114141569810326 0.029979930638008599 0 0.0010904072961583364 0.030018066929264408 0 0.00103392429680986 0.029985568623143364 0 0.0012574239928760575 0.030098590557914744 0 0.0011114141569810326 0.029979930638008599 0 0.0010904072961583364 0.030018066929264408 0 0.0010426055783164373 0.032014874037394184 0 0.00085743095263842231 0.032165114360479807 0 0.00103392429680986 0.029985568623143364 0 0.0010447687606062329 0.030020813177597763 0 0.0011452597415135706 0.030016785049873217 0 0.0010904072961583364 0.030018066929264408 0 0.00103392429680986 0.029985568623143364 0 0.0010447687606062329 0.030020813177597763 0 -9.531610776531816e-05 0.027260784472341402 0 0.00012011157227455174 0.027372406674148184 0 -0.0012948476616458096 0.025558413054405548 0 -0.0008465889397209134 0.024511362260408568 0 -0.00070181114761357988 0.02497128757920232 0 0.0010447687606062329 0.030020813177597763 0 0.00098224888399521082 0.030012820275301808 0 0.0010858773781123926 0.030063697053682042 0 0.0010904072961583364 0.030018066929264408 0 0.0010447687606062329 0.030020813177597763 0 0.0010858773781123926 0.030063697053682042 0 0.0010447687606062329 0.030020813177597763 0 0.00098224888399521082 0.030012820275301808 0 0.0011452597415135706 0.030016785049873217 0 0.00098224888399521082 0.030012820275301808 0 0.0010592431461703875 0.030117226376959839 0 0.0010858773781123926 0.030063697053682042 0 0.001122117350662085 0.03016671699277132 0 0.0010592431461703875 0.030117226376959839 0 0.0010858773781123926 0.030063697053682042 0 0.0012574239928760575 0.030098590557914744 0 0.0010904072961583364 0.030018066929264408 0 0.0010858773781123926 0.030063697053682042 0 0.001122117350662085 0.03016671699277132 0 0.0012574239928760575 0.030098590557914744 0 0.0010858773781123926 0.030063697053682042 0 2.7950819495710903e-05 0.02487269235216601 0 0.00042099158992505125 0.024480644989729339 0 0.00074859439966269226 0.024252540903185602 0 -0.00013529860719229745 0.024861396385572585 0 0.00036585498744341521 0.024784724724786079 0 0.00056845915577165274 0.024246890926605921 0 -6.3916285777559131e-05 0.02494344606580258 0 0.00020171037154130742 0.023344600385597145 0 2.7950819495710903e-05 0.02487269235216601 0 -6.693815778473065e-05 0.02455163425291422 0 -0.00039409774935958441 0.024835130392546402 0 2.7950819495710903e-05 0.02487269235216601 0 0.00042099158992505125 0.024480644989729339 0 -6.693815778473065e-05 0.02455163425291422 0 -0.00013529860719229745 0.024861396385572585 0 0.00036585498744341521 0.024784724724786079 0 0.00016794259417613153 0.025173354999922168 0 0.00042099158992505125 0.024480644989729339 0 8.5334635467111176e-05 0.024303741450338128 0 0.00030045199274850241 0.024141834636749824 0 0.00042099158992505125 0.024480644989729339 0 0.00054428890403002226 0.024173226721856862 0 0.00030045199274850241 0.024141834636749824 0 0.00042099158992505125 0.024480644989729339 0 8.5334635467111176e-05 0.024303741450338128 0 -6.693815778473065e-05 0.02455163425291422 0 8.5334635467111176e-05 0.024303741450338128 0 -6.693815778473065e-05 0.02455163425291422 0 -0.00018312671493314798 0.02429643695013008 0 -0.00018312671493314798 0.02429643695013008 0 -0.00044384698709296489 0.024306630525169803 0 -0.00037812063881618205 0.024531781576070288 0 -0.00044384698709296489 0.024306630525169803 0 -0.00037812063881618205 0.024531781576070288 0 -0.00057292840094804235 0.024644625265982149 0 -6.693815778473065e-05 0.02455163425291422 0 -0.00018312671493314798 0.02429643695013008 0 -0.00037812063881618205 0.024531781576070288 0 -0.00044384698709296489 0.024306630525169803 0 -0.0008465889397209134 0.024511362260408568 0 -0.00057292840094804235 0.024644625265982149 0 -0.0008465889397209134 0.024511362260408568 0 -0.00057292840094804235 0.024644625265982149 0 -0.00070181114761357988 0.02497128757920232 0 -0.00057292840094804235 0.024644625265982149 0 -0.00039409774935958441 0.024835130392546402 0 -0.00070181114761357988 0.02497128757920232 0 -6.693815778473065e-05 0.02455163425291422 0 -0.00037812063881618205 0.024531781576070288 0 -0.00039409774935958441 0.024835130392546402 0 -0.00037812063881618205 0.024531781576070288 0 -0.00057292840094804235 0.024644625265982149 0 -0.00039409774935958441 0.024835130392546402 0 2.7950819495710903e-05 0.02487269235216601 0 -0.00039409774935958441 0.024835130392546402 0 -0.00077696062031425107 0.025450772321885369 0 -0.00077696062031425107 0.025450772321885369 0 -0.00012658607273252642 0.025490120786757983 0 -0.00053047552302691559 0.025850147808781133 0 -0.00013529860719229745 0.024861396385572585 0 -0.00077696062031425107 0.025450772321885369 0 -0.00012658607273252642 0.025490120786757983 0 -6.3916285777559131e-05 0.02494344606580258 0 -0.00069871351764225686 0.025381046736934507 0 -0.00039409774935958441 0.024835130392546402 0 -0.00070181114761357988 0.02497128757920232 0 -0.00077696062031425107 0.025450772321885369 0 -0.0012948476616458096 0.025558413054405548 0 -0.00070181114761357988 0.02497128757920232 0 -0.00077696062031425107 0.025450772321885369 0 -0.00012658607273252642 0.025490120786757983 0 0.00016794259417613153 0.025173354999922168 0 0.0005584580316582219 0.025460428337486227 0 -0.00013529860719229745 0.024861396385572585 0 -0.00012658607273252642 0.025490120786757983 0 0.00016794259417613153 0.025173354999922168 0 -0.00035340669783932887 0.018949690692502026 0 -0.00051987825965441091 0.018955299280166118 0 -0.00058106283840874556 0.019236049997167114 0 0.00036585498744341521 0.024784724724786079 0 0.00016794259417613153 0.025173354999922168 0 0.0005584580316582219 0.025460428337486227 0 -0.00066306787759704737 0.018882970079254744 0 -0.00058776661149138843 0.019012652417149268 0 -0.00051987825965441091 0.018955299280166118 0 -0.00058106283840874556 0.019236049997167114 0 -0.00062589926203485081 0.018895037807369796 0 -0.00061745897561910382 0.018973763612399715 0 -0.00055524070778154022 0.019004661750991459 0 -0.00062589926203485081 0.018895037807369796 0 -0.00061745897561910382 0.018973763612399715 0 -0.00062589926203485081 0.018895037807369796 0 -0.00066200383314410501 0.018912997521770423 0 -0.00055524070778154022 0.019004661750991459 0 -0.00057277040342588721 0.01904459049014965 0 -0.00053146764940711791 0.019066382234093703 0 -0.00061745897561910382 0.018973763612399715 0 -0.00060122942682600878 0.019026130780609014 0 -0.00055524070778154022 0.019004661750991459 0 -0.00060122942682600878 0.019026130780609014 0 -0.00055524070778154022 0.019004661750991459 0 -0.00057277040342588721 0.01904459049014965 0 -0.00060122942682600878 0.019026130780609014 0 -0.00057277040342588721 0.01904459049014965 0 -0.0005865802968591029 0.019054229055618221 0 7.858550111007159e-05 0.022309738291093277 0 0.00025264143653856729 0.021904151494265073 0 -0.00066306787759704737 0.018882970079254744 0 5.8760273626011172e-05 0.020582806264742039 0 -0.00058106283840874556 0.019236049997167114 0 -0.00034857020190496896 0.019642194766293964 0 -0.00039354905215945903 0.019679994684355197 0 -0.00035340669783932887 0.018949690692502026 0 -0.00058106283840874556 0.019236049997167114 0 -0.00034857020190496896 0.019642194766293964 0 0.00036585498744341521 0.024784724724786079 0 0.0005584580316582219 0.025460428337486227 0 0.00067425579292847051 0.024160365624459976 0 0.00036585498744341521 0.024784724724786079 0 0.00056845915577165274 0.024246890926605921 0 0.00067425579292847051 0.024160365624459976 0 0.00023655896790759088 0.02396987941899709 0 0.00020171037154130742 0.023344600385597145 0 0.00042099158992505125 0.024480644989729339 0 0.00072972095638113303 0.02426291900351913 0 0.00054428890403002226 0.024173226721856862 0 0.00054428890403002226 0.024173226721856862 0 0.00064231741773838023 0.024034424480890725 0 0.00071743933900705165 0.024130572951232301 0 0.00072972095638113303 0.02426291900351913 0 0.00054428890403002226 0.024173226721856862 0 0.00071743933900705165 0.024130572951232301 0 0.00054428890403002226 0.024173226721856862 0 0.00064231741773838023 0.024034424480890725 0 0.00045703054301236021 0.023935472252095986 0 0.00064231741773838023 0.024034424480890725 0 0.00083899826765883984 0.023966388413466665 0 0.00063273511122143922 0.023905045477634432 0 0.00064231741773838023 0.024034424480890725 0 0.00063273511122143922 0.023905045477634432 0 0.00045703054301236021 0.023935472252095986 0 0.00064231741773838023 0.024034424480890725 0 0.00083899826765883984 0.023966388413466665 0 0.00071743933900705165 0.024130572951232301 0 0.00039138225674215002 0.02188322173931934 0 0.00025264143653856729 0.021904151494265073 0 0.00083899826765883984 0.023966388413466665 0 0.00071743933900705165 0.024130572951232301 0 0.00082696545848861972 0.024178676634198107 0 0.00054360402744632629 0.021436654227053441 0 0.00055916748447094715 0.021178852191284112 0 0.00046572781264998 0.021255585042911706 0 0.00025264143653856729 0.021904151494265073 0 5.8760273626011172e-05 0.020582806264742039 0 0.00072972095638113303 0.02426291900351913 0 0.00071743933900705165 0.024130572951232301 0 0.00082696545848861972 0.024178676634198107 0 0.00020171037154130742 0.023344600385597145 0 0.00025264143653856729 0.021904151494265073 0 0.00039138225674215002 0.02188322173931934 0 5.8760273626011172e-05 0.020582806264742039 0 5.8760273626011172e-05 0.020582806264742039 0 -0.00010081691838065243 0.020078315946223495 0 0.0002105095789607117 0.020053636094849118 0 0.00014496258226479251 0.020252451265724277 0 -3.1553060191493758e-05 0.020237970039399707 0 0.00023526384244085998 0.020113950414936195 0 0.0002105095789607117 0.020053636094849118 0 0.00014496258226479251 0.020252451265724277 0 0.00083899826765883984 0.023966388413466665 0 0.00056356273327442337 0.023674942259902399 0 0.00063273511122143922 0.023905045477634432 0 0.00056356273327442337 0.023674942259902399 0 0.00063273511122143922 0.023905045477634432 0 0.00045703054301236021 0.023935472252095986 0 -0.00053146764940711791 0.019066382234093703 0 -0.00057688093918955121 0.019076169026896381 0 -0.0005817529248920096 0.019080481221307163 0 -0.00053146764940711791 0.019066382234093703 0 -0.00057292368028348864 0.019062337296550463 0 -0.00057688093918955121 0.019076169026896381 0 5.8760273626011172e-05 0.020582806264742039 0 -0.00049671236394187952 0.019307032997584062 0 -0.00027094150314246315 0.020020739333675038 0 -0.00021355436574816845 0.019953353062751769 0 -0.00018646144239863724 0.01994369385340649 0 -0.00057292368028348864 0.019062337296550463 0 -0.0005865802968591029 0.019054229055618221 0 -0.00058123951643803632 0.019070656591008303 0 -0.00057277040342588721 0.01904459049014965 0 -0.00057292368028348864 0.019062337296550463 0 -0.0005865802968591029 0.019054229055618221 0 -0.00057277040342588721 0.01904459049014965 0 -0.00053146764940711791 0.019066382234093703 0 -0.00057292368028348864 0.019062337296550463 0 -0.00057292368028348864 0.019062337296550463 0 -0.00057688093918955121 0.019076169026896381 0 -0.00058123951643803632 0.019070656591008303 0 -0.00048641641626927381 0.019262546181039949 0 -0.00049671236394187952 0.019307032997584062 0 -0.00057688093918955121 0.019076169026896381 0 -0.0005789340565314743 0.01907505787739857 0 -0.00058123951643803632 0.019070656591008303 0 -3.1553060191493758e-05 0.020237970039399707 0 -5.8859063379058092e-05 0.020560903020741945 0 -0.00030348189123918708 0.020447761505457504 0 -3.1553060191493758e-05 0.020237970039399707 0 7.1769013020347492e-05 0.020405742292263825 0 -5.8859063379058092e-05 0.020560903020741945 0 -0.00021355436574816845 0.019953353062751769 0 -0.00018646144239863724 0.01994369385340649 0 -0.00015563908516765866 0.019889785396372619 0 -0.00010081691838065243 0.020078315946223495 0 -0.00045412038390021058 0.019727887276558668 0 0.00014496258226479251 0.020252451265724277 0 -3.1553060191493758e-05 0.020237970039399707 0 7.1769013020347492e-05 0.020405742292263825 0 7.1769013020347492e-05 0.020405742292263825 0 0.0002315683256876619 0.020543104764199058 0 -5.8859063379058092e-05 0.020560903020741945 0 -5.8859063379058092e-05 0.020560903020741945 0 -0.00021791675172301076 0.020617369855577709 0 -0.00030348189123918708 0.020447761505457504 0 0.00039138225674215002 0.02188322173931934 0 0.00021191730843185251 0.021315310615509835 0 0.00014496258226479251 0.020252451265724277 0 7.1769013020347492e-05 0.020405742292263825 0 0.0002315683256876619 0.020543104764199058 0 0.00083899826765883984 0.023966388413466665 0 0.00056356273327442337 0.023674942259902399 0 0.00045490342188206036 0.023107412374489097 0 0.00023526384244085998 0.020113950414936195 0 0.00014496258226479251 0.020252451265724277 0 0.0002315683256876619 0.020543104764199058 0 0.00039138225674215002 0.02188322173931934 0 0.00042090358342102913 0.022991581327523502 0 0.00020968894201799912 0.022274317525110009 0 0.00020605487820513156 0.022386167361924562 0 0.00024546973748423086 0.022375664139848782 0 0.00045490342188206036 0.023107412374489097 0 0.00019142020112145871 0.023262805660351365 0 0.00032088385533871581 0.023438790057767604 0 0.00045490342188206036 0.023107412374489097 0 4.1039081592462399e-05 0.023085022191694848 0 6.8089334200773682e-05 0.022882478172018276 0 4.1039081592462399e-05 0.023085022191694848 0 0.00019142020112145871 0.023262805660351365 0 -4.0345200744899105e-05 0.023373908426422427 0 0.00045490342188206036 0.023107412374489097 0 4.1039081592462399e-05 0.023085022191694848 0 0.00019142020112145871 0.023262805660351365 0 0.00019142020112145871 0.023262805660351365 0 9.724413621297084e-05 0.02347987087068281 0 0.00032088385533871581 0.023438790057767604 0 0.00019142020112145871 0.023262805660351365 0 -4.0345200744899105e-05 0.023373908426422427 0 9.724413621297084e-05 0.02347987087068281 0 -4.0345200744899105e-05 0.023373908426422427 0 9.724413621297084e-05 0.02347987087068281 0 -0.00013820432887255599 0.023598511156732331 0 0.00056356273327442337 0.023674942259902399 0 0.00045490342188206036 0.023107412374489097 0 0.00032088385533871581 0.023438790057767604 0 9.724413621297084e-05 0.02347987087068281 0 0.00032088385533871581 0.023438790057767604 0 0.00030212838336330386 0.023680511823574071 0 0.00056356273327442337 0.023674942259902399 0 0.00032088385533871581 0.023438790057767604 0 0.00030212838336330386 0.023680511823574071 0 0.00056356273327442337 0.023674942259902399 0 0.00030212838336330386 0.023680511823574071 0 0.00045703054301236021 0.023935472252095986 0 0.00030212838336330386 0.023680511823574071 0 0.00045703054301236021 0.023935472252095986 0 0.00024842823303506035 0.023923308258555206 0 9.724413621297084e-05 0.02347987087068281 0 0.00030212838336330386 0.023680511823574071 0 -8.3563217975192368e-07 0.023779385892739011 0 9.724413621297084e-05 0.02347987087068281 0 -8.3563217975192368e-07 0.023779385892739011 0 -0.00013820432887255599 0.023598511156732331 0 0.00030212838336330386 0.023680511823574071 0 -8.3563217975192368e-07 0.023779385892739011 0 0.00024842823303506035 0.023923308258555206 0 -8.3563217975192368e-07 0.023779385892739011 0 4.6304591329559594e-05 0.024045535637826482 0 0.00024842823303506035 0.023923308258555206 0 4.6304591329559594e-05 0.024045535637826482 0 0.00030045199274850241 0.024141834636749824 0 0.00024842823303506035 0.023923308258555206 0 -8.3563217975192368e-07 0.023779385892739011 0 4.6304591329559594e-05 0.024045535637826482 0 -0.0002284995186767175 0.024044364090300627 0 -0.00018312671493314798 0.02429643695013008 0 4.6304591329559594e-05 0.024045535637826482 0 -0.0002284995186767175 0.024044364090300627 0 8.5334635467111176e-05 0.024303741450338128 0 -0.00018312671493314798 0.02429643695013008 0 4.6304591329559594e-05 0.024045535637826482 0 8.5334635467111176e-05 0.024303741450338128 0 4.6304591329559594e-05 0.024045535637826482 0 0.00030045199274850241 0.024141834636749824 0 0.00054428890403002226 0.024173226721856862 0 0.00030045199274850241 0.024141834636749824 0 0.00045703054301236021 0.023935472252095986 0 0.00030045199274850241 0.024141834636749824 0 0.00045703054301236021 0.023935472252095986 0 0.00024842823303506035 0.023923308258555206 0 0.0010562987018144585 0.028961756568874838 0 0.0011452597415135706 0.030016785049873217 0 0.0015063911112615186 0.028956713167060479 0 0.00012011157227455174 0.027372406674148184 0 0.00061457926481300418 0.026129177462892492 0 -0.0008465889397209134 0.024511362260408568 0 -0.00033966971507464291 0.02394679047212853 0 -0.00039298969950558285 0.02347677253014132 0 -0.00044384698709296489 0.024306630525169803 0 -0.0008465889397209134 0.024511362260408568 0 -0.00033966971507464291 0.02394679047212853 0 -0.00044384698709296489 0.024306630525169803 0 -0.0002284995186767175 0.024044364090300627 0 -0.00033966971507464291 0.02394679047212853 0 -0.00018312671493314798 0.02429643695013008 0 -0.00044384698709296489 0.024306630525169803 0 -0.0002284995186767175 0.024044364090300627 0 -8.3563217975192368e-07 0.023779385892739011 0 -0.00033966971507464291 0.02394679047212853 0 -0.00013820432887255599 0.023598511156732331 0 -0.00033966971507464291 0.02394679047212853 0 -0.00039298969950558285 0.02347677253014132 0 -0.00013820432887255599 0.023598511156732331 0 -8.3563217975192368e-07 0.023779385892739011 0 -0.0002284995186767175 0.024044364090300627 0 -0.00033966971507464291 0.02394679047212853 0 0.000971525732284064 0.030032188326219355 0 0.00067172098954619 0.02786201490721716 0 0.0010562987018144585 0.028961756568874838 0 0.0015063911112615186 0.028956713167060479 0 0.0012719496310173366 0.027757732129040803 0 0.00061457926481300418 0.026129177462892492 0 0.00060525411956671379 0.02549550320280548 0 4.1039081592462399e-05 0.023085022191694848 0 -0.00039298969950558285 0.02347677253014132 0 6.8089334200773682e-05 0.022882478172018276 0 4.1039081592462399e-05 0.023085022191694848 0 -4.0345200744899105e-05 0.023373908426422427 0 -0.00039298969950558285 0.02347677253014132 0 -4.0345200744899105e-05 0.023373908426422427 0 -0.00039298969950558285 0.02347677253014132 0 -0.00013820432887255599 0.023598511156732331 0 0.0015063911112615186 0.028956713167060479 0 0.0012719496310173366 0.027757732129040803 0 0.0018901617346815777 0.027744388284601195 0 0.00090381970281877403 0.031009491233695532 0 0.00085001266338760031 0.030463883234678787 0 0.00084670922918739233 0.031006491858374452 0 -0.00039298969950558285 0.02347677253014132 0 6.8089334200773682e-05 0.022882478172018276 0 6.1141440762975573e-05 0.022606981397354758 0 0.00067172098954619 0.02786201490721716 0 0.00060525411956671379 0.02549550320280548 0 -0.00049830476895884092 0.026943391604382097 0 -3.1223541568561808e-05 0.026937299292858402 0 -0.00027075202984898198 0.026658509940168076 0 0.00024546973748423086 0.022375664139848782 0 0.00021575960556710687 0.022487139741445287 0 0.00022471998411227457 0.022421274395283953 0 0.00042090358342102913 0.022991581327523502 0 0.00019033610169159326 0.022399009594500738 0 0.00045490342188206036 0.023107412374489097 0 0.00014737644712614276 0.022611942497455829 0 0.00021575960556710687 0.022487139741445287 0 0.00045490342188206036 0.023107412374489097 0 6.8089334200773682e-05 0.022882478172018276 0 0.00014737644712614276 0.022611942497455829 0 6.8089334200773682e-05 0.022882478172018276 0 0.00014737644712614276 0.022611942497455829 0 6.1141440762975573e-05 0.022606981397354758 0 0.00053754780638775148 0.025374426391428756 0 0.00060525411956671379 0.02549550320280548 0 0.00014737644712614276 0.022611942497455829 0 0.00011716722861366222 0.022546459964502514 0 0.00021575960556710687 0.022487139741445287 0 0.00011716722861366222 0.022546459964502514 0 0.00021575960556710687 0.022487139741445287 0 0.00038578182854120881 0.022441084998786647 0 0.00060525411956671379 0.02549550320280548 0 0.0002395064192168814 0.024137463396837172 0 -3.1223541568561808e-05 0.026937299292858402 0 -0.00027075202984898198 0.026658509940168076 0 0.00027225424270276531 0.026068148205232042 0 0.00025988877086551964 0.022436213972280968 0 0.00021575960556710687 0.022487139741445287 0 0.00038578182854120881 0.022441084998786647 0 0.00025988877086551964 0.022436213972280968 0 0.00021575960556710687 0.022487139741445287 0 0.00022471998411227457 0.022421274395283953 0 -0.00038116480554390911 0.026300167679495046 0 -0.00027075202984898198 0.026658509940168076 0 0.00027225424270276531 0.026068148205232042 0 -3.234354618382254e-05 0.025657753959579532 0 -0.00024860495677641936 0.025434326540823199 0 -0.00027866903558109606 0.025726078262510412 0 0.00067172098954619 0.02786201490721716 0 -0.00027729232536876232 0.025745089548526522 0 -0.00049830476895884092 0.026943391604382097 0 -0.00038116480554390911 0.026300167679495046 0 -0.00027075202984898198 0.026658509940168076 0 -6.4022028016590138e-05 0.026049462447036754 0 -0.00027866903558109606 0.025726078262510412 0 -0.00027952602412181066 0.025615357517903812 0 -0.00038116480554390911 0.026300167679495046 0 -0.00027952602412181066 0.025615357517903812 0 0.00027225424270276531 0.026068148205232042 0 -0.00027729232536876232 0.025745089548526522 0 -0.00029633630875311782 0.025748232421947799 0 0.0002395064192168814 0.024137463396837172 0 0.00019757694408237879 0.024051299370130813 0 0.00027225424270276531 0.026068148205232042 0 2.4827229184069019e-05 0.02510867985093462 0 0.00016278594742625031 0.023907742849336208 0 -0.00027952602412181066 0.025615357517903812 0 0.00027225424270276531 0.026068148205232042 0 2.4827229184069019e-05 0.02510867985093462 0 -0.00027952602412181066 0.025615357517903812 0 -1.1454190731044701e-05 0.024859004571705503 0 2.4827229184069019e-05 0.02510867985093462 0 -1.1454190731044701e-05 0.024859004571705503 0 -1.2407624317849628e-06 0.025821922865077153 0 1.3324940708064042e-06 0.023989856503212809 0 -1.1454190731044701e-05 0.024859004571705503 0 2.4827229184069019e-05 0.02510867985093462 0 0.00016278594742625031 0.023907742849336208 0 -1.1454190731044701e-05 0.024859004571705503 0 0.00016278594742625031 0.023907742849336208 0 1.3324940708064042e-06 0.023989856503212809 0 -0.00015930528964571919 0.026141829523477291 0 -0.00027952602412181066 0.025615357517903812 0 -1.2407624317849628e-06 0.025821922865077153 0 -0.00027952602412181066 0.025615357517903812 0 -1.1454190731044701e-05 0.024859004571705503 0 -1.2407624317849628e-06 0.025821922865077153 0 -0.00011378850320557029 0.021937098541902244 0 -8.3046090574000894e-07 0.022159355739774702 0 5.5456414439574043e-06 0.022614652769632086 0 -0.00011378850320557029 0.021937098541902244 0 -8.3046090574000894e-07 0.022159355739774702 0 -0.00024840457849020271 0.021396967015763029 0 -8.3046090574000894e-07 0.022159355739774702 0 1.3324940708064042e-06 0.023989856503212809 0 5.5456414439574043e-06 0.022614652769632086 0 0.00016278594742625031 0.023907742849336208 0 1.3324940708064042e-06 0.023989856503212809 0 5.5456414439574043e-06 0.022614652769632086 0 4.856563673657054e-05 0.022531464954270448 0 0.00020354336410064212 0.021782867616969254 0 0.00038578182854120881 0.022441084998786647 0 0.00016278594742625031 0.023907742849336208 0 5.5456414439574043e-06 0.022614652769632086 0 0.00038578182854120881 0.022441084998786647 0 5.5456414439574043e-06 0.022614652769632086 0 0.00017484131480530808 0.022411070959296207 0 5.5456414439574043e-06 0.022614652769632086 0 -0.00021919078616415753 0.021473057869337991 0 0.00028488411135297096 0.021013843425830538 0 -0.00011378850320557029 0.021937098541902244 0 5.5456414439574043e-06 0.022614652769632086 0 -0.00021919078616415753 0.021473057869337991 0 -0.00011378850320557029 0.021937098541902244 0 -0.00021919078616415753 0.021473057869337991 0 -0.00024840457849020271 0.021396967015763029 0 -0.00021919078616415753 0.021473057869337991 0 -0.00029016596224324634 0.021047679593916895 0 0.00028488411135297096 0.021013843425830538 0 -0.00029016596224324634 0.021047679593916895 0 0.00028488411135297096 0.021013843425830538 0 -0.0001880736928862525 0.020808545146241014 0 0.00025988877086551964 0.022436213972280968 0 0.00038578182854120881 0.022441084998786647 0 0.00017484131480530808 0.022411070959296207 0 0.00025988877086551964 0.022436213972280968 0 0.00017484131480530808 0.022411070959296207 0 0.00022471998411227457 0.022421274395283953 0 0.00021191730843185251 0.021315310615509835 0 0.00020354336410064212 0.021782867616969254 0 0.00020605487820513156 0.022386167361924562 0 0.00017484131480530808 0.022411070959296207 0 0.00022471998411227457 0.022421274395283953 0 0.0002315683256876619 0.020543104764199058 0 0.00028488411135297096 0.021013843425830538 0 -5.8859063379058092e-05 0.020560903020741945 0 0.00020605487820513156 0.022386167361924562 0 0.00024546973748423086 0.022375664139848782 0 0.00022471998411227457 0.022421274395283953 0 0.00028488411135297096 0.021013843425830538 0 -0.0001880736928862525 0.020808545146241014 0 -5.8859063379058092e-05 0.020560903020741945 0 -0.0001880736928862525 0.020808545146241014 0 -5.8859063379058092e-05 0.020560903020741945 0 -0.00021791675172301076 0.020617369855577709 0 -0.00053286534475528984 0.019123245434000506 0 -0.00045412038390021058 0.019727887276558668 0 -0.0005085119020294957 0.02000698115414121 0 -0.00045412038390021058 0.019727887276558668 0 -0.00032584459120453432 0.02069381550785886 0 -0.00045888971597858721 0.020816364510608112 0 -0.00030348189123918708 0.020447761505457504 0 -0.00021791675172301076 0.020617369855577709 0 -0.00032584459120453432 0.02069381550785886 0 -0.00030348189123918708 0.020447761505457504 0 -0.0005407217514133123 0.019194350599354041 0 -0.00056132919998659212 0.019176751972749352 0 -0.00063959263295515153 0.019293870833169097 0 -0.0001880736928862525 0.020808545146241014 0 -0.00021791675172301076 0.020617369855577709 0 -0.00032584459120453432 0.02069381550785886 0 -0.00032584459120453432 0.02069381550785886 0 -0.00040020293498717807 0.02079939568357228 0 -0.00038226365617532781 0.020864040888928008 0 -0.00032584459120453432 0.02069381550785886 0 -0.00040020293498717807 0.02079939568357228 0 -0.00045888971597858721 0.020816364510608112 0 -0.00041903406969747879 0.020820646500087012 0 -0.00040020293498717807 0.02079939568357228 0 -0.00045888971597858721 0.020816364510608112 0 -0.00041903406969747879 0.020820646500087012 0 -0.00040020293498717807 0.02079939568357228 0 -0.00038226365617532781 0.020864040888928008 0 -0.0001880736928862525 0.020808545146241014 0 -0.00032584459120453432 0.02069381550785886 0 -0.00038226365617532781 0.020864040888928008 0 -0.00050431915403346679 0.019159569546683498 0 -0.00057228870277774128 0.019158820770126643 0 -0.0005407217514133123 0.019194350599354041 0 -0.00049266728817863223 0.019158003149621829 0 -0.00055394533260235844 0.01923936452621092 0 -0.00049266728817863223 0.019158003149621829 0 -0.00054656476989343105 0.019104157883374547 0 -0.00056534039036140163 0.019087502366264938 0 -0.00056132919998659212 0.019176751972749352 0 -0.00052919681655600598 0.019170742162676526 0 -0.00051331342823561813 0.019153236887864779 0 -0.0005407217514133123 0.019194350599354041 0 -0.00056132919998659212 0.019176751972749352 0 -0.00052919681655600598 0.019170742162676526 0 -0.0005407217514133123 0.019194350599354041 0 -0.00052919681655600598 0.019170742162676526 0 -0.00049266728817863223 0.019158003149621829 0 -0.00052919681655600598 0.019170742162676526 0 -0.00051331342823561813 0.019153236887864779 0 -0.00049266728817863223 0.019158003149621829 0 -0.00056132919998659212 0.019176751972749352 0 -0.00051331342823561813 0.019153236887864779 0 -0.00049990920807800089 0.019095407112443247 0 -0.00045888971597858721 0.020816364510608112 0 -0.00041690877532628415 0.020793764844591282 0 -0.0002725643208307728 0.020694116562073744 0 -0.0005085119020294957 0.02000698115414121 0 -0.00043322154253963195 0.019848528250902182 0 -0.00041903406969747879 0.020820646500087012 0 -0.00045888971597858721 0.020816364510608112 0 -0.00041690877532628415 0.020793764844591282 0 -0.00041690877532628415 0.020793764844591282 0 -0.00042317737073582843 0.020735280899187299 0 -0.0002725643208307728 0.020694116562073744 0 -0.00029016596224324634 0.021047679593916895 0 -0.0001880736928862525 0.020808545146241014 0 -0.00038226365617532781 0.020864040888928008 0 -0.00041903406969747879 0.020820646500087012 0 -0.00041690877532628415 0.020793764844591282 0 -0.00038226365617532781 0.020864040888928008 0 -0.00041690877532628415 0.020793764844591282 0 -0.00038226365617532781 0.020864040888928008 0 -0.00039450190165465492 0.020932486497605329 0 -0.00041690877532628415 0.020793764844591282 0 -0.00042317737073582843 0.020735280899187299 0 -0.00039450190165465492 0.020932486497605329 0 -0.00021919078616415753 0.021473057869337991 0 -0.00029016596224324634 0.021047679593916895 0 -0.00039450190165465492 0.020932486497605329 0 -0.00029016596224324634 0.021047679593916895 0 -0.00038226365617532781 0.020864040888928008 0 -0.00039450190165465492 0.020932486497605329 0 -0.00036970399380016237 0.020973238398277732 0 -0.00040784925336431689 0.020456736693667998 0 -0.00024840457849020271 0.021396967015763029 0 -0.00021919078616415753 0.021473057869337991 0 -0.00039450190165465492 0.020932486497605329 0 -0.00036970399380016237 0.020973238398277732 0 -0.00021919078616415753 0.021473057869337991 0 -0.00036970399380016237 0.020973238398277732 0 -0.00024840457849020271 0.021396967015763029 0 -0.00042317737073582843 0.020735280899187299 0 -0.00039450190165465492 0.020932486497605329 0 -0.00036970399380016237 0.020973238398277732 0 -0.00042317737073582843 0.020735280899187299 0 -0.0002725643208307728 0.020694116562073744 0 -0.00040784925336431689 0.020456736693667998 0 -0.00040784925336431689 0.020456736693667998 0 -0.00031318642819548912 0.019755681633552243 0 -0.00024840457849020271 0.021396967015763029 0 -0.00042317737073582843 0.020735280899187299 0 -0.00036970399380016237 0.020973238398277732 0 -0.00040784925336431689 0.020456736693667998 0 -0.0002725643208307728 0.020694116562073744 0 -0.00032433817693033418 0.019948582719604393 0 -0.00040784925336431689 0.020456736693667998 0 -0.00032433817693033418 0.019948582719604393 0 -0.00040784925336431689 0.020456736693667998 0 -0.00031318642819548912 0.019755681633552243 0 -2.0149855305884848e-07 0.020328688592675597 0 2.6281347007237498e-06 0.019813184356950318 0 -0.00024840457849020271 0.021396967015763029 0 -0.00016776830423116494 0.01980379480615763 0 -0.00024576758396241481 0.02111827955331147 0 -8.3046090574000894e-07 0.022159355739774702 0 -2.0149855305884848e-07 0.020328688592675597 0 -0.00024840457849020271 0.021396967015763029 0 -1.0287919014213499e-06 0.016666979894001125 0 2.9059511878348011e-07 0.018498137013601281 0 -8.8816725624839703e-06 0.017908457019156526 0 -0.00031318642819548912 0.019755681633552243 0 -0.00048704658121255122 0.018052447330067504 0 -0.00033187322345496726 0.018829864730274506 0 2.6281347007237498e-06 0.019813184356950318 0 2.9059511878348011e-07 0.018498137013601281 0 -8.8816725624839703e-06 0.017908457019156526 0 -0.00016776830423116494 0.01980379480615763 0 -0.00024260984678223729 0.017964541857486697 0 -2.0149855305884848e-07 0.020328688592675597 0 2.6281347007237498e-06 0.019813184356950318 0 2.9059511878348011e-07 0.018498137013601281 0 -0.00043322154253963195 0.019848528250902182 0 -0.00029344493002521322 0.019258966745902134 0 -0.0002725643208307728 0.020694116562073744 0 -0.00032433817693033418 0.019948582719604393 0 -0.00029320914380878769 0.019068372493864699 0 -0.00033683159296523903 0.018805136084122542 0 -0.0003439919291307459 0.018464431657801691 0 -0.00031318642819548912 0.019755681633552243 0 -0.00033187322345496726 0.018829864730274506 0 -0.00029320914380878769 0.019068372493864699 0 -0.00033187322345496726 0.018829864730274506 0 -0.00029320914380878769 0.019068372493864699 0 -0.00039757842462288752 0.019049265848307358 0 -0.00049990920807800089 0.019095407112443247 0 -0.00029320914380878769 0.019068372493864699 0 -0.00039757842462288752 0.019049265848307358 0 -0.00033187322345496726 0.018829864730274506 0 -0.00047054576664809868 0.018009165800775943 0 -0.00025143710765659157 0.017726509411961154 0 -0.00033187322345496726 0.018829864730274506 0 -0.00039757842462288752 0.019049265848307358 0 -0.00042096609595193145 0.019189326322638759 0 -0.00032433817693033418 0.019948582719604393 0 -0.00031318642819548912 0.019755681633552243 0 -0.00029320914380878769 0.019068372493864699 0 -0.00048704658121255122 0.018052447330067504 0 -0.00033187322345496726 0.018829864730274506 0 -0.00050147379745417279 0.018104478514078648 0 -0.00033187322345496726 0.018829864730274506 0 -0.00047054576664809868 0.018009165800775943 0 -0.00050147379745417279 0.018104478514078648 0 -0.00046261280295282944 0.017710444487786085 0 -0.00048704658121255122 0.018052447330067504 0 -0.00050147379745417279 0.018104478514078648 0 -0.00046261280295282944 0.017710444487786085 0 -0.00050147379745417279 0.018104478514078648 0 -0.00049801209500287432 0.017842720142962055 0 -0.00047054576664809868 0.018009165800775943 0 -0.00050147379745417279 0.018104478514078648 0 -0.00049801209500287432 0.017842720142962055 0 -0.00047054576664809868 0.018009165800775943 0 -0.00049801209500287432 0.017842720142962055 0 -0.00044151646168827787 0.017786442540281212 0 -0.00047054576664809868 0.018009165800775943 0 -0.00044151646168827787 0.017786442540281212 0 -0.00025143710765659157 0.017726509411961154 0 -0.00044151646168827787 0.017786442540281212 0 -0.00025143710765659157 0.017726509411961154 0 -0.00037876015298086556 0.017759995433387177 0 -0.00051331342823561813 0.019153236887864779 0 -0.00049990920807800089 0.019095407112443247 0 -0.00042096609595193145 0.019189326322638759 0 -0.00051331342823561813 0.019153236887864779 0 -0.00042096609595193145 0.019189326322638759 0 -0.00049266728817863223 0.019158003149621829 0 -0.00049990920807800089 0.019095407112443247 0 -0.00039757842462288752 0.019049265848307358 0 -0.00042096609595193145 0.019189326322638759 0 -0.0003439919291307459 0.018464431657801691 0 -0.0004701656906447632 0.018472650920907562 0 -0.00025143710765659157 0.017726509411961154 0 -0.00037876015298086556 0.017759995433387177 0 -0.00037323003029502853 0.017764256959695409 0 -0.00042096609595193145 0.019189326322638759 0 -0.00049266728817863223 0.019158003149621829 0 -0.00055542377696965819 0.019113141678524296 0 -0.00049266728817863223 0.019158003149621829 0 -0.00055542377696965819 0.019113141678524296 0 -0.00054656476989343105 0.019104157883374547 0 -0.00041034966195260277 0.017781368803308405 0 -0.00044151646168827787 0.017786442540281212 0 -0.00037876015298086556 0.017759995433387177 0 -0.00038675218060070076 0.017827542391624498 0 -0.00037876015298086556 0.017759995433387177 0 -0.00037011906259519901 0.017773267444339456 0 -0.00023685654843634514 0.017919363580206044 0 -0.00018489271664866021 0.017827970245368537 0 -0.00037876015298086556 0.017759995433387177 0 -0.00037011906259519901 0.017773267444339456 0 -0.00037323003029502853 0.017764256959695409 0 -6.3169186110625681e-05 0.017985541947211359 0 -0.00011098918548913619 0.017988466344702185 0 -6.5072852867104742e-05 0.017990391600184001 0 -5.3169093269271455e-05 0.017992782889391302 0 -6.3169186110625681e-05 0.017985541947211359 0 -6.5072852867104742e-05 0.017990391600184001 0 -0.00034288099989730438 0.018257660986872235 0 -0.0004701656906447632 0.018472650920907562 0 -0.00018489271664866021 0.017827970245368537 0 -0.00034288099989730438 0.018257660986872235 0 -0.00037011906259519901 0.017773267444339456 0 -0.00038267528276836549 0.017795282774346464 0 -0.00037323003029502853 0.017764256959695409 0 -0.00059158179865947914 0.019058274200577031 0 -0.00055542377696965819 0.019113141678524296 0 -0.00056724284625650164 0.019084174662323431 0 -0.00055542377696965819 0.019113141678524296 0 -0.00054656476989343105 0.019104157883374547 0 -0.00056724284625650164 0.019084174662323431 0 -0.00054656476989343105 0.019104157883374547 0 -0.00056534039036140163 0.019087502366264938 0 -0.00056842849604811627 0.01908514518338424 0 -0.00054656476989343105 0.019104157883374547 0 -0.00056842849604811627 0.01908514518338424 0 -0.00056724284625650164 0.019084174662323431 0 -0.00049671236394187952 0.019307032997584062 0 -0.00057228870277774128 0.019158820770126643 0 -0.0005789340565314743 0.01907505787739857 0 -0.00056534039036140163 0.019087502366264938 0 -0.00057585587755568731 0.019078202003242648 0 -0.0005407217514133123 0.019194350599354041 0 -0.00055394533260235844 0.01923936452621092 0 -0.00060110564187862512 0.019254273970646042 0 -0.00062921081157782811 0.019295531590825844 0 -0.00055394533260235844 0.01923936452621092 0 -0.00060110564187862512 0.019254273970646042 0 -0.00056534039036140163 0.019087502366264938 0 -0.00056842849604811627 0.01908514518338424 0 -0.00057585587755568731 0.019078202003242648 0 -0.00049671236394187952 0.019307032997584062 0 -0.00045412038390021058 0.019727887276558668 0 -0.00057585587755568731 0.019078202003242648 0 -0.00058123951643803632 0.019070656591008303 0 -0.00059305794091973928 0.019053679518582049 0 -0.0005789340565314743 0.01907505787739857 0 -0.00057585587755568731 0.019078202003242648 0 -0.00058123951643803632 0.019070656591008303 0 -0.00057585587755568731 0.019078202003242648 0 -0.00059305794091973928 0.019053679518582049 0 -0.00058609107821622989 0.01906343118515649 0 -0.0005865802968591029 0.019054229055618221 0 -0.00058123951643803632 0.019070656591008303 0 -0.00059305794091973928 0.019053679518582049 0 -0.00059158179865947914 0.019058274200577031 0 -0.00056724284625650164 0.019084174662323431 0 -0.00058609107821622989 0.01906343118515649 0 -0.00056842849604811627 0.01908514518338424 0 -0.00056724284625650164 0.019084174662323431 0 -0.00058609107821622989 0.01906343118515649 0 -0.00056842849604811627 0.01908514518338424 0 -0.00057585587755568731 0.019078202003242648 0 -0.00058609107821622989 0.01906343118515649 0 -0.00013034778062323373 0.017968034885587604 0 -0.00022686960756333369 0.018069597925419241 0 -0.00013787027680953765 0.018046474404197318 0 -0.00034288099989730438 0.018257660986872235 0 -0.00043845041575703053 0.018583532880678863 0 -0.00059305794091973928 0.019053679518582049 0 -0.00058609107821622989 0.01906343118515649 0 -0.00061869794648442911 0.01902086768036975 0 -0.00059158179865947914 0.019058274200577031 0 -0.00058609107821622989 0.01906343118515649 0 -0.00061869794648442911 0.01902086768036975 0 -0.00061745897561910382 0.018973763612399715 0 -0.00060122942682600878 0.019026130780609014 0 -0.00061869794648442911 0.01902086768036975 0 -0.00060122942682600878 0.019026130780609014 0 -0.00059305794091973928 0.019053679518582049 0 -0.00061869794648442911 0.01902086768036975 0 -0.00060122942682600878 0.019026130780609014 0 -0.0005865802968591029 0.019054229055618221 0 -0.00059305794091973928 0.019053679518582049 0 -0.00022686960756333369 0.018069597925419241 0 -0.0002502980510444853 0.018175027380866373 0 -0.00035639364827319943 0.018213589300395964 0 -0.00061745897561910382 0.018973763612399715 0 -0.00061869794648442911 0.01902086768036975 0 -0.00066200383314410501 0.018912997521770423 0 -0.00043845041575703053 0.018583532880678863 0 -0.00049471188324563614 0.018549949860994921 0 -0.00022686960756333369 0.018069597925419241 0 -0.0002502980510444853 0.018175027380866373 0 -0.00016210219227249487 0.018137306746916514 0 -0.00022686960756333369 0.018069597925419241 0 -0.00016210219227249487 0.018137306746916514 0 -0.00013787027680953765 0.018046474404197318 0 -0.00016210219227249487 0.018137306746916514 0 -0.00010551812217784804 0.018100192900395377 0 -0.00013787027680953765 0.018046474404197318 0 -0.00010551812217784804 0.018100192900395377 0 -8.7124103081264202e-05 0.018024051775188434 0 -0.00013787027680953765 0.018046474404197318 0 -5.3098561975642534e-05 0.018003524951210707 0 -0.00010551812217784804 0.018100192900395377 0 -8.7124103081264202e-05 0.018024051775188434 0 -5.3098561975642534e-05 0.018003524951210707 0 -0.00010551812217784804 0.018100192900395377 0 -6.8771811699935655e-05 0.018098680546963897 0 -0.00011098918548913619 0.017988466344702185 0 -6.5072852867104742e-05 0.017990391600184001 0 -8.7124103081264202e-05 0.018024051775188434 0 -5.3098561975642534e-05 0.018003524951210707 0 -6.5072852867104742e-05 0.017990391600184001 0 -8.7124103081264202e-05 0.018024051775188434 0 -0.00011098918548913619 0.017988466344702185 0 -8.7124103081264202e-05 0.018024051775188434 0 -0.00013787027680953765 0.018046474404197318 0 -0.00034288099989730438 0.018257660986872235 0 -0.00013250320697907606 0.017945864360107366 0 -0.00016334594837980277 0.018258748481985072 0 -6.8771811699935655e-05 0.018098680546963897 0 -0.00012722477141164238 0.01828567044781447 0 -0.00010551812217784804 0.018100192900395377 0 -0.00016334594837980277 0.018258748481985072 0 -6.8771811699935655e-05 0.018098680546963897 0 -0.00016210219227249487 0.018137306746916514 0 -0.00010551812217784804 0.018100192900395377 0 -0.00016334594837980277 0.018258748481985072 0 -0.0002502980510444853 0.018175027380866373 0 -0.00016210219227249487 0.018137306746916514 0 -0.00020915153791592397 0.018249895709178402 0 -0.00016210219227249487 0.018137306746916514 0 -0.00016334594837980277 0.018258748481985072 0 -0.00020915153791592397 0.018249895709178402 0 -0.0002502980510444853 0.018175027380866373 0 -0.00027374694957197487 0.01826855825189674 0 -0.00035639364827319943 0.018213589300395964 0 -0.00027374694957197487 0.01826855825189674 0 -0.00035533109580222359 0.018380506719449304 0 -0.00035639364827319943 0.018213589300395964 0 -0.0002502980510444853 0.018175027380866373 0 -0.00020915153791592397 0.018249895709178402 0 -0.00027374694957197487 0.01826855825189674 0 -0.00020915153791592397 0.018249895709178402 0 -0.00027374694957197487 0.01826855825189674 0 -0.00025875319918063213 0.018372658325871594 0 -0.00020915153791592397 0.018249895709178402 0 -0.00025875319918063213 0.018372658325871594 0 -0.00021314198849810338 0.018377207518315713 0 -0.00027374694957197487 0.01826855825189674 0 -0.00025875319918063213 0.018372658325871594 0 -0.00035533109580222359 0.018380506719449304 0 -0.00025875319918063213 0.018372658325871594 0 -0.00021314198849810338 0.018377207518315713 0 -0.00020431718635234895 0.01853194304907476 0 -0.00025875319918063213 0.018372658325871594 0 -0.00020431718635234895 0.01853194304907476 0 -0.00037463413965907894 0.018479160410024644 0 -0.00025875319918063213 0.018372658325871594 0 -0.00037463413965907894 0.018479160410024644 0 -0.00035533109580222359 0.018380506719449304 0 -0.00016334594837980277 0.018258748481985072 0 -0.00020915153791592397 0.018249895709178402 0 -0.00021314198849810338 0.018377207518315713 0 -0.00016334594837980277 0.018258748481985072 0 -0.00021314198849810338 0.018377207518315713 0 -0.00022790063227263576 0.018422806697773773 0 -0.00021314198849810338 0.018377207518315713 0 -0.00022790063227263576 0.018422806697773773 0 -0.00020431718635234895 0.01853194304907476 0 -0.00022790063227263576 0.018422806697773773 0 -0.00022664462670127044 0.018416905591484799 0 -0.00020231685994471875 0.018370525779135529 0 -0.00019801618949046699 0.018587524766324765 0 -7.0560839031797234e-05 0.018777908057143293 0 -0.00020431718635234895 0.01853194304907476 0 -6.7353400624014669e-06 0.01925059059124732 0 -0.00041113354899515066 0.018798251724170205 0 -0.00022790063227263576 0.018422806697773773 0 -0.00020431718635234895 0.01853194304907476 0 -0.00021898280012372444 0.018424242595457885 0 -0.00022790063227263576 0.018422806697773773 0 -0.00021898280012372444 0.018424242595457885 0 -0.00022664462670127044 0.018416905591484799 0 -0.00021898280012372444 0.018424242595457885 0 -0.00022664462670127044 0.018416905591484799 0 -0.00022294627417547057 0.018424766354273581 0 -0.00022664462670127044 0.018416905591484799 0 -0.00023477342388046715 0.018414707673048387 0 -0.00020231685994471875 0.018370525779135529 0 -0.00022664462670127044 0.018416905591484799 0 -0.00023477342388046715 0.018414707673048387 0 -0.00022294627417547057 0.018424766354273581 0 -0.00016334594837980277 0.018258748481985072 0 -0.00022790063227263576 0.018422806697773773 0 -0.00020231685994471875 0.018370525779135529 0 -0.00016334594837980277 0.018258748481985072 0 -0.00020231685994471875 0.018370525779135529 0 -0.00012722477141164238 0.01828567044781447 0 -0.00023477342388046715 0.018414707673048387 0 -0.00020231685994471875 0.018370525779135529 0 -0.00012722477141164238 0.01828567044781447 0 -5.2106748064330789e-05 0.018403715968547146 0 -0.00023477342388046715 0.018414707673048387 0 -0.00012722477141164238 0.01828567044781447 0 -5.2106748064330789e-05 0.018403715968547146 0 -0.00023477342388046715 0.018414707673048387 0 -0.00015702653877363199 0.018603034447525521 0 -0.00023477342388046715 0.018414707673048387 0 -0.00015702653877363199 0.018603034447525521 0 -0.00045051804329265149 0.01878238441669533 0 -0.00023477342388046715 0.018414707673048387 0 -0.00045051804329265149 0.01878238441669533 0 -0.00080179223992024725 0.018694289880886443 0 -0.00026485331398391673 0.018448080230647614 0 -0.00052191660120967664 0.018465806862516736 0 -0.00045051804329265149 0.01878238441669533 0 -0.00064790756304761794 0.019005069672494004 0 -0.00080179223992024725 0.018694289880886443 0 -0.00045051804329265149 0.01878238441669533 0 -0.00064790756304761794 0.019005069672494004 0 -0.00042653665195397695 0.019314277222703954 0 -0.00015702653877363199 0.018603034447525521 0 -0.00045051804329265149 0.01878238441669533 0 -0.00042653665195397695 0.019314277222703954 0 -0.00015702653877363199 0.018603034447525521 0 -0.0005077728958216884 0.018869584945789348 0 -0.00040664348211959505 0.018808778399348997 0 -0.0005077728958216884 0.018869584945789348 0 -0.00040664348211959505 0.018808778399348997 0 -0.00030152693714356461 0.018925268270184405 0 -0.00064790756304761794 0.019005069672494004 0 -0.00042653665195397695 0.019314277222703954 0 -0.00070758473739348051 0.019255398741090498 0 -0.00018022563671322365 0.018637947772262041 0 -0.00047283598756523164 0.019093206452210607 0 4.1746779676648828e-05 0.018771032613106812 0 -0.00015702653877363199 0.018603034447525521 0 -0.00040664348211959505 0.018808778399348997 0 5.2112894724717504e-05 0.018671069182910695 0 -0.00040664348211959505 0.018808778399348997 0 -0.00030152693714356461 0.018925268270184405 0 4.2055809853338893e-05 0.018721152503263557 0 -0.00037709708199237801 0.018801033869225981 0 5.2112894724717504e-05 0.018671069182910695 0 -0.00017863536362855428 0.019100726408626194 0 -0.00030152693714356461 0.018925268270184405 0 -0.00017863536362855428 0.019100726408626194 0 -0.00030152693714356461 0.018925268270184405 0 -0.00050554116421750069 0.019221100041770377 0 -0.00047283598756523164 0.019093206452210607 0 -0.00089149531961727358 0.019693593992686265 0 -0.0005077728958216884 0.018869584945789348 0 -0.00050554116421750069 0.019221100041770377 0 -0.00091153282204488415 0.019437015746359601 0 -0.0005077728958216884 0.018869584945789348 0 -0.00030152693714356461 0.018925268270184405 0 -0.00050554116421750069 0.019221100041770377 0 -0.00042653665195397695 0.019314277222703954 0 -0.00083491346333844569 0.019507816696710017 0 -0.00070758473739348051 0.019255398741090498 0 -0.00050554116421750069 0.019221100041770377 0 -0.00034245683379130378 0.019485149391829701 0 -0.00091153282204488415 0.019437015746359601 0 -0.00017863536362855428 0.019100726408626194 0 -0.00050554116421750069 0.019221100041770377 0 -0.00034245683379130378 0.019485149391829701 0 -4.2581986110737884e-05 0.019348604409779844 0 -0.00017863536362855428 0.019100726408626194 0 -0.00034245683379130378 0.019485149391829701 0 -0.0012063455177700058 0.019968522421722201 0 -0.0010614062776836148 0.019734114220393343 0 -0.0013129020360874565 0.019765682488571419 0 -0.0012063455177700058 0.019968522421722201 0 -0.0013129020360874565 0.019765682488571419 0 -0.0013574680673611216 0.019910003540146999 0 -0.0013129020360874565 0.019765682488571419 0 -0.0013574680673611216 0.019910003540146999 0 -0.0013742377205991801 0.019819909128586367 0 -0.0012063455177700058 0.019968522421722201 0 -0.0013574680673611216 0.019910003540146999 0 -0.00139294307608826 0.02008531841963589 0 -0.0012063455177700058 0.019968522421722201 0 -0.00088649908667420634 0.019950714689667304 0 -0.0010614062776836148 0.019734114220393343 0 -0.0010614062776836148 0.019734114220393343 0 -0.0010149221517204712 0.019495581923278348 0 -0.001154624706913166 0.019573973791714556 0 -0.00042653665195397695 0.019314277222703954 0 -0.00088649908667420634 0.019950714689667304 0 -0.00083491346333844569 0.019507816696710017 0 -0.0010614062776836148 0.019734114220393343 0 -0.00083491346333844569 0.019507816696710017 0 -0.0010149221517204712 0.019495581923278348 0 -0.00088649908667420634 0.019950714689667304 0 -0.0010614062776836148 0.019734114220393343 0 -0.00083491346333844569 0.019507816696710017 0 -0.00083491346333844569 0.019507816696710017 0 -0.00070758473739348051 0.019255398741090498 0 -0.00091852179343483687 0.019289596285527112 0 -0.00083491346333844569 0.019507816696710017 0 -0.0010149221517204712 0.019495581923278348 0 -0.00091852179343483687 0.019289596285527112 0 -0.0010149221517204712 0.019495581923278348 0 -0.0011057939054043087 0.01935982262370178 0 -0.00091852179343483687 0.019289596285527112 0 -0.0011057939054043087 0.01935982262370178 0 -0.0012359954851640274 0.019457356454762344 0 -0.0012282956547827733 0.019311367004801631 0 -0.0012359954851640274 0.019457356454762344 0 -0.0013555312000051623 0.019525240090963333 0 -0.0012282956547827733 0.019311367004801631 0 -0.0012359954851640274 0.019457356454762344 0 -0.001154624706913166 0.019573973791714556 0 -0.0013118293357929677 0.019576132447025475 0 -0.0011057939054043087 0.01935982262370178 0 -0.0012359954851640274 0.019457356454762344 0 -0.001154624706913166 0.019573973791714556 0 -0.0010149221517204712 0.019495581923278348 0 -0.0011057939054043087 0.01935982262370178 0 -0.001154624706913166 0.019573973791714556 0 -0.0010614062776836148 0.019734114220393343 0 -0.001154624706913166 0.019573973791714556 0 -0.0013129020360874565 0.019765682488571419 0 -0.0013129020360874565 0.019765682488571419 0 -0.0013341597371381018 0.019748623104052003 0 -0.0013843024686220797 0.01977349764221397 0 -0.0013129020360874565 0.019765682488571419 0 -0.0013118293357929677 0.019576132447025475 0 -0.0013565308776939922 0.01952632601479944 0 -0.0013131768792910762 0.01972201243767337 0 -0.0013050933047235548 0.019765491521275609 0 -0.001154624706913166 0.019573973791714556 0 -0.0013129020360874565 0.019765682488571419 0 -0.0013118293357929677 0.019576132447025475 0 -0.0013050933047235548 0.019765491521275609 0 -0.0006143072489174237 0.021807066964153261 0 -0.0012359954851640274 0.019457356454762344 0 -0.0013118293357929677 0.019576132447025475 0 -0.0013555312000051623 0.019525240090963333 0 -0.0013182139277143554 0.019740689692247852 0 -0.0013050933047235548 0.019765491521275609 0 -0.0013050933047235548 0.019765491521275609 0 -0.00050639532970562899 0.019544818803957795 0 -0.00093361838422765739 0.020222774025657076 0 -0.00093072440744979522 0.02051977086656083 0 -0.00078252440354097531 0.020419683425457025 0 -0.0010771120644699958 0.019117204862715512 0 -0.0013666719439720954 0.019095142646733298 0 -0.00080179223992024725 0.018694289880886443 0 -0.0013555312000051623 0.019525240090963333 0 -0.0012282956547827733 0.019311367004801631 0 -0.0013666719439720954 0.019095142646733298 0 -0.00050639532970562899 0.019544818803957795 0 -0.0006143072489174237 0.021807066964153261 0 -0.0012282956547827733 0.019311367004801631 0 -0.0010771120644699958 0.019117204862715512 0 -0.0013666719439720954 0.019095142646733298 0 -0.0011057939054043087 0.01935982262370178 0 -0.0012282956547827733 0.019311367004801631 0 -0.0010771120644699958 0.019117204862715512 0 -0.00070758473739348051 0.019255398741090498 0 -0.00091852179343483687 0.019289596285527112 0 -0.00083052639905349223 0.019071177480200235 0 -0.0011057939054043087 0.01935982262370178 0 -0.0010771120644699958 0.019117204862715512 0 -0.00091852179343483687 0.019289596285527112 0 -0.0010771120644699958 0.019117204862715512 0 -0.00091852179343483687 0.019289596285527112 0 -0.00083052639905349223 0.019071177480200235 0 -0.0010771120644699958 0.019117204862715512 0 -0.00083052639905349223 0.019071177480200235 0 -0.00080179223992024725 0.018694289880886443 0 -0.00064790756304761794 0.019005069672494004 0 -0.00083052639905349223 0.019071177480200235 0 -0.00080179223992024725 0.018694289880886443 0 -0.00064790756304761794 0.019005069672494004 0 -0.00070758473739348051 0.019255398741090498 0 -0.00083052639905349223 0.019071177480200235 0 -6.7353400624014669e-06 0.01925059059124732 0 5.0448225059270179e-05 0.020073015497015994 0 -0.00026601097358303413 0.019601563374230236 0 -7.0560839031797234e-05 0.018777908057143293 0 -0.00050639532970562899 0.019544818803957795 0 -0.00050639532970562899 0.019544818803957795 0 -0.00052191660120967664 0.018465806862516736 0 -0.00021898280012372444 0.018424242595457885 0 -0.0002309647858532214 0.018447498334300871 0 -0.00022294627417547057 0.018424766354273581 0 0.00017702879383024896 0.024076863558775374 0 0.00049897808673043411 0.024410461635959856 0 -0.00026601097358303413 0.019601563374230236 0 -0.00061645507985772874 0.019605519137618401 0 -0.0004567812764149838 0.01923770517822336 0 -0.00026601097358303413 0.019601563374230236 0 -0.00061645507985772874 0.019605519137618401 0 -0.0002204750482773174 0.019977855673530019 0 0.0011428909220826604 0.028902192066052903 0 0.00019968616521923703 0.029167456905317503 0 0.00027837500424362604 0.02771071116818126 0 0.0011428909220826604 0.028902192066052903 0 0.00076400447760014084 0.029921750498860103 0 0.00019968616521923703 0.029167456905317503 0 0.0011428909220826604 0.028902192066052903 0 0.00076400447760014084 0.029921750498860103 0 0.0012734827235208494 0.030045454213130068 0 0.00076400447760014084 0.029921750498860103 0 0.00029565813123997182 0.030548430100920832 0 0.00019968616521923703 0.029167456905317503 0 0.0012734827235208494 0.030045454213130068 0 0.00085536979444784868 0.030506751836532068 0 0.0014935893192709795 0.03064218108222154 0 0.00076400447760014084 0.029921750498860103 0 0.0012734827235208494 0.030045454213130068 0 0.00085536979444784868 0.030506751836532068 0 0.00076400447760014084 0.029921750498860103 0 0.00085536979444784868 0.030506751836532068 0 0.00029565813123997182 0.030548430100920832 0 0.0011428909220826604 0.028902192066052903 0 0.0012734827235208494 0.030045454213130068 0 0.001886437095547902 0.029969653828274968 0 -0.00061645507985772874 0.019605519137618401 0 -0.00029116481141819821 0.020119512765905952 0 -0.0002204750482773174 0.019977855673530019 0 -0.00030209612026524564 0.02012857018053758 0 -0.0002204750482773174 0.019977855673530019 0 -0.00019770539604023352 0.020266056709582075 0 5.0448225059270179e-05 0.020073015497015994 0 -0.00026601097358303413 0.019601563374230236 0 -0.0002204750482773174 0.019977855673530019 0 5.0448225059270179e-05 0.020073015497015994 0 -0.0002204750482773174 0.019977855673530019 0 -0.00019770539604023352 0.020266056709582075 0 0.00049897808673043411 0.024410461635959856 0 0.00098019587146536006 0.022312146547347669 0 0.0012734827235208494 0.030045454213130068 0 0.001886437095547902 0.029969653828274968 0 0.0014935893192709795 0.03064218108222154 0 0.00049897808673043411 0.024410461635959856 0 0.00012482438853834255 0.026528069524653572 0 -0.0006143072489174237 0.021807066964153261 0 0.00012482438853834255 0.026528069524653572 0 0.00044276224337061649 0.023321403369646915 0 0.0010217221093368504 0.024080728880991036 0 -0.00057171028156863387 0.02519282220140856 0 0.00049897808673043411 0.024410461635959856 0 -0.0006143072489174237 0.021807066964153261 0 -0.0013341597371381018 0.019748623104052003 0 -0.0013831189867877947 0.019711695490959174 0 -0.0013902172379873922 0.019747146519951582 0 -0.0013831189867877947 0.019711695490959174 0 -0.0013902172379873922 0.019747146519951582 0 -0.0014435200599984105 0.019747546438324073 0 -0.0013341597371381018 0.019748623104052003 0 -0.0013902172379873922 0.019747146519951582 0 -0.0013843024686220797 0.01977349764221397 0 -0.0014507896402838525 0.01978927852330049 0 -0.0014435200599984105 0.019747546438324073 0 -0.0016252231605160313 0.019831789196635533 0 -0.0013129020360874565 0.019765682488571419 0 -0.0013843024686220797 0.01977349764221397 0 -0.0013742377205991801 0.019819909128586367 0 -0.0013902172379873922 0.019747146519951582 0 -0.0013843024686220797 0.01977349764221397 0 -0.0014507896402838525 0.01978927852330049 0 -0.0013843024686220797 0.01977349764221397 0 -0.0013742377205991801 0.019819909128586367 0 -0.0014387403350256778 0.019845179080640946 0 -0.0013843024686220797 0.01977349764221397 0 -0.0014507896402838525 0.01978927852330049 0 -0.0014387403350256778 0.019845179080640946 0 -0.0013902172379873922 0.019747146519951582 0 -0.0014507896402838525 0.01978927852330049 0 -0.0014435200599984105 0.019747546438324073 0 0.00012482438853834255 0.026528069524653572 0 -0.0005875115521773443 0.025444933839133942 0 0.00012482438853834255 0.026528069524653572 0 0.00019982907187694447 0.031670976706202725 0 0.00085536979444784868 0.030506751836532068 0 0.0014935893192709795 0.03064218108222154 0 0.00044280755348620259 0.031192937714707429 0 0.00078229310524465521 0.030891901507377806 0 0.00044280755348620259 0.031192937714707429 0 0.00045728373930489454 0.031379206112799457 0 0.00085536979444784868 0.030506751836532068 0 0.00044280755348620259 0.031192937714707429 0 0.00029565813123997182 0.030548430100920832 0 0.00045728373930489454 0.031379206112799457 0 0.00013664637094115383 0.031436952745019606 0 9.4923799912497066e-05 0.03142536468395582 0 0.00045728373930489454 0.031379206112799457 0 0.00013664637094115383 0.031436952745019606 0 0.0002457079250739595 0.031351469986910276 0 0.00044280755348620259 0.031192937714707429 0 0.00045728373930489454 0.031379206112799457 0 0.0002457079250739595 0.031351469986910276 0 -0.0016252231605160313 0.019831789196635533 0 -0.0014821764237137865 0.019994754547515571 0 -0.0017310330078472954 0.020308660501107731 0 -0.0014821764237137865 0.019994754547515571 0 -0.0013574680673611216 0.019910003540146999 0 -0.00139294307608826 0.02008531841963589 0 -0.0014821764237137865 0.019994754547515571 0 -0.0013574680673611216 0.019910003540146999 0 -0.0014387403350256778 0.019845179080640946 0 -0.0013574680673611216 0.019910003540146999 0 -0.0013742377205991801 0.019819909128586367 0 -0.0014387403350256778 0.019845179080640946 0 -0.0014507896402838525 0.01978927852330049 0 -0.0016252231605160313 0.019831789196635533 0 -0.0014387403350256778 0.019845179080640946 0 -0.0016252231605160313 0.019831789196635533 0 -0.0014821764237137865 0.019994754547515571 0 -0.0014387403350256778 0.019845179080640946 0 0.00013644052726844051 0.031597078024815622 0 3.9195458224852641e-05 0.031449389027005316 0 -0.00012343422508674304 0.031424279874395972 0 0.00013644052726844051 0.031597078024815622 0 0.00019066674126299476 0.031472605500732699 0 3.9195458224852641e-05 0.031449389027005316 0 0.00019066674126299476 0.031472605500732699 0 3.9195458224852641e-05 0.031449389027005316 0 9.2794618299076698e-05 0.031412867747341894 0 3.9195458224852641e-05 0.031449389027005316 0 0.00013664637094115383 0.031436952745019606 0 9.2794618299076698e-05 0.031412867747341894 0 0.00013664637094115383 0.031436952745019606 0 0.0002457079250739595 0.031351469986910276 0 -0.00012343422508674304 0.031424279874395972 0 3.9195458224852641e-05 0.031449389027005316 0 0.00013664637094115383 0.031436952745019606 0 -0.00012343422508674304 0.031424279874395972 0 -0.00012343422508674304 0.031424279874395972 0 9.3580395961219903e-05 0.03088462372679902 0 -0.00063830859204574899 0.030265447092268836 0 0.0002457079250739595 0.031351469986910276 0 -0.00012343422508674304 0.031424279874395972 0 9.3580395961219903e-05 0.03088462372679902 0 0.00044280755348620259 0.031192937714707429 0 0.0002457079250739595 0.031351469986910276 0 9.3580395961219903e-05 0.03088462372679902 0 0.00044280755348620259 0.031192937714707429 0 9.3580395961219903e-05 0.03088462372679902 0 0.00029565813123997182 0.030548430100920832 0 -0.00016767332033856412 0.031448303592904368 0 -0.0003508627484757154 0.031309247426488239 0 -0.00012343422508674304 0.031424279874395972 0 -0.00011929823202666422 0.032374110520666403 0 0.00020311476454544543 0.031962587713752058 0 0.00013644052726844051 0.031597078024815622 0 -0.00012343422508674304 0.031424279874395972 0 0.00020311476454544543 0.031962587713752058 0 -0.00011929823202666422 0.032374110520666403 0 0.000175093874899955 0.03231603940849128 0 0.00020311476454544543 0.031962587713752058 0 -0.00063830859204574899 0.030265447092268836 0 1.2197871483532137e-05 0.03019716572674792 0 -0.0003047260336596635 0.029501133413063391 0 -0.00011929823202666422 0.032374110520666403 0 0.00018657170315537048 0.032785324878254148 0 0.000175093874899955 0.03231603940849128 0 0.00030893010526769925 0.030220261649003464 0 0.00034619028229495788 0.029897150874885241 0 0.00029565813123997182 0.030548430100920832 0 1.2197871483532137e-05 0.03019716572674792 0 0.00050538796930308793 0.029566239131712347 0 9.3580395961219903e-05 0.03088462372679902 0 0.00029565813123997182 0.030548430100920832 0 1.2197871483532137e-05 0.03019716572674792 0 9.3580395961219903e-05 0.03088462372679902 0 -0.00063830859204574899 0.030265447092268836 0 1.2197871483532137e-05 0.03019716572674792 0 0.00050538796930308793 0.029566239131712347 0 5.5550204834155851e-05 0.029014898816255259 0 -0.0003047260336596635 0.029501133413063391 0 1.2197871483532137e-05 0.03019716572674792 0 0.00050538796930308793 0.029566239131712347 0 -0.0003047260336596635 0.029501133413063391 0 0.00034619028229495788 0.029897150874885241 0 2.1212686320141667e-06 0.025389083445256477 0 0.00050538796930308793 0.029566239131712347 0 5.5550204834155851e-05 0.029014898816255259 0 0.00062788078307566566 0.028497301572240025 0 5.5550204834155851e-05 0.029014898816255259 0 -0.0003047260336596635 0.029501133413063391 0 -0.00046682163168473541 0.028939020703468793 0 -0.00063830859204574899 0.030265447092268836 0 -0.0003047260336596635 0.029501133413063391 0 -0.0010214831095402427 0.029136635286027113 0 -0.0003508627484757154 0.031309247426488239 0 -0.00039617653119735263 0.031152502460943261 0 -0.00011929823202666422 0.032374110520666403 0 0.00018697374278396839 0.033098392070345838 0 0.00018657170315537048 0.032785324878254148 0 -0.0003047260336596635 0.029501133413063391 0 -0.0010214831095402427 0.029136635286027113 0 -0.00046682163168473541 0.028939020703468793 0 -0.0010214831095402427 0.029136635286027113 0 -0.00046682163168473541 0.028939020703468793 0 -0.00076012871486111128 0.02849108761243542 0 -0.00046682163168473541 0.028939020703468793 0 -0.00022599014563792408 0.028445864545084826 0 -0.00076012871486111128 0.02849108761243542 0 -0.00022599014563792408 0.028445864545084826 0 -0.00076012871486111128 0.02849108761243542 0 -0.00067847858092360029 0.027962928972327879 0 -0.00076012871486111128 0.02849108761243542 0 -0.00067847858092360029 0.027962928972327879 0 -0.0014153553295555984 0.02796550595604123 0 -0.00022599014563792408 0.028445864545084826 0 -0.00067847858092360029 0.027962928972327879 0 -6.5454518842683281e-05 0.027497837276470118 0 -0.00067847858092360029 0.027962928972327879 0 -0.00085863606348102401 0.027305808077452795 0 -0.0014153553295555984 0.02796550595604123 0 -0.00067847858092360029 0.027962928972327879 0 -0.00085863606348102401 0.027305808077452795 0 -6.5454518842683281e-05 0.027497837276470118 0 8.6704612853757341e-05 0.02768016471775955 0 2.1212686320141667e-06 0.025389083445256477 0 -0.000170905494379551 0.026947444396681414 0 0.00027905211120860185 0.027494443668208302 0 0.00038685494889679838 0.026603023705729287 0 -0.00022599014563792408 0.028445864545084826 0 -6.5454518842683281e-05 0.027497837276470118 0 0.00062788078307566566 0.028497301572240025 0 5.5550204834155851e-05 0.029014898816255259 0 -0.00022599014563792408 0.028445864545084826 0 0.00062788078307566566 0.028497301572240025 0 5.5550204834155851e-05 0.029014898816255259 0 -0.00046682163168473541 0.028939020703468793 0 -0.00022599014563792408 0.028445864545084826 0 0.00017702879383024896 0.024076863558775374 0 2.1212686320141667e-06 0.025389083445256477 0 -0.00061645507985772874 0.019605519137618401 0 -0.00084472886558557359 0.01915803145261423 0 -0.0004567812764149838 0.01923770517822336 0 -0.00084472886558557359 0.01915803145261423 0 -0.0004567812764149838 0.01923770517822336 0 -0.00041113354899515066 0.018798251724170205 0 -6.7353400624014669e-06 0.01925059059124732 0 -0.00026601097358303413 0.019601563374230236 0 -0.0004567812764149838 0.01923770517822336 0 -6.7353400624014669e-06 0.01925059059124732 0 -0.0004567812764149838 0.01923770517822336 0 -0.00041113354899515066 0.018798251724170205 0 -0.00084472886558557359 0.01915803145261423 0 -0.00053897769118072295 0.018671855829549822 0 -0.0006006104885766942 0.018570492865715056 0 -0.00084472886558557359 0.01915803145261423 0 -0.00041113354899515066 0.018798251724170205 0 -0.00053897769118072295 0.018671855829549822 0 2.1212686320141667e-06 0.025389083445256477 0 -0.00012640900931185041 0.022136392760507898 0 -0.0006006104885766942 0.018570492865715056 0 -0.00056724038031862587 0.018591381569791659 0 -0.00051349762060605485 0.018777872556283798 0 -0.00053897769118072295 0.018671855829549822 0 -0.0006006104885766942 0.018570492865715056 0 -0.00056724038031862587 0.018591381569791659 0 -0.00041113354899515066 0.018798251724170205 0 -0.00053897769118072295 0.018671855829549822 0 -0.00037463413965907894 0.018479160410024644 0 -0.00020431718635234895 0.01853194304907476 0 -0.00041113354899515066 0.018798251724170205 0 -0.00037463413965907894 0.018479160410024644 0 -0.00056724038031862587 0.018591381569791659 0 -0.00037463413965907894 0.018479160410024644 0 -0.00035533109580222359 0.018380506719449304 0 -0.00053897769118072295 0.018671855829549822 0 -0.00056724038031862587 0.018591381569791659 0 -0.00037463413965907894 0.018479160410024644 0 -0.00056724038031862587 0.018591381569791659 0 -0.00035533109580222359 0.018380506719449304 0 -0.00035639364827319943 0.018213589300395964 0 -0.00055329345529787422 0.018583117250129972 0 -0.00049471188324563614 0.018549949860994921 0 -0.00056724038031862587 0.018591381569791659 0 -0.00062589926203485081 0.018895037807369796 0 -0.00066200383314410501 0.018912997521770423 0 -0.00051987825965441091 0.018955299280166118 0 -0.00062589926203485081 0.018895037807369796 0 -0.00051349762060605485 0.018777872556283798 0 -0.00035340669783932887 0.018949690692502026 0 -0.0006006104885766942 0.018570492865715056 0 -0.00051349762060605485 0.018777872556283798 0 -0.00056724038031862587 0.018591381569791659 0 -0.00062589926203485081 0.018895037807369796 0 -0.00051349762060605485 0.018777872556283798 0 7.858550111007159e-05 0.022309738291093277 0 -0.00012640900931185041 0.022136392760507898 0 -0.00035340669783932887 0.018949690692502026 0 -0.00051987825965441091 0.018955299280166118 0 -0.00051349762060605485 0.018777872556283798 0 0.0005584580316582219 0.025460428337486227 0 0.00038685494889679838 0.026603023705729287 0 -5.4065654070638327e-05 0.026044841543936603 0 -0.00012658607273252642 0.025490120786757983 0 0.0005584580316582219 0.025460428337486227 0 -5.4065654070638327e-05 0.026044841543936603 0 -0.00012658607273252642 0.025490120786757983 0 -5.4065654070638327e-05 0.026044841543936603 0 -0.00053047552302691559 0.025850147808781133 0 -5.4065654070638327e-05 0.026044841543936603 0 -0.00053047552302691559 0.025850147808781133 0 -0.00077414373308282299 0.026410217679629734 0 -0.00077696062031425107 0.025450772321885369 0 -0.00053047552302691559 0.025850147808781133 0 -0.001011964768320061 0.025989960305014669 0 -0.00053047552302691559 0.025850147808781133 0 -0.00077414373308282299 0.026410217679629734 0 -0.001011964768320061 0.025989960305014669 0 -5.4065654070638327e-05 0.026044841543936603 0 -0.00077414373308282299 0.026410217679629734 0 -0.00014579291226947522 0.02650772775304534 0 -0.00085863606348102401 0.027305808077452795 0 -6.5454518842683281e-05 0.027497837276470118 0 -0.00077414373308282299 0.026410217679629734 0 -0.000170905494379551 0.026947444396681414 0 -0.00077414373308282299 0.026410217679629734 0 -0.00014579291226947522 0.02650772775304534 0 8.6704612853757341e-05 0.02768016471775955 0 -0.00084306363294964638 0.026276221369386198 0 -0.000170905494379551 0.026947444396681414 0 0.00038685494889679838 0.026603023705729287 0 -0.00014579291226947522 0.02650772775304534 0 0.00038685494889679838 0.026603023705729287 0 -5.4065654070638327e-05 0.026044841543936603 0 -0.00014579291226947522 0.02650772775304534 0 0.00040127763177942252 0.033994641821280577 0 0.00038196244930346521 0.033986048818706587 0 0.00035327400419904345 0.034032061758086603 0 -0.00085863606348102401 0.027305808077452795 0 -0.00077414373308282299 0.026410217679629734 0 -0.001793746408199387 0.026762512622225187 0 -9.531610776531816e-05 0.027260784472341402 0 7.2245049805213309e-05 0.030889335276908621 0 -0.0012948476616458096 0.025558413054405548 0 -0.001793746408199387 0.026762512622225187 0 -0.001011964768320061 0.025989960305014669 0 -0.00077414373308282299 0.026410217679629734 0 -0.001793746408199387 0.026762512622225187 0 -0.001011964768320061 0.025989960305014669 0 -0.0012948476616458096 0.025558413054405548 0 -0.00077696062031425107 0.025450772321885369 0 -0.001011964768320061 0.025989960305014669 0 0.00085743095263842231 0.032165114360479807 0 7.2245049805213309e-05 0.030889335276908621 0 0.0011114141569810326 0.029979930638008599 0 0.00103392429680986 0.029985568623143364 0 0.001051814388774919 0.029906485563871665 0 0.00042191441740244351 0.033919897349409957 0 0.00040127763177942252 0.033994641821280577 0 0.00038196244930346521 0.033986048818706587 0 0.00034605135855853578 0.03393313335555493 0 0.00042191441740244351 0.033919897349409957 0 0.00038196244930346521 0.033986048818706587 0 0.00034605135855853578 0.03393313335555493 0 0.00038196244930346521 0.033986048818706587 0 0.00036391389909122242 0.033984784490310518 0 0.00034605135855853578 0.03393313335555493 0 0.00036391389909122242 0.033984784490310518 0 0.00035234771569276079 0.033995339352295137 0 0.00060593917702939722 0.034484373502594305 0 0.00031098267848472653 0.034441759591425189 0 0.00038040982423108877 0.034030865901781268 0 0.00042163070869250294 0.03408110987739655 0 0.00035234771569276079 0.033995339352295137 0 0.00036391389909122242 0.033984784490310518 0 0.00038040982423108877 0.034030865901781268 0 0.00035234771569276079 0.033995339352295137 0 0.00038196244930346521 0.033986048818706587 0 0.00038040982423108877 0.034030865901781268 0 0.00035327400419904345 0.034032061758086603 0 0.00038196244930346521 0.033986048818706587 0 0.00036391389909122242 0.033984784490310518 0 0.00038040982423108877 0.034030865901781268 0 0.00035327400419904345 0.034032061758086603 0 0.00037943396498447252 0.03403822927545716 0 0.00026006557888725294 0.034040019654552993 0 0.00038040982423108877 0.034030865901781268 0 0.00035327400419904345 0.034032061758086603 0 0.00037943396498447252 0.03403822927545716 0 0.00038040982423108877 0.034030865901781268 0 0.00037943396498447252 0.03403822927545716 0 0.00042163070869250294 0.03408110987739655 0 0.00037943396498447252 0.03403822927545716 0 0.00042163070869250294 0.03408110987739655 0 0.00051494951079397212 0.034030402075408098 0 0.00037943396498447252 0.03403822927545716 0 0.000338144926227943 0.033901606953938887 0 0.00026006557888725294 0.034040019654552993 0 0.00037943396498447252 0.03403822927545716 0 0.000338144926227943 0.033901606953938887 0 0.00051494951079397212 0.034030402075408098 0 7.6312517445852615e-05 0.032958727377955736 0 0.00020081788719013318 0.033110463965213791 0 0.00018362751379895529 0.033230146230178628 0 7.6312517445852615e-05 0.032958727377955736 0 0.00021799158850747716 0.033045499970797733 0 0.00020081788719013318 0.033110463965213791 0 0.00016656655987272776 0.032595730920462578 0 7.6312517445852615e-05 0.032958727377955736 0 0.00026584945084126902 0.032893033282560775 0 0.00040127763177942252 0.033994641821280577 0 0.00035327400419904345 0.034032061758086603 0 0.00026006557888725294 0.034040019654552993 0 7.2245049805213309e-05 0.030889335276908621 0 0.00014154963156658303 0.034033613378418051 0 7.2245049805213309e-05 0.030889335276908621 0 -0.00071869092722931483 0.030160933721946805 0 -0.00085863606348102401 0.027305808077452795 0 -0.001793746408199387 0.026762512622225187 0 -0.0014153553295555984 0.02796550595604123 0 -0.0010214831095402427 0.029136635286027113 0 -0.00076012871486111128 0.02849108761243542 0 -0.0014153553295555984 0.02796550595604123 0 -0.00039617653119735263 0.031152502460943261 0 -0.00071869092722931483 0.030160933721946805 0 7.6312517445852615e-05 0.032958727377955736 0 0.00026584945084126902 0.032893033282560775 0 0.00021799158850747716 0.033045499970797733 0 0.00018697374278396839 0.033098392070345838 0 0.00026584945084126902 0.032893033282560775 0 0.00021799158850747716 0.033045499970797733 0 0.00018697374278396839 0.033098392070345838 0 0.00021799158850747716 0.033045499970797733 0 0.00022626804169973772 0.033077845529390582 0 0.00018697374278396839 0.033098392070345838 0 0.00022626804169973772 0.033077845529390582 0 0.00018657170315537048 0.032785324878254148 0 0.00022626804169973772 0.033077845529390582 0 0.00018657170315537048 0.032785324878254148 0 0.00015697263467121984 0.033413677463757722 0 0.00021799158850747716 0.033045499970797733 0 0.00022626804169973772 0.033077845529390582 0 0.00020081788719013318 0.033110463965213791 0 7.6312517445852615e-05 0.032958727377955736 0 0.00018362751379895529 0.033230146230178628 0 0.00018139383438857694 0.033495418806181107 0 0.00014154963156658303 0.034033613378418051 0 0.00022277341746198816 0.033238931597020988 0 0.00022626804169973772 0.033077845529390582 0 0.00018362751379895529 0.033230146230178628 0 0.00015697263467121984 0.033413677463757722 0 0.00022626804169973772 0.033077845529390582 0 0.00020081788719013318 0.033110463965213791 0 0.00018362751379895529 0.033230146230178628 0 0.00018362751379895529 0.033230146230178628 0 0.00015697263467121984 0.033413677463757722 0 0.00018139383438857694 0.033495418806181107 0 0.0007712014167215775 0.032256953595402454 0 0.00051864691244533261 0.032283058128975903 0 0.00065664242070979711 0.032032036569764021 0 0.00040827515579112429 0.032169270882968733 0 0.00051864691244533261 0.032283058128975903 0 0.00065664242070979711 0.032032036569764021 0 0.0007712014167215775 0.032256953595402454 0 0.00065664242070979711 0.032032036569764021 0 0.00086277202996053496 0.032030530501895506 0 0.00016354984743681289 0.032810816710108527 0 0.00041840840040411606 0.032846302387460766 0 0.00018657170315537048 0.032785324878254148 0 0.0007712014167215775 0.032256953595402454 0 0.00051864691244533261 0.032283058128975903 0 0.00018657170315537048 0.032785324878254148 0 0.00040827515579112429 0.032169270882968733 0 0.000175093874899955 0.03231603940849128 0 0.00018657170315537048 0.032785324878254148 0 0.00040827515579112429 0.032169270882968733 0 0.00051864691244533261 0.032283058128975903 0 0.00040827515579112429 0.032169270882968733 0 0.000175093874899955 0.03231603940849128 0 0.00020311476454544543 0.031962587713752058 0 0.00040827515579112429 0.032169270882968733 0 0.00020311476454544543 0.031962587713752058 0 0.00038728003387601754 0.031753809661687539 0 0.00040827515579112429 0.032169270882968733 0 0.00038728003387601754 0.031753809661687539 0 0.00065664242070979711 0.032032036569764021 0 0.00013644052726844051 0.031597078024815622 0 0.00020311476454544543 0.031962587713752058 0 0.00038728003387601754 0.031753809661687539 0 0.00065664242070979711 0.032032036569764021 0 0.00060268978042177191 0.031723317367721611 0 0.00079553342901037547 0.031829100744849417 0 0.00038728003387601754 0.031753809661687539 0 0.00065664242070979711 0.032032036569764021 0 0.00060268978042177191 0.031723317367721611 0 0.00060268978042177191 0.031723317367721611 0 0.00044543798261457486 0.031527040188230077 0 0.00072459011442034722 0.031535820427372331 0 0.00060268978042177191 0.031723317367721611 0 0.00079553342901037547 0.031829100744849417 0 0.00072459011442034722 0.031535820427372331 0 0.00019066674126299476 0.031472605500732699 0 0.00038728003387601754 0.031753809661687539 0 0.00044543798261457486 0.031527040188230077 0 0.00038728003387601754 0.031753809661687539 0 0.00060268978042177191 0.031723317367721611 0 0.00044543798261457486 0.031527040188230077 0 0.00013644052726844051 0.031597078024815622 0 0.00019066674126299476 0.031472605500732699 0 0.00038728003387601754 0.031753809661687539 0 0.00095158608024535391 0.031680448318173987 0 0.0011885723679660864 0.031777666973970754 0 0.0010869832955041165 0.031457371857411015 0 0.00095158608024535391 0.031680448318173987 0 0.00097553460469646934 0.031897204512538239 0 0.0011885723679660864 0.031777666973970754 0 0.00095158608024535391 0.031680448318173987 0 0.00079553342901037547 0.031829100744849417 0 0.00072459011442034722 0.031535820427372331 0 0.00095158608024535391 0.031680448318173987 0 0.00079553342901037547 0.031829100744849417 0 0.00097553460469646934 0.031897204512538239 0 0.00086277202996053496 0.032030530501895506 0 0.00097553460469646934 0.031897204512538239 0 0.0010818042746029879 0.032063244192907021 0 0.00079553342901037547 0.031829100744849417 0 0.00086277202996053496 0.032030530501895506 0 0.00097553460469646934 0.031897204512538239 0 0.00065664242070979711 0.032032036569764021 0 0.00079553342901037547 0.031829100744849417 0 0.00086277202996053496 0.032030530501895506 0 0.00097553460469646934 0.031897204512538239 0 0.0010818042746029879 0.032063244192907021 0 0.0011885723679660864 0.031777666973970754 0 0.00050498259787134451 0.033466727235752544 0 0.00043493329602789705 0.033703997146736081 0 0.00071880331201075313 0.033573735320104103 0 0.00041840840040411606 0.032846302387460766 0 0.00085101527170705193 0.032676193886890442 0 0.0007712014167215775 0.032256953595402454 0 0.00086277202996053496 0.032030530501895506 0 0.0010818042746029879 0.032063244192907021 0 0.00050498259787134451 0.033466727235752544 0 0.00018139383438857694 0.033495418806181107 0 0.00043493329602789705 0.033703997146736081 0 0.00015697263467121984 0.033413677463757722 0 0.00050498259787134451 0.033466727235752544 0 0.00018139383438857694 0.033495418806181107 0 0.000338144926227943 0.033901606953938887 0 0.00026006557888725294 0.034040019654552993 0 0.00018139383438857694 0.033495418806181107 0 0.000338144926227943 0.033901606953938887 0 0.00018139383438857694 0.033495418806181107 0 0.00043493329602789705 0.033703997146736081 0 0.000338144926227943 0.033901606953938887 0 0.00043493329602789705 0.033703997146736081 0 0.00051494951079397212 0.034030402075408098 0 0.00043493329602789705 0.033703997146736081 0 0.00051494951079397212 0.034030402075408098 0 0.00071880331201075313 0.033573735320104103 0 0.00051494951079397212 0.034030402075408098 0 0.00033119439245899861 0.034629526744751414 0 0.00036370131166712399 0.034286512160291077 0 0.00051242530232740936 0.034081163578709162 0 0.00055394002996827303 0.034197640323190982 0 0.00051494951079397212 0.034030402075408098 0 0.00086436658359970002 0.033764460416046894 0 0.00071880331201075313 0.033573735320104103 0 0.00033119439245899861 0.034629526744751414 0 5.7448119836000121e-05 0.034939961376486244 0 3.8034014716844664e-06 0.034853391718759875 0 0.00033119439245899861 0.034629526744751414 0 3.8034014716844664e-06 0.034853391718759875 0 0.00036370131166712399 0.034286512160291077 0 0.0009163630111147555 0.033543740080375396 0 0.00097426970123362915 0.033537780827340026 0 0.001031292995985841 0.033600052462009318 0 0.00055394002996827303 0.034197640323190982 0 0.00059794060043298213 0.034234173812745142 0 0.00086436658359970002 0.033764460416046894 0 0.0009163630111147555 0.033543740080375396 0 0.001031292995985841 0.033600052462009318 0 0.0009163630111147555 0.033543740080375396 0 0.00097426970123362915 0.033537780827340026 0 0.00093556133711357404 0.033509526133209538 0 0.00050498259787134451 0.033466727235752544 0 0.00071880331201075313 0.033573735320104103 0 0.00093322718174160648 0.033415171506504318 0 0.00086436658359970002 0.033764460416046894 0 0.0009163630111147555 0.033543740080375396 0 0.00071880331201075313 0.033573735320104103 0 0.0009163630111147555 0.033543740080375396 0 0.00071880331201075313 0.033573735320104103 0 0.00093322718174160648 0.033415171506504318 0 0.00085101527170705193 0.032676193886890442 0 0.00097330330269461982 0.033303486036827382 0 0.0010818042746029879 0.032063244192907021 0 0.0014225344954882397 0.031966389574631056 0 0.0011885723679660864 0.031777666973970754 0 0.00093818906189714244 0.033515877717191493 0 0.00097330330269461982 0.033303486036827382 0 0.00097426970123362915 0.033537780827340026 0 0.00093556133711357404 0.033509526133209538 0 0.0010149896109359182 0.033532505228915377 0 0.00097330330269461982 0.033303486036827382 0 0.00075110686121695797 0.033290801851053424 0 0.00014940629789856146 0.034737322755937952 0 9.4645015777453724e-05 0.034925486938364253 0 4.4348103966715238e-05 0.034835444312306334 0 9.4645015777453724e-05 0.034925486938364253 0 1.6695762833655718e-05 0.034948876943505701 0 4.4348103966715238e-05 0.034835444312306334 0 0.0014444395088944806 0.031649461452378201 0 0.0011885723679660864 0.031777666973970754 0 0.0012940778904602277 0.031472984239747898 0 0.0014225344954882397 0.031966389574631056 0 0.0014444395088944806 0.031649461452378201 0 0.0011885723679660864 0.031777666973970754 0 4.923303021259828e-06 0.034990097480235467 0 5.1803106068679893e-09 0.034999957044689133 0 3.2612491392682501e-06 0.034994753200008402 0 4.923303021259828e-06 0.034990097480235467 0 7.1332227056635481e-06 0.034977098637937916 0 3.0134163617244734e-06 0.034989413162963022 0 4.923303021259828e-06 0.034990097480235467 0 5.1803106068679893e-09 0.034999957044689133 0 7.1332227056635481e-06 0.034977098637937916 0 1.7274693188438671e-05 0.034948030287056508 0 0.00016423211332627238 0.034761396987710615 0 1.6695762833655718e-05 0.034948876943505701 0 -6.7963542713465435e-05 0.034827127465266623 0 4.4348103966715238e-05 0.034835444312306334 0 7.1332227056635481e-06 0.034977098637937916 0 1.6695762833655718e-05 0.034948876943505701 0 3.0134163617244734e-06 0.034989413162963022 0 0.00014940629789856146 0.034737322755937952 0 4.4348103966715238e-05 0.034835444312306334 0 -8.1932151766550323e-05 0.034805739906597376 0 0.00097330330269461982 0.033303486036827382 0 0.00026796116636843378 0.034638472557711394 0 0.00093556133711357404 0.033509526133209538 0 0.0010149896109359182 0.033532505228915377 0 0.001071150122357316 0.033506956094017708 0 -6.7963542713465435e-05 0.034827127465266623 0 4.4348103966715238e-05 0.034835444312306334 0 -8.1932151766550323e-05 0.034805739906597376 0 0.00097426970123362915 0.033537780827340026 0 0.0010149896109359182 0.033532505228915377 0 0.0010245954427675035 0.03355631476917232 0 0.0010149896109359182 0.033532505228915377 0 0.0010579528292532241 0.033546692000470078 0 0.0010245954427675035 0.03355631476917232 0 0.0010149896109359182 0.033532505228915377 0 0.0010579528292532241 0.033546692000470078 0 0.001071150122357316 0.033506956094017708 0 0.00026796116636843378 0.034638472557711394 0 0.00030164210440212911 0.034486006340557596 0 2.7855725991928748e-06 0.034991849774654048 0 3.2612491392682501e-06 0.034994753200008402 0 2.6915255710340462e-06 0.034996716418394892 0 0.0010579528292532241 0.033546692000470078 0 0.001071150122357316 0.033506956094017708 0 0.0010925804767810399 0.033550294800198374 0 5.1803106068679893e-09 0.034999957044689133 0 3.2612491392682501e-06 0.034994753200008402 0 8.3342678627537062e-09 0.034999992288876403 0 3.0134163617244734e-06 0.034989413162963022 0 2.7855725991928748e-06 0.034991849774654048 0 3.2612491392682501e-06 0.034994753200008402 0 4.923303021259828e-06 0.034990097480235467 0 3.0134163617244734e-06 0.034989413162963022 0 3.2612491392682501e-06 0.034994753200008402 0 0.00016423211332627238 0.034761396987710615 0 0.00026796116636843378 0.034638472557711394 0 3.2612491392682501e-06 0.034994753200008402 0 2.6915255710340462e-06 0.034996716418394892 0 8.3342678627537062e-09 0.034999992288876403 0 0.00030164210440212911 0.034486006340557596 0 -6.9304422020215598e-08 0.034999617002478861 0 9.5556234880645013e-07 0.034998782479271809 0 1.1123305613655888e-09 0.034999997534244064 0 3.044653566068832e-10 0.034999998553688724 0 1.5034632655895705e-05 0.035003366622161927 0 -4.980427813493032e-08 0.034999407222979034 0 5.7448119836000121e-05 0.034939961376486244 0 0.00030164210440212911 0.034486006340557596 0 2.6635142825622518e-07 0.034999925546983619 0 -4.980427813493032e-08 0.034999407222979034 0 5.7448119836000121e-05 0.034939961376486244 0 3.8034014716844664e-06 0.034853391718759875 0 0.00030164210440212911 0.034486006340557596 0 0.00059794060043298213 0.034234173812745142 0 0.0010579528292532241 0.033546692000470078 0 0.0010925804767810399 0.033550294800198374 0 0.001031292995985841 0.033600052462009318 0 0.00097426970123362915 0.033537780827340026 0 0.0010245954427675035 0.03355631476917232 0 0.001031292995985841 0.033600052462009318 0 0.0010579528292532241 0.033546692000470078 0 0.0010245954427675035 0.03355631476917232 0 0.001031292995985841 0.033600052462009318 0 -4.980427813493032e-08 0.034999407222979034 0 3.8034014716844664e-06 0.034853391718759875 0 4.2996973665397708e-09 0.034999899260089451 0 3.8034014716844664e-06 0.034853391718759875 0 -1.8929000693404458e-05 0.034950068693997714 0 4.2996973665397708e-09 0.034999899260089451 0 8.1775781484181744e-06 0.034809728649083112 0 0.00011942737129696498 0.034557780953256276 0 3.8034014716844664e-06 0.034853391718759875 0 0.00036370131166712399 0.034286512160291077 0 0.00023798858991752543 0.03411075802611474 0 0.00042163070869250294 0.03408110987739655 0 0.00051494951079397212 0.034030402075408098 0 0.00036370131166712399 0.034286512160291077 0 0.00042163070869250294 0.03408110987739655 0 0.00036370131166712399 0.034286512160291077 0 0.00023798858991752543 0.03411075802611474 0 0.00011942737129696498 0.034557780953256276 0 0.00031098267848472653 0.034441759591425189 0 0.00042163070869250294 0.03408110987739655 0 0.00023798858991752543 0.03411075802611474 0 0.00035234771569276079 0.033995339352295137 0 -1.8929000693404458e-05 0.034950068693997714 0 -1.2126135785371752e-05 0.034962152218468295 0 0.00020698121167481167 0.035055848010991146 0 0.00030895992566818157 0.0343253442939997 0 0.00020698121167481167 0.035055848010991146 0 -3.2676945851015657e-05 0.034800357315006358 0 0.00030895992566818157 0.0343253442939997 0 0.00096468200931971114 0.034446387073521392 0 0.00020698121167481167 0.035055848010991146 0 -1.2126135785371752e-05 0.034962152218468295 0 0.00020698121167481167 0.035055848010991146 0 -3.2676945851015657e-05 0.034800357315006358 0 -1.2126135785371752e-05 0.034962152218468295 0 -3.2676945851015657e-05 0.034800357315006358 0 -8.3869386785359745e-06 0.034918512125019806 0 -1.8929000693404458e-05 0.034950068693997714 0 -1.2126135785371752e-05 0.034962152218468295 0 4.2996973665397708e-09 0.034999899260089451 0 1.8664504138018e-05 0.034952043222336686 0 -8.3869386785359745e-06 0.034918512125019806 0 4.2996973665397708e-09 0.034999899260089451 0 -1.2126135785371752e-05 0.034962152218468295 0 -8.3869386785359745e-06 0.034918512125019806 0 4.2996973665397708e-09 0.034999899260089451 0 -8.0002349838366701e-05 0.034930149485083814 0 -5.387989737388795e-05 0.03497765949250576 0 -6.8194661957769894e-05 0.035006252106048248 0 -8.1322804242620015e-05 0.034912153880265542 0 -8.6837066414887799e-05 0.034908110717897275 0 -4.5248039278484387e-05 0.034957127367348927 0 -2.8086570237300757e-05 0.034977980573423217 0 -2.4276639617291233e-05 0.034937781560628642 0 -2.8086570237300757e-05 0.034977980573423217 0 -3.6995649997223386e-07 0.034970877823433458 0 -2.4276639617291233e-05 0.034937781560628642 0 -4.5248039278484387e-05 0.034957127367348927 0 -8.0002349838366701e-05 0.034930149485083814 0 -5.387989737388795e-05 0.03497765949250576 0 -4.5248039278484387e-05 0.034957127367348927 0 -8.0002349838366701e-05 0.034930149485083814 0 -2.4276639617291233e-05 0.034937781560628642 0 -5.387989737388795e-05 0.03497765949250576 0 -4.2460209676023319e-05 0.035001240723036509 0 -6.8194661957769894e-05 0.035006252106048248 0 -5.387989737388795e-05 0.03497765949250576 0 -2.8086570237300757e-05 0.034977980573423217 0 -4.2460209676023319e-05 0.035001240723036509 0 -4.5248039278484387e-05 0.034957127367348927 0 -5.387989737388795e-05 0.03497765949250576 0 -2.8086570237300757e-05 0.034977980573423217 0 -2.8086570237300757e-05 0.034977980573423217 0 -2.4317200791958094e-05 0.034998219106690417 0 -4.2460209676023319e-05 0.035001240723036509 0 -2.8086570237300757e-05 0.034977980573423217 0 -2.4317200791958094e-05 0.034998219106690417 0 -1.2011301222095575e-05 0.034986220865095667 0 -2.4317200791958094e-05 0.034998219106690417 0 -1.2011301222095575e-05 0.034986220865095667 0 -1.0172083595124303e-06 0.034997147243639719 0 -2.8086570237300757e-05 0.034977980573423217 0 -1.2011301222095575e-05 0.034986220865095667 0 -3.6995649997223386e-07 0.034970877823433458 0 -1.2011301222095575e-05 0.034986220865095667 0 -1.0172083595124303e-06 0.034997147243639719 0 -3.6995649997223386e-07 0.034970877823433458 0 1.6548050232738795e-09 0.035000014761654458 0 -3.6995649997223386e-07 0.034970877823433458 0 2.5846145228915576e-08 0.034999762028157001 0 1.6548050232738795e-09 0.035000014761654458 0 -1.0172083595124303e-06 0.034997147243639719 0 -3.6995649997223386e-07 0.034970877823433458 0 -3.6995649997223386e-07 0.034970877823433458 0 2.5846145228915576e-08 0.034999762028157001 0 -5.4232543066411043e-06 0.034927216937201237 0 -3.6995649997223386e-07 0.034970877823433458 0 -5.4232543066411043e-06 0.034927216937201237 0 -2.4276639617291233e-05 0.034937781560628642 0 -5.4232543066411043e-06 0.034927216937201237 0 -3.1024381317488747e-05 0.034864440456923051 0 -6.3756738761834134e-06 0.034845734813977944 0 -3.1024381317488747e-05 0.034864440456923051 0 -8.307351145342026e-05 0.034938195347811389 0 -7.4628764428081725e-05 0.034679325659010947 0 -5.4232543066411043e-06 0.034927216937201237 0 -2.4276639617291233e-05 0.034937781560628642 0 -3.1024381317488747e-05 0.034864440456923051 0 -8.0002349838366701e-05 0.034930149485083814 0 -2.4276639617291233e-05 0.034937781560628642 0 -3.1024381317488747e-05 0.034864440456923051 0 -8.0002349838366701e-05 0.034930149485083814 0 -3.1024381317488747e-05 0.034864440456923051 0 -8.307351145342026e-05 0.034938195347811389 0 2.8722871544342217e-05 0.034460330656415725 0 -0.00014460178826870661 0.034102894539220927 0 -7.4628764428081725e-05 0.034679325659010947 0 -9.0737865523794585e-05 0.034472770208507773 0 -9.1201122517771166e-05 0.034667849347644157 0 2.8722871544342217e-05 0.034460330656415725 0 1.1415180378153931e-05 0.034205853609224603 0 0.0001021708874591203 0.034217889826916495 0 1.1415180378153931e-05 0.034205853609224603 0 0.0001021708874591203 0.034217889826916495 0 4.5508330645886361e-05 0.034056300306462894 0 1.1415180378153931e-05 0.034205853609224603 0 -0.00014460178826870661 0.034102894539220927 0 4.5508330645886361e-05 0.034056300306462894 0 2.8722871544342217e-05 0.034460330656415725 0 1.1415180378153931e-05 0.034205853609224603 0 -0.00014460178826870661 0.034102894539220927 0 2.8722871544342217e-05 0.034460330656415725 0 0.0001021708874591203 0.034217889826916495 0 0.00020989250070449264 0.03432657596742944 0 0.0001021708874591203 0.034217889826916495 0 0.00023920515903296183 0.03406813015432953 0 0.00013937294278587237 0.03406992602341611 0 0.0001021708874591203 0.034217889826916495 0 0.00013937294278587237 0.03406992602341611 0 4.5508330645886361e-05 0.034056300306462894 0 0.00023920515903296183 0.03406813015432953 0 0.00035744498714699235 0.034084870806664086 0 0.00020989250070449264 0.03432657596742944 0 0.0001021708874591203 0.034217889826916495 0 0.00023920515903296183 0.03406813015432953 0 0.00020989250070449264 0.03432657596742944 0 0.00023920515903296183 0.03406813015432953 0 0.00015895627075596011 0.033943794448364276 0 0.00026980499548472607 0.033904951001281165 0 0.00015895627075596011 0.033943794448364276 0 4.5508330645886361e-05 0.034056300306462894 0 4.3284064875924126e-05 0.033891450695968439 0 0.00023920515903296183 0.03406813015432953 0 0.00013937294278587237 0.03406992602341611 0 0.00015895627075596011 0.033943794448364276 0 0.00013937294278587237 0.03406992602341611 0 0.00015895627075596011 0.033943794448364276 0 4.5508330645886361e-05 0.034056300306462894 0 0.00015895627075596011 0.033943794448364276 0 4.3284064875924126e-05 0.033891450695968439 0 0.00017160175814538253 0.033796868790303587 0 0.00026980499548472607 0.033904951001281165 0 0.00017160175814538253 0.033796868790303587 0 0.00032709642499131208 0.033762656477924723 0 0.00015895627075596011 0.033943794448364276 0 0.00026980499548472607 0.033904951001281165 0 0.00017160175814538253 0.033796868790303587 0 -8.307351145342026e-05 0.034938195347811389 0 3.4059461170248864e-06 0.034716919609013866 0 -0.00010090223646504308 0.034765714520437606 0 -8.0002349838366701e-05 0.034930149485083814 0 -8.307351145342026e-05 0.034938195347811389 0 -0.00010090223646504308 0.034765714520437606 0 -9.0737865523794585e-05 0.034472770208507773 0 -8.1893363281121192e-05 0.034425696864028375 0 -0.00014460178826870661 0.034102894539220927 0 4.3284064875924126e-05 0.033891450695968439 0 -6.2432322888084421e-05 0.033748030111881523 0 -0.00014460178826870661 0.034102894539220927 0 4.5508330645886361e-05 0.034056300306462894 0 4.3284064875924126e-05 0.033891450695968439 0 -6.2432322888084421e-05 0.033748030111881523 0 0.00015154987299783018 0.033631989424905438 0 4.6340023045304966e-06 0.033462477381599368 0 -8.1893363281121192e-05 0.034425696864028375 0 0.0005445205513487627 0.032957157734355473 0 3.4059461170248864e-06 0.034716919609013866 0 -9.2072277887228685e-05 0.034480322496965921 0 -0.00010090223646504308 0.034765714520437606 0 4.3284064875924126e-05 0.033891450695968439 0 -6.2432322888084421e-05 0.033748030111881523 0 7.7125166612528317e-05 0.03376514370951151 0 -6.2432322888084421e-05 0.033748030111881523 0 7.7125166612528317e-05 0.03376514370951151 0 0.00015154987299783018 0.033631989424905438 0 0.00017160175814538253 0.033796868790303587 0 0.00015154987299783018 0.033631989424905438 0 0.00032709642499131208 0.033762656477924723 0 4.3284064875924126e-05 0.033891450695968439 0 7.7125166612528317e-05 0.03376514370951151 0 0.00017160175814538253 0.033796868790303587 0 7.7125166612528317e-05 0.03376514370951151 0 0.00017160175814538253 0.033796868790303587 0 0.00015154987299783018 0.033631989424905438 0 0.00092613302898820224 0.03205837436330361 0 0.00066542845788824764 0.032056891673301044 0 0.0013744637463303853 0.03067546236553672 0 0.001185112915811416 0.030811234029247403 0 0.0010706222243979391 0.030642203815560539 0 0.00015154987299783018 0.033631989424905438 0 3.3503471179586695e-05 0.033442098069656097 0 0.00037011286922792604 0.033471495500783065 0 3.4059461170248864e-06 0.034716919609013866 0 -9.2072277887228685e-05 0.034480322496965921 0 7.3589815761669657e-05 0.034349143895278475 0 -9.0690113714017465e-05 0.034590703855310552 0 0.0005445205513487627 0.032957157734355473 0 -9.0690113714017465e-05 0.034590703855310552 0 0.00019653557431623873 0.033578909132455946 0 0.00015154987299783018 0.033631989424905438 0 4.6340023045304966e-06 0.033462477381599368 0 3.3503471179586695e-05 0.033442098069656097 0 0.0005445205513487627 0.032957157734355473 0 0.00092613302898820224 0.03205837436330361 0 0.0012167557820950345 0.031843365394523031 0 0.0011319877764329087 0.032399776740518284 0 0.00050422002038554329 0.032389092789317772 0 0.0005445205513487627 0.032957157734355473 0 0.00086485014610082189 0.032154422677527716 0 0.00086485014610082189 0.032154422677527716 0 0.00092613302898820224 0.03205837436330361 0 -2.708021632224584e-05 0.033888231993447135 0 0.00052951012652612851 0.03345619994537765 0 2.4667850274942596e-05 0.033354987071795933 0 0.00086485014610082189 0.032154422677527716 0 0.00019653557431623873 0.033578909132455946 0 0.00052951012652612851 0.03345619994537765 0 0.00054412490514572736 0.033360464213563985 0 2.4667850274942596e-05 0.033354987071795933 0 1.9837997953759204e-05 0.034984786477047482 0 1.1338556492634128e-05 0.034995658351822057 0 1.6474640365354769e-05 0.034988935503678861 0 0.00019653557431623873 0.033578909132455946 0 -1.9384052722888097e-05 0.034967879514224608 0 5.5006460440275922e-06 0.034983448464942751 0 7.4889105063384958e-08 0.034992532031505694 0 1.2423438598841973e-06 0.034992814056977614 0 5.2178198239298743e-06 0.034989890115911228 0 5.5006460440275922e-06 0.034983448464942751 0 1.2423438598841973e-06 0.034992814056977614 0 -9.0690113714017465e-05 0.034590703855310552 0 -8.6837066414887799e-05 0.034908110717897275 0 -9.0690113714017465e-05 0.034590703855310552 0 -5.1461741877786675e-05 0.035019764700843767 0 -6.9475746108426013e-05 0.035046769677241643 0 -3.4225124824279038e-05 0.035024100740990022 0 -6.8194661957769894e-05 0.035006252106048248 0 5.2178198239298743e-06 0.034989890115911228 0 1.2423438598841973e-06 0.034992814056977614 0 3.6068234348732648e-07 0.034996930549320238 0 1.2423438598841973e-06 0.034992814056977614 0 3.6068234348732648e-07 0.034996930549320238 0 -5.7660491869053457e-07 0.034998169740118386 0 -2.4317200791958094e-05 0.034998219106690417 0 -3.4225124824279038e-05 0.035024100740990022 0 -4.2460209676023319e-05 0.035001240723036509 0 -3.4225124824279038e-05 0.035024100740990022 0 -4.2460209676023319e-05 0.035001240723036509 0 -6.8194661957769894e-05 0.035006252106048248 0 1.6548050232738795e-09 0.035000014761654458 0 -5.7660491869053457e-07 0.034998169740118386 0 -3.4589155696931584e-09 0.034999978585436707 0 1.6548050232738795e-09 0.035000014761654458 0 -1.0172083595124303e-06 0.034997147243639719 0 -5.7660491869053457e-07 0.034998169740118386 0 -1.0172083595124303e-06 0.034997147243639719 0 3.6068234348732648e-07 0.034996930549320238 0 -5.7660491869053457e-07 0.034998169740118386 0 4.2853487943885095e-06 0.034992322275486772 0 -5.1461741877786675e-05 0.035019764700843767 0 -2.4317200791958094e-05 0.034998219106690417 0 -1.0172083595124303e-06 0.034997147243639719 0 -3.4225124824279038e-05 0.035024100740990022 0 -1.9384052722888097e-05 0.034967879514224608 0 2.2656440998980933e-08 0.034999995141216697 0 7.4889105063384958e-08 0.034992532031505694 0 -5.7660491869053457e-07 0.034998169740118386 0 -3.4589155696931584e-09 0.034999978585436707 0 7.4889105063384958e-08 0.034992532031505694 0 1.2423438598841973e-06 0.034992814056977614 0 -5.7660491869053457e-07 0.034998169740118386 0 1.1338556492634128e-05 0.034995658351822057 0 5.5827513721787111e-09 0.035000002667087048 0 9.0090320180674776e-06 0.034994173306776649 0 5.5827513721787111e-09 0.035000002667087048 0 9.0090320180674776e-06 0.034994173306776649 0 9.5023331654896212e-09 0.034999987236393325 0 1.9837997953759204e-05 0.034984786477047482 0 1.6474640365354769e-05 0.034988935503678861 0 2.4239782659024527e-05 0.034980662818060469 0 1.1338556492634128e-05 0.034995658351822057 0 9.0090320180674776e-06 0.034994173306776649 0 1.6474640365354769e-05 0.034988935503678861 0 9.0090320180674776e-06 0.034994173306776649 0 1.6474640365354769e-05 0.034988935503678861 0 1.7611212075116035e-05 0.034988762789538719 0 1.6474640365354769e-05 0.034988935503678861 0 1.7611212075116035e-05 0.034988762789538719 0 2.4239782659024527e-05 0.034980662818060469 0 9.0090320180674776e-06 0.034994173306776649 0 1.7611212075116035e-05 0.034988762789538719 0 9.3953206037248027e-06 0.03499324071817133 0 1.7611212075116035e-05 0.034988762789538719 0 2.4893688260421708e-05 0.034986930811997781 0 2.4239782659024527e-05 0.034980662818060469 0 1.7611212075116035e-05 0.034988762789538719 0 2.4893688260421708e-05 0.034986930811997781 0 9.3953206037248027e-06 0.03499324071817133 0 9.5023331654896212e-09 0.034999987236393325 0 9.3953206037248027e-06 0.03499324071817133 0 3.7276850767721398e-09 0.03499998239979156 0 9.0090320180674776e-06 0.034994173306776649 0 9.5023331654896212e-09 0.034999987236393325 0 9.3953206037248027e-06 0.03499324071817133 0 9.3953206037248027e-06 0.03499324071817133 0 3.7276850767721398e-09 0.03499998239979156 0 8.6741613985018957e-06 0.034982466252855858 0 2.4893688260421708e-05 0.034986930811997781 0 8.6741613985018957e-06 0.034982466252855858 0 4.5634619506936558e-05 0.034980241957907353 0 2.4893688260421708e-05 0.034986930811997781 0 9.3953206037248027e-06 0.03499324071817133 0 8.6741613985018957e-06 0.034982466252855858 0 7.1332227056635481e-06 0.034977098637937916 0 1.6695762833655718e-05 0.034948876943505701 0 8.6741613985018957e-06 0.034982466252855858 0 1.6695762833655718e-05 0.034948876943505701 0 8.6741613985018957e-06 0.034982466252855858 0 4.5634619506936558e-05 0.034980241957907353 0 5.1803106068679893e-09 0.034999957044689133 0 3.7276850767721398e-09 0.03499998239979156 0 8.6741613985018957e-06 0.034982466252855858 0 5.1803106068679893e-09 0.034999957044689133 0 7.1332227056635481e-06 0.034977098637937916 0 8.6741613985018957e-06 0.034982466252855858 0 0.0011885723679660864 0.031777666973970754 0 0.0012940778904602277 0.031472984239747898 0 0.0010869832955041165 0.031457371857411015 0 0.0012940778904602277 0.031472984239747898 0 0.0012006953738308694 0.031246872272883624 0 0.0010869832955041165 0.031457371857411015 0 0.00075110686121695797 0.033290801851053424 0 0.0007358820092718721 0.0331771841322238 0 0.0014444395088944806 0.031649461452378201 0 0.0012940778904602277 0.031472984239747898 0 0.0014377899633446071 0.031326792386204942 0 9.4645015777453724e-05 0.034925486938364253 0 1.6695762833655718e-05 0.034948876943505701 0 4.5634619506936558e-05 0.034980241957907353 0 0.0012940778904602277 0.031472984239747898 0 0.0014377899633446071 0.031326792386204942 0 0.0012006953738308694 0.031246872272883624 0 0.0014377899633446071 0.031326792386204942 0 0.0012006953738308694 0.031246872272883624 0 0.0013211047810404528 0.031146946512235024 0 0.0012006953738308694 0.031246872272883624 0 0.0012080510864405105 0.031072700592610025 0 0.0013211047810404528 0.031146946512235024 0 0.0012080510864405105 0.031072700592610025 0 0.0013211047810404528 0.031146946512235024 0 0.0013431437307283361 0.031060478493852454 0 0.0014377899633446071 0.031326792386204942 0 0.0013211047810404528 0.031146946512235024 0 0.0013753499183019253 0.031079433960163147 0 2.4893688260421708e-05 0.034986930811997781 0 4.5634619506936558e-05 0.034980241957907353 0 2.4239782659024527e-05 0.034980662818060469 0 0.0007358820092718721 0.0331771841322238 0 0.0007521168894291441 0.032923033446116377 0 0.0013211047810404528 0.031146946512235024 0 0.0013431437307283361 0.031060478493852454 0 0.0013753499183019253 0.031079433960163147 0 0.0013741537697279239 0.030824569650832762 0 0.001354823994311308 0.030823692483386133 0 0.0013431437307283361 0.031060478493852454 0 0.00086485014610082189 0.032154422677527716 0 0.0014571124674224939 0.030586811366921127 0 0.0013270947083221661 0.031122533091058752 0 0.0013431437307283361 0.031060478493852454 0 0.0013753499183019253 0.031079433960163147 0 0.0013443285217700973 0.031123282021962659 0 0.0013270947083221661 0.031122533091058752 0 0.0013431437307283361 0.031060478493852454 0 0.00019653557431623873 0.033578909132455946 0 0.0007521168894291441 0.032923033446116377 0 0.00092613302898820224 0.03205837436330361 0 0.0013319404390007426 0.030703071261270757 0 0.001354823994311308 0.030823692483386133 0 0.0013431437307283361 0.031060478493852454 0 0.0011752674152362684 0.030942026631768319 0 0.0012080510864405105 0.031072700592610025 0 0.0013431437307283361 0.031060478493852454 0 0.0011752674152362684 0.030942026631768319 0 0.0013319404390007426 0.030703071261270757 0 0.00091928302395720798 0.031060809089716524 0 0.001185112915811416 0.030811234029247403 0 0.00093275876711129289 0.030785802571895924 0 0.0010706222243979391 0.030642203815560539 0 0.001185112915811416 0.030811234029247403 0 0.00093275876711129289 0.030785802571895924 0 0.00097130032571375634 0.031006645488259363 0 0.00093275876711129289 0.030785802571895924 0 0.00097130032571375634 0.031006645488259363 0 0.00070080008565715011 0.030881110442834571 0 0.00093275876711129289 0.030785802571895924 0 0.00070080008565715011 0.030881110442834571 0 0.00071269091608468281 0.030590108924496855 0 0.00097130032571375634 0.031006645488259363 0 0.00071232011778049446 0.031195439287357171 0 0.00070080008565715011 0.030881110442834571 0 0.0012080510864405105 0.031072700592610025 0 0.0011752674152362684 0.030942026631768319 0 0.00097130032571375634 0.031006645488259363 0 0.0012006953738308694 0.031246872272883624 0 0.0012080510864405105 0.031072700592610025 0 0.00097130032571375634 0.031006645488259363 0 0.0012006953738308694 0.031246872272883624 0 0.00097130032571375634 0.031006645488259363 0 0.00098056454607624993 0.031247192238155048 0 0.0012006953738308694 0.031246872272883624 0 0.00098056454607624993 0.031247192238155048 0 0.0010869832955041165 0.031457371857411015 0 0.00097130032571375634 0.031006645488259363 0 0.00098056454607624993 0.031247192238155048 0 0.00071232011778049446 0.031195439287357171 0 0.00098056454607624993 0.031247192238155048 0 0.00071232011778049446 0.031195439287357171 0 0.00088086681872451235 0.031403779049026678 0 0.00095158608024535391 0.031680448318173987 0 0.00088086681872451235 0.031403779049026678 0 0.00072459011442034722 0.031535820427372331 0 0.00071232011778049446 0.031195439287357171 0 0.00088086681872451235 0.031403779049026678 0 0.00072459011442034722 0.031535820427372331 0 0.00095158608024535391 0.031680448318173987 0 0.00088086681872451235 0.031403779049026678 0 0.0010869832955041165 0.031457371857411015 0 0.00098056454607624993 0.031247192238155048 0 0.00088086681872451235 0.031403779049026678 0 0.0010869832955041165 0.031457371857411015 0 0.00027268963002123706 0.031378127012681306 0 0.00052215691713868842 0.031367815985346693 0 0.00040049719776601584 0.031200753803989092 0 0.00044543798261457486 0.031527040188230077 0 0.00027268963002123706 0.031378127012681306 0 0.00052215691713868842 0.031367815985346693 0 0.00019066674126299476 0.031472605500732699 0 0.00044543798261457486 0.031527040188230077 0 0.00027268963002123706 0.031378127012681306 0 0.00044543798261457486 0.031527040188230077 0 0.00072459011442034722 0.031535820427372331 0 0.00052215691713868842 0.031367815985346693 0 0.00071232011778049446 0.031195439287357171 0 0.00072459011442034722 0.031535820427372331 0 0.00052215691713868842 0.031367815985346693 0 0.00071232011778049446 0.031195439287357171 0 0.00040049719776601584 0.031200753803989092 0 0.00044627106707053715 0.030971699192268647 0 0.00071232011778049446 0.031195439287357171 0 0.00052215691713868842 0.031367815985346693 0 0.00040049719776601584 0.031200753803989092 0 0.00040049719776601584 0.031200753803989092 0 0.00026176720240846351 0.031075563012907311 0 0.0001544815393034142 0.031292932078009948 0 0.00027268963002123706 0.031378127012681306 0 0.00040049719776601584 0.031200753803989092 0 0.0001544815393034142 0.031292932078009948 0 0.00040049719776601584 0.031200753803989092 0 0.00026176720240846351 0.031075563012907311 0 0.00044627106707053715 0.030971699192268647 0 0.00026176720240846351 0.031075563012907311 0 0.00044627106707053715 0.030971699192268647 0 0.00016018715080878227 0.030917042558287991 0 0.00044627106707053715 0.030971699192268647 0 0.0002082663721451975 0.030723411154552856 0 0.00016018715080878227 0.030917042558287991 0 0.00071232011778049446 0.031195439287357171 0 0.00044627106707053715 0.030971699192268647 0 0.00070080008565715011 0.030881110442834571 0 0.00070080008565715011 0.030881110442834571 0 0.00048281726130878664 0.030737717167486852 0 0.00071269091608468281 0.030590108924496855 0 0.00044627106707053715 0.030971699192268647 0 0.00070080008565715011 0.030881110442834571 0 0.00048281726130878664 0.030737717167486852 0 0.00044627106707053715 0.030971699192268647 0 0.00048281726130878664 0.030737717167486852 0 0.0002082663721451975 0.030723411154552856 0 0.00048281726130878664 0.030737717167486852 0 0.00033172475379813896 0.030524806172747741 0 0.0002082663721451975 0.030723411154552856 0 0.00073785249556144604 0.03357934138421708 0 0.00070822191363332685 0.03365490982151708 0 0.00075815387813959328 0.033635593080403418 0 0.00070822191363332685 0.03365490982151708 0 0.00074828740684377269 0.033697037464964476 0 0.00071917279204311091 0.033730937144133208 0 0.00070822191363332685 0.03365490982151708 0 0.00074828740684377269 0.033697037464964476 0 0.00075815387813959328 0.033635593080403418 0 0.00070822191363332685 0.03365490982151708 0 0.00059981015122900208 0.033655241035382095 0 0.00065457969384313992 0.033732189332315823 0 0.00070822191363332685 0.03365490982151708 0 0.0006238478302577449 0.03353063073812225 0 0.00059981015122900208 0.033655241035382095 0 0.00070822191363332685 0.03365490982151708 0 0.00071917279204311091 0.033730937144133208 0 0.00065457969384313992 0.033732189332315823 0 0.00073785249556144604 0.03357934138421708 0 0.00070822191363332685 0.03365490982151708 0 0.0006238478302577449 0.03353063073812225 0 0.00051317103566823593 0.032030079689878893 0 0.00067472867082821978 0.032061695101466572 0 0.00048281726130878664 0.030737717167486852 0 0.00033172475379813896 0.030524806172747741 0 0.00071269091608468281 0.030590108924496855 0 0.00067472867082821978 0.032061695101466572 0 0.00066542845788824764 0.032056891673301044 0 0.0006238478302577449 0.03353063073812225 0 0.00044792729007587357 0.033627479447618965 0 0.00059981015122900208 0.033655241035382095 0 0.00093275876711129289 0.030785802571895924 0 0.00071269091608468281 0.030590108924496855 0 0.0010706222243979391 0.030642203815560539 0 0.0006238478302577449 0.03353063073812225 0 0.00037011286922792604 0.033471495500783065 0 0.00044792729007587357 0.033627479447618965 0 0.00015154987299783018 0.033631989424905438 0 0.00037011286922792604 0.033471495500783065 0 0.00044792729007587357 0.033627479447618965 0 0.00015154987299783018 0.033631989424905438 0 0.00044792729007587357 0.033627479447618965 0 0.00032709642499131208 0.033762656477924723 0 0.00044792729007587357 0.033627479447618965 0 0.00032709642499131208 0.033762656477924723 0 0.00051980608931702517 0.033763012858828045 0 0.00044792729007587357 0.033627479447618965 0 0.00059981015122900208 0.033655241035382095 0 0.00051980608931702517 0.033763012858828045 0 0.00059981015122900208 0.033655241035382095 0 0.00051980608931702517 0.033763012858828045 0 0.00065457969384313992 0.033732189332315823 0 0.00051980608931702517 0.033763012858828045 0 0.00060536272665602335 0.033812760244876484 0 0.00065457969384313992 0.033732189332315823 0 0.00051980608931702517 0.033763012858828045 0 0.00052289292730839322 0.033869139497560687 0 0.00039588669693200497 0.033919339672687163 0 0.00051980608931702517 0.033763012858828045 0 0.00052289292730839322 0.033869139497560687 0 0.00060536272665602335 0.033812760244876484 0 0.00052289292730839322 0.033869139497560687 0 0.00060536272665602335 0.033812760244876484 0 0.0006002183250058571 0.033899231638973001 0 0.00032709642499131208 0.033762656477924723 0 0.00051980608931702517 0.033763012858828045 0 0.00039588669693200497 0.033919339672687163 0 0.00026980499548472607 0.033904951001281165 0 0.00032709642499131208 0.033762656477924723 0 0.00039588669693200497 0.033919339672687163 0 0.00052289292730839322 0.033869139497560687 0 0.00039588669693200497 0.033919339672687163 0 0.00047862072233846662 0.034006429091239063 0 0.00023920515903296183 0.03406813015432953 0 0.00026980499548472607 0.033904951001281165 0 0.00039588669693200497 0.033919339672687163 0 0.00035744498714699235 0.034084870806664086 0 0.00040113760062151864 0.034207496535635609 0 0.00020989250070449264 0.03432657596742944 0 0.00023920515903296183 0.03406813015432953 0 0.00039588669693200497 0.033919339672687163 0 0.00035744498714699235 0.034084870806664086 0 0.00039588669693200497 0.033919339672687163 0 0.00035744498714699235 0.034084870806664086 0 0.00047862072233846662 0.034006429091239063 0 0.00035744498714699235 0.034084870806664086 0 0.00047862072233846662 0.034006429091239063 0 0.00040113760062151864 0.034207496535635609 0 0.0006002183250058571 0.033899231638973001 0 0.00047862072233846662 0.034006429091239063 0 0.00058388010557810588 0.034062544092848153 0 0.00052289292730839322 0.033869139497560687 0 0.0006002183250058571 0.033899231638973001 0 0.00047862072233846662 0.034006429091239063 0 0.00047862072233846662 0.034006429091239063 0 0.00058388010557810588 0.034062544092848153 0 0.00040113760062151864 0.034207496535635609 0 0.0006002183250058571 0.033899231638973001 0 0.00058388010557810588 0.034062544092848153 0 0.00067729735413036467 0.033873772099423077 0 0.0007769672174986037 0.033775989481572198 0 0.00074027135732158272 0.033750955060170923 0 0.00071037285127299634 0.033796334587446339 0 0.00058388010557810588 0.034062544092848153 0 0.00067729735413036467 0.033873772099423077 0 0.0007769672174986037 0.033775989481572198 0 0.00067729735413036467 0.033873772099423077 0 0.0007769672174986037 0.033775989481572198 0 0.00071037285127299634 0.033796334587446339 0 0.0006002183250058571 0.033899231638973001 0 0.00067729735413036467 0.033873772099423077 0 0.00071037285127299634 0.033796334587446339 0 0.0007769672174986037 0.033775989481572198 0 0.00074027135732158272 0.033750955060170923 0 0.00071775689580549646 0.033725544704821066 0 0.0007769672174986037 0.033775989481572198 0 0.00071775689580549646 0.033725544704821066 0 0.00076454588276826066 0.03362388170319721 0 0.00074027135732158272 0.033750955060170923 0 0.00071917279204311091 0.033730937144133208 0 0.00071037285127299634 0.033796334587446339 0 0.00074027135732158272 0.033750955060170923 0 0.00074828740684377269 0.033697037464964476 0 0.00071917279204311091 0.033730937144133208 0 0.00071917279204311091 0.033730937144133208 0 0.00065457969384313992 0.033732189332315823 0 0.00071037285127299634 0.033796334587446339 0 0.00060536272665602335 0.033812760244876484 0 0.00065457969384313992 0.033732189332315823 0 0.00071037285127299634 0.033796334587446339 0 0.00060536272665602335 0.033812760244876484 0 0.0006002183250058571 0.033899231638973001 0 0.00071037285127299634 0.033796334587446339 0 0.00079763313524945211 0.033677147786362868 0 0.0007782988377519123 0.033657561214578711 0 0.00075384147244828004 0.033703737298122538 0 0.00079763313524945211 0.033677147786362868 0 0.0007782988377519123 0.033657561214578711 0 0.00080685260930019346 0.033644659115630554 0 0.00074027135732158272 0.033750955060170923 0 0.00074828740684377269 0.033697037464964476 0 0.00075384147244828004 0.033703737298122538 0 0.00074828740684377269 0.033697037464964476 0 0.0007782988377519123 0.033657561214578711 0 0.00075384147244828004 0.033703737298122538 0 0.00075384147244828004 0.033703737298122538 0 0.00071775689580549646 0.033725544704821066 0 0.00078536213715454169 0.033716430461013636 0 0.00080220719926114479 0.033479679880115382 0 0.00096898735072202676 0.033412357593371543 0 0.00074027135732158272 0.033750955060170923 0 0.00075384147244828004 0.033703737298122538 0 0.00071775689580549646 0.033725544704821066 0 0.00079763313524945211 0.033677147786362868 0 0.00075384147244828004 0.033703737298122538 0 0.00078536213715454169 0.033716430461013636 0 0.00096898735072202676 0.033412357593371543 0 0.00022570755744957371 0.032597207319105218 0 0.00079763313524945211 0.033677147786362868 0 0.00078536213715454169 0.033716430461013636 0 0.00083787100150119003 0.033691602492481779 0 0.00098899800435818422 0.033007480388703159 0 0.00056891386294408662 0.032911604958173572 0 0.00096825306940365912 0.032829367895279432 0 0.00039974535668879776 0.03221628788949138 0 0.00020709714406688012 0.032057951992741682 0 0.00033457280540970106 0.031836978216312907 0 0.00039974535668879776 0.03221628788949138 0 0.00033457280540970106 0.031836978216312907 0 0.00052967535253135704 0.032240223016882077 0 0.00039974535668879776 0.03221628788949138 0 0.00020709714406688012 0.032057951992741682 0 0.00046003738975526306 0.032548095955718531 0 0.00022570755744957371 0.032597207319105218 0 0.00037814639063267117 0.03248952165006537 0 -0.00080402728132721436 0.032045121421131841 0 0.00033457280540970106 0.031836978216312907 0 -0.00032532933582340767 0.031150238101318752 0 0.00022570755744957371 0.032597207319105218 0 0.00017852821097889474 0.0320417151613114 0 -0.00032532933582340767 0.031150238101318752 0 -0.0004816122303717929 0.030107637932555584 0 0.00092564450563154292 0.031436083897775753 0 -0.00080402728132721436 0.032045121421131841 0 -0.00032532933582340767 0.031150238101318752 0 -0.00096634658080929604 0.0297274115880128 0 0.00022570755744957371 0.032597207319105218 0 -6.9185805377557622e-05 0.031891485636172605 0 -0.00032532933582340767 0.031150238101318752 0 -0.0004816122303717929 0.030107637932555584 0 -0.00096634658080929604 0.0297274115880128 0 -0.0004816122303717929 0.030107637932555584 0 -0.00025224280905141258 0.029528658415798915 0 -2.2977503182494475e-05 0.029555842601677138 0 0.00079763313524945211 0.033677147786362868 0 0.00083787100150119003 0.033691602492481779 0 0.00081939297371493047 0.033660439196642196 0 0.00083787100150119003 0.033691602492481779 0 0.00081939297371493047 0.033660439196642196 0 0.00083528561594131679 0.033628376037953892 0 0.00081939297371493047 0.033660439196642196 0 0.00080685260930019346 0.033644659115630554 0 0.00083528561594131679 0.033628376037953892 0 0.00079763313524945211 0.033677147786362868 0 0.00081939297371493047 0.033660439196642196 0 0.00080685260930019346 0.033644659115630554 0 -6.9185805377557622e-05 0.031891485636172605 0 -0.00011866895563501941 0.030336304916841212 0 0.00080685260930019346 0.033644659115630554 0 0.00083528561594131679 0.033628376037953892 0 0.00080325173309787727 0.033607429777739131 0 0.00083528561594131679 0.033628376037953892 0 0.00080325173309787727 0.033607429777739131 0 0.00082581308306310045 0.033554836767097362 0 -0.00096634658080929604 0.0297274115880128 0 -0.000591151756118585 0.029025195805614037 0 -0.0010064880417841068 0.028486459044450314 0 -0.00025224280905141258 0.029528658415798915 0 -0.00031528328391909063 0.029271666716029425 0 -5.6447247057779694e-05 0.029260075854179151 0 -0.0004816122303717929 0.030107637932555584 0 -0.00025224280905141258 0.029528658415798915 0 -0.00051231883770519536 0.029535698152516051 0 -0.00025224280905141258 0.029528658415798915 0 -0.00051231883770519536 0.029535698152516051 0 -0.00031528328391909063 0.029271666716029425 0 -0.00096634658080929604 0.0297274115880128 0 -0.00051231883770519536 0.029535698152516051 0 -0.000591151756118585 0.029025195805614037 0 -0.0004816122303717929 0.030107637932555584 0 -0.00096634658080929604 0.0297274115880128 0 -0.00051231883770519536 0.029535698152516051 0 -0.00031528328391909063 0.029271666716029425 0 -7.6841909140505532e-05 0.028928152994629745 0 -5.6447247057779694e-05 0.029260075854179151 0 -0.000591151756118585 0.029025195805614037 0 -0.00031528328391909063 0.029271666716029425 0 -7.6841909140505532e-05 0.028928152994629745 0 -0.00051231883770519536 0.029535698152516051 0 -0.000591151756118585 0.029025195805614037 0 -0.00031528328391909063 0.029271666716029425 0 -0.0011159541565362182 0.026470688793837349 0 0.00030685139447998559 0.028855929270587631 0 -0.000591151756118585 0.029025195805614037 0 -0.00042950096210495617 0.028522437936864754 0 -7.6841909140505532e-05 0.028928152994629745 0 -0.000591151756118585 0.029025195805614037 0 -0.00042950096210495617 0.028522437936864754 0 -0.0010064880417841068 0.028486459044450314 0 -0.0011159541565362182 0.026470688793837349 0 -0.001179015385307058 0.024830621271188506 0 -0.0011159541565362182 0.026470688793837349 0 -0.00011866895563501941 0.030336304916841212 0 -0.00013038084881714779 0.027326792321008053 0 -0.00095163148001375323 0.027317015290272372 0 -0.0010246997764914074 0.026411665308357035 0 -0.00011866895563501941 0.030336304916841212 0 0.00040488877102413733 0.032194732229223248 0 -0.00053085573017966218 0.030396632175837261 0 -8.7786483557991056e-05 0.030451400587999933 0 -0.00043609723391917281 0.030593613622400206 0 0.00080325173309787727 0.033607429777739131 0 0.00082581308306310045 0.033554836767097362 0 0.00077903818971685683 0.033581694507255656 0 -0.00011866895563501941 0.030336304916841212 0 -0.001179015385307058 0.024830621271188506 0 0.0007782988377519123 0.033657561214578711 0 0.00080325173309787727 0.033607429777739131 0 0.00077903818971685683 0.033581694507255656 0 0.0007782988377519123 0.033657561214578711 0 0.00080685260930019346 0.033644659115630554 0 0.00080325173309787727 0.033607429777739131 0 0.00074828740684377269 0.033697037464964476 0 0.0007782988377519123 0.033657561214578711 0 0.00075815387813959328 0.033635593080403418 0 0.0007782988377519123 0.033657561214578711 0 0.00077903818971685683 0.033581694507255656 0 0.00075815387813959328 0.033635593080403418 0 0.00051317103566823593 0.032030079689878893 0 0.00040488877102413733 0.032194732229223248 0 0.00033172475379813896 0.030524806172747741 0 -8.7786483557991056e-05 0.030451400587999933 0 0.0002082663721451975 0.030723411154552856 0 0.00073785249556144604 0.03357934138421708 0 0.00077903818971685683 0.033581694507255656 0 0.00075815387813959328 0.033635593080403418 0 -8.7786483557991056e-05 0.030451400587999933 0 0.0002082663721451975 0.030723411154552856 0 -4.4219626974781159e-05 0.030763343396357598 0 0.0002082663721451975 0.030723411154552856 0 -4.4219626974781159e-05 0.030763343396357598 0 0.00016018715080878227 0.030917042558287991 0 -8.7786483557991056e-05 0.030451400587999933 0 -0.00021456432282775415 0.030664109031065832 0 -0.00043609723391917281 0.030593613622400206 0 -8.7786483557991056e-05 0.030451400587999933 0 -0.00021456432282775415 0.030664109031065832 0 -4.4219626974781159e-05 0.030763343396357598 0 -0.00021456432282775415 0.030664109031065832 0 -4.4219626974781159e-05 0.030763343396357598 0 -0.00029281913909069305 0.030852319582629878 0 -0.00029281913909069305 0.030852319582629878 0 -4.9201567717480384e-06 0.03096168194085306 0 -7.5057454448837783e-05 0.031069304472259501 0 -4.4219626974781159e-05 0.030763343396357598 0 -0.00029281913909069305 0.030852319582629878 0 -4.9201567717480384e-06 0.03096168194085306 0 -0.00095984824789592201 0.030399643165479166 0 -0.00079240856912896692 0.028086129994262774 0 -0.0020988232797478465 0.023522196145360642 0 -0.0030846752794802599 0.022506605172647021 0 -0.0021790114026248447 0.022290335980801559 0 -0.0011050630131330267 0.027305076003600982 0 -0.00079240856912896692 0.028086129994262774 0 -4.4219626974781159e-05 0.030763343396357598 0 0.00016018715080878227 0.030917042558287991 0 -4.9201567717480384e-06 0.03096168194085306 0 -4.9201567717480384e-06 0.03096168194085306 0 0.00011261741684058579 0.031108642094072159 0 -7.3810721461992578e-05 0.031086597523429318 0 0.00016018715080878227 0.030917042558287991 0 -4.9201567717480384e-06 0.03096168194085306 0 0.00011261741684058579 0.031108642094072159 0 0.00026176720240846351 0.031075563012907311 0 0.00016018715080878227 0.030917042558287991 0 0.00011261741684058579 0.031108642094072159 0 0.00026176720240846351 0.031075563012907311 0 0.0001544815393034142 0.031292932078009948 0 0.00011261741684058579 0.031108642094072159 0 0.0001544815393034142 0.031292932078009948 0 7.3995630141450276e-05 0.031226325513498708 0 9.8868563098471567e-05 0.031343358654184403 0 0.0001544815393034142 0.031292932078009948 0 0.00011261741684058579 0.031108642094072159 0 -7.3810721461992578e-05 0.031086597523429318 0 0.00078848208437545906 0.031811256272457074 0 -0.00079240856912896692 0.028086129994262774 0 -0.0030846752794802599 0.022506605172647021 0 -0.0021790114026248447 0.022290335980801559 0 -0.0022094493557164112 0.020896024367167431 0 -0.00079240856912896692 0.028086129994262774 0 -0.0010664330995408474 0.026008503403786309 0 7.3995630141450276e-05 0.031226325513498708 0 9.8868563098471567e-05 0.031343358654184403 0 9.4923799912497066e-05 0.03142536468395582 0 9.8868563098471567e-05 0.031343358654184403 0 9.4923799912497066e-05 0.03142536468395582 0 9.2794618299076698e-05 0.031412867747341894 0 0.00013664637094115383 0.031436952745019606 0 9.4923799912497066e-05 0.03142536468395582 0 9.2794618299076698e-05 0.031412867747341894 0 0.00019066674126299476 0.031472605500732699 0 0.00027268963002123706 0.031378127012681306 0 9.2794618299076698e-05 0.031412867747341894 0 0.00027268963002123706 0.031378127012681306 0 0.0001544815393034142 0.031292932078009948 0 9.2794618299076698e-05 0.031412867747341894 0 0.0001544815393034142 0.031292932078009948 0 9.8868563098471567e-05 0.031343358654184403 0 9.2794618299076698e-05 0.031412867747341894 0 -0.0015555873227284668 0.020310855627975272 0 -0.00139294307608826 0.02008531841963589 0 -0.0011981417071690054 0.020210737163266598 0 -0.0015555873227284668 0.020310855627975272 0 -0.00139294307608826 0.02008531841963589 0 -0.0015452356178424875 0.020199707281887188 0 -0.0014821764237137865 0.019994754547515571 0 -0.00139294307608826 0.02008531841963589 0 -0.0015452356178424875 0.020199707281887188 0 -0.0016763908140832078 0.020577827002263942 0 -0.001537467137089364 0.020861531759868174 0 -0.0014821764237137865 0.019994754547515571 0 -0.0015452356178424875 0.020199707281887188 0 -0.0017310330078472954 0.020308660501107731 0 -0.0005875115521773443 0.025444933839133942 0 -0.0010664330995408474 0.026008503403786309 0 -0.0015555873227284668 0.020310855627975272 0 -0.0015452356178424875 0.020199707281887188 0 -0.0017310330078472954 0.020308660501107731 0 -0.0016252231605160313 0.019831789196635533 0 -0.0022094493557164112 0.020896024367167431 0 -0.0017310330078472954 0.020308660501107731 0 -0.0015555873227284668 0.020310855627975272 0 -0.0017310330078472954 0.020308660501107731 0 -0.0016337139370300299 0.020436879100243232 0 -0.0022094493557164112 0.020896024367167431 0 -0.0017310330078472954 0.020308660501107731 0 -0.0013199008187732601 0.022278220202408903 0 -0.0021790114026248447 0.022290335980801559 0 -0.0022094493557164112 0.020896024367167431 0 -0.0013199008187732601 0.022278220202408903 0 -0.0015555873227284668 0.020310855627975272 0 -0.0014416198697725076 0.02045180181969837 0 -0.0011981417071690054 0.020210737163266598 0 -0.0015555873227284668 0.020310855627975272 0 -0.0016337139370300299 0.020436879100243232 0 -0.0014416198697725076 0.02045180181969837 0 -0.0014416198697725076 0.02045180181969837 0 -0.0014951663629515087 0.020678166730061759 0 -0.0012767743477471712 0.020739730674732997 0 -0.0016337139370300299 0.020436879100243232 0 -0.0014416198697725076 0.02045180181969837 0 -0.0014951663629515087 0.020678166730061759 0 -0.0016337139370300299 0.020436879100243232 0 -0.0014951663629515087 0.020678166730061759 0 -0.001626389085417305 0.020857951361669173 0 -0.001537467137089364 0.020861531759868174 0 -0.001179015385307058 0.024830621271188506 0 -0.0020988232797478465 0.023522196145360642 0 -0.0013199008187732601 0.022278220202408903 0 -0.0010285692928565554 0.024606599847310551 0 -0.0020988232797478465 0.023522196145360642 0 -0.0021790114026248447 0.022290335980801559 0 -0.0013199008187732601 0.022278220202408903 0 -0.00029281913909069305 0.030852319582629878 0 -0.00052035757423160719 0.030605488420688665 0 -0.00043609723391917281 0.030593613622400206 0 -0.0011050630131330267 0.027305076003600982 0 -0.001179015385307058 0.024830621271188506 0 -0.00021456432282775415 0.030664109031065832 0 -0.00029281913909069305 0.030852319582629878 0 -0.00043609723391917281 0.030593613622400206 0 -0.00053085573017966218 0.030396632175837261 0 -0.00051461335255455567 0.030605709910609832 0 -0.00043609723391917281 0.030593613622400206 0 -0.001179015385307058 0.024830621271188506 0 -0.0013439800477338284 0.026047578282742394 0 -0.0017197152428661926 0.021455260576312432 0 -0.0020049293019058037 0.021176909465299761 0 -0.0014798937686283048 0.020963414123287085 0 -0.0014951663629515087 0.020678166730061759 0 -0.001626389085417305 0.020857951361669173 0 -0.0012767743477471712 0.020739730674732997 0 -0.001179015385307058 0.024830621271188506 0 -0.0013998565739831719 0.020432151762941164 0 -0.0012767743477471712 0.020739730674732997 0 -0.00086238369745124388 0.020606015201099438 0 -0.0011981417071690054 0.020210737163266598 0 -0.0014416198697725076 0.02045180181969837 0 -0.0012767743477471712 0.020739730674732997 0 -0.0011981417071690054 0.020210737163266598 0 -0.0014798937686283048 0.020963414123287085 0 -0.00093030486166410299 0.020727656253743808 0 -0.0011180522529332737 0.021423858991593287 0 -0.00093030486166410299 0.020727656253743808 0 -0.00067133193584302075 0.02104979756662069 0 -0.0011180522529332737 0.021423858991593287 0 -0.0013998565739831719 0.020432151762941164 0 -0.00089100118162332 0.02070851506486086 0 -0.00086238369745124388 0.020606015201099438 0 -0.0011981417071690054 0.020210737163266598 0 -0.00067956744149967217 0.020242422981738589 0 -0.0011981417071690054 0.020210737163266598 0 -0.00084968770695044503 0.019953030301332966 0 -0.00067956744149967217 0.020242422981738589 0 -0.00091153282204488415 0.019437015746359601 0 -0.0011981417071690054 0.020210737163266598 0 -0.00084968770695044503 0.019953030301332966 0 -0.00089149531961727358 0.019693593992686265 0 -0.0011786214513591551 0.02017381555325656 0 -0.0012063455177700058 0.019968522421722201 0 -0.00088649908667420634 0.019950714689667304 0 -0.0011981417071690054 0.020210737163266598 0 -0.0012063455177700058 0.019968522421722201 0 -0.00139294307608826 0.02008531841963589 0 -0.0011981417071690054 0.020210737163266598 0 -0.00034245683379130378 0.019485149391829701 0 -0.00051143914759158753 0.019858807019186912 0 -6.9486017301182044e-05 0.019749684442826338 0 -0.00051143914759158753 0.019858807019186912 0 -0.00030414362047994855 0.020081114666569908 0 -6.9486017301182044e-05 0.019749684442826338 0 -4.2581986110737884e-05 0.019348604409779844 0 -0.00034245683379130378 0.019485149391829701 0 -6.9486017301182044e-05 0.019749684442826338 0 -0.00091153282204488415 0.019437015746359601 0 -0.00084968770695044503 0.019953030301332966 0 -0.00051143914759158753 0.019858807019186912 0 -0.00034245683379130378 0.019485149391829701 0 -0.00091153282204488415 0.019437015746359601 0 -0.00051143914759158753 0.019858807019186912 0 -0.00051143914759158753 0.019858807019186912 0 -0.00067956744149967217 0.020242422981738589 0 -0.00030414362047994855 0.020081114666569908 0 -0.00084968770695044503 0.019953030301332966 0 -0.00051143914759158753 0.019858807019186912 0 -0.00067956744149967217 0.020242422981738589 0 -0.00030414362047994855 0.020081114666569908 0 -3.0526778762059924e-05 0.020153228704994319 0 -6.9486017301182044e-05 0.019749684442826338 0 -0.00067956744149967217 0.020242422981738589 0 -0.00030414362047994855 0.020081114666569908 0 -0.00033716829185506827 0.020447114737178747 0 -0.00030414362047994855 0.020081114666569908 0 -0.00033716829185506827 0.020447114737178747 0 -3.0526778762059924e-05 0.020153228704994319 0 -0.00033716829185506827 0.020447114737178747 0 -0.00028520018989374336 0.020863770378676493 0 9.6051588055224123e-05 0.020623037772783688 0 -0.00033716829185506827 0.020447114737178747 0 -0.00050089861156254025 0.020819863570324525 0 -0.00028520018989374336 0.020863770378676493 0 -0.00089100118162332 0.02070851506486086 0 -0.00035965626713172736 0.020456557162393873 0 -0.00086238369745124388 0.020606015201099438 0 -0.00067956744149967217 0.020242422981738589 0 -0.00033716829185506827 0.020447114737178747 0 -0.00093030486166410299 0.020727656253743808 0 -0.00033716829185506827 0.020447114737178747 0 -0.00050089861156254025 0.020819863570324525 0 -0.00093030486166410299 0.020727656253743808 0 -0.00050089861156254025 0.020819863570324525 0 -0.00067133193584302075 0.02104979756662069 0 -0.00050089861156254025 0.020819863570324525 0 -0.00067133193584302075 0.02104979756662069 0 -0.00045213199757136485 0.021091475877662989 0 -0.00067133193584302075 0.02104979756662069 0 -0.00045213199757136485 0.021091475877662989 0 -0.00046165461976128595 0.021408703221499296 0 -0.00028520018989374336 0.020863770378676493 0 -0.00034866477852893787 0.021336749056728322 0 9.6051588055224123e-05 0.020623037772783688 0 -9.9435273685609439e-05 0.02145138599934732 0 -0.00027192167934288121 0.020064893459020426 0 -0.00028520018989374336 0.020863770378676493 0 -0.00045213199757136485 0.021091475877662989 0 -0.00034866477852893787 0.021336749056728322 0 -9.9435273685609439e-05 0.02145138599934732 0 3.0461788635720549e-05 0.020094019590048445 0 -0.00050089861156254025 0.020819863570324525 0 -0.00028520018989374336 0.020863770378676493 0 -0.00045213199757136485 0.021091475877662989 0 -0.00020082570823259794 0.024344319678256291 0 0.00015313739242208191 0.024593680068851202 0 0.00060942169831243334 0.02874437149551487 0 0.00062762984548573285 0.028795026954772172 0 0.00070044614105260587 0.028641350676526813 0 -0.00086411009637101476 0.020454480832873396 0 -0.00095052429832533352 0.020522788400337309 0 -0.0004174963821551664 0.020483397869916379 0 -0.00045213199757136485 0.021091475877662989 0 -0.00034866477852893787 0.021336749056728322 0 -0.00046165461976128595 0.021408703221499296 0 -9.9435273685609439e-05 0.02145138599934732 0 -0.00020082570823259794 0.024344319678256291 0 0.00060942169831243334 0.02874437149551487 0 0.00062762984548573285 0.028795026954772172 0 0.0005948867165193768 0.028771135840935904 0 0.00062762984548573285 0.028795026954772172 0 0.00058011513634233258 0.028910698447978979 0 0.00065733456733185281 0.028857198621235754 0 0.00062762984548573285 0.028795026954772172 0 0.00065733456733185281 0.028857198621235754 0 0.00070044614105260587 0.028641350676526813 0 0.00058011513634233258 0.028910698447978979 0 0.00047016650251052229 0.029022836395231219 0 0.00054735370332540723 0.029035074478566462 0 0.00062762984548573285 0.028795026954772172 0 0.00058011513634233258 0.028910698447978979 0 0.00058657575145642453 0.028839893515718276 0 0.00058011513634233258 0.028910698447978979 0 0.00058657575145642453 0.028839893515718276 0 0.00053535623341706949 0.028888805352267743 0 0.00058011513634233258 0.028910698447978979 0 0.00053535623341706949 0.028888805352267743 0 0.00047016650251052229 0.029022836395231219 0 0.00053535623341706949 0.028888805352267743 0 0.00044442729711245265 0.028899520143487543 0 0.00047016650251052229 0.029022836395231219 0 -0.00020082570823259794 0.024344319678256291 0 -0.0003026241179036205 0.025009429250314595 0 0.00064119730307724682 0.028730213732495555 0 0.0005948867165193768 0.028771135840935904 0 0.00034691068051016962 0.028755279955406159 0 0.00053535623341706949 0.028888805352267743 0 0.0005948867165193768 0.028771135840935904 0 0.00044442729711245265 0.028899520143487543 0 -0.00067133193584302075 0.02104979756662069 0 -0.00046165461976128595 0.021408703221499296 0 -0.0011180522529332737 0.021423858991593287 0 0.00062762984548573285 0.028795026954772172 0 0.00058657575145642453 0.028839893515718276 0 0.0005948867165193768 0.028771135840935904 0 0.00058657575145642453 0.028839893515718276 0 0.00053535623341706949 0.028888805352267743 0 0.0005948867165193768 0.028771135840935904 0 -0.00020082570823259794 0.024344319678256291 0 -0.00058443090918819916 0.025687581011794466 0 0.0005948867165193768 0.028771135840935904 0 0.00034691068051016962 0.028755279955406159 0 0.00044442729711245265 0.028899520143487543 0 0.00034691068051016962 0.028755279955406159 0 0.00024401996781464437 0.029104102703653132 0 0.00044442729711245265 0.028899520143487543 0 -0.0011159541565362182 0.026470688793837349 0 -0.0003026241179036205 0.025009429250314595 0 -0.0002608468778074956 0.028731088708301503 0 0.00034691068051016962 0.028755279955406159 0 -7.6841909140505532e-05 0.028928152994629745 0 0.00034691068051016962 0.028755279955406159 0 -7.6841909140505532e-05 0.028928152994629745 0 0.00024401996781464437 0.029104102703653132 0 -0.0017197152428661926 0.021455260576312432 0 -0.0014798937686283048 0.020963414123287085 0 -0.0011180522529332737 0.021423858991593287 0 0.00024401996781464437 0.029104102703653132 0 0.00039519128847791162 0.029216455210201241 0 -2.2977503182494475e-05 0.029555842601677138 0 -7.6841909140505532e-05 0.028928152994629745 0 0.00024401996781464437 0.029104102703653132 0 -5.6447247057779694e-05 0.029260075854179151 0 0.00024401996781464437 0.029104102703653132 0 -5.6447247057779694e-05 0.029260075854179151 0 -2.2977503182494475e-05 0.029555842601677138 0 -0.00025224280905141258 0.029528658415798915 0 -5.6447247057779694e-05 0.029260075854179151 0 -2.2977503182494475e-05 0.029555842601677138 0 0.00024401996781464437 0.029104102703653132 0 0.00044442729711245265 0.028899520143487543 0 0.00047016650251052229 0.029022836395231219 0 0.00024401996781464437 0.029104102703653132 0 0.00047016650251052229 0.029022836395231219 0 0.00039519128847791162 0.029216455210201241 0 0.00049295032515932506 0.030395740030471078 0 0.00079776700488441525 0.030440329320465798 0 0.00047016650251052229 0.029022836395231219 0 0.00039519128847791162 0.029216455210201241 0 0.00054735370332540723 0.029035074478566462 0 0.00039519128847791162 0.029216455210201241 0 0.00027106080697102808 0.029418607172976365 0 0.00056203120812209893 0.029088529837102667 0 0.00039519128847791162 0.029216455210201241 0 0.00027106080697102808 0.029418607172976365 0 -2.2977503182494475e-05 0.029555842601677138 0 -0.00049741446698934417 0.030106847313161791 0 0.00049295032515932506 0.030395740030471078 0 0.00033457280540970106 0.031836978216312907 0 -0.00032532933582340767 0.031150238101318752 0 0.00092564450563154292 0.031436083897775753 0 -0.0004816122303717929 0.030107637932555584 0 0.00027106080697102808 0.029418607172976365 0 -2.2977503182494475e-05 0.029555842601677138 0 0.00033457280540970106 0.031836978216312907 0 0.00082351348943081239 0.032015614333206391 0 0.00052967535253135704 0.032240223016882077 0 0.00033457280540970106 0.031836978216312907 0 0.00092564450563154292 0.031436083897775753 0 0.00082351348943081239 0.032015614333206391 0 0.00092564450563154292 0.031436083897775753 0 0.00082351348943081239 0.032015614333206391 0 0.0010287530552947884 0.031830622492431432 0 0.00082351348943081239 0.032015614333206391 0 0.0010287530552947884 0.031830622492431432 0 0.00091247590391092955 0.032041777837242706 0 0.00079776700488441525 0.030440329320465798 0 0.00075682752400319029 0.03052325942629773 0 0.0010287530552947884 0.031830622492431432 0 0.0010257017874797348 0.032011859262757139 0 0.0010608532792611902 0.031943856285279584 0 0.00056203120812209893 0.029088529837102667 0 0.00065733456733185281 0.028857198621235754 0 0.00067723856407038636 0.028875053777775207 0 0.00058011513634233258 0.028910698447978979 0 0.00065733456733185281 0.028857198621235754 0 0.00054735370332540723 0.029035074478566462 0 0.00056203120812209893 0.029088529837102667 0 0.00065733456733185281 0.028857198621235754 0 0.00054735370332540723 0.029035074478566462 0 0.00039519128847791162 0.029216455210201241 0 0.00056203120812209893 0.029088529837102667 0 0.00054735370332540723 0.029035074478566462 0 0.00094275632803456945 0.032094056845172247 0 0.00082468535625879896 0.032182437903641038 0 0.00091247590391092955 0.032041777837242706 0 0.00094275632803456945 0.032094056845172247 0 0.00082468535625879896 0.032182437903641038 0 0.00090940544797091932 0.032177870934753411 0 0.00094275632803456945 0.032094056845172247 0 0.00099910167356419602 0.032089376871839922 0 0.0010257017874797348 0.032011859262757139 0 0.00094275632803456945 0.032094056845172247 0 0.00099910167356419602 0.032089376871839922 0 0.00090940544797091932 0.032177870934753411 0 0.00099910167356419602 0.032089376871839922 0 0.0010257017874797348 0.032011859262757139 0 0.001048234497370138 0.03203167110861669 0 0.0010287530552947884 0.031830622492431432 0 0.0010257017874797348 0.032011859262757139 0 0.00091247590391092955 0.032041777837242706 0 0.00094275632803456945 0.032094056845172247 0 0.0010257017874797348 0.032011859262757139 0 0.00091247590391092955 0.032041777837242706 0 0.00082351348943081239 0.032015614333206391 0 0.00064037708753051444 0.032243382570534052 0 0.00075554557153889959 0.032190210215800021 0 0.00082351348943081239 0.032015614333206391 0 0.00091247590391092955 0.032041777837242706 0 0.00075554557153889959 0.032190210215800021 0 0.00082351348943081239 0.032015614333206391 0 0.00052967535253135704 0.032240223016882077 0 0.00064037708753051444 0.032243382570534052 0 0.00052967535253135704 0.032240223016882077 0 0.00064037708753051444 0.032243382570534052 0 0.00053110667298075895 0.032356070830108087 0 0.00064037708753051444 0.032243382570534052 0 0.00053110667298075895 0.032356070830108087 0 0.00061968178682629538 0.032293267132784548 0 0.00064037708753051444 0.032243382570534052 0 0.00061968178682629538 0.032293267132784548 0 0.00075554557153889959 0.032190210215800021 0 0.00061968178682629538 0.032293267132784548 0 0.00069307962291838862 0.032263040745424319 0 0.00060614864320913085 0.032304210995880663 0 0.00053110667298075895 0.032356070830108087 0 0.00061968178682629538 0.032293267132784548 0 0.00057148601743710944 0.03231395576028203 0 0.00082468535625879896 0.032182437903641038 0 0.00091247590391092955 0.032041777837242706 0 0.00075554557153889959 0.032190210215800021 0 0.00061968178682629538 0.032293267132784548 0 0.00075554557153889959 0.032190210215800021 0 0.00069307962291838862 0.032263040745424319 0 0.00082468535625879896 0.032182437903641038 0 0.00075554557153889959 0.032190210215800021 0 0.00069307962291838862 0.032263040745424319 0 0.00082468535625879896 0.032182437903641038 0 0.00069307962291838862 0.032263040745424319 0 0.00076526941439318693 0.032266719450514757 0 0.00069307962291838862 0.032263040745424319 0 0.00076526941439318693 0.032266719450514757 0 0.00062011279779172171 0.032317146221062951 0 0.00069307962291838862 0.032263040745424319 0 0.00062011279779172171 0.032317146221062951 0 0.00060614864320913085 0.032304210995880663 0 0.00076526941439318693 0.032266719450514757 0 0.00062011279779172171 0.032317146221062951 0 0.00063347936828639839 0.032385337309589597 0 0.00057148601743710944 0.03231395576028203 0 0.00055671115729320525 0.032343124354986139 0 0.00058775427116640293 0.032355775420737087 0 0.00057148601743710944 0.03231395576028203 0 0.00060614864320913085 0.032304210995880663 0 0.00055671115729320525 0.032343124354986139 0 0.00061968178682629538 0.032293267132784548 0 0.00057148601743710944 0.03231395576028203 0 0.00060614864320913085 0.032304210995880663 0 0.00062011279779172171 0.032317146221062951 0 0.00060614864320913085 0.032304210995880663 0 0.00055671115729320525 0.032343124354986139 0 0.00045022583907343379 0.032374441246586498 0 0.00077358433951920161 0.032878788026912319 0 0.00055671115729320525 0.032343124354986139 0 0.00047419245574227954 0.032352562579802104 0 0.00058775427116640293 0.032355775420737087 0 0.00047419245574227954 0.032352562579802104 0 0.00047758841606370571 0.032121630090800268 0 0.00058775427116640293 0.032355775420737087 0 0.00062011279779172171 0.032317146221062951 0 0.00055671115729320525 0.032343124354986139 0 0.00047419245574227954 0.032352562579802104 0 0.00020350513586950365 0.032448759933459276 0 -0.00035449648401264928 0.032357819272631011 0 -2.9498814538724192e-06 0.032033261199855924 0 0.00062011279779172171 0.032317146221062951 0 0.00047419245574227954 0.032352562579802104 0 0.00063347936828639839 0.032385337309589597 0 0.00032531674309939221 0.031846650172218514 0 0.00040016926794084277 0.031226302504437854 0 0.00047419245574227954 0.032352562579802104 0 0.00020350513586950365 0.032448759933459276 0 0.00024227097429079593 0.032190298303101161 0 0.00076526941439318693 0.032266719450514757 0 0.00063347936828639839 0.032385337309589597 0 0.00090117667122736379 0.032301766689290655 0 0.00040016926794084277 0.031226302504437854 0 -0.00018313462865286249 0.03090536401998175 0 0.00040016926794084277 0.031226302504437854 0 0.00043130035667838184 0.030957414643322526 0 0.00040168652638788451 0.029593423485661449 0 7.0362145912646428e-05 0.02950672126469768 0 1.6378413382694173e-05 0.029651271377944273 0 0.00076526941439318693 0.032266719450514757 0 0.00090117667122736379 0.032301766689290655 0 0.00090940544797091932 0.032177870934753411 0 0.00082468535625879896 0.032182437903641038 0 0.00076526941439318693 0.032266719450514757 0 0.00090940544797091932 0.032177870934753411 0 0.00090117667122736379 0.032301766689290655 0 0.0010029808182131503 0.032170050136382286 0 0.0011175474251485988 0.032163839407979386 0 0.00043130035667838184 0.030957414643322526 0 0.00062860007738926448 0.030870511276686403 0 0.00099910167356419602 0.032089376871839922 0 0.0010029808182131503 0.032170050136382286 0 0.0010346008156898625 0.032077804581469145 0 0.00099910167356419602 0.032089376871839922 0 0.00090940544797091932 0.032177870934753411 0 0.0010029808182131503 0.032170050136382286 0 0.00090117667122736379 0.032301766689290655 0 0.00090940544797091932 0.032177870934753411 0 0.0010029808182131503 0.032170050136382286 0 1.6378413382694173e-05 0.029651271377944273 0 -0.00027101830940726867 0.029418540698041298 0 -0.00038147381083251854 0.029715609846227127 0 7.0362145912646428e-05 0.02950672126469768 0 1.6378413382694173e-05 0.029651271377944273 0 -0.00027101830940726867 0.029418540698041298 0 -0.00018313462865286249 0.03090536401998175 0 -0.0004918797795455199 0.030903602439549788 0 -0.00035449648401264928 0.032357819272631011 0 -0.00046040154723787138 0.031848526526848171 0 -0.00088387548720810654 0.032234648239841922 0 -0.00046040154723787138 0.031848526526848171 0 -0.00088387548720810654 0.032234648239841922 0 -0.0010067158363641438 0.031791318635631019 0 -0.00035449648401264928 0.032357819272631011 0 -0.00046040154723787138 0.031848526526848171 0 -2.9498814538724192e-06 0.032033261199855924 0 -0.00046040154723787138 0.031848526526848171 0 0.00011106783765735071 0.031711593046362709 0 -2.9498814538724192e-06 0.032033261199855924 0 -0.00046040154723787138 0.031848526526848171 0 -0.00038495375330307329 0.031325669115487328 0 0.00011106783765735071 0.031711593046362709 0 -0.00046040154723787138 0.031848526526848171 0 -0.00080390776479306837 0.031435234232688763 0 -0.00038495375330307329 0.031325669115487328 0 -0.00046040154723787138 0.031848526526848171 0 -0.00080390776479306837 0.031435234232688763 0 -0.0010067158363641438 0.031791318635631019 0 -0.00080390776479306837 0.031435234232688763 0 -0.00038495375330307329 0.031325669115487328 0 -0.00080261242721638929 0.030974619555541746 0 -0.00038495375330307329 0.031325669115487328 0 0.00011402020784542704 0.031189739648140882 0 -0.00039878495988104407 0.030782487942153616 0 -0.00038495375330307329 0.031325669115487328 0 -0.00080261242721638929 0.030974619555541746 0 -0.00039878495988104407 0.030782487942153616 0 -0.00080261242721638929 0.030974619555541746 0 -0.00081319686917776174 0.030605575723227977 0 -0.00039878495988104407 0.030782487942153616 0 0.00066516982066179391 0.031038958305811312 0 0.00011402020784542704 0.031189739648140882 0 0.00014898072723882301 0.030578207607668141 0 0.00011402020784542704 0.031189739648140882 0 0.00014898072723882301 0.030578207607668141 0 -0.00039878495988104407 0.030782487942153616 0 -0.00038495375330307329 0.031325669115487328 0 0.00011402020784542704 0.031189739648140882 0 0.00011106783765735071 0.031711593046362709 0 0.00066516982066179391 0.031038958305811312 0 0.00011402020784542704 0.031189739648140882 0 0.00073119051186472514 0.03185220231599524 0 0.00011402020784542704 0.031189739648140882 0 0.00011106783765735071 0.031711593046362709 0 0.00073119051186472514 0.03185220231599524 0 0.00013686462244265918 0.031780246721476536 0 0.00045022583907343379 0.032374441246586498 0 0.00011106783765735071 0.031711593046362709 0 0.00041567547193710507 0.032639882745226299 0 0.00073119051186472514 0.03185220231599524 0 0.00011106783765735071 0.031711593046362709 0 -2.9498814538724192e-06 0.032033261199855924 0 0.00047758841606370571 0.032121630090800268 0 -2.9498814538724192e-06 0.032033261199855924 0 0.00024227097429079593 0.032190298303101161 0 0.00047758841606370571 0.032121630090800268 0 0.00020350513586950365 0.032448759933459276 0 -2.9498814538724192e-06 0.032033261199855924 0 0.00024227097429079593 0.032190298303101161 0 0.00047419245574227954 0.032352562579802104 0 0.00024227097429079593 0.032190298303101161 0 0.00047758841606370571 0.032121630090800268 0 0.0010074741103328966 0.032860011436267628 0 0.0014270934863763901 0.032317360433872594 0 0.0012689919330252919 0.033507349216134644 0 0.00041567547193710507 0.032639882745226299 0 0.0010074741103328966 0.032860011436267628 0 0.00073119051186472514 0.03185220231599524 0 0.0010983506050037505 0.033871305577962689 0 0.0011291509340866513 0.033690510445344719 0 0.0012689919330252919 0.033507349216134644 0 0.0012415956383350455 0.033090322853624531 0 0.0012736118382863303 0.033466321639844393 0 0.0012415956383350455 0.033090322853624531 0 0.00107774631923496 0.032389716615894411 0 0.0014270934863763901 0.032317360433872594 0 0.00073119051186472514 0.03185220231599524 0 0.0013064609881574055 0.03133451342560415 0 0.0010074741103328966 0.032860011436267628 0 0.0014270934863763901 0.032317360433872594 0 0.00073119051186472514 0.03185220231599524 0 0.00066516982066179391 0.031038958305811312 0 0.00073119051186472514 0.03185220231599524 0 0.0013064609881574055 0.03133451342560415 0 0.00079459800040083332 0.033544674070603631 0 0.0011211559422320207 0.033104546293991614 0 0.0012086996230711922 0.03379950469868185 0 0.0010983506050037505 0.033871305577962689 0 0.00079459800040083332 0.033544674070603631 0 0.0012086996230711922 0.03379950469868185 0 0.00079459800040083332 0.033544674070603631 0 0.0011211559422320207 0.033104546293991614 0 0.00076599436929117868 0.032612705183036571 0 0.00107774631923496 0.032389716615894411 0 0.00076597835469969741 0.03170263459610477 0 0.00079459800040083332 0.033544674070603631 0 0.00076599436929117868 0.032612705183036571 0 0.0006010783515537412 0.032527614432167742 0 0.0013064609881574055 0.03133451342560415 0 0.00098529077983039448 0.030888741061875807 0 0.0012267277401965375 0.030549827968386803 0 0.00066516982066179391 0.031038958305811312 0 0.0013064609881574055 0.03133451342560415 0 0.00098529077983039448 0.030888741061875807 0 0.00066516982066179391 0.031038958305811312 0 0.00098529077983039448 0.030888741061875807 0 0.00075068924502598737 0.03064405256773587 0 0.0017367891005377685 0.033021771721606918 0 0.0017671210450168153 0.033908248036619473 0 0.0014920563070657631 0.033188776865534474 0 0.0014508716280723752 0.033938787519020006 0 0.0019907009690618058 0.033296904568526575 0 0.0014920563070657631 0.033188776865534474 0 0.0025794779109190999 0.033003234020749499 0 0.0020989828034739437 0.032515476728240136 0 0.0014920563070657631 0.033188776865534474 0 0.0011211559422320207 0.033104546293991614 0 0.0013997019214893613 0.032627999831956696 0 0.0014920563070657631 0.033188776865534474 0 0.0011211559422320207 0.033104546293991614 0 0.0012086996230711922 0.03379950469868185 0 0.0012086996230711922 0.03379950469868185 0 0.0014508716280723752 0.033938787519020006 0 0.0012252154080838653 0.033940197720082915 0 0.0014920563070657631 0.033188776865534474 0 0.0012086996230711922 0.03379950469868185 0 0.0014508716280723752 0.033938787519020006 0 0.0012086996230711922 0.03379950469868185 0 0.0012252154080838653 0.033940197720082915 0 0.0011480545953355924 0.033860835322030977 0 0.0010983506050037505 0.033871305577962689 0 0.0012086996230711922 0.03379950469868185 0 0.0011480545953355924 0.033860835322030977 0 0.0010983506050037505 0.033871305577962689 0 0.0011480545953355924 0.033860835322030977 0 0.0011291509340866513 0.033690510445344719 0 0.0012252154080838653 0.033940197720082915 0 0.0011480545953355924 0.033860835322030977 0 0.001069594340692864 0.033881118798592999 0 0.0011480545953355924 0.033860835322030977 0 0.0010501663308336033 0.033735582770179608 0 0.001069594340692864 0.033881118798592999 0 0.0010501663308336033 0.033735582770179608 0 0.0009520122870512335 0.033613892598465679 0 0.00096231861808354201 0.033776955198772218 0 0.0010501663308336033 0.033735582770179608 0 0.00096231861808354201 0.033776955198772218 0 0.001069594340692864 0.033881118798592999 0 0.0010501663308336033 0.033735582770179608 0 0.0009520122870512335 0.033613892598465679 0 0.0010436303425351565 0.033556127283219571 0 0.0009520122870512335 0.033613892598465679 0 0.0010436303425351565 0.033556127283219571 0 0.00095186596107949255 0.033378394214628085 0 0.0010436303425351565 0.033556127283219571 0 0.0011291509340866513 0.033690510445344719 0 0.0011711060098614466 0.033497978311837373 0 0.0010436303425351565 0.033556127283219571 0 0.0011711060098614466 0.033497978311837373 0 0.0010183246193465473 0.033309372752870436 0 0.0010501663308336033 0.033735582770179608 0 0.0010436303425351565 0.033556127283219571 0 0.0011291509340866513 0.033690510445344719 0 0.0011480545953355924 0.033860835322030977 0 0.0010501663308336033 0.033735582770179608 0 0.0011291509340866513 0.033690510445344719 0 0.0011291509340866513 0.033690510445344719 0 0.0012689919330252919 0.033507349216134644 0 0.0011711060098614466 0.033497978311837373 0 0.0010074741103328966 0.032860011436267628 0 0.0012689919330252919 0.033507349216134644 0 0.00095751567373309518 0.033466044939469586 0 0.00041567547193710507 0.032639882745226299 0 0.0010074741103328966 0.032860011436267628 0 0.00095751567373309518 0.033466044939469586 0 0.0012689919330252919 0.033507349216134644 0 0.00095751567373309518 0.033466044939469586 0 0.0012804514713323739 0.033459063301259931 0 0.00057148601743710944 0.03231395576028203 0 0.00058775427116640293 0.032355775420737087 0 0.00059600671847604108 0.032276159559651775 0 0.00077358433951920161 0.032878788026912319 0 0.00092333392415903796 0.032869027038137273 0 0.0012689919330252919 0.033507349216134644 0 0.0011711060098614466 0.033497978311837373 0 0.0012804514713323739 0.033459063301259931 0 0.0011711060098614466 0.033497978311837373 0 0.0012804514713323739 0.033459063301259931 0 0.0010183246193465473 0.033309372752870436 0 0.00092333392415903796 0.032869027038137273 0 0.00096316010182370866 0.032834757654038378 0 0.00059600671847604108 0.032276159559651775 0 0.00054850003165243517 0.032470307669703304 0 0.00096825306940365912 0.032829367895279432 0 0.0012804514713323739 0.033459063301259931 0 0.00096825306940365912 0.032829367895279432 0 0.0010183246193465473 0.033309372752870436 0 0.00053110667298075895 0.032356070830108087 0 0.00057148601743710944 0.03231395576028203 0 0.00059600671847604108 0.032276159559651775 0 0.00053110667298075895 0.032356070830108087 0 0.00059600671847604108 0.032276159559651775 0 0.00054850003165243517 0.032470307669703304 0 0.00053110667298075895 0.032356070830108087 0 0.00049080951690141754 0.032405239964021539 0 0.00054850003165243517 0.032470307669703304 0 0.00052967535253135704 0.032240223016882077 0 0.00053110667298075895 0.032356070830108087 0 0.00049080951690141754 0.032405239964021539 0 0.00049080951690141754 0.032405239964021539 0 0.00054850003165243517 0.032470307669703304 0 0.00046003738975526306 0.032548095955718531 0 0.00039974535668879776 0.03221628788949138 0 0.00049080951690141754 0.032405239964021539 0 0.00046003738975526306 0.032548095955718531 0 0.00039974535668879776 0.03221628788949138 0 0.00052967535253135704 0.032240223016882077 0 0.00049080951690141754 0.032405239964021539 0 0.00054850003165243517 0.032470307669703304 0 0.00046003738975526306 0.032548095955718531 0 0.00096825306940365912 0.032829367895279432 0 0.00056891386294408662 0.032911604958173572 0 0.00046003738975526306 0.032548095955718531 0 0.00096825306940365912 0.032829367895279432 0 0.00087521487198889984 0.033233069978411696 0 0.00098899800435818422 0.033007480388703159 0 0.00095280562338847456 0.033110451498606114 0 0.00096825306940365912 0.032829367895279432 0 0.00095280562338847456 0.033110451498606114 0 0.0010183246193465473 0.033309372752870436 0 0.00098899800435818422 0.033007480388703159 0 0.00096825306940365912 0.032829367895279432 0 0.00095280562338847456 0.033110451498606114 0 0.00087521487198889984 0.033233069978411696 0 0.00095280562338847456 0.033110451498606114 0 0.00088769905760824309 0.03332600957831576 0 0.00087521487198889984 0.033233069978411696 0 0.00088769905760824309 0.03332600957831576 0 0.00081879825448861066 0.033455736151105621 0 0.00088769905760824309 0.03332600957831576 0 0.00095186596107949255 0.033378394214628085 0 0.00087131855066377472 0.033501615330480315 0 0.00095280562338847456 0.033110451498606114 0 0.00088769905760824309 0.03332600957831576 0 0.00095186596107949255 0.033378394214628085 0 0.0009520122870512335 0.033613892598465679 0 0.00095186596107949255 0.033378394214628085 0 0.00087131855066377472 0.033501615330480315 0 0.0010436303425351565 0.033556127283219571 0 0.00095186596107949255 0.033378394214628085 0 0.0010183246193465473 0.033309372752870436 0 0.00095280562338847456 0.033110451498606114 0 0.00095186596107949255 0.033378394214628085 0 0.0010183246193465473 0.033309372752870436 0 0.00079539936373865586 0.033558960929728696 0 0.00072936993083129724 0.033536098238997829 0 0.00072201461002261292 0.033705918221165809 0 0.00079539936373865586 0.033558960929728696 0 0.00087131855066377472 0.033501615330480315 0 0.00081879825448861066 0.033455736151105621 0 0.00079539936373865586 0.033558960929728696 0 0.00087131855066377472 0.033501615330480315 0 0.00085290753442941551 0.03371171939403985 0 0.00088769905760824309 0.03332600957831576 0 0.00087131855066377472 0.033501615330480315 0 0.00081879825448861066 0.033455736151105621 0 0.00087521487198889984 0.033233069978411696 0 0.00081879825448861066 0.033455736151105621 0 0.00076454588276826066 0.03362388170319721 0 0.00079539936373865586 0.033558960929728696 0 0.00081879825448861066 0.033455736151105621 0 0.00076454588276826066 0.03362388170319721 0 0.00080220719926114479 0.033479679880115382 0 0.00079483573135104139 0.033586953808818598 0 0.00079539936373865586 0.033558960929728696 0 0.00076454588276826066 0.03362388170319721 0 0.00072936993083129724 0.033536098238997829 0 0.0007579590069790457 0.033810274888523055 0 0.00062462113032602884 0.033978953542169954 0 0.0007769672174986037 0.033775989481572198 0 0.00076454588276826066 0.03362388170319721 0 0.00072936993083129724 0.033536098238997829 0 0.00058388010557810588 0.034062544092848153 0 0.00055468885485791342 0.034420384704798856 0 0.00040113760062151864 0.034207496535635609 0 0.00058388010557810588 0.034062544092848153 0 0.0007769672174986037 0.033775989481572198 0 0.00055468885485791342 0.034420384704798856 0 0.00055468885485791342 0.034420384704798856 0 0.00027320813946981394 0.034469153007381841 0 0.00040113760062151864 0.034207496535635609 0 0.00027320813946981394 0.034469153007381841 0 0.00040113760062151864 0.034207496535635609 0 0.00020989250070449264 0.03432657596742944 0 0.00062462113032602884 0.033978953542169954 0 0.00032487521507385464 0.034235019033396076 0 0.00055468885485791342 0.034420384704798856 0 0.00027320813946981394 0.034469153007381841 0 0.00019635239086903216 0.034651283859431073 0 0.00072936993083129724 0.033536098238997829 0 0.00072201461002261292 0.033705918221165809 0 0.00041459445280541188 0.033816247562362949 0 0.00072201461002261292 0.033705918221165809 0 0.00041459445280541188 0.033816247562362949 0 0.00068232305538396844 0.033962618573764758 0 0.00041459445280541188 0.033816247562362949 0 0.00045084339379064141 0.034236424790964885 0 0.00068232305538396844 0.033962618573764758 0 0.00045084339379064141 0.034236424790964885 0 0.00068232305538396844 0.033962618573764758 0 0.00068118760907329926 0.03420779023952468 0 0.00068232305538396844 0.033962618573764758 0 0.0008758600528634532 0.033937075554005443 0 0.00085290753442941551 0.03371171939403985 0 0.00072201461002261292 0.033705918221165809 0 0.00068232305538396844 0.033962618573764758 0 0.00085290753442941551 0.03371171939403985 0 0.00079539936373865586 0.033558960929728696 0 0.00072201461002261292 0.033705918221165809 0 0.00085290753442941551 0.03371171939403985 0 0.0009520122870512335 0.033613892598465679 0 0.00087131855066377472 0.033501615330480315 0 0.00085290753442941551 0.03371171939403985 0 0.0009520122870512335 0.033613892598465679 0 0.00085290753442941551 0.03371171939403985 0 0.00096231861808354201 0.033776955198772218 0 0.0008758600528634532 0.033937075554005443 0 0.00085290753442941551 0.03371171939403985 0 0.00096231861808354201 0.033776955198772218 0 0.0008758600528634532 0.033937075554005443 0 0.00096231861808354201 0.033776955198772218 0 0.001069594340692864 0.033881118798592999 0 0.0012252154080838653 0.033940197720082915 0 0.001069594340692864 0.033881118798592999 0 0.0010317636414642662 0.034033809110774735 0 0.0008758600528634532 0.033937075554005443 0 0.001069594340692864 0.033881118798592999 0 0.0010317636414642662 0.034033809110774735 0 0.0008758600528634532 0.033937075554005443 0 0.0010317636414642662 0.034033809110774735 0 0.00068118760907329926 0.03420779023952468 0 0.0010317636414642662 0.034033809110774735 0 0.00086841796776108179 0.034329617771181972 0 0.00068118760907329926 0.03420779023952468 0 0.0014508716280723752 0.033938787519020006 0 0.0012252154080838653 0.033940197720082915 0 0.0010317636414642662 0.034033809110774735 0 0.0014508716280723752 0.033938787519020006 0 0.0010317636414642662 0.034033809110774735 0 0.00086841796776108179 0.034329617771181972 0 0.0014508716280723752 0.033938787519020006 0 0.00086841796776108179 0.034329617771181972 0 0.0011426493601765491 0.034657444823762221 0 0.00086841796776108179 0.034329617771181972 0 0.0011426493601765491 0.034657444823762221 0 0.00067559696552448121 0.034757222193852161 0 0.0017671210450168153 0.033908248036619473 0 0.00082644884754451322 0.034812765476273613 0 0.0014090095648247823 0.033999756292358775 0 0.0017671210450168153 0.033908248036619473 0 0.00036395427562227857 0.034861323513507736 0 0.00067559696552448121 0.034757222193852161 0 0.00045889348829186157 0.034562360214344938 0 0.0006175865361372373 0.034785694783560889 0 0.00082644884754451322 0.034812765476273613 0 0.00086841796776108179 0.034329617771181972 0 0.00067559696552448121 0.034757222193852161 0 0.00045889348829186157 0.034562360214344938 0 0.00045889348829186157 0.034562360214344938 0 0.00068118760907329926 0.03420779023952468 0 0.00037511701582184937 0.034430441833694134 0 0.00086841796776108179 0.034329617771181972 0 0.00045889348829186157 0.034562360214344938 0 0.00068118760907329926 0.03420779023952468 0 0.00068232305538396844 0.033962618573764758 0 0.0008758600528634532 0.033937075554005443 0 0.00068118760907329926 0.03420779023952468 0 0.00045084339379064141 0.034236424790964885 0 0.00068118760907329926 0.03420779023952468 0 0.00037511701582184937 0.034430441833694134 0 0.00045084339379064141 0.034236424790964885 0 0.00037511701582184937 0.034430441833694134 0 0.00012799998995980795 0.034521545794780617 0 0.00020829541454998676 0.034634264819027795 0 6.031514877380728e-05 0.034779307243931322 0 0.00012799998995980795 0.034521545794780617 0 0.00037511701582184937 0.034430441833694134 0 0.00020829541454998676 0.034634264819027795 0 0.00012799998995980795 0.034521545794780617 0 0.00020829541454998676 0.034634264819027795 0 7.4783342376305982e-05 0.034831768792695499 0 6.031514877380728e-05 0.034779307243931322 0 0.00045889348829186157 0.034562360214344938 0 0.00037511701582184937 0.034430441833694134 0 0.00020829541454998676 0.034634264819027795 0 0.00036395427562227857 0.034861323513507736 0 0.00045889348829186157 0.034562360214344938 0 0.00019663214414381312 0.034781702513172086 0 0.00045889348829186157 0.034562360214344938 0 0.00020829541454998676 0.034634264819027795 0 0.00019663214414381312 0.034781702513172086 0 0.00020829541454998676 0.034634264819027795 0 0.00019663214414381312 0.034781702513172086 0 7.4783342376305982e-05 0.034831768792695499 0 0.00019663214414381312 0.034781702513172086 0 8.1480783099134027e-05 0.034890981702502107 0 7.4783342376305982e-05 0.034831768792695499 0 0.00019663214414381312 0.034781702513172086 0 0.00013522952765936068 0.034929117423192296 0 8.1480783099134027e-05 0.034890981702502107 0 0.00036395427562227857 0.034861323513507736 0 0.00019663214414381312 0.034781702513172086 0 0.00013522952765936068 0.034929117423192296 0 0.0006175865361372373 0.034785694783560889 0 0.00027104643816284124 0.034861945562319273 0 2.8166243833449163e-08 0.034999879600536188 0 2.2474764774233368e-05 0.034953091930776815 0 2.5784936385015688e-05 0.034937575019686681 0 2.2474764774233368e-05 0.034953091930776815 0 8.1480783099134027e-05 0.034890981702502107 0 2.5784936385015688e-05 0.034937575019686681 0 0.00013522952765936068 0.034929117423192296 0 2.2474764774233368e-05 0.034953091930776815 0 8.1480783099134027e-05 0.034890981702502107 0 0.00027104643816284124 0.034861945562319273 0 4.7393110170255201e-05 0.03493327513235945 0 0.00041205549868703664 0.034780512781011907 0 2.2474764774233368e-05 0.034953091930776815 0 0.00020435279314495126 0.03493269073364226 0 8.1480783099134027e-05 0.034890981702502107 0 7.4783342376305982e-05 0.034831768792695499 0 2.5784936385015688e-05 0.034937575019686681 0 7.4783342376305982e-05 0.034831768792695499 0 2.5784936385015688e-05 0.034937575019686681 0 -1.1478474183105864e-09 0.034999802093480123 0 2.8166243833449163e-08 0.034999879600536188 0 2.5784936385015688e-05 0.034937575019686681 0 -1.1478474183105864e-09 0.034999802093480123 0 7.4783342376305982e-05 0.034831768792695499 0 -1.1478474183105864e-09 0.034999802093480123 0 6.031514877380728e-05 0.034779307243931322 0 -1.1478474183105864e-09 0.034999802093480123 0 6.031514877380728e-05 0.034779307243931322 0 3.9115174595287958e-08 0.034999714034315815 0 6.031514877380728e-05 0.034779307243931322 0 3.9115174595287958e-08 0.034999714034315815 0 4.3886007698981094e-05 0.034802440721560003 0 3.9115174595287958e-08 0.034999714034315815 0 4.3886007698981094e-05 0.034802440721560003 0 7.2791829116756754e-11 0.0349997255296879 0 4.3886007698981094e-05 0.034802440721560003 0 7.2791829116756754e-11 0.0349997255296879 0 3.9366772505850448e-05 0.034765749107123128 0 6.031514877380728e-05 0.034779307243931322 0 4.3886007698981094e-05 0.034802440721560003 0 0.00012799998995980795 0.034521545794780617 0 0.00012799998995980795 0.034521545794780617 0 7.8295908163969734e-05 0.034664397447601983 0 3.9366772505850448e-05 0.034765749107123128 0 0.00019635239086903216 0.034651283859431073 0 0.00012799998995980795 0.034521545794780617 0 7.8295908163969734e-05 0.034664397447601983 0 0.00041459445280541188 0.033816247562362949 0 0.00045084339379064141 0.034236424790964885 0 0.00012799998995980795 0.034521545794780617 0 0.00032487521507385464 0.034235019033396076 0 0.00014302113904325395 0.034483329602288414 0 4.3886007698981094e-05 0.034802440721560003 0 0.00012799998995980795 0.034521545794780617 0 3.9366772505850448e-05 0.034765749107123128 0 7.8295908163969734e-05 0.034664397447601983 0 -7.4628764428081725e-05 0.034679325659010947 0 3.9366772505850448e-05 0.034765749107123128 0 0.00027320813946981394 0.034469153007381841 0 0.00019635239086903216 0.034651283859431073 0 7.8295908163969734e-05 0.034664397447601983 0 2.8722871544342217e-05 0.034460330656415725 0 7.8295908163969734e-05 0.034664397447601983 0 0.00020989250070449264 0.03432657596742944 0 0.00027320813946981394 0.034469153007381841 0 7.8295908163969734e-05 0.034664397447601983 0 0.00020989250070449264 0.03432657596742944 0 2.8722871544342217e-05 0.034460330656415725 0 7.8295908163969734e-05 0.034664397447601983 0 -7.4628764428081725e-05 0.034679325659010947 0 -3.1024381317488747e-05 0.034864440456923051 0 -7.4628764428081725e-05 0.034679325659010947 0 -6.3756738761834134e-06 0.034845734813977944 0 -7.4628764428081725e-05 0.034679325659010947 0 -6.3756738761834134e-06 0.034845734813977944 0 3.9366772505850448e-05 0.034765749107123128 0 2.5846145228915576e-08 0.034999762028157001 0 -6.3756738761834134e-06 0.034845734813977944 0 7.2791829116756754e-11 0.0349997255296879 0 2.5846145228915576e-08 0.034999762028157001 0 -5.4232543066411043e-06 0.034927216937201237 0 -6.3756738761834134e-06 0.034845734813977944 0 -6.3756738761834134e-06 0.034845734813977944 0 7.2791829116756754e-11 0.0349997255296879 0 3.9366772505850448e-05 0.034765749107123128 0 -0.0024758506596074242 0.015450808251367729 0 -0.0023727881378057809 0.015450094921143 0 -0.0024747136163747741 0.015384489783274374 0 -0.0023727881378057809 0.015450094921143 0 -0.0024747136163747741 0.015384489783274374 0 -0.0023135052731981143 0.015390277675850772 0 -0.0024747136163747741 0.015384489783274374 0 -0.0023135052731981143 0.015390277675850772 0 -0.0024057047165392414 0.015272162646800818 0 -0.0024747136163747741 0.015384489783274374 0 -0.0025780352066544191 0.015420779434296246 0 -0.0026218555001294229 0.015307165127516278 0 -0.0025780352066544191 0.015420779434296246 0 -0.0026218555001294229 0.015307165127516278 0 -0.002704752520571496 0.015392369789214013 0 -0.0025780352066544191 0.015420779434296246 0 -0.0026589147141448349 0.015488394653722226 0 -0.002704752520571496 0.015392369789214013 0 -0.002539514417182879 0.015471465425326734 0 -0.0025780352066544191 0.015420779434296246 0 -0.0026589147141448349 0.015488394653722226 0 -0.0024758506596074242 0.015450808251367729 0 -0.002539514417182879 0.015471465425326734 0 -0.0025780352066544191 0.015420779434296246 0 -0.0024758506596074242 0.015450808251367729 0 -0.0024747136163747741 0.015384489783274374 0 -0.0025780352066544191 0.015420779434296246 0 -0.0026589147141448349 0.015488394653722226 0 -0.0024450036875852256 0.015525189361016213 0 -0.0027850953153793472 0.015516303611361687 0 -0.00091055251531012434 0.011266920725393077 0 -0.0028494370939985926 0.011771154976346052 0 0.0010336985300745322 0.012024896042488393 0 -0.0030916346236596697 0.013023838835322208 0 -0.0012028826977631898 0.013176380910957594 0 -0.002539514417182879 0.015471465425326734 0 -0.0026589147141448349 0.015488394653722226 0 -0.0024450036875852256 0.015525189361016213 0 -0.00091055251531012434 0.011266920725393077 0 0.00023528690509748182 0.010795386276042984 0 -0.00054980713099860164 0.010294891751048059 0 -0.00091055251531012434 0.011266920725393077 0 -0.0016166827718188924 0.010104894165396309 0 -0.00054980713099860164 0.010294891751048059 0 -0.00091055251531012434 0.011266920725393077 0 -0.0019690540659207654 0.011324525931043784 0 -0.0028494370939985926 0.011771154976346052 0 -0.00091055251531012434 0.011266920725393077 0 -0.0019690540659207654 0.011324525931043784 0 -0.0016166827718188924 0.010104894165396309 0 -0.0019690540659207654 0.011324525931043784 0 -0.0023060628186011346 0.010679810252134596 0 -0.0016166827718188924 0.010104894165396309 0 -0.0019690540659207654 0.011324525931043784 0 -0.0023060628186011346 0.010679810252134596 0 -0.0025138694525566169 0.011332498701011131 0 -0.0028940510758663626 0.011391580391487818 0 -0.0028494370939985926 0.011771154976346052 0 -0.0040680603787889673 0.011744787250619417 0 -0.0023060628186011346 0.010679810252134596 0 -0.0028940510758663626 0.011391580391487818 0 -0.0025138694525566169 0.011332498701011131 0 -0.0019690540659207654 0.011324525931043784 0 -0.0025138694525566169 0.011332498701011131 0 -0.0028494370939985926 0.011771154976346052 0 -0.0028940510758663626 0.011391580391487818 0 -0.0025138694525566169 0.011332498701011131 0 -0.0028494370939985926 0.011771154976346052 0 -0.0024758506596074242 0.015450808251367729 0 -0.0023727881378057809 0.015450094921143 0 -0.0024450036875852256 0.015525189361016213 0 -0.0024758506596074242 0.015450808251367729 0 -0.002539514417182879 0.015471465425326734 0 -0.0024450036875852256 0.015525189361016213 0 -0.0030916346236596697 0.013023838835322208 0 -0.00065801614543218689 0.0187231978498806 0 -0.0023727881378057809 0.015450094921143 0 -0.0024450036875852256 0.015525189361016213 0 -0.0022002083693473643 0.015462283341852607 0 -0.00065801614543218689 0.0187231978498806 0 -0.00058513699493126811 0.015340476846450448 0 -0.0028940510758663626 0.011391580391487818 0 -0.0040680603787889673 0.011744787250619417 0 -0.0033093036759816764 0.010962110357848108 0 0.0019749430463977462 0.020268476301072657 0 0.0017466786255692795 0.02002650239295389 0 0.0015253100559266275 0.020309664115119561 0 -0.00065801614543218689 0.0187231978498806 0 0.0018564908268985975 0.024799611258008385 0 -0.00065801614543218689 0.0187231978498806 0 -0.00067230338634858091 0.022197054839573838 0 -0.0022002083693473643 0.015462283341852607 0 -0.0021706348657759343 0.015334610791625507 0 -0.0022219937178183315 0.015316085194856117 0 -0.0022002083693473643 0.015462283341852607 0 -0.0023135052731981143 0.015390277675850772 0 -0.0021706348657759343 0.015334610791625507 0 -0.0023727881378057809 0.015450094921143 0 -0.0022002083693473643 0.015462283341852607 0 -0.0023135052731981143 0.015390277675850772 0 -0.0023135052731981143 0.015390277675850772 0 -0.0021706348657759343 0.015334610791625507 0 -0.0024057047165392414 0.015272162646800818 0 -0.0021706348657759343 0.015334610791625507 0 -0.0022509394159520792 0.015212296397598614 0 -0.0024057047165392414 0.015272162646800818 0 -0.0021706348657759343 0.015334610791625507 0 -0.0020121258708009257 0.015358464016002781 0 -0.0022335852025424825 0.015372256233664758 0 -0.0021706348657759343 0.015334610791625507 0 -0.0022219937178183315 0.015316085194856117 0 -0.0022335852025424825 0.015372256233664758 0 -0.0020121258708009257 0.015358464016002781 0 -0.0022335852025424825 0.015372256233664758 0 -0.0023963454617913988 0.015756874236335053 0 -0.0020121258708009257 0.015358464016002781 0 -0.0022509394159520792 0.015212296397598614 0 -0.0022918682903547813 0.014940545528117567 0 -0.0021706348657759343 0.015334610791625507 0 -0.0020121258708009257 0.015358464016002781 0 -0.0022509394159520792 0.015212296397598614 0 -0.0022509394159520792 0.015212296397598614 0 -0.002514721107699471 0.014955223168626111 0 -0.0022918682903547813 0.014940545528117567 0 -0.0022509394159520792 0.015212296397598614 0 -0.002514721107699471 0.014955223168626111 0 -0.0024057047165392414 0.015272162646800818 0 -0.0024747136163747741 0.015384489783274374 0 -0.0024057047165392414 0.015272162646800818 0 -0.0026218555001294229 0.015307165127516278 0 -0.0024057047165392414 0.015272162646800818 0 -0.0026218555001294229 0.015307165127516278 0 -0.0027018297300654653 0.015121387705251173 0 -0.002514721107699471 0.014955223168626111 0 -0.0024057047165392414 0.015272162646800818 0 -0.0027018297300654653 0.015121387705251173 0 -0.002514721107699471 0.014955223168626111 0 -0.0027018297300654653 0.015121387705251173 0 -0.0027859197076963915 0.014892709398626984 0 -0.0027018297300654653 0.015121387705251173 0 -0.0029981139300731159 0.015053207393702117 0 -0.0027859197076963915 0.014892709398626984 0 -0.0026837841277632503 0.011915351411362105 0 -0.0019558063360419621 0.011953579963603566 0 -0.002225477689150073 0.012632703674644228 0 -0.0026837841277632503 0.011915351411362105 0 -0.0019558063360419621 0.011953579963603566 0 -0.0024977660752797575 0.011128237003295073 0 -0.0029981139300731159 0.015053207393702117 0 -0.0028153469646770755 0.015267445632181537 0 -0.0029969603944453257 0.015317373842493199 0 -0.0029011408894608782 0.013672694057375008 0 -0.0023860224455615597 0.012338797364351039 0 -0.0027018297300654653 0.015121387705251173 0 -0.0029981139300731159 0.015053207393702117 0 -0.0028153469646770755 0.015267445632181537 0 -0.0026218555001294229 0.015307165127516278 0 -0.0027018297300654653 0.015121387705251173 0 -0.0028153469646770755 0.015267445632181537 0 -0.00012896905519127971 0.0057578309051584172 0 -0.0002455529538024744 0.0056629522651997343 0 -0.0011765090596150714 0.012236414892571346 0 -0.0019558063360419621 0.011953579963603566 0 -0.0016278328300883286 0.010922031773728406 0 -0.0011765090596150714 0.012236414892571346 0 -0.0019558063360419621 0.011953579963603566 0 -0.0017157146847819368 0.012604909564173226 0 -0.0019558063360419621 0.011953579963603566 0 -0.0016278328300883286 0.010922031773728406 0 -0.00286666944849532 0.010433438939367828 0 -0.0021883472606101452 0.011267275224408138 0 -0.0023860224455615597 0.012338797364351039 0 0.00090604967817660182 -0.00063624626848973276 0 0.0014127654854156932 0.00027952769907040774 0 0.00090912091397288622 0.00011299018341339129 0 0.0014127654854156932 0.00027952769907040774 0 0.00090912091397288622 0.00011299018341339129 0 0.0010471739335789292 0.00063570870400024332 0 0.00067425351956384397 0.00045927745017126768 0 0.00090912091397288622 0.00011299018341339129 0 0.0010471739335789292 0.00063570870400024332 0 0.0014127654854156932 0.00027952769907040774 0 0.0010471739335789292 0.00063570870400024332 0 0.0013845710796394292 0.000862512398374393 0 0.00069181060413750527 0.00081104892247464309 0 0.0010471739335789292 0.00063570870400024332 0 0.0010675714853791856 0.0011478007777250309 0 0.0010471739335789292 0.00063570870400024332 0 0.0013845710796394292 0.000862512398374393 0 0.0010675714853791856 0.0011478007777250309 0 -0.0002455529538024744 0.0056629522651997343 0 0.00076876960653502987 0.0047934251068076734 0 -0.0016278328300883286 0.010922031773728406 0 -0.0023378456333118325 0.0093834045024532419 0 -0.00286666944849532 0.010433438939367828 0 0.0014127654854156932 0.00027952769907040774 0 0.0013845710796394292 0.000862512398374393 0 0.0018709888131515182 0.0012054508588866923 0 0.002255904228825734 0.0013021486663937444 0 0.0016240430372013016 0.0016872331162264881 0 0.0012454578965501873 0.0012346155378099846 0 0.00076876960653502987 0.0047934251068076734 0 0.0014088872226511511 0.00092778578595940236 0 0.0013845710796394292 0.000862512398374393 0 0.0018709888131515182 0.0012054508588866923 0 0.0010675714853791856 0.0011478007777250309 0 0.002255904228825734 0.0013021486663937444 0 0.0027134709366232047 0.0022080330411757298 0 0.0020254425497530488 0.0019380691823916547 0 0.002255904228825734 0.0013021486663937444 0 0.0016240430372013016 0.0016872331162264881 0 0.0020254425497530488 0.0019380691823916547 0 0.0016240430372013016 0.0016872331162264881 0 0.001212747382709466 0.00176012076942562 0 0.0012454578965501873 0.0012346155378099846 0 0.00075526731924800325 0.0014492837427496181 0 0.001212747382709466 0.00176012076942562 0 0.0012454578965501873 0.0012346155378099846 0 -0.0028153469646770755 0.015267445632181537 0 -0.0028428101651026558 0.015393351954474974 0 -0.0029969603944453257 0.015317373842493199 0 -0.0028428101651026558 0.015393351954474974 0 -0.002704752520571496 0.015392369789214013 0 -0.0028088623319771091 0.015500866997752964 0 -0.0026589147141448349 0.015488394653722226 0 -0.002704752520571496 0.015392369789214013 0 -0.0027850953153793472 0.015516303611361687 0 -0.0031721809231331712 0.016048047750098528 0 -0.0012028826977631898 0.013176380910957594 0 -0.0028153469646770755 0.015267445632181537 0 -0.0028428101651026558 0.015393351954474974 0 -0.002704752520571496 0.015392369789214013 0 -0.0026218555001294229 0.015307165127516278 0 -0.0028153469646770755 0.015267445632181537 0 -0.002704752520571496 0.015392369789214013 0 -0.0023860224455615597 0.012338797364351039 0 -0.00073376374795368533 0.00823997736507622 0 -0.0028428101651026558 0.015393351954474974 0 -0.0029969603944453257 0.015317373842493199 0 -0.0028644303798398127 0.015496641311720077 0 -0.0023378456333118325 0.0093834045024532419 0 -0.00286666944849532 0.010433438939367828 0 -0.002627221551235587 0.0093797164244395249 0 -0.0023860224455615597 0.012338797364351039 0 -0.00097870631683434563 0.011647272103018224 0 -0.0013554016659212116 0.011430958551090472 0 -0.0011512297772115672 0.010544985640824227 0 -0.0018720644080246626 0.010540759960739256 0 0.00076876960653502987 0.0047934251068076734 0 0.0014388366776057584 0.0057207906038361902 0 0.00020960810285410069 0.0075415449645029426 0 -0.00034592768310308711 0.0075978289868677204 0 -0.0002004074203325425 0.0078456709709021633 0 0.00091405679650557884 0.0078402480480656844 0 0.00063218762940060334 0.0078405708357479394 0 0.00031169571833978849 0.0066543609095107321 0 0.00063218762940060334 0.0078405708357479394 0 0.00020960810285410069 0.0075415449645029426 0 0.00031169571833978849 0.0066543609095107321 0 0.00063218762940060334 0.0078405708357479394 0 0.00020960810285410069 0.0075415449645029426 0 -0.0002004074203325425 0.0078456709709021633 0 -0.00073376374795368533 0.00823997736507622 0 -0.00097870631683434563 0.011647272103018224 0 0.00076876960653502987 0.0047934251068076734 0 -0.00073376374795368533 0.00823997736507622 0 0.00020960810285410069 0.0075415449645029426 0 -0.00034592768310308711 0.0075978289868677204 0 0.00031169571833978849 0.0066543609095107321 0 0.0014323703691768806 0.011477539740172304 0 0.0010336985300745322 0.012024896042488393 0 0.00023528690509748182 0.010795386276042984 0 -0.00012487239754579527 0.010440212127011251 0 -0.00097870631683434563 0.011647272103018224 0 -0.00097870631683434563 0.011647272103018224 0 -0.0012028826977631898 0.013176380910957594 0 -0.0028428101651026558 0.015393351954474974 0 -0.0028644303798398127 0.015496641311720077 0 -0.0028088623319771091 0.015500866997752964 0 -0.00049884062131042137 0.012242803779997063 0 -0.00064289012728225919 0.012003197698574455 0 -0.00033526285607124033 0.012010505772484845 0 -0.00012487239754579527 0.010440212127011251 0 -0.0012028826977631898 0.013176380910957594 0 -0.00091055251531012434 0.011266920725393077 0 0.0010336985300745322 0.012024896042488393 0 0.00023528690509748182 0.010795386276042984 0 0.00023528690509748182 0.010795386276042984 0 0.00010523651253736565 0.0089730449572287506 0 -0.00054980713099860164 0.010294891751048059 0 0.00055997303149028918 0.009565599891338256 0 -0.00043205406647155593 0.0078812250457203723 0 0.00054801626312468395 0.0079012478262231976 0 0.0014323703691768806 0.011477539740172304 0 0.00023528690509748182 0.010795386276042984 0 0.00010523651253736565 0.0089730449572287506 0 -0.00012487239754579527 0.010440212127011251 0 -0.00010379595472844861 0.0084784790790490266 0 -0.00043205406647155593 0.0078812250457203723 0 0.00054801626312468395 0.0079012478262231976 0 8.3854793067883798e-05 0.0070651874300497663 0 0.00055997303149028918 0.009565599891338256 0 0.00054801626312468395 0.0079012478262231976 0 0.0015949825388523401 0.0080928181654200144 0 -0.00012487239754579527 0.010440212127011251 0 0.0014388366776057584 0.0057207906038361902 0 0.0014388366776057584 0.0057207906038361902 0 0.0025597524424172922 0.0045776112534037924 0 0.00054801626312468395 0.0079012478262231976 0 0.0015949825388523401 0.0080928181654200144 0 0.0010242166691087809 0.0069623999864026863 0 0.0014388366776057584 0.0057207906038361902 0 0.001525510755077848 0.007520635995320212 0 0.0010242166691087809 0.0069623999864026863 0 0.001666799299010188 0.0059799868914104182 0 0.0025978141777656394 0.0066922435369564208 0 0.0016158910220621281 0.0080819786814029636 0 0.0010242166691087809 0.0069623999864026863 0 0.0025978141777656394 0.0066922435369564208 0 0.001666799299010188 0.0059799868914104182 0 0.0025978141777656394 0.0066922435369564208 0 0.0020364419747430158 0.004829317619367824 0 0.0010242166691087809 0.0069623999864026863 0 0.001666799299010188 0.0059799868914104182 0 0.0010074631588429647 0.0054303043926312378 0 0.0010242166691087809 0.0069623999864026863 0 -3.0043975617134185e-06 0.0059520144967215262 0 0.0010074631588429647 0.0054303043926312378 0 -3.0043975617134185e-06 0.0059520144967215262 0 -0.00047099753422927813 0.0068178934964103211 0 8.3854793067883798e-05 0.0070651874300497663 0 -3.0043975617134185e-06 0.0059520144967215262 0 -0.00047099753422927813 0.0068178934964103211 0 -0.0015110766280844524 0.0063223832201610335 0 -0.00043205406647155593 0.0078812250457203723 0 -0.00047099753422927813 0.0068178934964103211 0 8.3854793067883798e-05 0.0070651874300497663 0 0.00054801626312468395 0.0079012478262231976 0 0.0010242166691087809 0.0069623999864026863 0 8.3854793067883798e-05 0.0070651874300497663 0 0.0010242166691087809 0.0069623999864026863 0 -3.0043975617134185e-06 0.0059520144967215262 0 8.3854793067883798e-05 0.0070651874300497663 0 0.00055089755054279729 0.0023177368281581609 0 0.0013767445061864999 0.0022093808568637466 0 0.00092225677717378528 0.0027025864358124754 0 0.00073076100080741828 0.0019190614965385589 0 0.001212747382709466 0.00176012076942562 0 0.0013767445061864999 0.0022093808568637466 0 0.0016240430372013016 0.0016872331162264881 0 0.001212747382709466 0.00176012076942562 0 0.0013767445061864999 0.0022093808568637466 0 0.0013767445061864999 0.0022093808568637466 0 0.001943431752701519 0.0024359568209596657 0 0.001444375121846636 0.0028754671285030932 0 0.0027134709366232047 0.0022080330411757298 0 0.001943431752701519 0.0024359568209596657 0 0.0022680648239820156 0.002840874231319881 0 0.0027134709366232047 0.0022080330411757298 0 0.001943431752701519 0.0024359568209596657 0 0.0020254425497530488 0.0019380691823916547 0 0.0013767445061864999 0.0022093808568637466 0 0.001943431752701519 0.0024359568209596657 0 0.0020254425497530488 0.0019380691823916547 0 0.0016240430372013016 0.0016872331162264881 0 0.0013767445061864999 0.0022093808568637466 0 0.0020254425497530488 0.0019380691823916547 0 0.0022680648239820156 0.002840874231319881 0 0.001444375121846636 0.0028754671285030932 0 0.0018172777772305748 0.0034851794532115214 0 0.001943431752701519 0.0024359568209596657 0 0.0022680648239820156 0.002840874231319881 0 0.001444375121846636 0.0028754671285030932 0 0.0025597524424172922 0.0045776112534037924 0 0.0016175306186640638 0.0042180859481237556 0 0.00071542295228592108 0.0031567698980440023 0 0.001444375121846636 0.0028754671285030932 0 0.00092225677717378528 0.0027025864358124754 0 0.00071542295228592108 0.0031567698980440023 0 0.001444375121846636 0.0028754671285030932 0 0.0018172777772305748 0.0034851794532115214 0 0.0013767445061864999 0.0022093808568637466 0 0.001444375121846636 0.0028754671285030932 0 0.00092225677717378528 0.0027025864358124754 0 0.00056618036342433317 0.0036573034694079281 0 0.00089575002871175829 0.0035912780472898255 0 0.00068950022465265955 0.0038564769019632343 0 0.00046984947582377604 0.0031291608167476745 0 0.0016175306186640638 0.0042180859481237556 0 0.00043439266550557396 0.0033011754082170413 0 0.00056618036342433317 0.0036573034694079281 0 0.00089575002871175829 0.0035912780472898255 0 0.00067855934206294223 0.0040491979916445365 0 0.0006549192059411565 0.0039726478579572861 0 0.00068950022465265955 0.0038564769019632343 0 0.0025978141777656394 0.0066922435369564208 0 0.0035741669629913804 0.0052752202092469025 0 0.0020364419747430158 0.004829317619367824 0 0.00067855934206294223 0.0040491979916445365 0 0.0006549192059411565 0.0039726478579572861 0 0.00057777829793666149 0.0041795237580409738 0 0.0016175306186640638 0.0042180859481237556 0 0.00085537146980870762 0.0040062624698296379 0 0.0016175306186640638 0.0042180859481237556 0 0.0013595409526628429 0.0045213734408345576 0 0.00063958313923052315 0.0039481410493973027 0 0.00060981196970552761 0.0039374141484534346 0 0.0006549192059411565 0.0039726478579572861 0 0.00060981196970552761 0.0039374141484534346 0 0.0006549192059411565 0.0039726478579572861 0 0.00068950022465265955 0.0038564769019632343 0 0.00045336082016379721 0.0038969379991861991 0 0.00060981196970552761 0.0039374141484534346 0 0.00051236393402143132 0.00382140662395396 0 0.00060981196970552761 0.0039374141484534346 0 0.00068950022465265955 0.0038564769019632343 0 0.00051236393402143132 0.00382140662395396 0 0.00056618036342433317 0.0036573034694079281 0 0.00068950022465265955 0.0038564769019632343 0 0.00051236393402143132 0.00382140662395396 0 -3.0043975617134185e-06 0.0059520144967215262 0 6.7005737688907585e-05 0.0043599541939138564 0 -0.0015110766280844524 0.0063223832201610335 0 0.00033861350673485317 0.0043564162527230292 0 0.00034206927191580782 0.0050002749231964367 0 0.0010074631588429647 0.0054303043926312378 0 0.00033861350673485317 0.0043564162527230292 0 6.7005737688907585e-05 0.0043599541939138564 0 0.00034206927191580782 0.0050002749231964367 0 -3.0043975617134185e-06 0.0059520144967215262 0 6.7005737688907585e-05 0.0043599541939138564 0 0.00034206927191580782 0.0050002749231964367 0 -3.0043975617134185e-06 0.0059520144967215262 0 0.00034206927191580782 0.0050002749231964367 0 0.0010074631588429647 0.0054303043926312378 0 0.001666799299010188 0.0059799868914104182 0 0.0010074631588429647 0.0054303043926312378 0 0.0020364419747430158 0.004829317619367824 0 0.00033861350673485317 0.0043564162527230292 0 0.0010074631588429647 0.0054303043926312378 0 0.0020364419747430158 0.004829317619367824 0 0.00042970253806471926 0.0043352082812428356 0 0.0013595409526628429 0.0045213734408345576 0 0.00063958313923052315 0.0039481410493973027 0 0.0006549192059411565 0.0039726478579572861 0 0.00057777829793666149 0.0041795237580409738 0 0.00063958313923052315 0.0039481410493973027 0 0.00033861350673485317 0.0043564162527230292 0 0.00057777829793666149 0.0041795237580409738 0 0.00063958313923052315 0.0039481410493973027 0 0.00033861350673485317 0.0043564162527230292 0 6.7005737688907585e-05 0.0043599541939138564 0 0.0012267927605497519 0.010176809905133232 0 0.0015208363195394444 0.0093612907551422157 0 0.0018781169509996709 0.016225417923409105 0 0.0026711525074919651 0.015273438595544812 0 0.0027638079368093689 0.016031131223825108 0 0.0026711525074919651 0.015273438595544812 0 0.0027638079368093689 0.016031131223825108 0 0.0033042820503655819 0.0155219192182893 0 0.0030828843694683901 0.016602916356235318 0 0.0027638079368093689 0.016031131223825108 0 0.0033042820503655819 0.0155219192182893 0 0.0025458327173526205 0.01875189612904634 0 0.0027455732882850242 0.019056821345331203 0 0.0024663435023225466 0.019191428586236042 0 0.0025458327173526205 0.01875189612904634 0 0.0024663435023225466 0.019191428586236042 0 0.0022542717333074074 0.018966505182964236 0 0.0024663435023225466 0.019191428586236042 0 0.0026368107603803753 0.019529030622689614 0 0.0022334972378931289 0.019407205125172008 0 0.0024663435023225466 0.019191428586236042 0 0.0022334972378931289 0.019407205125172008 0 0.0022542717333074074 0.018966505182964236 0 0.0015208363195394444 0.0093612907551422157 0 0.00042401913007222912 0.013151585054624455 0 0.0027455732882850242 0.019056821345331203 0 0.0024663435023225466 0.019191428586236042 0 0.0026368107603803753 0.019529030622689614 0 0.0026711525074919651 0.015273438595544812 0 0.0033042820503655819 0.0155219192182893 0 0.0034961739173108609 0.014362664979827746 0 6.7005737688907585e-05 0.0043599541939138564 0 -0.0021760309143241093 0.0066678404868880737 0 -0.0015110766280844524 0.0063223832201610335 0 0.003241577215813465 0.018043746850136759 0 0.00042401913007222912 0.013151585054624455 0 -0.00043205406647155593 0.0078812250457203723 0 -0.00047099753422927813 0.0068178934964103211 0 -0.0015110766280844524 0.0063223832201610335 0 0.00010523651253736565 0.0089730449572287506 0 -0.0014094573544925235 0.0081439515869218895 0 -0.0015110766280844524 0.0063223832201610335 0 -0.00010379595472844861 0.0084784790790490266 0 -0.0014063898837658614 0.006459190471932599 0 0.00042401913007222912 0.013151585054624455 0 -0.0024462140936411928 0.0094070840887647677 0 -0.0014094573544925235 0.0081439515869218895 0 -0.0021760309143241093 0.0066678404868880737 0 -0.0026890938592310089 0.0090246827049842229 0 -0.0014094573544925235 0.0081439515869218895 0 -0.0021760309143241093 0.0066678404868880737 0 -0.0015110766280844524 0.0063223832201610335 0 0.0026368107603803753 0.019529030622689614 0 0.0023014091545291346 0.019900496589732253 0 0.0022334972378931289 0.019407205125172008 0 0.00042401913007222912 0.013151585054624455 0 -0.00058513699493126811 0.015340476846450448 0 -0.0026434369342978993 0.010395811279625975 0 -0.0027904723836524544 0.010884503343640153 0 -0.0033093036759816764 0.010962110357848108 0 -0.0028940510758663626 0.011391580391487818 0 -0.0027904723836524544 0.010884503343640153 0 -0.0033093036759816764 0.010962110357848108 0 -0.0023060628186011346 0.010679810252134596 0 -0.0028940510758663626 0.011391580391487818 0 -0.0026890938592310089 0.0090246827049842229 0 -0.0029269172833722521 0.01133741750960492 0 -0.0024462140936411928 0.0094070840887647677 0 -0.0023060628186011346 0.010679810252134596 0 -0.0026890938592310089 0.0090246827049842229 0 -0.0016166827718188924 0.010104894165396309 0 0.00010523651253736565 0.0089730449572287506 0 -0.0016166827718188924 0.010104894165396309 0 -0.00054980713099860164 0.010294891751048059 0 0.00010523651253736565 0.0089730449572287506 0 -0.0014094573544925235 0.0081439515869218895 0 -0.0016166827718188924 0.010104894165396309 0 -0.0014094573544925235 0.0081439515869218895 0 -0.0026890938592310089 0.0090246827049842229 0 -0.0016166827718188924 0.010104894165396309 0 0.0019749430463977462 0.020268476301072657 0 0.0017466786255692795 0.02002650239295389 0 0.0023014091545291346 0.019900496589732253 0 0.0017466786255692795 0.02002650239295389 0 0.0023014091545291346 0.019900496589732253 0 0.0018590003981359977 0.019662035675432375 0 0.0023014091545291346 0.019900496589732253 0 0.0018590003981359977 0.019662035675432375 0 0.0022334972378931289 0.019407205125172008 0 0.0018590003981359977 0.019662035675432375 0 0.0018877771237579331 0.019180992680650471 0 0.0016538291834491321 0.019422806913913283 0 0.0018590003981359977 0.019662035675432375 0 0.0022334972378931289 0.019407205125172008 0 0.0018877771237579331 0.019180992680650471 0 0.0022334972378931289 0.019407205125172008 0 0.0022542717333074074 0.018966505182964236 0 0.0018877771237579331 0.019180992680650471 0 0.0019979470575768456 0.018849155338070106 0 0.0022542717333074074 0.018966505182964236 0 0.0018877771237579331 0.019180992680650471 0 0.001714401063898107 0.018745871133169226 0 0.0019979470575768456 0.018849155338070106 0 0.0018877771237579331 0.019180992680650471 0 0.001714401063898107 0.018745871133169226 0 0.0018877771237579331 0.019180992680650471 0 0.0014617628903555652 0.019192273907977106 0 0.0014617628903555652 0.019192273907977106 0 0.0016538291834491321 0.019422806913913283 0 0.0014108784186492925 0.019656683512958906 0 0.0018877771237579331 0.019180992680650471 0 0.0014617628903555652 0.019192273907977106 0 0.0016538291834491321 0.019422806913913283 0 0.0014617628903555652 0.019192273907977106 0 0.001107988299047277 0.019409471166422818 0 0.0014108784186492925 0.019656683512958906 0 0.0014617628903555652 0.019192273907977106 0 0.0011344580125739368 0.019057156515090344 0 0.001107988299047277 0.019409471166422818 0 0.0013528701412656424 0.018829421697036032 0 0.0014617628903555652 0.019192273907977106 0 0.0011344580125739368 0.019057156515090344 0 0.0011107240188545856 0.01908012894858151 0 0.00080040159290127317 0.019309045640899889 0 0.0011344580125739368 0.019057156515090344 0 0.00073212335176177205 0.019294794530871826 0 0.001107988299047277 0.019409471166422818 0 0.00083185643992334532 0.018886166719679576 0 0.0011344580125739368 0.019057156515090344 0 0.00086387648470427061 0.01932809380517737 0 0.00073212335176177205 0.019294794530871826 0 0.00086333387506760148 0.019844452302630312 0 0.00032577609508920496 0.01957439548524836 0 0.00073212335176177205 0.019294794530871826 0 0.001107988299047277 0.019409471166422818 0 0.00086333387506760148 0.019844452302630312 0 0.001107988299047277 0.019409471166422818 0 0.00086333387506760148 0.019844452302630312 0 0.0014108784186492925 0.019656683512958906 0 0.00086333387506760148 0.019844452302630312 0 0.001326908397322707 0.020045348297936236 0 0.0010681063102368118 0.020356216664267953 0 0.0017466786255692795 0.02002650239295389 0 0.001326908397322707 0.020045348297936236 0 0.0014108784186492925 0.019656683512958906 0 0.0018590003981359977 0.019662035675432375 0 0.0016538291834491321 0.019422806913913283 0 0.0014108784186492925 0.019656683512958906 0 0.0017466786255692795 0.02002650239295389 0 0.0018590003981359977 0.019662035675432375 0 0.0014108784186492925 0.019656683512958906 0 0.00086333387506760148 0.019844452302630312 0 0.001326908397322707 0.020045348297936236 0 0.0014108784186492925 0.019656683512958906 0 -3.0526778762059924e-05 0.020153228704994319 0 0.00043824577220565568 0.019895049286006803 0 9.6051588055224123e-05 0.020623037772783688 0 -3.0526778762059924e-05 0.020153228704994319 0 -6.9486017301182044e-05 0.019749684442826338 0 0.00043824577220565568 0.019895049286006803 0 0.00025891270817527887 0.019347770437240844 0 -4.2581986110737884e-05 0.019348604409779844 0 -6.9486017301182044e-05 0.019749684442826338 0 0.00060770213823635834 0.019154188966667443 0 0.00025891270817527887 0.019347770437240844 0 0.00043824577220565568 0.019895049286006803 0 0.00025891270817527887 0.019347770437240844 0 -6.9486017301182044e-05 0.019749684442826338 0 0.00043824577220565568 0.019895049286006803 0 0.00060770213823635834 0.019154188966667443 0 0.00086387648470427061 0.01932809380517737 0 0.00063966837560342166 0.019529286860909125 0 0.00060770213823635834 0.019154188966667443 0 0.00035191105094849385 0.019411258730497011 0 0.00063966837560342166 0.019529286860909125 0 0.00035191105094849385 0.019411258730497011 0 0.00063966837560342166 0.019529286860909125 0 0.00035433489635374729 0.019776096473015363 0 0.00060396709423432733 0.019189479968948091 0 0.00038069443593903086 0.019679625380525416 0 0.00080040159290127317 0.019309045640899889 0 0.00048061419968526163 0.019553369745364473 0 0.00086333387506760148 0.019844452302630312 0 0.00032577609508920496 0.01957439548524836 0 0.00027870556919408436 0.020055796149741817 0 0.00086333387506760148 0.019844452302630312 0 0.00027870556919408436 0.020055796149741817 0 0.00059427039797855272 0.020401226279727371 0 0.00027870556919408436 0.020055796149741817 0 -9.0625093544407064e-05 0.019868722260828257 0 -0.00015124105423178195 0.020205975406581863 0 0.00027870556919408436 0.020055796149741817 0 -0.00015124105423178195 0.020205975406581863 0 9.8507786011602726e-05 0.020444352004440045 0 0.00032577609508920496 0.01957439548524836 0 0.00027870556919408436 0.020055796149741817 0 -9.0625093544407064e-05 0.019868722260828257 0 0.00048061419968526163 0.019553369745364473 0 0.00012798306363774148 0.019830951789567373 0 0.00038069443593903086 0.019679625380525416 0 3.0461788635720549e-05 0.020094019590048445 0 0.00035191105094849385 0.019411258730497011 0 0.00035433489635374729 0.019776096473015363 0 1.1505094457199479e-05 0.019791270323373081 0 0.00012798306363774148 0.019830951789567373 0 -0.00027192167934288121 0.020064893459020426 0 -9.0625093544407064e-05 0.019868722260828257 0 -0.00015124105423178195 0.020205975406581863 0 -0.00051681819170089555 0.0201831983325905 0 -0.00015124105423178195 0.020205975406581863 0 -0.00051681819170089555 0.0201831983325905 0 -0.0004174963821551664 0.020483397869916379 0 0.00035433489635374729 0.019776096473015363 0 -1.7628686116470531e-05 0.020060918081308627 0 1.1505094457199479e-05 0.019791270323373081 0 -0.00035873080307807922 0.020292043302570378 0 -1.7628686116470531e-05 0.020060918081308627 0 1.1505094457199479e-05 0.019791270323373081 0 -0.00033716829185506827 0.020447114737178747 0 -3.0526778762059924e-05 0.020153228704994319 0 9.6051588055224123e-05 0.020623037772783688 0 0.00065733456733185281 0.028857198621235754 0 0.00070044614105260587 0.028641350676526813 0 0.00072654344686793107 0.028704871596976447 0 -0.00086411009637101476 0.020454480832873396 0 -0.00051681819170089555 0.0201831983325905 0 -0.0004174963821551664 0.020483397869916379 0 0.00070044614105260587 0.028641350676526813 0 0.00075301432063975215 0.028595879985394566 0 0.00075900072838552867 0.028509905469234698 0 -0.00015124105423178195 0.020205975406581863 0 -0.0004174963821551664 0.020483397869916379 0 9.8507786011602726e-05 0.020444352004440045 0 0.00015313739242208191 0.024593680068851202 0 0.00042585327059991126 0.024472236149845988 0 0.00070044614105260587 0.028641350676526813 0 0.00075301432063975215 0.028595879985394566 0 0.00072654344686793107 0.028704871596976447 0 0.00075301432063975215 0.028595879985394566 0 0.00075900072838552867 0.028509905469234698 0 0.00083071988431525541 0.028370334457245357 0 0.00027870556919408436 0.020055796149741817 0 9.8507786011602726e-05 0.020444352004440045 0 0.00059427039797855272 0.020401226279727371 0 0.00042585327059991126 0.024472236149845988 0 0.00074289132978923517 0.024393969637570311 0 0.00075301432063975215 0.028595879985394566 0 0.00083071988431525541 0.028370334457245357 0 0.00083107487114571839 0.028472342638579399 0 0.00077857869116346385 0.028596530014120814 0 0.00083107487114571839 0.028472342638579399 0 0.00084362692394729215 0.028531353311045775 0 0.00075301432063975215 0.028595879985394566 0 0.00077857869116346385 0.028596530014120814 0 0.00083107487114571839 0.028472342638579399 0 0.00084362692394729215 0.028531353311045775 0 0.00085132485988150572 0.028566178986648979 0 0.00078990952362741735 0.028634367029525726 0 0.00077857869116346385 0.028596530014120814 0 0.00084362692394729215 0.028531353311045775 0 0.00078990952362741735 0.028634367029525726 0 0.00077857869116346385 0.028596530014120814 0 0.00074949618465741088 0.028686314403669578 0 0.00078990952362741735 0.028634367029525726 0 0.00074949618465741088 0.028686314403669578 0 0.00074095901204687025 0.028720260898427122 0 0.00078990952362741735 0.028634367029525726 0 0.00075301432063975215 0.028595879985394566 0 0.00077857869116346385 0.028596530014120814 0 0.00072654344686793107 0.028704871596976447 0 0.00077857869116346385 0.028596530014120814 0 0.00072654344686793107 0.028704871596976447 0 0.00074949618465741088 0.028686314403669578 0 0.00072654344686793107 0.028704871596976447 0 0.00074949618465741088 0.028686314403669578 0 0.00073070346252345039 0.028728302462159364 0 0.00072654344686793107 0.028704871596976447 0 0.00073070346252345039 0.028728302462159364 0 0.00071067835964519152 0.028778856072569289 0 0.00074949618465741088 0.028686314403669578 0 0.00074095901204687025 0.028720260898427122 0 0.00073070346252345039 0.028728302462159364 0 0.00074095901204687025 0.028720260898427122 0 0.00073070346252345039 0.028728302462159364 0 0.00071067835964519152 0.028778856072569289 0 0.00074095901204687025 0.028720260898427122 0 0.00071067835964519152 0.028778856072569289 0 0.00067723856407038636 0.028875053777775207 0 0.0015084949257207561 0.029233028682639977 0 0.00075682752400319029 0.03052325942629773 0 0.00065733456733185281 0.028857198621235754 0 0.00072654344686793107 0.028704871596976447 0 0.00071067835964519152 0.028778856072569289 0 0.00065733456733185281 0.028857198621235754 0 0.00071067835964519152 0.028778856072569289 0 0.00067723856407038636 0.028875053777775207 0 0.0010323406236180529 0.02827099559625549 0 0.0012214148554607954 0.028214191180367096 0 0.0010679864272467466 0.028396843421352694 0 0.0010323406236180529 0.02827099559625549 0 0.0012214148554607954 0.028214191180367096 0 0.0011307350560721382 0.028075661974481962 0 0.0013854596400057068 0.027946493617102417 0 0.0012214148554607954 0.028214191180367096 0 0.0011307350560721382 0.028075661974481962 0 0.0017466786255692795 0.02002650239295389 0 0.001326908397322707 0.020045348297936236 0 0.0015253100559266275 0.020309664115119561 0 0.0010323406236180529 0.02827099559625549 0 0.0011307350560721382 0.028075661974481962 0 0.00094189929840654497 0.02822730065848492 0 0.0018564908268985975 0.024799611258008385 0 0.00089454068298693761 0.024222608847733192 0 0.001326908397322707 0.020045348297936236 0 0.0015253100559266275 0.020309664115119561 0 0.0010681063102368118 0.020356216664267953 0 0.00086333387506760148 0.019844452302630312 0 0.00059427039797855272 0.020401226279727371 0 0.0010681063102368118 0.020356216664267953 0 0.00074289132978923517 0.024393969637570311 0 0.00089454068298693761 0.024222608847733192 0 0.00083071988431525541 0.028370334457245357 0 0.00094189929840654497 0.02822730065848492 0 0.00083107487114571839 0.028472342638579399 0 0.00094189929840654497 0.02822730065848492 0 0.00083107487114571839 0.028472342638579399 0 0.00092873359031504018 0.028406808209409367 0 0.0010323406236180529 0.02827099559625549 0 0.00094189929840654497 0.02822730065848492 0 0.00092873359031504018 0.028406808209409367 0 0.00083107487114571839 0.028472342638579399 0 0.00092873359031504018 0.028406808209409367 0 0.00084362692394729215 0.028531353311045775 0 0.00084362692394729215 0.028531353311045775 0 0.00094283041393437286 0.028519176920496478 0 0.00085132485988150572 0.028566178986648979 0 0.00092873359031504018 0.028406808209409367 0 0.00084362692394729215 0.028531353311045775 0 0.00094283041393437286 0.028519176920496478 0 -0.0011670927269984348 0.022280801655064252 0 -0.00074622216311957801 0.02181317142244632 0 -0.0033102552642572999 0.015868003668960986 0 -0.0026437372365465755 0.015352730780898945 0 -0.0028591519658365721 0.016088976241343464 0 0.0010323406236180529 0.02827099559625549 0 0.00092873359031504018 0.028406808209409367 0 0.0010679864272467466 0.028396843421352694 0 0.00092873359031504018 0.028406808209409367 0 0.00094283041393437286 0.028519176920496478 0 0.0010679864272467466 0.028396843421352694 0 -0.0022219937178183315 0.015316085194856117 0 -0.0026437372365465755 0.015352730780898945 0 -0.0022335852025424825 0.015372256233664758 0 -0.00067230338634858091 0.022197054839573838 0 -0.00074622216311957801 0.02181317142244632 0 -0.0026437372365465755 0.015352730780898945 0 -0.0023963454617913988 0.015756874236335053 0 -0.0028591519658365721 0.016088976241343464 0 -0.0026437372365465755 0.015352730780898945 0 -0.0022335852025424825 0.015372256233664758 0 -0.0023963454617913988 0.015756874236335053 0 -0.0023963454617913988 0.015756874236335053 0 -0.0025567551299939054 0.016336332180914029 0 -0.0020890426775992529 0.016561617355336379 0 -0.0023963454617913988 0.015756874236335053 0 -0.0025567551299939054 0.016336332180914029 0 -0.0028591519658365721 0.016088976241343464 0 -0.0017293057162539383 0.01464026829226411 0 -0.0019769525398906662 0.014722084519319048 0 -0.0017787151942916266 0.014601969675657781 0 -0.0020890426775992529 0.016561617355336379 0 -0.0026074431339325613 0.01689962588370721 0 -0.0025647887124153387 0.017883676360627331 0 -0.0019594216758063903 0.015621197300877557 0 -0.0021713414664560836 0.016338792070036658 0 -0.0025567551299939054 0.016336332180914029 0 -0.0020890426775992529 0.016561617355336379 0 -0.0026074431339325613 0.01689962588370721 0 -0.0025567551299939054 0.016336332180914029 0 -0.0026074431339325613 0.01689962588370721 0 -0.002899900721623255 0.016575253383002815 0 -0.0034201505630281938 0.017275138734092622 0 -0.0029002080982874715 0.017235392574162466 0 -0.002899900721623255 0.016575253383002815 0 -0.0026074431339325613 0.01689962588370721 0 -0.0029002080982874715 0.017235392574162466 0 -0.002899900721623255 0.016575253383002815 0 -0.0033102552642572999 0.015868003668960986 0 -0.0028591519658365721 0.016088976241343464 0 -0.0033093027699292576 0.01666180291715167 0 -0.002899900721623255 0.016575253383002815 0 -0.0028591519658365721 0.016088976241343464 0 -0.0033093027699292576 0.01666180291715167 0 -0.0025567551299939054 0.016336332180914029 0 -0.002899900721623255 0.016575253383002815 0 -0.0028591519658365721 0.016088976241343464 0 0.00094283041393437286 0.028519176920496478 0 0.00085132485988150572 0.028566178986648979 0 0.00085325656498901363 0.028577573845276514 0 -0.0019724520667992831 0.021885191789159018 0 -0.0044183648978944924 0.01631462660949418 0 -0.0011670927269984348 0.022280801655064252 0 -0.0019724520667992831 0.021885191789159018 0 -0.0033102552642572999 0.015868003668960986 0 -0.0039261925587718077 0.016524353588371371 0 -0.0033093027699292576 0.01666180291715167 0 0.00085132485988150572 0.028566178986648979 0 0.00085325656498901363 0.028577573845276514 0 0.00078990952362741735 0.028634367029525726 0 -0.0038256315461937698 0.016622866454313531 0 -0.0036104217193825647 0.016897693570836095 0 -0.0043192225000756078 0.017222266997372709 0 -0.0041717548866619181 0.016364482866462107 0 -0.0024327386790615143 0.022527693230160479 0 -0.0019724520667992831 0.021885191789159018 0 -0.0024327386790615143 0.022527693230160479 0 -0.0040755953527322102 0.016917719499814694 0 -0.0046053878657749733 0.017376612228557818 0 -0.0051967273848016228 0.017319570909749265 0 -0.0040755953527322102 0.016917719499814694 0 -0.0040415744055969432 0.017518764430684772 0 -0.0046053878657749733 0.017376612228557818 0 -0.0034201505630281938 0.017275138734092622 0 -0.002899900721623255 0.016575253383002815 0 -0.0040755953527322102 0.016917719499814694 0 -0.002899900721623255 0.016575253383002815 0 -0.0033093027699292576 0.01666180291715167 0 -0.0036104217193825647 0.016897693570836095 0 -0.0038256315461937698 0.016622866454313531 0 -0.0033093027699292576 0.01666180291715167 0 -0.0036104217193825647 0.016897693570836095 0 -0.002863265252565951 0.016699351194803935 0 -0.0041717548866619181 0.016364482866462107 0 -0.0034201505630281938 0.017275138734092622 0 -0.0040755953527322102 0.016917719499814694 0 -0.0040415744055969432 0.017518764430684772 0 -0.0034201505630281938 0.017275138734092622 0 -0.0040415744055969432 0.017518764430684772 0 -0.0035983757211716897 0.017772015635605865 0 -0.0040415744055969432 0.017518764430684772 0 -0.0039183520026553594 0.018018424393660856 0 -0.0035983757211716897 0.017772015635605865 0 -0.0040415744055969432 0.017518764430684772 0 -0.0039183520026553594 0.018018424393660856 0 -0.0045290137427064676 0.017946438603095236 0 -0.0039183520026553594 0.018018424393660856 0 -0.0035983757211716897 0.017772015635605865 0 -0.0035966342624879758 0.018279090651381117 0 -0.0037989053302246948 0.019012491105571492 0 -0.0034982154928219181 0.01936813390792011 0 -0.0035504836725135393 0.018886345087477337 0 -0.0047034230409429131 0.017841522069037188 0 -0.0024327386790615143 0.022527693230160479 0 -0.0046053878657749733 0.017376612228557818 0 -0.0045290137427064676 0.017946438603095236 0 -0.0051967273848016228 0.017319570909749265 0 -0.0040415744055969432 0.017518764430684772 0 -0.0046053878657749733 0.017376612228557818 0 -0.0045290137427064676 0.017946438603095236 0 -0.0039540707531607773 0.0189091932804435 0 -0.0038376084253739992 0.018807119835344735 0 -0.0040079184416841069 0.018994609366989906 0 -0.0037989053302246948 0.019012491105571492 0 -0.0038376084253739992 0.018807119835344735 0 -0.0035504836725135393 0.018886345087477337 0 -0.0037067687014801956 0.01888136886533047 0 -0.0040618348548588932 0.018717935666243354 0 -0.0039540707531607773 0.0189091932804435 0 -0.0038376084253739992 0.018807119835344735 0 -0.0038755005567821981 0.018905567387891176 0 -0.0035983757211716897 0.017772015635605865 0 -0.0035966342624879758 0.018279090651381117 0 -0.0031980450544611605 0.018272527871382522 0 -0.0039183520026553594 0.018018424393660856 0 -0.0035966342624879758 0.018279090651381117 0 -0.0037913715931029235 0.018704142106852031 0 -0.0037989053302246948 0.019012491105571492 0 -0.0038376084253739992 0.018807119835344735 0 -0.0037913715931029235 0.018704142106852031 0 -0.0039183520026553594 0.018018424393660856 0 -0.0045290137427064676 0.017946438603095236 0 -0.0037913715931029235 0.018704142106852031 0 -0.0047034230409429131 0.017841522069037188 0 -0.0035978917048002388 0.018933092414578172 0 -0.0038376084253739992 0.018807119835344735 0 -0.0037767035859136377 0.018852396079669966 0 -0.0038755005567821981 0.018905567387891176 0 -0.0038376084253739992 0.018807119835344735 0 -0.0037913715931029235 0.018704142106852031 0 -0.0037767035859136377 0.018852396079669966 0 -0.0037913715931029235 0.018704142106852031 0 -0.0035401619874569201 0.018658824373356267 0 -0.0037767035859136377 0.018852396079669966 0 -0.0035966342624879758 0.018279090651381117 0 -0.0037913715931029235 0.018704142106852031 0 -0.0035401619874569201 0.018658824373356267 0 -0.0021713414664560836 0.016338792070036658 0 -0.0035626252714986281 0.016842936050166683 0 -0.0035401619874569201 0.018658824373356267 0 -0.0031980450544611605 0.018272527871382522 0 -0.0032729737806205844 0.019071826891231509 0 -0.0031980450544611605 0.018272527871382522 0 -0.0025647887124153387 0.017883676360627331 0 -0.0032729737806205844 0.019071826891231509 0 -0.0019769525398906662 0.014722084519319048 0 -0.0019465756287267643 0.015128239399971309 0 -0.0022831431862088704 0.015213277390862194 0 -0.0035966342624879758 0.018279090651381117 0 -0.0035401619874569201 0.018658824373356267 0 -0.0031980450544611605 0.018272527871382522 0 -0.0018296920536264312 0.014914255179673883 0 -0.0019769525398906662 0.014722084519319048 0 -0.0017324960568034799 0.014774765258048612 0 -0.0018296920536264312 0.014914255179673883 0 -0.0019769525398906662 0.014722084519319048 0 -0.0019465756287267643 0.015128239399971309 0 -0.0018296920536264312 0.014914255179673883 0 -0.0019465756287267643 0.015128239399971309 0 -0.001668397139763903 0.015044854388394376 0 -0.0019769525398906662 0.014722084519319048 0 -0.0017324960568034799 0.014774765258048612 0 -0.0017787151942916266 0.014601969675657781 0 -0.0026074431339325613 0.01689962588370721 0 -0.0029002080982874715 0.017235392574162466 0 -0.0025647887124153387 0.017883676360627331 0 -0.0029002080982874715 0.017235392574162466 0 -0.0025647887124153387 0.017883676360627331 0 -0.0030956410979746198 0.017715193873740938 0 -0.0034201505630281938 0.017275138734092622 0 -0.0035983757211716897 0.017772015635605865 0 -0.0030956410979746198 0.017715193873740938 0 -0.0034201505630281938 0.017275138734092622 0 -0.0029002080982874715 0.017235392574162466 0 -0.0030956410979746198 0.017715193873740938 0 -0.0035983757211716897 0.017772015635605865 0 -0.0031980450544611605 0.018272527871382522 0 -0.0030956410979746198 0.017715193873740938 0 -0.0031980450544611605 0.018272527871382522 0 -0.0025647887124153387 0.017883676360627331 0 -0.0030956410979746198 0.017715193873740938 0 0.001048234497370138 0.03203167110861669 0 0.0010732752378316023 0.031991684641254209 0 0.0010528991930507624 0.032000581580387051 0 0.00099910167356419602 0.032089376871839922 0 0.0010346008156898625 0.032077804581469145 0 0.001048234497370138 0.03203167110861669 0 0.0010346008156898625 0.032077804581469145 0 0.001048234497370138 0.03203167110861669 0 0.0010528991930507624 0.032000581580387051 0 0.0010257017874797348 0.032011859262757139 0 0.001048234497370138 0.03203167110861669 0 0.0010732752378316023 0.031991684641254209 0 0.0010257017874797348 0.032011859262757139 0 0.0010608532792611902 0.031943856285279584 0 0.0010732752378316023 0.031991684641254209 0 0.0010710793094135943 0.032029600573420684 0 0.0010608532792611902 0.031943856285279584 0 0.0010732752378316023 0.031991684641254209 0 0.0010732752378316023 0.031991684641254209 0 0.0010316275391510817 0.031965218472175157 0 0.0010639732995605996 0.031890905487090018 0 0.0010710793094135943 0.032029600573420684 0 0.0010316275391510817 0.031965218472175157 0 0.00073301381856607096 0.031962648359551649 0 0.0010710793094135943 0.032029600573420684 0 0.0010732752378316023 0.031991684641254209 0 0.0010316275391510817 0.031965218472175157 0 0.0010732752378316023 0.031991684641254209 0 0.0010639732995605996 0.031890905487090018 0 0.0010528991930507624 0.032000581580387051 0 0.0010639732995605996 0.031890905487090018 0 0.0010528991930507624 0.032000581580387051 0 0.0011176852143286655 0.03200929811851147 0 0.0012757189328691614 0.032471524392420584 0 0.000424530817284017 0.029704241558096638 0 0.00075717277334707905 0.031600394411731167 0 -1.1005434191967183e-05 0.03131659251199944 0 0.00095640648473564868 0.031176578961361247 0 0.0010639732995605996 0.031890905487090018 0 0.00075717277334707905 0.031600394411731167 0 0.00095640648473564868 0.031176578961361247 0 0.00075717277334707905 0.031600394411731167 0 0.00073301381856607096 0.031962648359551649 0 -1.1005434191967183e-05 0.03131659251199944 0 0.0010639732995605996 0.031890905487090018 0 0.00075717277334707905 0.031600394411731167 0 0.00073301381856607096 0.031962648359551649 0 0.0015084949257207561 0.029233028682639977 0 0.00096276056917838 0.028449383922279081 0 0.0032331449805002781 0.027966320943324612 0 0.0013311174443495027 0.02612708447145215 0 0.00028223031895315296 0.027094405347998382 0 0.0015084949257207561 0.029233028682639977 0 0.0017736954684864656 0.030020906921831344 0 0.0010316275391510817 0.031965218472175157 0 0.0010639732995605996 0.031890905487090018 0 0.00073301381856607096 0.031962648359551649 0 -0.0019724520667992831 0.021885191789159018 0 0.00096276056917838 0.028449383922279081 0 0.0013311174443495027 0.02612708447145215 0 0.00028223031895315296 0.027094405347998382 0 -0.00049731850515809576 0.025610039016043931 0 -0.0026840944431235792 0.026211006596542012 0 0.00028223031895315296 0.027094405347998382 0 -0.00049731850515809576 0.025610039016043931 0 0.0017736954684864656 0.030020906921831344 0 -0.0024327386790615143 0.022527693230160479 0 0.0013311174443495027 0.02612708447145215 0 -0.00049731850515809576 0.025610039016043931 0 -0.0006818901021330352 0.024199561946332274 0 -0.0026840944431235792 0.026211006596542012 0 -0.00049731850515809576 0.025610039016043931 0 -0.0006818901021330352 0.024199561946332274 0 -0.0024327386790615143 0.022527693230160479 0 -0.002300099242024289 0.023059632935203852 0 -0.0034982154928219181 0.01936813390792011 0 -0.0035504836725135393 0.018886345087477337 0 -0.0031139233664931069 0.019008591232998216 0 -0.0015433424562428435 0.025348311321740515 0 -0.0013032451048762344 0.025138000960094078 0 -0.0013729903554228367 0.025261750384655671 0 -0.0040618348548588932 0.018717935666243354 0 -0.002300099242024289 0.023059632935203852 0 -0.0040079184416841069 0.018994609366989906 0 -0.0035160917635925853 0.019275394130332454 0 -0.0037002463437298817 0.019013901916303682 0 -0.0039540707531607773 0.0189091932804435 0 -0.0040079184416841069 0.018994609366989906 0 -0.0039965887989538316 0.018875501219395872 0 -0.0040079184416841069 0.018994609366989906 0 -0.0039965887989538316 0.018875501219395872 0 -0.0037002463437298817 0.019013901916303682 0 -0.0039965887989538316 0.018875501219395872 0 -0.0037002463437298817 0.019013901916303682 0 -0.0035583082909549152 0.018664961704083632 0 -0.0037002463437298817 0.019013901916303682 0 -0.003463035440878756 0.019230926748312824 0 -0.0035583082909549152 0.018664961704083632 0 -0.0021166401056577941 0.025754499065834723 0 -0.0022455889052148902 0.025912061760336485 0 -0.0020678178184457066 0.02591583062128228 0 -0.0021469807546246329 0.024053236564815839 0 -0.0028966106347836761 0.023740307565657395 0 -0.0035160917635925853 0.019275394130332454 0 -0.0037002463437298817 0.019013901916303682 0 -0.003463035440878756 0.019230926748312824 0 -0.00085350249630727687 0.029538215977443702 0 -0.00084240637389063218 0.029573294380079752 0 -0.00062039424347762589 0.029333203411429178 0 -0.0021469807546246329 0.024053236564815839 0 -0.0012659640449212077 0.025278376217387204 0 -0.0018798419846367191 0.023372771778754905 0 -0.0026626450325241916 0.024164782327753577 0 -0.0029908000592660973 0.023150687098972177 0 -0.002300099242024289 0.023059632935203852 0 -0.0012659640449212077 0.025278376217387204 0 -0.002300099242024289 0.023059632935203852 0 -0.0021469807546246329 0.024053236564815839 0 -0.0012659640449212077 0.025278376217387204 0 0.000424530817284017 0.029704241558096638 0 -0.0012715115513514681 0.025145789550622525 0 -0.0013729903554228367 0.025261750384655671 0 -0.0012142470112902937 0.025316667005844683 0 -0.0015433424562428435 0.025348311321740515 0 -0.0013729903554228367 0.025261750384655671 0 -0.0012142470112902937 0.025316667005844683 0 -0.0024327386790615143 0.022527693230160479 0 0.000424530817284017 0.029704241558096638 0 -0.0013032451048762344 0.025138000960094078 0 -0.0012715115513514681 0.025145789550622525 0 -0.0013729903554228367 0.025261750384655671 0 -0.0012659640449212077 0.025278376217387204 0 0.00062860007738926448 0.030870511276686403 0 0.000424530817284017 0.029704241558096638 0 0.00062860007738926448 0.030870511276686403 0 -0.00072143213090089184 0.028341472287707416 0 -0.00049887391477924621 0.029030646443114032 0 0.00088923374829884435 0.028705740357082149 0 0.0010528991930507624 0.032000581580387051 0 0.0011176852143286655 0.03200929811851147 0 0.0010376533020380807 0.032100519354902914 0 -0.00084240637389063218 0.029573294380079752 0 -0.00038147381083251854 0.029715609846227127 0 -0.00062039424347762589 0.029333203411429178 0 -0.0021469807546246329 0.024053236564815839 0 -0.0013333305480932789 0.02982513773093522 0 -0.00027101830940726867 0.029418540698041298 0 -0.00038147381083251854 0.029715609846227127 0 -0.00062039424347762589 0.029333203411429178 0 0.0012172944703106449 0.031971565727142361 0 0.00062860007738926448 0.030870511276686403 0 0.0010346008156898625 0.032077804581469145 0 0.0010528991930507624 0.032000581580387051 0 0.0010376533020380807 0.032100519354902914 0 0.0010029808182131503 0.032170050136382286 0 0.0010346008156898625 0.032077804581469145 0 0.0010376533020380807 0.032100519354902914 0 -0.00080390776479306837 0.031435234232688763 0 -0.0012149217294106923 0.031449008500399153 0 -0.0010067158363641438 0.031791318635631019 0 -0.0012149217294106923 0.031449008500399153 0 -0.0010067158363641438 0.031791318635631019 0 -0.0013678765040692142 0.031728907633779155 0 -0.00088387548720810654 0.032234648239841922 0 -0.0010067158363641438 0.031791318635631019 0 -0.0013022646411728991 0.032003909878146608 0 -0.00088387548720810654 0.032234648239841922 0 -0.0013022646411728991 0.032003909878146608 0 -0.0014219559627336893 0.032116826199579833 0 -0.0004918797795455199 0.030903602439549788 0 -0.0013333305480932789 0.02982513773093522 0 -0.0010067158363641438 0.031791318635631019 0 -0.0013022646411728991 0.032003909878146608 0 -0.0013678765040692142 0.031728907633779155 0 -0.0013022646411728991 0.032003909878146608 0 -0.0015666835532761692 0.031929139656524615 0 -0.0013678765040692142 0.031728907633779155 0 -0.0013022646411728991 0.032003909878146608 0 -0.0014345495397047358 0.032135467836514012 0 -0.0015666835532761692 0.031929139656524615 0 -0.0018701102069050054 0.031164224785223307 0 -0.0013333305480932789 0.02982513773093522 0 -0.0015666835532761692 0.031929139656524615 0 -0.0013678765040692142 0.031728907633779155 0 -0.0016957045606083455 0.031752873461315979 0 -0.0013678765040692142 0.031728907633779155 0 -0.0015268321890076445 0.031465543320792287 0 -0.0016957045606083455 0.031752873461315979 0 -0.0012149217294106923 0.031449008500399153 0 -0.0013678765040692142 0.031728907633779155 0 -0.0015268321890076445 0.031465543320792287 0 -0.0012149217294106923 0.031449008500399153 0 -0.0015268321890076445 0.031465543320792287 0 -0.0015128810772973933 0.031115437887942955 0 -0.0015268321890076445 0.031465543320792287 0 -0.0016957045606083455 0.031752873461315979 0 -0.0023927674317297904 0.031279490485354139 0 -0.0016957045606083455 0.031752873461315979 0 -0.0020562738568277138 0.032029997956396224 0 -0.0023927674317297904 0.031279490485354139 0 -0.0014345495397047358 0.032135467836514012 0 -0.0015666835532761692 0.031929139656524615 0 -0.0020562738568277138 0.032029997956396224 0 -0.0013333305480932789 0.02982513773093522 0 -0.0028966106347836761 0.023740307565657395 0 -0.0015666835532761692 0.031929139656524615 0 -0.0016957045606083455 0.031752873461315979 0 -0.0020562738568277138 0.032029997956396224 0 -0.0039965887989538316 0.018875501219395872 0 -0.0035583082909549152 0.018664961704083632 0 -0.0042952750783137898 0.018412537971146965 0 -0.0050235207487491088 0.018435810778893086 0 -0.0052646637805037018 0.018347940035683991 0 -0.0051964918006850913 0.018070893856564862 0 -0.0028966106347836761 0.023740307565657395 0 -0.0051749670987675852 0.018416079264024214 0 -0.0052646637805037018 0.018347940035683991 0 -0.0051964918006850913 0.018070893856564862 0 -0.0053414548693565987 0.018142677367701851 0 -0.0028966106347836761 0.023740307565657395 0 -0.0038449670838144731 0.02497642727429053 0 -0.0038449670838144731 0.02497642727429053 0 -0.0041804230052082522 0.023987836909400408 0 -0.0051964918006850913 0.018070893856564862 0 -0.0054401588150821256 0.017826660424775369 0 -0.0054818987136520548 0.017934902443145568 0 -0.0023927674317297904 0.031279490485354139 0 -0.0028936301082196662 0.030277123943731547 0 -0.0019926547941503531 0.030427893596365659 0 -0.0028936301082196662 0.030277123943731547 0 -0.0019926547941503531 0.030427893596365659 0 -0.0017967618632629731 0.029517294504302981 0 -0.0019926547941503531 0.030427893596365659 0 -0.00085216533278622837 0.029814469310879152 0 -0.0017967618632629731 0.029517294504302981 0 -0.0015268321890076445 0.031465543320792287 0 -0.0023927674317297904 0.031279490485354139 0 -0.0015128810772973933 0.031115437887942955 0 -0.0023927674317297904 0.031279490485354139 0 -0.0019926547941503531 0.030427893596365659 0 -0.0015128810772973933 0.031115437887942955 0 -0.0012149217294106923 0.031449008500399153 0 -0.0015128810772973933 0.031115437887942955 0 -0.0011230259823444466 0.031131136372798799 0 -0.0014810039696617984 0.031076410079651284 0 -0.0010804044228100789 0.030296558759921481 0 -0.0015128810772973933 0.031115437887942955 0 -0.0011230259823444466 0.031131136372798799 0 -0.0012436208470335192 0.030750801376566852 0 -0.0019926547941503531 0.030427893596365659 0 -0.0015128810772973933 0.031115437887942955 0 -0.00085216533278622837 0.029814469310879152 0 -0.00080261242721638929 0.030974619555541746 0 -0.0012436208470335192 0.030750801376566852 0 -0.00081319686917776174 0.030605575723227977 0 -0.00080261242721638929 0.030974619555541746 0 -0.0011230259823444466 0.031131136372798799 0 -0.0012436208470335192 0.030750801376566852 0 -0.00080390776479306837 0.031435234232688763 0 -0.0012149217294106923 0.031449008500399153 0 -0.0011230259823444466 0.031131136372798799 0 -0.00080390776479306837 0.031435234232688763 0 -0.00080261242721638929 0.030974619555541746 0 -0.0011230259823444466 0.031131136372798799 0 -0.0057364653797456972 0.018097479870657875 0 -0.0056227564250263037 0.018042945471496249 0 -0.005742235675084824 0.017796305096539001 0 -0.0057364653797456972 0.018097479870657875 0 -0.0060555824160229326 0.017953376976883935 0 -0.005742235675084824 0.017796305096539001 0 -0.0052337252579358635 0.017484568872381999 0 -0.0059781646393102326 0.017873305032745958 0 -0.005070024657741372 0.017323231513374209 0 -0.0052337252579358635 0.017484568872381999 0 -0.0043106834981162896 0.016663371623818011 0 -0.0040053081850180226 0.016775492694870931 0 -0.0041291389454697998 0.016596439673039049 0 -0.0040053081850180226 0.016775492694870931 0 -0.0041291389454697998 0.016596439673039049 0 -0.0039833133802179505 0.016569825336419593 0 -0.0041291389454697998 0.016596439673039049 0 -0.0041058606957470071 0.016429151682627208 0 -0.0042726873634791294 0.016565335348437026 0 -0.0039833133802179505 0.016569825336419593 0 -0.0041058606957470071 0.016429151682627208 0 -0.0038585505951362893 0.016366395066958524 0 -0.0029667185980767263 0.015767142181382365 0 -0.0028739496091498809 0.014905251363253373 0 -0.0041291389454697998 0.016596439673039049 0 -0.0039833133802179505 0.016569825336419593 0 -0.0041058606957470071 0.016429151682627208 0 -0.0041058606957470071 0.016429151682627208 0 -0.0042726873634791294 0.016565335348437026 0 -0.0043458603312841277 0.016495092126958533 0 -0.0029667185980767263 0.015767142181382365 0 -0.0035626252714986281 0.016842936050166683 0 -0.0043106834981162896 0.016663371623818011 0 -0.0041291389454697998 0.016596439673039049 0 -0.0042726873634791294 0.016565335348437026 0 -0.0043106834981162896 0.016663371623818011 0 -0.0042726873634791294 0.016565335348437026 0 -0.0043739791137288589 0.016556318228988478 0 -0.0042726873634791294 0.016565335348437026 0 -0.0043739791137288589 0.016556318228988478 0 -0.0043458603312841277 0.016495092126958533 0 -0.0037074652125753016 0.016818052544342769 0 -0.0035626252714986281 0.016842936050166683 0 -0.0032729737806205844 0.019071826891231509 0 -0.0037767035859136377 0.018852396079669966 0 -0.0038893902654175854 0.019032097471391191 0 -0.0043739791137288589 0.016556318228988478 0 -0.0043462623525805611 0.016503207694755405 0 -0.0046017244579803877 0.016570327672076487 0 -0.0043106834981162896 0.016663371623818011 0 -0.0043739791137288589 0.016556318228988478 0 -0.0046017244579803877 0.016570327672076487 0 -0.005070024657741372 0.017323231513374209 0 -0.0047283123954974318 0.017919329663120247 0 -0.0035626252714986281 0.016842936050166683 0 -0.0047283123954974318 0.017919329663120247 0 -0.0035401619874569201 0.018658824373356267 0 -0.0032729737806205844 0.019071826891231509 0 -0.0037767035859136377 0.018852396079669966 0 -0.0037767035859136377 0.018852396079669966 0 -0.0038893902654175854 0.019032097471391191 0 -0.0038755005567821981 0.018905567387891176 0 -0.0055138214256792066 0.018279054764231455 0 -0.0054755931855001144 0.018190371782511473 0 -0.0056227564250263037 0.018042945471496249 0 -0.0055095068868582023 0.018289436636634543 0 -0.0055138214256792066 0.018279054764231455 0 -0.0054755931855001144 0.018190371782511473 0 -0.0048695549962478471 0.017958460567859727 0 -0.0047283123954974318 0.017919329663120247 0 -0.0052646637805037018 0.018347940035683991 0 -0.0053845625780571445 0.018260092850336244 0 -0.0053759213382576151 0.018211660183925903 0 -0.0039965887989538316 0.018875501219395872 0 -0.0042952750783137898 0.018412537971146965 0 -0.0053845625780571445 0.018260092850336244 0 -0.0039965887989538316 0.018875501219395872 0 -0.0055095068868582023 0.018289436636634543 0 -0.0053845625780571445 0.018260092850336244 0 -0.0039540707531607773 0.0189091932804435 0 -0.0039965887989538316 0.018875501219395872 0 -0.0038893902654175854 0.019032097471391191 0 -0.0039965887989538316 0.018875501219395872 0 -0.0055095068868582023 0.018289436636634543 0 -0.005649055676348113 0.018322015678138296 0 -0.0051749670987675852 0.018416079264024214 0 -0.0051833130654513389 0.018304014620157672 0 -0.0040062357189291162 0.019076423024737055 0 -0.0047283123954974318 0.017919329663120247 0 -0.0039540707531607773 0.0189091932804435 0 -0.0038893902654175854 0.019032097471391191 0 -0.0038755005567821981 0.018905567387891176 0 -0.0055095068868582023 0.018289436636634543 0 -0.0054755931855001144 0.018190371782511473 0 -0.0053845625780571445 0.018260092850336244 0 -0.0054755931855001144 0.018190371782511473 0 -0.0053845625780571445 0.018260092850336244 0 -0.0053759213382576151 0.018211660183925903 0 -0.0052646637805037018 0.018347940035683991 0 -0.0053759213382576151 0.018211660183925903 0 -0.0053414548693565987 0.018142677367701851 0 -0.0051964918006850913 0.018070893856564862 0 -0.0053414548693565987 0.018142677367701851 0 -0.0054818987136520548 0.017934902443145568 0 -0.0053759213382576151 0.018211660183925903 0 -0.0053414548693565987 0.018142677367701851 0 -0.0054634514603852059 0.018093442281382526 0 -0.0054755931855001144 0.018190371782511473 0 -0.0053759213382576151 0.018211660183925903 0 -0.0054634514603852059 0.018093442281382526 0 -0.0054634514603852059 0.018093442281382526 0 -0.0055455781653088957 0.017981959613572587 0 -0.0054818987136520548 0.017934902443145568 0 -0.0053414548693565987 0.018142677367701851 0 -0.0054634514603852059 0.018093442281382526 0 -0.0054818987136520548 0.017934902443145568 0 -0.0057364653797456972 0.018097479870657875 0 -0.0055138214256792066 0.018279054764231455 0 -0.0056227564250263037 0.018042945471496249 0 -0.0056227564250263037 0.018042945471496249 0 -0.0055455781653088957 0.017981959613572587 0 -0.0056348857292993788 0.017850437865751557 0 -0.0054755931855001144 0.018190371782511473 0 -0.0054634514603852059 0.018093442281382526 0 -0.0056227564250263037 0.018042945471496249 0 -0.0054634514603852059 0.018093442281382526 0 -0.0056227564250263037 0.018042945471496249 0 -0.0055455781653088957 0.017981959613572587 0 -0.0055455781653088957 0.017981959613572587 0 -0.0056348857292993788 0.017850437865751557 0 -0.0054818987136520548 0.017934902443145568 0 -0.0056348857292993788 0.017850437865751557 0 -0.0054818987136520548 0.017934902443145568 0 -0.0056330481026755476 0.017773535012876613 0 -0.0054401588150821256 0.017826660424775369 0 -0.0054818987136520548 0.017934902443145568 0 -0.0056330481026755476 0.017773535012876613 0 -0.0056330481026755476 0.017773535012876613 0 -0.0057080126543089362 0.017746847930053784 0 -0.0057007879168492958 0.017730728528338121 0 -0.0056348857292993788 0.017850437865751557 0 -0.0056330481026755476 0.017773535012876613 0 -0.0057080126543089362 0.017746847930053784 0 -0.0056227564250263037 0.018042945471496249 0 -0.0056348857292993788 0.017850437865751557 0 -0.005742235675084824 0.017796305096539001 0 -0.0056348857292993788 0.017850437865751557 0 -0.0057080126543089362 0.017746847930053784 0 -0.005742235675084824 0.017796305096539001 0 -0.0056710606120661195 0.017501290778093061 0 -0.0057127579661631874 0.017656403631020733 0 -0.0056320210696797586 0.017485563471950794 0 -0.0057080126543089362 0.017746847930053784 0 -0.005742235675084824 0.017796305096539001 0 -0.0057127579661631874 0.017656403631020733 0 -0.0056710606120661195 0.017501290778093061 0 -0.005742235675084824 0.017796305096539001 0 -0.0057127579661631874 0.017656403631020733 0 -0.0057034225365441291 0.017729723422081112 0 -0.0056724671253344724 0.017743528307922543 0 -0.0057007879168492958 0.017730728528338121 0 -0.0057080126543089362 0.017746847930053784 0 -0.0057034225365441291 0.017729723422081112 0 -0.0057007879168492958 0.017730728528338121 0 -0.0057127579661631874 0.017656403631020733 0 -0.0057034225365441291 0.017729723422081112 0 -0.0056724671253344724 0.017743528307922543 0 -0.0057080126543089362 0.017746847930053784 0 -0.0057127579661631874 0.017656403631020733 0 -0.0057034225365441291 0.017729723422081112 0 -0.0048446866941517204 0.016880146027943129 0 -0.0044213678374706005 0.016942317824522466 0 -0.0043547787842874953 0.016716530385656757 0 -0.0048446866941517204 0.016880146027943129 0 -0.0044213678374706005 0.016942317824522466 0 -0.0046364167974839634 0.017095489560131343 0 -0.0048446866941517204 0.016880146027943129 0 -0.0043547787842874953 0.016716530385656757 0 -0.0044076100465665936 0.016438264515900854 0 -0.0050560386508734729 0.016701231496377405 0 -0.0055538682801993733 0.017347873915236039 0 -0.0051131654789357819 0.016051525176352756 0 -0.005266158235397808 0.017326505247296797 0 -0.0045886236262281284 0.016645996800009367 0 -0.0056724671253344724 0.017743528307922543 0 -0.0049322525636628922 0.017116504442781368 0 -0.0051491525856050381 0.017158121064627437 0 -0.0046919516290647688 0.016985438939237159 0 -0.0050560386508734729 0.016701231496377405 0 -0.0046674913728968984 0.016198383718114343 0 -0.0046919516290647688 0.016985438939237159 0 -0.0050560386508734729 0.016701231496377405 0 -0.0051491525856050381 0.017158121064627437 0 -0.0045886236262281284 0.016645996800009367 0 -0.0049595230754257693 0.016835693566793205 0 -0.0050560386508734729 0.016701231496377405 0 -0.0051491525856050381 0.017158121064627437 0 -0.0055538682801993733 0.017347873915236039 0 -0.0056320210696797586 0.017485563471950794 0 -0.0055538682801993733 0.017347873915236039 0 -0.0055822681077424907 0.017439636081200954 0 -0.0056724671253344724 0.017743528307922543 0 -0.0051491525856050381 0.017158121064627437 0 -0.0055538682801993733 0.017347873915236039 0 -0.0057127579661631874 0.017656403631020733 0 -0.0056724671253344724 0.017743528307922543 0 -0.0056320210696797586 0.017485563471950794 0 -0.0056724671253344724 0.017743528307922543 0 -0.0056320210696797586 0.017485563471950794 0 -0.0055538682801993733 0.017347873915236039 0 -0.0039852951593591177 0.015999004557340133 0 -0.0033164296671231376 0.015661202260815871 0 -0.0035019358872368442 0.016048397874212382 0 -0.0036863968777571441 0.016247834294116015 0 -0.0039852951593591177 0.015999004557340133 0 -0.0038588664704031304 0.016561539665169888 0 -0.0036863968777571441 0.016247834294116015 0 -0.0035019358872368442 0.016048397874212382 0 -0.0033893774462682384 0.016383052504244849 0 -0.0036863968777571441 0.016247834294116015 0 -0.0039852951593591177 0.015999004557340133 0 -0.0035019358872368442 0.016048397874212382 0 -0.0044213678374706005 0.016942317824522466 0 -0.0039202294526038224 0.01677661358648325 0 -0.0043329494555615234 0.017299197665289694 0 -0.0044213678374706005 0.016942317824522466 0 -0.0043547787842874953 0.016716530385656757 0 -0.0039202294526038224 0.01677661358648325 0 -0.0043547787842874953 0.016716530385656757 0 -0.0039202294526038224 0.01677661358648325 0 -0.0041606410485214903 0.016549703254589987 0 -0.0044076100465665936 0.016438264515900854 0 -0.0041606410485214903 0.016549703254589987 0 -0.0039570280918889422 0.016323210826965511 0 -0.0043627761411177621 0.016254383725164783 0 -0.0037531247263009535 0.016087289051457142 0 -0.0039930763029402266 0.015902625902087655 0 -0.0039202294526038224 0.01677661358648325 0 -0.0041606410485214903 0.016549703254589987 0 -0.0039570280918889422 0.016323210826965511 0 -0.0045886236262281284 0.016645996800009367 0 -0.0038276519217574352 0.016189570304005058 0 -0.0043547787842874953 0.016716530385656757 0 -0.0044076100465665936 0.016438264515900854 0 -0.0041606410485214903 0.016549703254589987 0 -0.0045886236262281284 0.016645996800009367 0 -0.0040428493504837681 0.016024381462398131 0 -0.0039806391423808816 0.016389476036653111 0 -0.0032157299748894136 0.015700007038187597 0 -0.0039202294526038224 0.01677661358648325 0 -0.0039570280918889422 0.016323210826965511 0 -0.003490811277957894 0.016213694899276567 0 -0.0039852951593591177 0.015999004557340133 0 -0.0033590469350373567 0.015131508456030578 0 -0.0033164296671231376 0.015661202260815871 0 -0.0038276519217574352 0.016189570304005058 0 -0.0032157299748894136 0.015700007038187597 0 -0.0037531247263009535 0.016087289051457142 0 -0.0033019358583462636 0.015674056403904103 0 -0.0029792665310476528 0.015735418782297634 0 -0.0031729046455798403 0.015367954207770575 0 -0.0033019358583462636 0.015674056403904103 0 -0.0035401926539933137 0.015667340687867883 0 -0.0031729046455798403 0.015367954207770575 0 -0.0035401926539933137 0.015667340687867883 0 -0.0034321330336788717 0.015290626396173788 0 -0.0031729046455798403 0.015367954207770575 0 -0.0033019358583462636 0.015674056403904103 0 -0.0030620967167650178 0.015511043600424093 0 -0.0037531247263009535 0.016087289051457142 0 -0.0033019358583462636 0.015674056403904103 0 -0.0035401926539933137 0.015667340687867883 0 -0.0035401926539933137 0.015667340687867883 0 -0.0034321330336788717 0.015290626396173788 0 -0.0037221993432017542 0.01546965082639107 0 -0.0035401926539933137 0.015667340687867883 0 -0.0037221993432017542 0.01546965082639107 0 -0.0039930763029402266 0.015902625902087655 0 -0.0037221993432017542 0.01546965082639107 0 -0.0039930763029402266 0.015902625902087655 0 -0.0040190533689859875 0.015341103615387522 0 -0.0037531247263009535 0.016087289051457142 0 -0.0035401926539933137 0.015667340687867883 0 -0.0039930763029402266 0.015902625902087655 0 -0.0046919516290647688 0.016985438939237159 0 -0.0039930763029402266 0.015902625902087655 0 -0.0046674913728968984 0.016198383718114343 0 -0.0039930763029402266 0.015902625902087655 0 -0.0045559029747211689 0.015580076211474937 0 -0.0046674913728968984 0.016198383718114343 0 -0.0039930763029402266 0.015902625902087655 0 -0.0045559029747211689 0.015580076211474937 0 -0.0040190533689859875 0.015341103615387522 0 -0.0045559029747211689 0.015580076211474937 0 -0.0042024164483108429 0.014783146122061573 0 -0.0040190533689859875 0.015341103615387522 0 -0.0042024164483108429 0.014783146122061573 0 -0.0040190533689859875 0.015341103615387522 0 -0.0037027007746776872 0.014979313635929477 0 -0.0037221993432017542 0.01546965082639107 0 -0.0040190533689859875 0.015341103615387522 0 -0.0037027007746776872 0.014979313635929477 0 -0.0037027007746776872 0.014979313635929477 0 -0.0030743860719594971 0.014304101888205724 0 -0.0030976789365901405 0.014695313886743991 0 -0.0042024164483108429 0.014783146122061573 0 -0.0037027007746776872 0.014979313635929477 0 -0.0030743860719594971 0.014304101888205724 0 -0.0034321330336788717 0.015290626396173788 0 -0.0037221993432017542 0.01546965082639107 0 -0.0037027007746776872 0.014979313635929477 0 -0.0034321330336788717 0.015290626396173788 0 -0.0037027007746776872 0.014979313635929477 0 -0.0033789562816780804 0.014998705146583708 0 -0.0037027007746776872 0.014979313635929477 0 -0.0033789562816780804 0.014998705146583708 0 -0.0030976789365901405 0.014695313886743991 0 -0.0033789562816780804 0.014998705146583708 0 -0.0031211185430176434 0.014984785249784223 0 -0.0030976789365901405 0.014695313886743991 0 -0.0034321330336788717 0.015290626396173788 0 -0.0033789562816780804 0.014998705146583708 0 -0.0031211185430176434 0.014984785249784223 0 -0.0031729046455798403 0.015367954207770575 0 -0.0034321330336788717 0.015290626396173788 0 -0.0031211185430176434 0.014984785249784223 0 -0.0057274801243187134 0.01742804432840709 0 -0.0048153508546117801 0.01613917003395355 0 -0.0055538682801993733 0.017347873915236039 0 -0.0056078576378980763 0.017528419272471441 0 -0.0055822681077424907 0.017439636081200954 0 -0.0040053081850180226 0.016775492694870931 0 -0.0039833133802179505 0.016569825336419593 0 -0.003815136388546908 0.016677830282087878 0 -0.0052337252579358635 0.017484568872381999 0 -0.0048153508546117801 0.01613917003395355 0 -0.0052337252579358635 0.017484568872381999 0 -0.0056507860593362864 0.017415871874041651 0 -0.0054881573043812394 0.017478056951036425 0 -0.0056078576378980763 0.017528419272471441 0 -0.0055822681077424907 0.017439636081200954 0 -0.0056710606120661195 0.017501290778093061 0 -0.0056320210696797586 0.017485563471950794 0 -0.0055822681077424907 0.017439636081200954 0 -0.0055538682801993733 0.017347873915236039 0 -0.0059542463615521509 0.015622683930894091 0 -0.0051131654789357819 0.016051525176352756 0 -0.0045559029747211689 0.015580076211474937 0 -0.0059542463615521509 0.015622683930894091 0 -0.0051131654789357819 0.016051525176352756 0 -0.0045559029747211689 0.015580076211474937 0 -0.0051131654789357819 0.016051525176352756 0 -0.0046674913728968984 0.016198383718114343 0 -0.0050560386508734729 0.016701231496377405 0 -0.0051131654789357819 0.016051525176352756 0 -0.0046674913728968984 0.016198383718114343 0 -0.0045559029747211689 0.015580076211474937 0 -0.0042024164483108429 0.014783146122061573 0 -0.0059542463615521509 0.015622683930894091 0 -0.0039094097465867117 0.014550293311338751 0 -0.0048153508546117801 0.01613917003395355 0 -0.0035876420361270916 0.014589207659838814 0 -0.0041013919974889155 0.01486979402423058 0 -0.0038978072696908986 0.01461815377340903 0 -0.0038978072696908986 0.01461815377340903 0 -0.0038260980617068727 0.014504934319499386 0 -0.0041643016730351029 0.014466807116915996 0 -0.0035876420361270916 0.014589207659838814 0 -0.0038978072696908986 0.01461815377340903 0 -0.0038260980617068727 0.014504934319499386 0 -0.0048153508546117801 0.01613917003395355 0 -0.0028739496091498809 0.014905251363253373 0 -0.0039833133802179505 0.016569825336419593 0 -0.003815136388546908 0.016677830282087878 0 -0.0038585505951362893 0.016366395066958524 0 -0.0041013919974889155 0.01486979402423058 0 -0.0038978072696908986 0.01461815377340903 0 -0.0041643016730351029 0.014466807116915996 0 -0.0018296920536264312 0.014914255179673883 0 -0.001668397139763903 0.015044854388394376 0 -0.0017324960568034799 0.014774765258048612 0 -0.0018875496391689063 0.013892834061672951 0 -0.0018198654319717207 0.014196400521265397 0 -0.0021085976705836748 0.014091328957453606 0 -0.0028739496091498809 0.014905251363253373 0 -0.0018041734129075849 0.014459984121288023 0 -0.0018041734129075849 0.014459984121288023 0 -0.001772445578526883 0.014594909263447952 0 -0.0018198654319717207 0.014196400521265397 0 -0.0019892928574178725 0.014450343009111046 0 -0.0017787151942916266 0.014601969675657781 0 -0.0018198654319717207 0.014196400521265397 0 -0.0020290438265697579 0.014262676684973701 0 -0.0019892928574178725 0.014450343009111046 0 -0.0018198654319717207 0.014196400521265397 0 -0.0020290438265697579 0.014262676684973701 0 -0.0021085976705836748 0.014091328957453606 0 -0.0021857059437436609 0.014314670769829705 0 -0.0023129883733934999 0.014193014190791239 0 -0.0023481010270534741 0.014371205230614923 0 -0.0020290438265697579 0.014262676684973701 0 -0.0019892928574178725 0.014450343009111046 0 -0.0021857059437436609 0.014314670769829705 0 -0.0020290438265697579 0.014262676684973701 0 -0.0021857059437436609 0.014314670769829705 0 -0.0021085976705836748 0.014091328957453606 0 -0.0021857059437436609 0.014314670769829705 0 -0.0023129883733934999 0.014193014190791239 0 -0.0021085976705836748 0.014091328957453606 0 -0.0028739496091498809 0.014905251363253373 0 -0.0030329120810626406 0.0140707261916028 0 -0.0023129883733934999 0.014193014190791239 0 -0.0021085976705836748 0.014091328957453606 0 -0.0023674721349674619 0.013975699378484922 0 -0.0018875496391689063 0.013892834061672951 0 -0.0021085976705836748 0.014091328957453606 0 -0.0023674721349674619 0.013975699378484922 0 -0.0038260980617068727 0.014504934319499386 0 -0.0041643016730351029 0.014466807116915996 0 -0.0036541978763416083 0.014344991740671352 0 -0.0035876420361270916 0.014589207659838814 0 -0.0038260980617068727 0.014504934319499386 0 -0.0036541978763416083 0.014344991740671352 0 -0.0030329120810626406 0.0140707261916028 0 -0.0029562526325237477 0.014141119218077433 0 -0.0035876420361270916 0.014589207659838814 0 -0.0036541978763416083 0.014344991740671352 0 -0.0033676379318313176 0.014359335799605527 0 -0.0036541978763416083 0.014344991740671352 0 -0.0033676379318313176 0.014359335799605527 0 -0.0031500615537614295 0.014200126850546517 0 -0.0035876420361270916 0.014589207659838814 0 -0.0033676379318313176 0.014359335799605527 0 -0.0030743860719594971 0.014304101888205724 0 -0.0023674721349674619 0.013975699378484922 0 -0.0028111422006797935 0.014066089775157845 0 -0.0026678143998123227 0.014125512150726282 0 -0.0039094097465867117 0.014550293311338751 0 -0.0031180348106618133 0.014361513741630081 0 -0.0033676379318313176 0.014359335799605527 0 -0.0031500615537614295 0.014200126850546517 0 -0.0030743860719594971 0.014304101888205724 0 -0.0026966563267977689 0.014184369366458924 0 -0.0025186967286984431 0.014219646314833436 0 -0.0024548123675954348 0.014550574657715342 0 -0.0026678143998123227 0.014125512150726282 0 -0.0026966563267977689 0.014184369366458924 0 -0.0028027814659946967 0.014032934466123255 0 -0.0028111422006797935 0.014066089775157845 0 -0.0026678143998123227 0.014125512150726282 0 -0.0028027814659946967 0.014032934466123255 0 -0.0026678143998123227 0.014125512150726282 0 -0.0026966563267977689 0.014184369366458924 0 -0.0025186967286984431 0.014219646314833436 0 -0.0023674721349674619 0.013975699378484922 0 -0.0026678143998123227 0.014125512150726282 0 -0.0025186967286984431 0.014219646314833436 0 -0.0023129883733934999 0.014193014190791239 0 -0.0023674721349674619 0.013975699378484922 0 -0.0025186967286984431 0.014219646314833436 0 -0.0023129883733934999 0.014193014190791239 0 -0.0025186967286984431 0.014219646314833436 0 -0.0023481010270534741 0.014371205230614923 0 -0.0023481010270534741 0.014371205230614923 0 -0.0024548123675954348 0.014550574657715342 0 -0.0021837026257514438 0.014613177152422434 0 -0.0025186967286984431 0.014219646314833436 0 -0.0023481010270534741 0.014371205230614923 0 -0.0024548123675954348 0.014550574657715342 0 -0.0024548123675954348 0.014550574657715342 0 -0.0022918682903547813 0.014940545528117567 0 -0.0021837026257514438 0.014613177152422434 0 -0.0026966563267977689 0.014184369366458924 0 -0.0024548123675954348 0.014550574657715342 0 -0.0027002043384891337 0.014553043033473812 0 -0.002514721107699471 0.014955223168626111 0 -0.0024548123675954348 0.014550574657715342 0 -0.0027002043384891337 0.014553043033473812 0 -0.002514721107699471 0.014955223168626111 0 -0.0027002043384891337 0.014553043033473812 0 -0.0027859197076963915 0.014892709398626984 0 -0.002514721107699471 0.014955223168626111 0 -0.0024548123675954348 0.014550574657715342 0 -0.0022918682903547813 0.014940545528117567 0 -0.0020121258708009257 0.015358464016002781 0 -0.0022918682903547813 0.014940545528117567 0 -0.0021837026257514438 0.014613177152422434 0 -0.0020121258708009257 0.015358464016002781 0 -0.0023963454617913988 0.015756874236335053 0 -0.0020890426775992529 0.016561617355336379 0 -0.0020121258708009257 0.015358464016002781 0 -0.0017293057162539383 0.01464026829226411 0 -0.0019230505583516741 0.014675499326483352 0 -0.0020121258708009257 0.015358464016002781 0 -0.0019230505583516741 0.014675499326483352 0 -0.0021837026257514438 0.014613177152422434 0 -0.0019860457409579947 0.015400184970129779 0 -0.0019594216758063903 0.015621197300877557 0 -0.0017293057162539383 0.01464026829226411 0 -0.0019230505583516741 0.014675499326483352 0 -0.0017787151942916266 0.014601969675657781 0 -0.0019892928574178725 0.014450343009111046 0 -0.0019230505583516741 0.014675499326483352 0 -0.0017787151942916266 0.014601969675657781 0 -0.0019892928574178725 0.014450343009111046 0 -0.0019230505583516741 0.014675499326483352 0 -0.0021837026257514438 0.014613177152422434 0 -0.0019892928574178725 0.014450343009111046 0 -0.0021857059437436609 0.014314670769829705 0 -0.0021837026257514438 0.014613177152422434 0 -0.0021857059437436609 0.014314670769829705 0 -0.0023481010270534741 0.014371205230614923 0 -0.0021837026257514438 0.014613177152422434 0 -0.0018249567625252198 0.013174044178709286 0 -0.0023572654819702336 0.013444725281887263 0 -0.0019463503442601936 0.013764430004298616 0 -0.0018249567625252198 0.013174044178709286 0 -0.0019463503442601936 0.013764430004298616 0 -0.0013970958867190425 0.01352882486875269 0 -0.0018249567625252198 0.013174044178709286 0 -0.002225477689150073 0.012632703674644228 0 -0.0023572654819702336 0.013444725281887263 0 -0.0018249567625252198 0.013174044178709286 0 -0.0013943710794053162 0.012950500672028416 0 -0.0013970958867190425 0.01352882486875269 0 -0.00090703783454882151 0.013123249916911914 0 -0.0013943710794053162 0.012950500672028416 0 -0.0013970958867190425 0.01352882486875269 0 -0.0018249567625252198 0.013174044178709286 0 -0.0013943710794053162 0.012950500672028416 0 -0.0017157146847819368 0.012604909564173226 0 -0.00090703783454882151 0.013123249916911914 0 -0.0011765090596150714 0.012236414892571346 0 -0.0013943710794053162 0.012950500672028416 0 -0.0011765090596150714 0.012236414892571346 0 -0.0013943710794053162 0.012950500672028416 0 -0.0017157146847819368 0.012604909564173226 0 -0.0019558063360419621 0.011953579963603566 0 -0.0017157146847819368 0.012604909564173226 0 -0.002225477689150073 0.012632703674644228 0 -0.0018249567625252198 0.013174044178709286 0 -0.0017157146847819368 0.012604909564173226 0 -0.002225477689150073 0.012632703674644228 0 -0.002225477689150073 0.012632703674644228 0 -0.0028577635250592349 0.012873853797205702 0 -0.0023572654819702336 0.013444725281887263 0 -0.0029011408894608782 0.013672694057375008 0 -0.0029064528240828032 0.013714830311421549 0 -0.0026837841277632503 0.011915351411362105 0 -0.002225477689150073 0.012632703674644228 0 -0.0028577635250592349 0.012873853797205702 0 -0.0029981139300731159 0.015053207393702117 0 -0.0030238154916245961 0.014656419773111532 0 -0.0027859197076963915 0.014892709398626984 0 -0.0027002043384891337 0.014553043033473812 0 -0.0030238154916245961 0.014656419773111532 0 -0.0027859197076963915 0.014892709398626984 0 -0.0029064528240828032 0.013714830311421549 0 -0.0028790412294269151 0.013962851398805326 0 -0.0026966563267977689 0.014184369366458924 0 -0.0027002043384891337 0.014553043033473812 0 -0.0028485546570783788 0.013974741896006821 0 -0.0027002043384891337 0.014553043033473812 0 -0.0030238154916245961 0.014656419773111532 0 -0.0028485546570783788 0.013974741896006821 0 -0.0028577635250592349 0.012873853797205702 0 -0.0023572654819702336 0.013444725281887263 0 -0.0028485546570783788 0.013974741896006821 0 -0.0023572654819702336 0.013444725281887263 0 -0.0024783500705302585 0.014022854597047068 0 -0.0019463503442601936 0.013764430004298616 0 -0.0023572654819702336 0.013444725281887263 0 -0.0024783500705302585 0.014022854597047068 0 -0.0028485546570783788 0.013974741896006821 0 -0.0024783500705302585 0.014022854597047068 0 -0.0028485546570783788 0.013974741896006821 0 -0.0028027814659946967 0.014032934466123255 0 -0.0028111422006797935 0.014066089775157845 0 -0.0024783500705302585 0.014022854597047068 0 -0.0028027814659946967 0.014032934466123255 0 -0.0026966563267977689 0.014184369366458924 0 -0.0028485546570783788 0.013974741896006821 0 -0.0028027814659946967 0.014032934466123255 0 -0.0031500615537614295 0.014200126850546517 0 -0.0024783500705302585 0.014022854597047068 0 -0.0028380782646399436 0.014289189727266002 0 -0.0029562526325237477 0.014141119218077433 0 -0.0025087422423586895 0.014026907335203278 0 -0.0031500615537614295 0.014200126850546517 0 -0.0030743860719594971 0.014304101888205724 0 -0.0028380782646399436 0.014289189727266002 0 -0.0028380782646399436 0.014289189727266002 0 -0.0028802313156907604 0.014495494103940774 0 -0.0025976072471726938 0.014457569473185683 0 -0.0030743860719594971 0.014304101888205724 0 -0.0028380782646399436 0.014289189727266002 0 -0.0028802313156907604 0.014495494103940774 0 -0.0030743860719594971 0.014304101888205724 0 -0.0028802313156907604 0.014495494103940774 0 -0.0030976789365901405 0.014695313886743991 0 -0.0024783500705302585 0.014022854597047068 0 -0.0025976072471726938 0.014457569473185683 0 -0.0021726508772783853 0.01448244035627979 0 -0.0024783500705302585 0.014022854597047068 0 -0.0021726508772783853 0.01448244035627979 0 -0.0019882216121868573 0.014164843261266052 0 -0.0024783500705302585 0.014022854597047068 0 -0.0028380782646399436 0.014289189727266002 0 -0.0025976072471726938 0.014457569473185683 0 -0.0021726508772783853 0.01448244035627979 0 -0.0019882216121868573 0.014164843261266052 0 -0.0017729096475785603 0.014459949700828397 0 -0.0019882216121868573 0.014164843261266052 0 -0.0015762043391078309 0.014010592004427346 0 -0.0017729096475785603 0.014459949700828397 0 -0.0024783500705302585 0.014022854597047068 0 -0.0019882216121868573 0.014164843261266052 0 -0.0019463503442601936 0.013764430004298616 0 -0.0019882216121868573 0.014164843261266052 0 -0.0019463503442601936 0.013764430004298616 0 -0.0015762043391078309 0.014010592004427346 0 -0.0019463503442601936 0.013764430004298616 0 -0.0013970958867190425 0.01352882486875269 0 -0.0015762043391078309 0.014010592004427346 0 -0.0013970958867190425 0.01352882486875269 0 -0.0012503142912338398 0.013903983448981727 0 -0.0015762043391078309 0.014010592004427346 0 -0.0010380857581816989 0.013662907934639779 0 -0.0013970958867190425 0.01352882486875269 0 -0.0012503142912338398 0.013903983448981727 0 -0.0012503142912338398 0.013903983448981727 0 -0.0015762043391078309 0.014010592004427346 0 -0.0013197811885098793 0.014212632217713154 0 -0.0013197811885098793 0.014212632217713154 0 -0.0014318730970060087 0.014502672655953123 0 -0.0017729096475785603 0.014459949700828397 0 -0.0015762043391078309 0.014010592004427346 0 -0.0013197811885098793 0.014212632217713154 0 -0.0017729096475785603 0.014459949700828397 0 -0.0014318730970060087 0.014502672655953123 0 -0.0017729096475785603 0.014459949700828397 0 -0.0018384177718923352 0.014934101275930874 0 -0.0014318730970060087 0.014502672655953123 0 -0.0018384177718923352 0.014934101275930874 0 -0.0013930219716444144 0.014803494019250357 0 -0.0021726508772783853 0.01448244035627979 0 -0.0018384177718923352 0.014934101275930874 0 -0.002397007480811837 0.014855842184113637 0 -0.0021726508772783853 0.01448244035627979 0 -0.0017729096475785603 0.014459949700828397 0 -0.0018384177718923352 0.014934101275930874 0 -0.0019239618691540682 0.01497051491950659 0 -0.0024753380935140946 0.015124245651437185 0 -0.0018384177718923352 0.014934101275930874 0 -0.0025896124086512251 0.014985893906589574 0 -0.0022512828651998569 0.015371473952128078 0 -0.0018384177718923352 0.014934101275930874 0 -0.0018393119506110456 0.015348287892895005 0 -0.0022512828651998569 0.015371473952128078 0 -0.0018384177718923352 0.014934101275930874 0 -0.0015328059464759388 0.0151682856419938 0 -0.0018393119506110456 0.015348287892895005 0 -0.0015328059464759388 0.0151682856419938 0 -0.0013062597184473161 0.015000760364982364 0 -0.0013930219716444144 0.014803494019250357 0 -0.0012305510321389426 0.015255254517028617 0 -0.0015328059464759388 0.0151682856419938 0 -0.0013062597184473161 0.015000760364982364 0 -0.0018384177718923352 0.014934101275930874 0 -0.0015328059464759388 0.0151682856419938 0 -0.0013930219716444144 0.014803494019250357 0 -0.0031729046455798403 0.015367954207770575 0 -0.0029196875006462569 0.015110807505172765 0 -0.0031211185430176434 0.014984785249784223 0 -0.0029196875006462569 0.015110807505172765 0 -0.0031211185430176434 0.014984785249784223 0 -0.0027751021705968775 0.014797002658671999 0 -0.0028802313156907604 0.014495494103940774 0 -0.0030976789365901405 0.014695313886743991 0 -0.0027751021705968775 0.014797002658671999 0 -0.0031211185430176434 0.014984785249784223 0 -0.0030976789365901405 0.014695313886743991 0 -0.0027751021705968775 0.014797002658671999 0 -0.0028802313156907604 0.014495494103940774 0 -0.0025976072471726938 0.014457569473185683 0 -0.0027751021705968775 0.014797002658671999 0 -0.0029196875006462569 0.015110807505172765 0 -0.0027751021705968775 0.014797002658671999 0 -0.0027135556228066473 0.015124224828453154 0 -0.0027751021705968775 0.014797002658671999 0 -0.002397007480811837 0.014855842184113637 0 -0.0027135556228066473 0.015124224828453154 0 -0.0025976072471726938 0.014457569473185683 0 -0.0027751021705968775 0.014797002658671999 0 -0.002397007480811837 0.014855842184113637 0 -0.0025976072471726938 0.014457569473185683 0 -0.0021726508772783853 0.01448244035627979 0 -0.002397007480811837 0.014855842184113637 0 -0.0018384177718923352 0.014934101275930874 0 -0.002397007480811837 0.014855842184113637 0 -0.0023836018544860504 0.015292343759059501 0 -0.002397007480811837 0.014855842184113637 0 -0.0023836018544860504 0.015292343759059501 0 -0.0027135556228066473 0.015124224828453154 0 -0.0024753380935140946 0.015124245651437185 0 -0.0032157299748894136 0.015700007038187597 0 -0.0023836018544860504 0.015292343759059501 0 -0.0028641432998136149 0.01545120190677233 0 -0.0029683582732464397 0.015623920867732274 0 -0.0023836018544860504 0.015292343759059501 0 -0.0027135556228066473 0.015124224828453154 0 -0.0028641432998136149 0.01545120190677233 0 -0.0025896124086512251 0.014985893906589574 0 -0.0033590469350373567 0.015131508456030578 0 -0.0030214624378590454 0.015322457191672495 0 -0.0027135556228066473 0.015124224828453154 0 -0.0028641432998136149 0.01545120190677233 0 -0.0029547524590513565 0.015315533530676821 0 -0.0033019358583462636 0.015674056403904103 0 -0.0029792665310476528 0.015735418782297634 0 -0.0030620967167650178 0.015511043600424093 0 -0.0030478437834337421 0.01554475784854913 0 -0.0032157299748894136 0.015700007038187597 0 -0.0028641432998136149 0.01545120190677233 0 -0.0029792665310476528 0.015735418782297634 0 -0.0030620967167650178 0.015511043600424093 0 -0.0031729046455798403 0.015367954207770575 0 -0.0030620967167650178 0.015511043600424093 0 -0.0029547524590513565 0.015315533530676821 0 -0.0028641432998136149 0.01545120190677233 0 -0.0030620967167650178 0.015511043600424093 0 -0.0029547524590513565 0.015315533530676821 0 -0.0029196875006462569 0.015110807505172765 0 -0.0027135556228066473 0.015124224828453154 0 -0.0029547524590513565 0.015315533530676821 0 -0.0031729046455798403 0.015367954207770575 0 -0.0029196875006462569 0.015110807505172765 0 -0.0029547524590513565 0.015315533530676821 0 -0.0033590469350373567 0.015131508456030578 0 -0.0033164296671231376 0.015661202260815871 0 -0.0030214624378590454 0.015322457191672495 0 -0.0033164296671231376 0.015661202260815871 0 -0.0030214624378590454 0.015322457191672495 0 -0.002822827588753581 0.015515989505675532 0 -0.0033164296671231376 0.015661202260815871 0 -0.002822827588753581 0.015515989505675532 0 -0.0030531830685782426 0.01592380082141312 0 -0.002822827588753581 0.015515989505675532 0 -0.0024970807569343451 0.015822919619242627 0 -0.0030531830685782426 0.01592380082141312 0 -0.0025896124086512251 0.014985893906589574 0 -0.0030214624378590454 0.015322457191672495 0 -0.002822827588753581 0.015515989505675532 0 -0.0025896124086512251 0.014985893906589574 0 -0.002822827588753581 0.015515989505675532 0 -0.0022512828651998569 0.015371473952128078 0 -0.002822827588753581 0.015515989505675532 0 -0.0024970807569343451 0.015822919619242627 0 -0.0022512828651998569 0.015371473952128078 0 -0.0024970807569343451 0.015822919619242627 0 -0.0028755425569161877 0.016272871656446291 0 -0.0022383155894088449 0.016389840815544069 0 -0.0024970807569343451 0.015822919619242627 0 -0.0028755425569161877 0.016272871656446291 0 -0.0030531830685782426 0.01592380082141312 0 -0.0028755425569161877 0.016272871656446291 0 -0.0030531830685782426 0.01592380082141312 0 -0.0033893774462682384 0.016383052504244849 0 -0.0030531830685782426 0.01592380082141312 0 -0.0035019358872368442 0.016048397874212382 0 -0.0033893774462682384 0.016383052504244849 0 -0.0033164296671231376 0.015661202260815871 0 -0.0030531830685782426 0.01592380082141312 0 -0.0035019358872368442 0.016048397874212382 0 -0.0016200836373049129 0.015561278757273849 0 -0.0013671093524962516 0.015611523700108107 0 -0.0016675993384054385 0.015955779950321405 0 -0.0016200836373049129 0.015561278757273849 0 -0.001927786044854951 0.015736223618099308 0 -0.0016675993384054385 0.015955779950321405 0 -0.0016200836373049129 0.015561278757273849 0 -0.0013671093524962516 0.015611523700108107 0 -0.0014361493860816188 0.01540028239862504 0 -0.0012305510321389426 0.015255254517028617 0 -0.0013671093524962516 0.015611523700108107 0 -0.0014361493860816188 0.01540028239862504 0 -0.0012305510321389426 0.015255254517028617 0 -0.0015328059464759388 0.0151682856419938 0 -0.0014361493860816188 0.01540028239862504 0 -0.0015328059464759388 0.0151682856419938 0 -0.0016200836373049129 0.015561278757273849 0 -0.0014361493860816188 0.01540028239862504 0 -0.0015328059464759388 0.0151682856419938 0 -0.0016200836373049129 0.015561278757273849 0 -0.0018393119506110456 0.015348287892895005 0 -0.0018393119506110456 0.015348287892895005 0 -0.0022512828651998569 0.015371473952128078 0 -0.001927786044854951 0.015736223618099308 0 -0.0024970807569343451 0.015822919619242627 0 -0.0022512828651998569 0.015371473952128078 0 -0.001927786044854951 0.015736223618099308 0 -0.0016200836373049129 0.015561278757273849 0 -0.0018393119506110456 0.015348287892895005 0 -0.001927786044854951 0.015736223618099308 0 -0.0022048941452881411 0.01648766158343461 0 -0.0021693008145606441 0.013997612164379938 0 -0.00027276084705572134 0.0062590252514986046 0 -0.00032455017661820856 0.0067756822509943996 0 -0.0010213520641525627 0.0065791475398993627 0 -0.0024970807569343451 0.015822919619242627 0 -0.001927786044854951 0.015736223618099308 0 -0.0022383155894088449 0.016389840815544069 0 -0.00078903743981262808 0.010994644177995167 0 -0.0021693008145606441 0.013997612164379938 0 -0.001927786044854951 0.015736223618099308 0 -0.0016675993384054385 0.015955779950321405 0 -0.0021093739541724532 0.01615117507278846 0 0.00029779958099828292 0.0063318674844409541 0 -0.00027276084705572134 0.0062590252514986046 0 0.00020735305262623908 0.0065735177375806034 0 0.00029779958099828292 0.0063318674844409541 0 0.00023529206810736953 0.006155227996536494 0 -0.00027276084705572134 0.0062590252514986046 0 -0.00048319948281023653 0.0095250423589184549 0 -0.00078903743981262808 0.010994644177995167 0 0.00034054696195214782 0.0060548017215441867 0 0.00023529206810736953 0.006155227996536494 0 -0.00027276084705572134 0.0062590252514986046 0 -0.00027276084705572134 0.0062590252514986046 0 -0.00032455017661820856 0.0067756822509943996 0 0.00020735305262623908 0.0065735177375806034 0 -0.0011088290123800746 0.015799360587911582 0 -0.0013671093524962516 0.015611523700108107 0 -0.0016675993384054385 0.015955779950321405 0 -0.00032455017661820856 0.0067756822509943996 0 0.00020735305262623908 0.0065735177375806034 0 0.00059053764210362692 0.0068773831165596568 0 -0.00032455017661820856 0.0067756822509943996 0 -0.00039383137780548674 0.0073567697883839614 0 0.00059053764210362692 0.0068773831165596568 0 -0.0010213520641525627 0.0065791475398993627 0 -0.00083690018836090902 0.0071904301632486154 0 -0.0015565205071326317 0.0075041418907235216 0 -0.00032455017661820856 0.0067756822509943996 0 -0.0010213520641525627 0.0065791475398993627 0 -0.00083690018836090902 0.0071904301632486154 0 -0.00032455017661820856 0.0067756822509943996 0 -0.00083690018836090902 0.0071904301632486154 0 -0.00039383137780548674 0.0073567697883839614 0 -0.00083690018836090902 0.0071904301632486154 0 -0.00092624505009373788 0.0077965586915996416 0 -0.00039383137780548674 0.0073567697883839614 0 -0.00083690018836090902 0.0071904301632486154 0 -0.00092624505009373788 0.0077965586915996416 0 -0.0015565205071326317 0.0075041418907235216 0 -0.00039383137780548674 0.0073567697883839614 0 -5.233656185605771e-06 0.0080006949551990336 0 0.00059053764210362692 0.0068773831165596568 0 -0.00092624505009373788 0.0077965586915996416 0 -0.00039383137780548674 0.0073567697883839614 0 -5.233656185605771e-06 0.0080006949551990336 0 -0.0033893774462682384 0.016383052504244849 0 -0.0031854863765559903 0.01684016172504095 0 -0.0038588664704031304 0.016561539665169888 0 -0.0028755425569161877 0.016272871656446291 0 -0.0033893774462682384 0.016383052504244849 0 -0.0031854863765559903 0.01684016172504095 0 -0.0042801799242610742 0.017224953595557639 0 -0.0041471707744380349 0.017201023089548916 0 -0.0043166357093742816 0.017214700456938258 0 -0.0021693008145606441 0.013997612164379938 0 -0.0029183995396883252 0.011947451482658175 0 -0.0028755425569161877 0.016272871656446291 0 -0.0022383155894088449 0.016389840815544069 0 -0.0031854863765559903 0.01684016172504095 0 -0.0021693008145606441 0.013997612164379938 0 -0.0040284825683615955 0.017481279503240826 0 -0.00092624505009373788 0.0077965586915996416 0 -0.0015565205071326317 0.0075041418907235216 0 -0.0013428907530224075 0.0082510230947914678 0 -0.0041471707744380349 0.017201023089548916 0 -0.0043166357093742816 0.017214700456938258 0 -0.0040948070752686227 0.017087209561429881 0 -0.0043166357093742816 0.017214700456938258 0 -0.0040948070752686227 0.017087209561429881 0 -0.004069348780127947 0.016863301689484338 0 -0.0040948070752686227 0.017087209561429881 0 -0.0040972812364639321 0.01707197089248649 0 -0.0040980199079536112 0.01709561845121604 0 -0.0041471707744380349 0.017201023089548916 0 -0.0040948070752686227 0.017087209561429881 0 -0.0040980199079536112 0.01709561845121604 0 -0.004069348780127947 0.016863301689484338 0 -0.0044115221482209513 0.016055607460379519 0 -0.0034585857200371329 0.014367400109823094 0 -0.004069348780127947 0.016863301689484338 0 -0.0040765078874638819 0.017721610805473534 0 -0.0041473988405561716 0.017282855091338593 0 -0.0040972812364639321 0.01707197089248649 0 -0.004069348780127947 0.016863301689484338 0 -0.0041473988405561716 0.017282855091338593 0 -0.0040948070752686227 0.017087209561429881 0 -0.0040972812364639321 0.01707197089248649 0 -0.004069348780127947 0.016863301689484338 0 -0.0029183995396883252 0.011947451482658175 0 -0.0032998512871597985 0.01238106375273804 0 -0.0043166357093742816 0.017214700456938258 0 -0.004069348780127947 0.016863301689484338 0 -0.0044115221482209513 0.016055607460379519 0 -0.0015565205071326317 0.0075041418907235216 0 -0.0021871068410164209 0.0086275365697823236 0 -0.0013428907530224075 0.0082510230947914678 0 -0.0021871068410164209 0.0086275365697823236 0 -0.0013428907530224075 0.0082510230947914678 0 -0.0013745651694767017 0.0088442554258787356 0 -0.0013745651694767017 0.0088442554258787356 0 -0.0015879981330859669 0.0096099471015301443 0 -0.0018711433894147459 0.0090684450780568852 0 -0.0013745651694767017 0.0088442554258787356 0 -0.0015879981330859669 0.0096099471015301443 0 -0.00077096583308040422 0.0093408813917808774 0 -0.0015879981330859669 0.0096099471015301443 0 -0.0018711433894147459 0.0090684450780568852 0 -0.0021780922358351487 0.0095680608288913824 0 -0.0021871068410164209 0.0086275365697823236 0 -0.0018711433894147459 0.0090684450780568852 0 -0.0021780922358351487 0.0095680608288913824 0 -0.0021871068410164209 0.0086275365697823236 0 -0.0013745651694767017 0.0088442554258787356 0 -0.0018711433894147459 0.0090684450780568852 0 -0.0044115221482209513 0.016055607460379519 0 -0.0039387603409392416 0.013770145522762216 0 -0.0034585857200371329 0.014367400109823094 0 -0.0040677001627766234 0.016860937398451934 0 -0.003823735412332406 0.016061865866255399 0 -0.0032998512871597985 0.01238106375273804 0 -0.0033983345804813794 0.011887959027302801 0 -0.0021871068410164209 0.0086275365697823236 0 -0.0021780922358351487 0.0095680608288913824 0 -0.0029211149468056671 0.010016968587027998 0 -5.233656185605771e-06 0.0080006949551990336 0 -6.5663389984275922e-05 0.0089802949884570781 0 0.00081156105357025634 0.008256682044928132 0 -5.233656185605771e-06 0.0080006949551990336 0 -0.00070969921741739588 0.0085270949078133842 0 -6.5663389984275922e-05 0.0089802949884570781 0 -0.00092624505009373788 0.0077965586915996416 0 -5.233656185605771e-06 0.0080006949551990336 0 -0.00070969921741739588 0.0085270949078133842 0 -0.00092624505009373788 0.0077965586915996416 0 -0.0013428907530224075 0.0082510230947914678 0 -0.00070969921741739588 0.0085270949078133842 0 -0.0013428907530224075 0.0082510230947914678 0 -0.0013745651694767017 0.0088442554258787356 0 -0.00070969921741739588 0.0085270949078133842 0 -0.00077096583308040422 0.0093408813917808774 0 -6.5663389984275922e-05 0.0089802949884570781 0 -0.00035287690624955388 0.010154426633173043 0 -0.00070969921741739588 0.0085270949078133842 0 -0.00077096583308040422 0.0093408813917808774 0 -6.5663389984275922e-05 0.0089802949884570781 0 -0.0013745651694767017 0.0088442554258787356 0 -0.00070969921741739588 0.0085270949078133842 0 -0.00077096583308040422 0.0093408813917808774 0 -6.5663389984275922e-05 0.0089802949884570781 0 -0.00035287690624955388 0.010154426633173043 0 0.00052916879957945028 0.0097276542779567189 0 0.00027573429556672986 0.010804781435408481 0 -0.00035287690624955388 0.010154426633173043 0 0.00052916879957945028 0.0097276542779567189 0 0.00027573429556672986 0.010804781435408481 0 0.00056334176048630053 0.011650946895937981 0 -0.00047540156314611928 0.011701885261618977 0 0.00027573429556672986 0.010804781435408481 0 -0.00035287690624955388 0.010154426633173043 0 -0.00047540156314611928 0.011701885261618977 0 -0.00035287690624955388 0.010154426633173043 0 -0.0012180673341520998 0.01048736507501539 0 -0.00047540156314611928 0.011701885261618977 0 -0.0012180673341520998 0.01048736507501539 0 -0.0015107200456597322 0.011432406522180623 0 -0.00047540156314611928 0.011701885261618977 0 -0.00077096583308040422 0.0093408813917808774 0 -0.00035287690624955388 0.010154426633173043 0 -0.0012180673341520998 0.01048736507501539 0 -0.0015879981330859669 0.0096099471015301443 0 -0.00077096583308040422 0.0093408813917808774 0 -0.0012180673341520998 0.01048736507501539 0 -0.0015879981330859669 0.0096099471015301443 0 -0.0019992274833212668 0.01021700401286036 0 -0.0012180673341520998 0.01048736507501539 0 -0.0015879981330859669 0.0096099471015301443 0 -0.0021780922358351487 0.0095680608288913824 0 -0.0019992274833212668 0.01021700401286036 0 -0.0019992274833212668 0.01021700401286036 0 -0.0012180673341520998 0.01048736507501539 0 -0.0019735448499090219 0.010987173947017365 0 -0.0021780922358351487 0.0095680608288913824 0 -0.0019992274833212668 0.01021700401286036 0 -0.0023776151359218762 0.010102545347529034 0 -0.0021780922358351487 0.0095680608288913824 0 -0.0029211149468056671 0.010016968587027998 0 -0.0023776151359218762 0.010102545347529034 0 -0.0029211149468056671 0.010016968587027998 0 -0.0023776151359218762 0.010102545347529034 0 -0.0024356153949047304 0.01064674700357812 0 -0.0019992274833212668 0.01021700401286036 0 -0.0023776151359218762 0.010102545347529034 0 -0.0024356153949047304 0.01064674700357812 0 -0.0019992274833212668 0.01021700401286036 0 -0.0024356153949047304 0.01064674700357812 0 -0.0019735448499090219 0.010987173947017365 0 -0.0029211149468056671 0.010016968587027998 0 -0.0024356153949047304 0.01064674700357812 0 -0.0028798176433028773 0.011223541510406731 0 -0.0029211149468056671 0.010016968587027998 0 -0.0028798176433028773 0.011223541510406731 0 -0.0035287448096351492 0.012041693847496163 0 -0.0028798176433028773 0.011223541510406731 0 -0.0025421951152398746 0.011379471408133066 0 -0.0028569666756938297 0.011997854664262467 0 -0.0024356153949047304 0.01064674700357812 0 -0.0025421951152398746 0.011379471408133066 0 -0.0019735448499090219 0.010987173947017365 0 -0.0025421951152398746 0.011379471408133066 0 -0.0022192316318450579 0.01178909788228091 0 -0.0019735448499090219 0.010987173947017365 0 -0.0024356153949047304 0.01064674700357812 0 -0.0028798176433028773 0.011223541510406731 0 -0.0025421951152398746 0.011379471408133066 0 -0.0025421951152398746 0.011379471408133066 0 -0.0022192316318450579 0.01178909788228091 0 -0.0028569666756938297 0.011997854664262467 0 -0.0022192316318450579 0.01178909788228091 0 -0.0028569666756938297 0.011997854664262467 0 -0.002659302332829436 0.012606221677668243 0 -0.0028798176433028773 0.011223541510406731 0 -0.0028569666756938297 0.011997854664262467 0 -0.0035287448096351492 0.012041693847496163 0 -0.0015107200456597322 0.011432406522180623 0 -0.0017633748662529061 0.012347851705096353 0 -0.00047540156314611928 0.011701885261618977 0 -0.0012180673341520998 0.01048736507501539 0 -0.0019735448499090219 0.010987173947017365 0 -0.0015107200456597322 0.011432406522180623 0 -0.0022192316318450579 0.01178909788228091 0 -0.0019735448499090219 0.010987173947017365 0 -0.0015107200456597322 0.011432406522180623 0 -0.0022192316318450579 0.01178909788228091 0 -0.0015107200456597322 0.011432406522180623 0 -0.0017633748662529061 0.012347851705096353 0 -0.001175802088550382 0.012923807657500549 0 -0.0017633748662529061 0.012347851705096353 0 -0.002531803134817517 0.013843392958359377 0 -0.001175802088550382 0.012923807657500549 0 -0.0017633748662529061 0.012347851705096353 0 -0.00047540156314611928 0.011701885261618977 0 -0.0017633748662529061 0.012347851705096353 0 -0.002659302332829436 0.012606221677668243 0 -0.002531803134817517 0.013843392958359377 0 -0.002659302332829436 0.012606221677668243 0 -0.002531803134817517 0.013843392958359377 0 -0.0035071925906991009 0.013229481652723819 0 -0.0028569666756938297 0.011997854664262467 0 -0.002659302332829436 0.012606221677668243 0 -0.0032951874102971714 0.012460599352465849 0 -0.0022192316318450579 0.01178909788228091 0 -0.0017633748662529061 0.012347851705096353 0 -0.002659302332829436 0.012606221677668243 0 -0.001175802088550382 0.012923807657500549 0 -0.00044234815192412862 0.013493062666113539 0 -0.0015636238333866957 0.014708861606904168 0 -0.001175802088550382 0.012923807657500549 0 -0.002531803134817517 0.013843392958359377 0 -0.0015636238333866957 0.014708861606904168 0 -0.00044234815192412862 0.013493062666113539 0 0.00068032860465405882 0.012695271866727427 0 -0.00047540156314611928 0.011701885261618977 0 -0.00044234815192412862 0.013493062666113539 0 0.00068032860465405882 0.012695271866727427 0 -0.00019410023388857862 0.015358159260273825 0 0.00068032860465405882 0.012695271866727427 0 0.00056334176048630053 0.011650946895937981 0 -0.00047540156314611928 0.011701885261618977 0 -0.001175802088550382 0.012923807657500549 0 -0.00044234815192412862 0.013493062666113539 0 -0.00047540156314611928 0.011701885261618977 0 -0.0046639104132128019 0.018121384048100899 0 -0.0046509605624268343 0.018058213848131586 0 -0.0048272840377046513 0.018125747357107515 0 -0.0046346168057065729 0.01810716598586741 0 -0.0045953199836092197 0.018057504671780546 0 -0.0046509605624268343 0.018058213848131586 0 -0.0046639104132128019 0.018121384048100899 0 -0.0046346168057065729 0.01810716598586741 0 -0.0046509605624268343 0.018058213848131586 0 -0.0046639104132128019 0.018121384048100899 0 -0.0046346168057065729 0.01810716598586741 0 -0.0046777307161672893 0.018086942361806156 0 -0.0046346168057065729 0.01810716598586741 0 -0.0046351739271122119 0.018106574319602244 0 -0.0046777307161672893 0.018086942361806156 0 -0.0046346168057065729 0.01810716598586741 0 -0.0046351739271122119 0.018106574319602244 0 -0.0045956655883819825 0.018111595010759481 0 -0.0046351739271122119 0.018106574319602244 0 -0.0045956655883819825 0.018111595010759481 0 -0.0046165449355120127 0.01814789122823712 0 -0.0046346168057065729 0.01810716598586741 0 -0.0045956655883819825 0.018111595010759481 0 -0.0045953199836092197 0.018057504671780546 0 -0.0045956655883819825 0.018111595010759481 0 -0.0045953199836092197 0.018057504671780546 0 -0.0045588022058697802 0.018048886844242426 0 -0.0045953199836092197 0.018057504671780546 0 -0.0045588022058697802 0.018048886844242426 0 -0.0045815115234327328 0.01793784236199672 0 -0.0045956655883819825 0.018111595010759481 0 -0.0045588022058697802 0.018048886844242426 0 -0.0045793918941700509 0.01814463929766174 0 -0.0045588022058697802 0.018048886844242426 0 -0.0045594763774940298 0.01802755652733521 0 -0.0045526251133863656 0.017904500947119532 0 -0.0045588022058697802 0.018048886844242426 0 -0.0045674678238989529 0.018128292952889622 0 -0.0045594763774940298 0.01802755652733521 0 -0.0045588022058697802 0.018048886844242426 0 -0.0045674678238989529 0.018128292952889622 0 -0.0045793918941700509 0.01814463929766174 0 -0.0045588022058697802 0.018048886844242426 0 -0.0045815115234327328 0.01793784236199672 0 -0.0045526251133863656 0.017904500947119532 0 -0.0046457006769977018 0.017824088419865488 0 -0.0046509605624268343 0.018058213848131586 0 -0.0048272840377046513 0.018125747357107515 0 -0.0045815115234327328 0.01793784236199672 0 -0.0046457006769977018 0.017824088419865488 0 -0.0045797352459888974 0.017658483774433211 0 -0.0046457006769977018 0.017824088419865488 0 -0.0048272840377046513 0.018125747357107515 0 -0.0048664393066071643 0.01707381213329694 0 -0.0045815115234327328 0.01793784236199672 0 -0.0046457006769977018 0.017824088419865488 0 -0.0046509605624268343 0.018058213848131586 0 -0.0045953199836092197 0.018057504671780546 0 -0.0045815115234327328 0.01793784236199672 0 -0.0046509605624268343 0.018058213848131586 0 -0.0046932791875717661 0.013793209255161983 0 -0.003713794802791806 0.014642811589099133 0 -0.0042516040376385945 0.015795973486790505 0 -0.0046838260658312297 0.015949087733030432 0 -0.0048778688385946421 0.016916931745727722 0 -0.0046932791875717661 0.013793209255161983 0 -0.003713794802791806 0.014642811589099133 0 -0.0035071925906991009 0.013229481652723819 0 -0.002531803134817517 0.013843392958359377 0 -0.003713794802791806 0.014642811589099133 0 -0.0033804456289479564 0.015514352015503321 0 -0.002531803134817517 0.013843392958359377 0 -0.003713794802791806 0.014642811589099133 0 -0.0035071925906991009 0.013229481652723819 0 -0.0046932791875717661 0.013793209255161983 0 -0.0035071925906991009 0.013229481652723819 0 -0.0034803000929361939 0.012015933408061154 0 -0.0035071925906991009 0.013229481652723819 0 -0.0032951874102971714 0.012460599352465849 0 -0.0034803000929361939 0.012015933408061154 0 -0.002659302332829436 0.012606221677668243 0 -0.0035071925906991009 0.013229481652723819 0 -0.0032951874102971714 0.012460599352465849 0 -0.0046838260658312297 0.015949087733030432 0 -0.0039744096872104725 0.015124996445229221 0 -0.0048272840377046513 0.018125747357107515 0 -0.0046177203582363664 0.018100451269102848 0 -0.0044377663196707422 0.018088754474801204 0 -0.0046639104132128019 0.018121384048100899 0 -0.0048272840377046513 0.018125747357107515 0 -0.0046177203582363664 0.018100451269102848 0 -0.0046639104132128019 0.018121384048100899 0 -0.0046177203582363664 0.018100451269102848 0 -0.0046146339858297849 0.018042404446716249 0 -0.0046177203582363664 0.018100451269102848 0 -0.0045226493103820301 0.018010536417932307 0 -0.0044377663196707422 0.018088754474801204 0 -0.0046177203582363664 0.018100451269102848 0 -0.0045226493103820301 0.018010536417932307 0 -0.0046146339858297849 0.018042404446716249 0 -0.0039387603409392416 0.013770145522762216 0 -0.0035287448096351492 0.012041693847496163 0 -0.0034803000929361939 0.012015933408061154 0 -0.0032951874102971714 0.012460599352465849 0 -0.0035287448096351492 0.012041693847496163 0 -0.0034803000929361939 0.012015933408061154 0 -0.0028569666756938297 0.011997854664262467 0 -0.0032951874102971714 0.012460599352465849 0 -0.0035287448096351492 0.012041693847496163 0 -0.0039387603409392416 0.013770145522762216 0 -0.0034803000929361939 0.012015933408061154 0 -0.0034585857200371329 0.014367400109823094 0 -0.0033983345804813794 0.011887959027302801 0 -0.0035083366536164022 0.011998787412056544 0 -0.0044377663196707422 0.018088754474801204 0 -0.0043998331696507515 0.017870998218639828 0 -0.0040765078874638819 0.017721610805473534 0 -0.0039744096872104725 0.015124996445229221 0 -0.003823735412332406 0.016061865866255399 0 -0.0045226493103820301 0.018010536417932307 0 -0.0044377663196707422 0.018088754474801204 0 -0.0043998331696507515 0.017870998218639828 0 -0.0046146339858297849 0.018042404446716249 0 -0.0045311400517178751 0.017917483139205544 0 -0.0045996706309008048 0.01793698253818839 0 -0.0045226493103820301 0.018010536417932307 0 -0.0046146339858297849 0.018042404446716249 0 -0.0045311400517178751 0.017917483139205544 0 -0.0045226493103820301 0.018010536417932307 0 -0.0043998331696507515 0.017870998218639828 0 -0.0045311400517178751 0.017917483139205544 0 -0.0043998331696507515 0.017870998218639828 0 -0.0045311400517178751 0.017917483139205544 0 -0.0044562154824359197 0.017764439857022953 0 -0.0045311400517178751 0.017917483139205544 0 -0.0045755316529260594 0.017841753536848803 0 -0.0044562154824359197 0.017764439857022953 0 -0.0045311400517178751 0.017917483139205544 0 -0.0045996706309008048 0.01793698253818839 0 -0.0045755316529260594 0.017841753536848803 0 -0.0045996706309008048 0.01793698253818839 0 -0.0046554447909645542 0.017997293300934827 0 -0.0046498311096239923 0.017907637971880098 0 -0.0045996706309008048 0.01793698253818839 0 -0.0046498311096239923 0.017907637971880098 0 -0.0045755316529260594 0.017841753536848803 0 -0.0046554447909645542 0.017997293300934827 0 -0.0046984382954151187 0.018035464591641688 0 -0.0047147801067165696 0.017984438977862796 0 -0.0046554447909645542 0.017997293300934827 0 -0.0047147801067165696 0.017984438977862796 0 -0.0046498311096239923 0.017907637971880098 0 -0.0046554447909645542 0.017997293300934827 0 -0.0046777307161672893 0.018086942361806156 0 -0.0046984382954151187 0.018035464591641688 0 -0.0046146339858297849 0.018042404446716249 0 -0.0045996706309008048 0.01793698253818839 0 -0.0046554447909645542 0.017997293300934827 0 -0.0046639104132128019 0.018121384048100899 0 -0.0046146339858297849 0.018042404446716249 0 -0.0046777307161672893 0.018086942361806156 0 -0.0046146339858297849 0.018042404446716249 0 -0.0046554447909645542 0.017997293300934827 0 -0.0046777307161672893 0.018086942361806156 0 -0.0046777307161672893 0.018086942361806156 0 -0.0047353664469059562 0.01807987784019284 0 -0.0046764538907416988 0.018083423552122196 0 -0.0046351739271122119 0.018106574319602244 0 -0.0046777307161672893 0.018086942361806156 0 -0.0046764538907416988 0.018083423552122196 0 -0.0046777307161672893 0.018086942361806156 0 -0.0047353664469059562 0.01807987784019284 0 -0.0046984382954151187 0.018035464591641688 0 -0.0047353664469059562 0.01807987784019284 0 -0.0046984382954151187 0.018035464591641688 0 -0.0047147801067165696 0.017984438977862796 0 -0.0047353664469059562 0.01807987784019284 0 -0.0047147801067165696 0.017984438977862796 0 -0.00476184236205729 0.018040575377207449 0 -0.0047353664469059562 0.01807987784019284 0 -0.00476184236205729 0.018040575377207449 0 -0.0047736703070042873 0.018165267581439791 0 -0.00476184236205729 0.018040575377207449 0 -0.0048294574157890426 0.017976486880150144 0 -0.0047345833734405143 0.017903520940592697 0 -0.00476184236205729 0.018040575377207449 0 -0.0048294574157890426 0.017976486880150144 0 -0.0047736703070042873 0.018165267581439791 0 -0.0048294574157890426 0.017976486880150144 0 -0.0047345833734405143 0.017903520940592697 0 -0.0047186216221169223 0.017730317380028292 0 -0.0047147801067165696 0.017984438977862796 0 -0.00476184236205729 0.018040575377207449 0 -0.0047345833734405143 0.017903520940592697 0 -0.0047147801067165696 0.017984438977862796 0 -0.0046498311096239923 0.017907637971880098 0 -0.004658235100797211 0.017798978032815056 0 -0.0047147801067165696 0.017984438977862796 0 -0.0047345833734405143 0.017903520940592697 0 -0.004658235100797211 0.017798978032815056 0 -0.0045755316529260594 0.017841753536848803 0 -0.004658235100797211 0.017798978032815056 0 -0.0045192937456255836 0.017665015196249238 0 -0.0046498311096239923 0.017907637971880098 0 -0.0045755316529260594 0.017841753536848803 0 -0.004658235100797211 0.017798978032815056 0 -0.004658235100797211 0.017798978032815056 0 -0.0045907068716373256 0.017569338118793035 0 -0.0045192937456255836 0.017665015196249238 0 -0.004658235100797211 0.017798978032815056 0 -0.0047186216221169223 0.017730317380028292 0 -0.0045907068716373256 0.017569338118793035 0 -0.0047345833734405143 0.017903520940592697 0 -0.004658235100797211 0.017798978032815056 0 -0.0047186216221169223 0.017730317380028292 0 -0.0047186216221169223 0.017730317380028292 0 -0.0045907068716373256 0.017569338118793035 0 -0.0047648527992849611 0.017487980476811618 0 -0.0045907068716373256 0.017569338118793035 0 -0.0047648527992849611 0.017487980476811618 0 -0.0044775623995746174 0.017286217147142964 0 -0.0047121171420067684 0.017535175552128648 0 -0.0043556893996419916 0.017207562539522311 0 -0.0048294574157890426 0.017976486880150144 0 -0.0047186216221169223 0.017730317380028292 0 -0.0047648527992849611 0.017487980476811618 0 -0.0047184886996189329 0.017787085097247728 0 -0.0050017419249006722 0.017591394671403322 0 -0.0050897766583230062 0.017835942537919491 0 -0.0048294574157890426 0.017976486880150144 0 -0.004596326887758192 0.017652713770816886 0 -0.0049017998800112358 0.017706287010159444 0 -0.0047121171420067684 0.017535175552128648 0 -0.0049991950009717805 0.017775602499135269 0 -0.0048204357245748321 0.017930459614659749 0 -0.0047121171420067684 0.017535175552128648 0 -0.0040765078874638819 0.017721610805473534 0 -0.0042399944285496476 0.017518867560125363 0 -0.0041473988405561716 0.017282855091338593 0 -0.0042399944285496476 0.017518867560125363 0 -0.0042458232446461941 0.017389675946343004 0 -0.0041473988405561716 0.017282855091338593 0 -0.0040765078874638819 0.017721610805473534 0 -0.004310522198212415 0.017684626599254009 0 -0.0042399944285496476 0.017518867560125363 0 -0.0043998331696507515 0.017870998218639828 0 -0.0040765078874638819 0.017721610805473534 0 -0.004310522198212415 0.017684626599254009 0 -0.0042399944285496476 0.017518867560125363 0 -0.004363165033517683 0.017541471008199333 0 -0.0042458232446461941 0.017389675946343004 0 -0.004310522198212415 0.017684626599254009 0 -0.0042399944285496476 0.017518867560125363 0 -0.004363165033517683 0.017541471008199333 0 -0.004363165033517683 0.017541471008199333 0 -0.0045192937456255836 0.017665015196249238 0 -0.0044371113263291335 0.017455985256929353 0 -0.004363165033517683 0.017541471008199333 0 -0.0044562154824359197 0.017764439857022953 0 -0.0045192937456255836 0.017665015196249238 0 -0.0043998331696507515 0.017870998218639828 0 -0.004310522198212415 0.017684626599254009 0 -0.0044562154824359197 0.017764439857022953 0 -0.004310522198212415 0.017684626599254009 0 -0.004363165033517683 0.017541471008199333 0 -0.0044562154824359197 0.017764439857022953 0 -0.0045755316529260594 0.017841753536848803 0 -0.0044562154824359197 0.017764439857022953 0 -0.0045192937456255836 0.017665015196249238 0 -0.0045907068716373256 0.017569338118793035 0 -0.0045192937456255836 0.017665015196249238 0 -0.0044371113263291335 0.017455985256929353 0 -0.0045907068716373256 0.017569338118793035 0 -0.0044371113263291335 0.017455985256929353 0 -0.0044775623995746174 0.017286217147142964 0 -0.0044371113263291335 0.017455985256929353 0 -0.0042582471047095932 0.0172891868510179 0 -0.0044775623995746174 0.017286217147142964 0 -0.004363165033517683 0.017541471008199333 0 -0.0044371113263291335 0.017455985256929353 0 -0.0042582471047095932 0.0172891868510179 0 -0.0042582471047095932 0.0172891868510179 0 -0.0040980199079536112 0.01709561845121604 0 -0.0044775623995746174 0.017286217147142964 0 -0.004363165033517683 0.017541471008199333 0 -0.0042458232446461941 0.017389675946343004 0 -0.0042582471047095932 0.0172891868510179 0 -0.0042458232446461941 0.017389675946343004 0 -0.0042582471047095932 0.0172891868510179 0 -0.0041707169072928239 0.017211924867600776 0 -0.0040972812364639321 0.01707197089248649 0 -0.0041707169072928239 0.017211924867600776 0 -0.0040980199079536112 0.01709561845121604 0 -0.0042582471047095932 0.0172891868510179 0 -0.0041707169072928239 0.017211924867600776 0 -0.0040980199079536112 0.01709561845121604 0 -0.0040972812364639321 0.01707197089248649 0 -0.0041707169072928239 0.017211924867600776 0 -0.0041473988405561716 0.017282855091338593 0 -0.0042458232446461941 0.017389675946343004 0 -0.0041707169072928239 0.017211924867600776 0 -0.0041473988405561716 0.017282855091338593 0 -0.0041102155682304397 0.01711928156722135 0 -0.0043556893996419916 0.017207562539522311 0 -0.0040284825683615955 0.017481279503240826 0 -0.0039045276544771084 0.016948901968829092 0 -0.0041471707744380349 0.017201023089548916 0 -0.0040980199079536112 0.01709561845121604 0 -0.0041176311210820854 0.017101799745897994 0 -0.0040980199079536112 0.01709561845121604 0 -0.0041176311210820854 0.017101799745897994 0 -0.0042407853125298392 0.017157297450769434 0 -0.0031854863765559903 0.01684016172504095 0 -0.0041176311210820854 0.017101799745897994 0 -0.0038397136489283722 0.016848956673868147 0 -0.0041176311210820854 0.017101799745897994 0 -0.0038397136489283722 0.016848956673868147 0 -0.004126502566237829 0.016893748993048845 0 -0.004126502566237829 0.016893748993048845 0 -0.0042407853125298392 0.017157297450769434 0 -0.0044128991115874264 0.016735959810096557 0 -0.0041176311210820854 0.017101799745897994 0 -0.004126502566237829 0.016893748993048845 0 -0.0042407853125298392 0.017157297450769434 0 -0.004126502566237829 0.016893748993048845 0 -0.0044128991115874264 0.016735959810096557 0 -0.0038588664704031304 0.016561539665169888 0 -0.0039852951593591177 0.015999004557340133 0 -0.0044128991115874264 0.016735959810096557 0 -0.0038588664704031304 0.016561539665169888 0 -0.0039806391423808816 0.016389476036653111 0 -0.0043662535690463088 0.017005024470647001 0 -0.0031854863765559903 0.01684016172504095 0 -0.0038397136489283722 0.016848956673868147 0 -0.0038588664704031304 0.016561539665169888 0 -0.0038397136489283722 0.016848956673868147 0 -0.004126502566237829 0.016893748993048845 0 -0.0038588664704031304 0.016561539665169888 0 -0.0036863968777571441 0.016247834294116015 0 -0.0033893774462682384 0.016383052504244849 0 -0.0038588664704031304 0.016561539665169888 0 -0.0047184886996189329 0.017787085097247728 0 -0.0050017419249006722 0.017591394671403322 0 -0.0047967704992252806 0.017339837558822992 0 -0.0050017419249006722 0.017591394671403322 0 -0.0047967704992252806 0.017339837558822992 0 -0.0052479852137367645 0.01729455823285601 0 -0.0047184886996189329 0.017787085097247728 0 -0.0043329494555615234 0.017299197665289694 0 -0.0047967704992252806 0.017339837558822992 0 -0.0047121171420067684 0.017535175552128648 0 -0.0043662535690463088 0.017005024470647001 0 -0.0047354676022661442 0.017246698869909986 0 -0.0042407853125298392 0.017157297450769434 0 -0.0044128991115874264 0.016735959810096557 0 -0.0044213678374706005 0.016942317824522466 0 -0.0043329494555615234 0.017299197665289694 0 -0.0046364167974839634 0.017095489560131343 0 -0.0043329494555615234 0.017299197665289694 0 -0.0046364167974839634 0.017095489560131343 0 -0.0047967704992252806 0.017339837558822992 0 -0.0048446866941517204 0.016880146027943129 0 -0.0046364167974839634 0.017095489560131343 0 -0.0047967704992252806 0.017339837558822992 0 -0.0048446866941517204 0.016880146027943129 0 -0.0047967704992252806 0.017339837558822992 0 -0.0052479852137367645 0.01729455823285601 0 -0.005266158235397808 0.017326505247296797 0 -0.005468748885720855 0.017513338812246561 0 -0.0050017419249006722 0.017591394671403322 0 -0.0052479852137367645 0.01729455823285601 0 -0.005265343338827516 0.017671875440126748 0 -0.0050017419249006722 0.017591394671403322 0 -0.005265343338827516 0.017671875440126748 0 -0.0050897766583230062 0.017835942537919491 0 -0.0057007879168492958 0.017730728528338121 0 -0.0056322922528403369 0.017721563748570337 0 -0.0056413246633160649 0.01773612256155142 0 -0.0052479852137367645 0.01729455823285601 0 -0.005265343338827516 0.017671875440126748 0 -0.0056322922528403369 0.017721563748570337 0 -0.005468748885720855 0.017513338812246561 0 -0.0056295979058026014 0.017707209078619706 0 -0.0056330481026755476 0.017773535012876613 0 -0.0057007879168492958 0.017730728528338121 0 -0.0056413246633160649 0.01773612256155142 0 -0.0054401588150821256 0.017826660424775369 0 -0.0056330481026755476 0.017773535012876613 0 -0.0056413246633160649 0.01773612256155142 0 -0.0054401588150821256 0.017826660424775369 0 -0.0056413246633160649 0.01773612256155142 0 -0.0056640430627027697 0.017768424898084816 0 -0.0041804230052082522 0.023987836909400408 0 -0.004720596739574574 0.023361904032725749 0 -0.0056322922528403369 0.017721563748570337 0 -0.0056413246633160649 0.01773612256155142 0 -0.0056640430627027697 0.017768424898084816 0 -0.0056322922528403369 0.017721563748570337 0 -0.0059101697068005424 0.017970379204890689 0 -0.0056337411849445478 0.018029069522015908 0 -0.0056322922528403369 0.017721563748570337 0 -0.0056640430627027697 0.017768424898084816 0 -0.0059101697068005424 0.017970379204890689 0 -0.004720596739574574 0.023361904032725749 0 -0.0054910035342273173 0.022189971199961384 0 -0.0037474174203202602 0.028973164598098233 0 -0.005105719973355986 0.026422882250748677 0 -0.0029371453120891366 0.027022568921636278 0 -0.005105719973355986 0.026422882250748677 0 -0.0043919442767460133 0.024443543130515659 0 -0.0029371453120891366 0.027022568921636278 0 -0.0054910035342273173 0.022189971199961384 0 -0.0060439838215753869 0.020844676994970893 0 -0.005105719973355986 0.026422882250748677 0 -0.0043919442767460133 0.024443543130515659 0 -0.0060827151364919521 0.022749396298330882 0 -0.0059101697068005424 0.017970379204890689 0 -0.0058009000878506247 0.018378509985756086 0 -0.0056337411849445478 0.018029069522015908 0 -0.0059101697068005424 0.017970379204890689 0 -0.0058009000878506247 0.018378509985756086 0 -0.0061350658390936681 0.018828427405996561 0 -0.0058009000878506247 0.018378509985756086 0 -0.0056337411849445478 0.018029069522015908 0 -0.0054690002863058834 0.018365113753229526 0 -0.0056337411849445478 0.018029069522015908 0 -0.0054147588976141197 0.01806102069389294 0 -0.0054690002863058834 0.018365113753229526 0 -0.0054147588976141197 0.01806102069389294 0 -0.0054690002863058834 0.018365113753229526 0 -0.0051605696014001027 0.018058509506875261 0 -0.0054147588976141197 0.01806102069389294 0 -0.0051605696014001027 0.018058509506875261 0 -0.0054005703597284011 0.017853993240371811 0 -0.0054690002863058834 0.018365113753229526 0 -0.00513385189414221 0.018342317910157276 0 -0.0051605696014001027 0.018058509506875261 0 -0.00513385189414221 0.018342317910157276 0 -0.0049435859101271493 0.018064121261382831 0 -0.0051605696014001027 0.018058509506875261 0 -0.0048294574157890426 0.017976486880150144 0 -0.0049435859101271493 0.018064121261382831 0 -0.0047736703070042873 0.018165267581439791 0 -0.00513385189414221 0.018342317910157276 0 -0.0049435859101271493 0.018064121261382831 0 -0.0047736703070042873 0.018165267581439791 0 -0.0048294574157890426 0.017976486880150144 0 -0.0049435859101271493 0.018064121261382831 0 -0.0049989897956781186 0.017908365206448444 0 -0.0049435859101271493 0.018064121261382831 0 -0.0051605696014001027 0.018058509506875261 0 -0.0049989897956781186 0.017908365206448444 0 -0.0049991950009717805 0.017775602499135269 0 -0.0053463803032308367 0.017840330353499897 0 -0.0049989897956781186 0.017908365206448444 0 -0.0049017998800112358 0.017706287010159444 0 -0.0054005703597284011 0.017853993240371811 0 -0.005265343338827516 0.017671875440126748 0 -0.0050897766583230062 0.017835942537919491 0 -0.0054005703597284011 0.017853993240371811 0 -0.0051605696014001027 0.018058509506875261 0 -0.0049989897956781186 0.017908365206448444 0 -0.0054005703597284011 0.017853993240371811 0 -0.0048294574157890426 0.017976486880150144 0 -0.0049989897956781186 0.017908365206448444 0 -0.0049017998800112358 0.017706287010159444 0 -0.005265343338827516 0.017671875440126748 0 -0.0056322922528403369 0.017721563748570337 0 -0.0054005703597284011 0.017853993240371811 0 -0.0056322922528403369 0.017721563748570337 0 -0.0056337411849445478 0.018029069522015908 0 -0.0054005703597284011 0.017853993240371811 0 -0.0056337411849445478 0.018029069522015908 0 -0.0054147588976141197 0.01806102069389294 0 -0.0054005703597284011 0.017853993240371811 0 -0.000798398809063087 0.028957756876855478 0 -0.00085216533278622837 0.029814469310879152 0 -0.0011202631743907545 0.028968225344254767 0 -0.00090194167911807066 0.029607429487491413 0 -0.0010804044228100789 0.030296558759921481 0 -0.0010360004132194682 0.030225406172304528 0 -0.0012436208470335192 0.030750801376566852 0 -0.00081319686917776174 0.030605575723227977 0 -0.00085216533278622837 0.029814469310879152 0 -0.0011202631743907545 0.028968225344254767 0 -0.0017967618632629731 0.029517294504302981 0 -0.000798398809063087 0.028957756876855478 0 -0.0011202631743907545 0.028968225344254767 0 -0.0011051481170076148 0.028726687464498898 0 -0.0011202631743907545 0.028968225344254767 0 -0.0017967618632629731 0.029517294504302981 0 -0.0013297166767174511 0.028259399621835862 0 -0.0017967618632629731 0.029517294504302981 0 -0.0023738875142111692 0.02890648895666751 0 -0.0013297166767174511 0.028259399621835862 0 -0.0028936301082196662 0.030277123943731547 0 -0.0017967618632629731 0.029517294504302981 0 -0.0023738875142111692 0.02890648895666751 0 -0.0028936301082196662 0.030277123943731547 0 -0.0037474174203202602 0.028973164598098233 0 -0.0023738875142111692 0.02890648895666751 0 -0.0037474174203202602 0.028973164598098233 0 -0.0023738875142111692 0.02890648895666751 0 -0.0029371453120891366 0.027022568921636278 0 -0.0023738875142111692 0.02890648895666751 0 -0.0029371453120891366 0.027022568921636278 0 -0.0013297166767174511 0.028259399621835862 0 -0.0029371453120891366 0.027022568921636278 0 -0.0023585229963841918 0.024902277606511328 0 -0.00096235229342763991 0.025978296841922304 0 -0.0043919442767460133 0.024443543130515659 0 -0.0029371453120891366 0.027022568921636278 0 -0.0023585229963841918 0.024902277606511328 0 -0.0011487149832191208 0.027308154477651933 0 -0.0024676351767123545 0.026159373985650512 0 -0.0023585229963841918 0.024902277606511328 0 -0.00096235229342763991 0.025978296841922304 0 -0.00089237786049722271 0.023894319589840732 0 -0.0012008196323482702 0.028603166377019148 0 -0.0010898031475612472 0.028721298181481277 0 -0.0011966668894314487 0.028586416070399388 0 -0.0012008196323482702 0.028603166377019148 0 -0.0013297166767174511 0.028259399621835862 0 -0.0011051481170076148 0.028726687464498898 0 -0.0011487149832191208 0.027308154477651933 0 -0.0012380778963436631 0.028101823794324972 0 -0.0029371453120891366 0.027022568921636278 0 -0.00096235229342763991 0.025978296841922304 0 -0.0013297166767174511 0.028259399621835862 0 -0.0011202631743907545 0.028968225344254767 0 -0.0013297166767174511 0.028259399621835862 0 -0.0011051481170076148 0.028726687464498898 0 -0.0011051481170076148 0.028726687464498898 0 -0.0010898031475612472 0.028721298181481277 0 -0.00093425506987123092 0.02902123443212189 0 -0.0012008196323482702 0.028603166377019148 0 -0.0011051481170076148 0.028726687464498898 0 -0.0010898031475612472 0.028721298181481277 0 -0.0021438139028940421 0.029612393489560872 0 -0.0013387501274590744 0.029618012558007178 0 -0.0031395265989952316 0.030016930224661242 0 -0.0016614077845182359 0.030167286146964852 0 -0.0016333012750670154 0.029525808437725076 0 -0.0010898031475612472 0.028721298181481277 0 -0.00093425506987123092 0.02902123443212189 0 -0.00091229758270514668 0.029093795106906142 0 -0.000798398809063087 0.028957756876855478 0 -0.0011051481170076148 0.028726687464498898 0 -0.00093425506987123092 0.02902123443212189 0 -0.0024268689739054554 0.027977616780395228 0 -0.0020730243813767697 0.028925443787812977 0 -0.0013522014831573424 0.028088885081380167 0 -0.0024268689739054554 0.027977616780395228 0 -0.0020730243813767697 0.028925443787812977 0 -0.0035594237229192656 0.028667839899696401 0 -0.0031395265989952316 0.030016930224661242 0 -0.0020730243813767697 0.028925443787812977 0 -0.0016333012750670154 0.029525808437725076 0 -0.0031395265989952316 0.030016930224661242 0 -0.0020730243813767697 0.028925443787812977 0 -0.0035594237229192656 0.028667839899696401 0 -0.0031395265989952316 0.030016930224661242 0 -0.0035594237229192656 0.028667839899696401 0 -0.0047310941987099295 0.029683136383401795 0 -0.0021438139028940421 0.029612393489560872 0 -0.0024676351767123545 0.026159373985650512 0 -0.0035594237229192656 0.028667839899696401 0 -0.0049022424560081299 0.027885132587042068 0 -0.0047310941987099295 0.029683136383401795 0 -0.0043416342657972657 0.024450759271378689 0 -0.0024676351767123545 0.026159373985650512 0 -0.003413584891718897 0.021055977888600547 0 -0.0032735748701509006 0.022489674000910301 0 -0.0041883546791606956 0.022246670112987105 0 -0.0043919442767460133 0.024443543130515659 0 -0.0023585229963841918 0.024902277606511328 0 -0.0029703876281924071 0.023207376833846435 0 -0.0024676351767123545 0.026159373985650512 0 -0.0036866012795428705 0.022644647503296825 0 -0.0023585229963841918 0.024902277606511328 0 -0.00089237786049722271 0.023894319589840732 0 -0.0029703876281924071 0.023207376833846435 0 -0.003413584891718897 0.021055977888600547 0 -0.0041883546791606956 0.022246670112987105 0 -0.004418857298477131 0.02139227806176755 0 -0.003413584891718897 0.021055977888600547 0 -0.004418857298477131 0.02139227806176755 0 -0.0044250131061976542 0.020474899686622628 0 -0.003413584891718897 0.021055977888600547 0 -0.0038315870406095977 0.019800939229051295 0 -0.0044250131061976542 0.020474899686622628 0 -0.0038315870406095977 0.019800939229051295 0 -0.0044250131061976542 0.020474899686622628 0 -0.0044754311724566698 0.019459871082349853 0 -0.0043416342657972657 0.024450759271378689 0 -0.0044565564863589483 0.02284973532607313 0 -0.0049022424560081299 0.027885132587042068 0 -0.0051176678245068667 0.02583119061426269 0 -0.0032956081484730045 0.026675291766726929 0 -0.0024268689739054554 0.027977616780395228 0 -0.0035594237229192656 0.028667839899696401 0 -0.0032956081484730045 0.026675291766726929 0 -0.0035594237229192656 0.028667839899696401 0 -0.0049022424560081299 0.027885132587042068 0 -0.0032956081484730045 0.026675291766726929 0 -0.0051176678245068667 0.02583119061426269 0 -0.0032956081484730045 0.026675291766726929 0 -0.0034383878299547067 0.023964160644182591 0 -0.0032956081484730045 0.026675291766726929 0 -0.0021578791731574811 0.025079089648352912 0 -0.0016013380481537821 0.026857347998200467 0 -0.0024268689739054554 0.027977616780395228 0 -0.0032956081484730045 0.026675291766726929 0 -0.0016013380481537821 0.026857347998200467 0 -0.0057367499488360577 0.019369879861934839 0 -0.005171676115524897 0.019548365147341082 0 -0.0059369040903838894 0.020277754273361408 0 -0.0057367499488360577 0.019369879861934839 0 -0.005171676115524897 0.019548365147341082 0 -0.0056724112645167848 0.018843039655709763 0 -0.0047353664469059562 0.01807987784019284 0 -0.0046764538907416988 0.018083423552122196 0 -0.0046740937024415171 0.018064659334837262 0 -0.0046764538907416988 0.018083423552122196 0 -0.0046740937024415171 0.018064659334837262 0 -0.0046540330637494676 0.0181193091851907 0 -0.00513385189414221 0.018342317910157276 0 -0.0047736703070042873 0.018165267581439791 0 -0.005171676115524897 0.019548365147341082 0 -0.0047353664469059562 0.01807987784019284 0 -0.0047736703070042873 0.018165267581439791 0 -0.0046740937024415171 0.018064659334837262 0 -0.0047619417399243332 0.018232785840414482 0 -0.0049602085856082015 0.018787695744658023 0 -0.00513385189414221 0.018342317910157276 0 -0.005171676115524897 0.019548365147341082 0 -0.0053741321461825602 0.018750531618950621 0 -0.0054690002863058834 0.018365113753229526 0 -0.00513385189414221 0.018342317910157276 0 -0.0053741321461825602 0.018750531618950621 0 -0.0054690002863058834 0.018365113753229526 0 -0.0053741321461825602 0.018750531618950621 0 -0.0056724112645167848 0.018843039655709763 0 -0.005171676115524897 0.019548365147341082 0 -0.0053741321461825602 0.018750531618950621 0 -0.0056724112645167848 0.018843039655709763 0 -0.0058009000878506247 0.018378509985756086 0 -0.0054690002863058834 0.018365113753229526 0 -0.0056724112645167848 0.018843039655709763 0 -0.0058009000878506247 0.018378509985756086 0 -0.0056724112645167848 0.018843039655709763 0 -0.0061350658390936681 0.018828427405996561 0 -0.0057367499488360577 0.019369879861934839 0 -0.0056724112645167848 0.018843039655709763 0 -0.0061350658390936681 0.018828427405996561 0 -0.0041883546791606956 0.022246670112987105 0 -0.0051269946065098148 0.022297411928683623 0 -0.004418857298477131 0.02139227806176755 0 -0.0043919442767460133 0.024443543130515659 0 -0.0029703876281924071 0.023207376833846435 0 -0.0051269946065098148 0.022297411928683623 0 -0.0036866012795428705 0.022644647503296825 0 -0.0049903586279981321 0.022347111320301621 0 -0.0043919442767460133 0.024443543130515659 0 -0.0060827151364919521 0.022749396298330882 0 -0.0051269946065098148 0.022297411928683623 0 -0.004418857298477131 0.02139227806176755 0 -0.0051663515008406697 0.021053030724441337 0 -0.0044250131061976542 0.020474899686622628 0 -0.0051269946065098148 0.022297411928683623 0 -0.004418857298477131 0.02139227806176755 0 -0.0051663515008406697 0.021053030724441337 0 -0.0057367499488360577 0.019369879861934839 0 -0.0061350658390936681 0.018828427405996561 0 -0.0059369040903838894 0.020277754273361408 0 -0.0060827151364919521 0.022749396298330882 0 -0.0051663515008406697 0.021053030724441337 0 -0.0059369040903838894 0.020277754273361408 0 -0.0060827151364919521 0.022749396298330882 0 -0.0051269946065098148 0.022297411928683623 0 -0.0051663515008406697 0.021053030724441337 0 -0.0060439838215753869 0.020844676994970893 0 -0.0059786328275974717 0.020360595238060872 0 -0.0051663515008406697 0.021053030724441337 0 -0.0052229468177477289 0.020223289926740988 0 -0.0059369040903838894 0.020277754273361408 0 -0.0052229468177477289 0.020223289926740988 0 -0.00591838702605823 0.020357400533349217 0 -0.0059369040903838894 0.020277754273361408 0 -0.0051663515008406697 0.021053030724441337 0 -0.0052229468177477289 0.020223289926740988 0 -0.0044250131061976542 0.020474899686622628 0 -0.0052229468177477289 0.020223289926740988 0 -0.004956930042980652 0.019098923555655255 0 -0.0044754311724566698 0.019459871082349853 0 -0.0052229468177477289 0.020223289926740988 0 -0.0044250131061976542 0.020474899686622628 0 -0.0044754311724566698 0.019459871082349853 0 -0.0052229468177477289 0.020223289926740988 0 -0.00591838702605823 0.020357400533349217 0 -0.004956930042980652 0.019098923555655255 0 -0.0048194169509838958 0.018176901321091878 0 -0.0047737468750361552 0.018722127435611115 0 -0.004956930042980652 0.019098923555655255 0 -0.0053052571582253077 0.019256173667244303 0 -0.005021300917402125 0.019090992809495357 0 -0.0047214451181790502 0.01835220841907672 0 -0.0048194169509838958 0.018176901321091878 0 -0.0047737468750361552 0.018722127435611115 0 -0.0046612360635317858 0.018352784188495778 0 -0.0047214451181790502 0.01835220841907672 0 -0.0047737468750361552 0.018722127435611115 0 -0.0046612360635317858 0.018352784188495778 0 -0.0046454415385448304 0.018414253455560702 0 -0.0047737468750361552 0.018722127435611115 0 -0.0047214451181790502 0.01835220841907672 0 -0.0048194169509838958 0.018176901321091878 0 -0.0046862889905773504 0.01820681889577247 0 -0.0046612360635317858 0.018352784188495778 0 -0.0047214451181790502 0.01835220841907672 0 -0.0046862889905773504 0.01820681889577247 0 -0.0049602085856082015 0.018787695744658023 0 -0.0053052571582253077 0.019256173667244303 0 -0.0048194169509838958 0.018176901321091878 0 -0.0046862889905773504 0.01820681889577247 0 -0.0046540330637494676 0.0181193091851907 0 -0.0046740937024415171 0.018064659334837262 0 -0.0048194169509838958 0.018176901321091878 0 -0.0046540330637494676 0.0181193091851907 0 -0.005171676115524897 0.019548365147341082 0 -0.00591838702605823 0.020357400533349217 0 -0.0059369040903838894 0.020277754273361408 0 -0.0046351739271122119 0.018106574319602244 0 -0.0046540330637494676 0.0181193091851907 0 -0.0046165449355120127 0.01814789122823712 0 -0.0046351739271122119 0.018106574319602244 0 -0.0046764538907416988 0.018083423552122196 0 -0.0046540330637494676 0.0181193091851907 0 -0.0046862889905773504 0.01820681889577247 0 -0.0046540330637494676 0.0181193091851907 0 -0.0046165449355120127 0.01814789122823712 0 -0.0046862889905773504 0.01820681889577247 0 -0.0046165449355120127 0.01814789122823712 0 -0.0046226347552435912 0.018222277093090537 0 -0.0045956655883819825 0.018111595010759481 0 -0.0046165449355120127 0.01814789122823712 0 -0.0045793918941700509 0.01814463929766174 0 -0.0046165449355120127 0.01814789122823712 0 -0.0045793918941700509 0.01814463929766174 0 -0.0046226347552435912 0.018222277093090537 0 -0.0045793918941700509 0.01814463929766174 0 -0.0046226347552435912 0.018222277093090537 0 -0.0046025150351092971 0.018247113887254598 0 -0.0046612360635317858 0.018352784188495778 0 -0.0046862889905773504 0.01820681889577247 0 -0.0046226347552435912 0.018222277093090537 0 -0.0046612360635317858 0.018352784188495778 0 -0.0046025150351092971 0.018247113887254598 0 -0.0046454415385448304 0.018414253455560702 0 -0.0046612360635317858 0.018352784188495778 0 -0.0046226347552435912 0.018222277093090537 0 -0.0046025150351092971 0.018247113887254598 0 -0.0045674678238989529 0.018128292952889622 0 -0.0045793918941700509 0.01814463929766174 0 -0.0046025150351092971 0.018247113887254598 0 -0.0045674678238989529 0.018128292952889622 0 -0.0046025150351092971 0.018247113887254598 0 -0.0045907743437471806 0.018216634974562301 0 -0.0045907743437471806 0.018216634974562301 0 -0.0045922212860361467 0.018165183476582785 0 -0.0045594763774940298 0.01802755652733521 0 -0.0045907743437471806 0.018216634974562301 0 -0.0046276124284133384 0.018339516033303856 0 -0.0045922212860361467 0.018165183476582785 0 -0.0045907743437471806 0.018216634974562301 0 -0.0046454415385448304 0.018414253455560702 0 -0.0046276124284133384 0.018339516033303856 0 -0.0046025150351092971 0.018247113887254598 0 -0.0045907743437471806 0.018216634974562301 0 -0.0046454415385448304 0.018414253455560702 0 -0.0046276124284133384 0.018339516033303856 0 -0.0046326213245605069 0.018309106882596123 0 -0.0046832967045167938 0.01859235113735206 0 -0.0046454415385448304 0.018414253455560702 0 -0.0046276124284133384 0.018339516033303856 0 -0.0046832967045167938 0.01859235113735206 0 -0.0046276124284133384 0.018339516033303856 0 -0.0045922212860361467 0.018165183476582785 0 -0.0046326213245605069 0.018309106882596123 0 -0.0046326213245605069 0.018309106882596123 0 -0.004683405652117883 0.018763481182566294 0 -0.0046329904137878079 0.018391483143054794 0 -0.0046326213245605069 0.018309106882596123 0 -0.0046832967045167938 0.01859235113735206 0 -0.004683405652117883 0.018763481182566294 0 -0.0046832967045167938 0.01859235113735206 0 -0.0047675445821998485 0.01897592470712792 0 -0.004683405652117883 0.018763481182566294 0 -0.0047675445821998485 0.01897592470712792 0 -0.0046533792640426645 0.019074756220061568 0 -0.004683405652117883 0.018763481182566294 0 -0.0046832967045167938 0.01859235113735206 0 -0.0047737468750361552 0.018722127435611115 0 -0.0047675445821998485 0.01897592470712792 0 -0.0046454415385448304 0.018414253455560702 0 -0.0046832967045167938 0.01859235113735206 0 -0.0047737468750361552 0.018722127435611115 0 -0.0047737468750361552 0.018722127435611115 0 -0.004956930042980652 0.019098923555655255 0 -0.0047675445821998485 0.01897592470712792 0 -0.004956930042980652 0.019098923555655255 0 -0.0044754311724566698 0.019459871082349853 0 -0.0044914107781810668 0.019359999983002137 0 -0.004956930042980652 0.019098923555655255 0 -0.0044914107781810668 0.019359999983002137 0 -0.0047675445821998485 0.01897592470712792 0 -0.0044914107781810668 0.019359999983002137 0 -0.0047675445821998485 0.01897592470712792 0 -0.0046533792640426645 0.019074756220061568 0 -0.0046533792640426645 0.019074756220061568 0 -0.0045167769749644452 0.019265019708031277 0 -0.0046429543886785255 0.018992948785869296 0 -0.0044914107781810668 0.019359999983002137 0 -0.0046533792640426645 0.019074756220061568 0 -0.0045167769749644452 0.019265019708031277 0 -0.0044914107781810668 0.019359999983002137 0 -0.0045167769749644452 0.019265019708031277 0 -0.0043934259493600076 0.019553656776920725 0 -0.0045167769749644452 0.019265019708031277 0 -0.0043934259493600076 0.019553656776920725 0 -0.0044827713040906103 0.019162511512460043 0 -0.0045167769749644452 0.019265019708031277 0 -0.0046429543886785255 0.018992948785869296 0 -0.0044827713040906103 0.019162511512460043 0 -0.0046429543886785255 0.018992948785869296 0 -0.004578975360407897 0.019001551717773894 0 -0.0044827713040906103 0.019162511512460043 0 -0.0046429543886785255 0.018992948785869296 0 -0.0046015101351679043 0.01891823589523093 0 -0.004578975360407897 0.019001551717773894 0 -0.0046429543886785255 0.018992948785869296 0 -0.0046015101351679043 0.01891823589523093 0 -0.0046220068760512364 0.018673615580888165 0 -0.004683405652117883 0.018763481182566294 0 -0.0046220068760512364 0.018673615580888165 0 -0.0046329904137878079 0.018391483143054794 0 -0.0046429543886785255 0.018992948785869296 0 -0.004683405652117883 0.018763481182566294 0 -0.0046220068760512364 0.018673615580888165 0 -0.0046533792640426645 0.019074756220061568 0 -0.0046429543886785255 0.018992948785869296 0 -0.004683405652117883 0.018763481182566294 0 -0.0018607439600677371 0.023288957086184121 0 -0.0034383878299547067 0.023964160644182591 0 -0.0030831968345981444 0.021950676513615913 0 -0.0018607439600677371 0.023288957086184121 0 -0.0021578791731574811 0.025079089648352912 0 -0.0034383878299547067 0.023964160644182591 0 -0.0032956081484730045 0.026675291766726929 0 -0.0021578791731574811 0.025079089648352912 0 -0.0034383878299547067 0.023964160644182591 0 -0.0034383878299547067 0.023964160644182591 0 -0.0051220754808900563 0.023354859260988924 0 -0.0030831968345981444 0.021950676513615913 0 -0.004699389616936848 0.021423736552061153 0 -0.0045743779879655715 0.020378660676644688 0 -0.0051176678245068667 0.02583119061426269 0 -0.0034383878299547067 0.023964160644182591 0 -0.0051220754808900563 0.023354859260988924 0 -0.0044565564863589483 0.02284973532607313 0 -0.004699389616936848 0.021423736552061153 0 -0.0038315870406095977 0.019800939229051295 0 -0.0044754311724566698 0.019459871082349853 0 -0.0043834133521556571 0.019437906922162611 0 -0.0044914107781810668 0.019359999983002137 0 -0.0043834133521556571 0.019437906922162611 0 -0.0045157893003799588 0.020269640158471419 0 -0.0044754311724566698 0.019459871082349853 0 -0.0044914107781810668 0.019359999983002137 0 -0.0043834133521556571 0.019437906922162611 0 -0.0044914107781810668 0.019359999983002137 0 -0.0043934259493600076 0.019553656776920725 0 -0.0045157893003799588 0.020269640158471419 0 -0.0043934259493600076 0.019553656776920725 0 -0.0045157893003799588 0.020269640158471419 0 -0.0040825310374722687 0.019654672025108691 0 -0.0045157893003799588 0.020269640158471419 0 -0.0030654007502159521 0.020453497757062501 0 -0.0040825310374722687 0.019654672025108691 0 -0.0051220754808900563 0.023354859260988924 0 -0.0045157893003799588 0.020269640158471419 0 -0.0030831968345981444 0.021950676513615913 0 -0.0045157893003799588 0.020269640158471419 0 -0.0030831968345981444 0.021950676513615913 0 -0.0030654007502159521 0.020453497757062501 0 -0.0030654007502159521 0.020453497757062501 0 -0.0033581368465596733 0.019588001494629213 0 -0.0040825310374722687 0.019654672025108691 0 -0.0030654007502159521 0.020453497757062501 0 -0.0020959558309584089 0.020085486499227773 0 -0.0027855422582433072 0.019646084836897403 0 -0.0030654007502159521 0.020453497757062501 0 -0.0020959558309584089 0.020085486499227773 0 -0.0019652746016524431 0.021468968943027592 0 -0.0030831968345981444 0.021950676513615913 0 -0.0030654007502159521 0.020453497757062501 0 -0.0019652746016524431 0.021468968943027592 0 -0.0018607439600677371 0.023288957086184121 0 -0.0030831968345981444 0.021950676513615913 0 -0.0019652746016524431 0.021468968943027592 0 -0.0022691683618541259 0.018720402197941823 0 -0.0023842628387939612 0.019254220339571589 0 -0.0027196025987387849 0.018129466971678387 0 -0.0027748734994449686 0.018757861617363342 0 -0.0017586265663657565 0.019321677093040723 0 -0.0022691683618541259 0.018720402197941823 0 -0.0023842628387939612 0.019254220339571589 0 -0.0016757276204531796 0.019350899380893426 0 -0.0020959558309584089 0.020085486499227773 0 -0.0023842628387939612 0.019254220339571589 0 -0.0016757276204531796 0.019350899380893426 0 -0.0020959558309584089 0.020085486499227773 0 -0.0027855422582433072 0.019646084836897403 0 -0.0023842628387939612 0.019254220339571589 0 -0.0030654007502159521 0.020453497757062501 0 -0.0027855422582433072 0.019646084836897403 0 -0.0033581368465596733 0.019588001494629213 0 -0.0027855422582433072 0.019646084836897403 0 -0.0023842628387939612 0.019254220339571589 0 -0.0031851932480567585 0.019042304605310062 0 -0.0027855422582433072 0.019646084836897403 0 -0.0033581368465596733 0.019588001494629213 0 -0.0031851932480567585 0.019042304605310062 0 -0.0023842628387939612 0.019254220339571589 0 -0.0031851932480567585 0.019042304605310062 0 -0.0029714703717878708 0.018478287895561354 0 -0.0033581368465596733 0.019588001494629213 0 -0.0031851932480567585 0.019042304605310062 0 -0.0037943638630134916 0.019081057270648637 0 -0.0031851932480567585 0.019042304605310062 0 -0.0037943638630134916 0.019081057270648637 0 -0.0035576481587661648 0.018577147919813426 0 -0.0033581368465596733 0.019588001494629213 0 -0.0037943638630134916 0.019081057270648637 0 -0.0040825310374722687 0.019654672025108691 0 -0.0043934259493600076 0.019553656776920725 0 -0.0040825310374722687 0.019654672025108691 0 -0.0041805364782619642 0.019141817951492897 0 -0.0037943638630134916 0.019081057270648637 0 -0.0040825310374722687 0.019654672025108691 0 -0.0041805364782619642 0.019141817951492897 0 -0.0037943638630134916 0.019081057270648637 0 -0.0041805364782619642 0.019141817951492897 0 -0.0039893216860762718 0.01874642363720538 0 -0.0037943638630134916 0.019081057270648637 0 -0.0035576481587661648 0.018577147919813426 0 -0.0039893216860762718 0.01874642363720538 0 -0.0036954434201976164 0.018310983330673023 0 -0.0035576481587661648 0.018577147919813426 0 -0.0039893216860762718 0.01874642363720538 0 -0.0036712736358784971 0.018261949517869049 0 -0.003245612781832951 0.018325713127065872 0 -0.0036954434201976164 0.018310983330673023 0 -0.0035576481587661648 0.018577147919813426 0 -0.0034124762899900578 0.018148166554579119 0 -0.0031851932480567585 0.019042304605310062 0 -0.0035576481587661648 0.018577147919813426 0 -0.0029714703717878708 0.018478287895561354 0 -0.0017586265663657565 0.019321677093040723 0 -0.003245612781832951 0.018325713127065872 0 -0.0020144894672369735 0.019448220099784457 0 -0.0022814787219859155 0.018705208977540872 0 -0.0025597811223717847 0.018783773682644868 0 -0.0017586265663657565 0.019321677093040723 0 -0.0020467540340150907 0.019386881962466334 0 0.00045946632843843753 0.020687240428576125 0 0.00046166013386460351 0.020706561702887379 0 0.00044914577064063998 0.020702417218923633 0 -0.0035576481587661648 0.018577147919813426 0 -0.0029714703717878708 0.018478287895561354 0 -0.0034124762899900578 0.018148166554579119 0 0.00046166013386460351 0.020706561702887379 0 0.00046078669162798229 0.020702659312515973 0 0.00046990572744167456 0.020732690363032897 0 0.00045946632843843753 0.020687240428576125 0 0.00046166013386460351 0.020706561702887379 0 0.00046078669162798229 0.020702659312515973 0 0.00045762954121457671 0.020667214965018586 0 0.00045946632843843753 0.020687240428576125 0 0.00046078669162798229 0.020702659312515973 0 -0.00081014190897272381 0.019792953996775494 0 -0.0017586265663657565 0.019321677093040723 0 -0.0044782490384145451 0.018907294863863437 0 -0.004628139313660436 0.018724448996543856 0 -0.0046271295258180408 0.018951478483042603 0 -0.0046015101351679043 0.01891823589523093 0 -0.004578975360407897 0.019001551717773894 0 -0.0046271295258180408 0.018951478483042603 0 -0.0044782490384145451 0.018907294863863437 0 -0.004578975360407897 0.019001551717773894 0 -0.0046271295258180408 0.018951478483042603 0 -0.0044782490384145451 0.018907294863863437 0 -0.004578975360407897 0.019001551717773894 0 -0.0044827713040906103 0.019162511512460043 0 -0.0043934259493600076 0.019553656776920725 0 -0.0041805364782619642 0.019141817951492897 0 -0.0044827713040906103 0.019162511512460043 0 -0.0041805364782619642 0.019141817951492897 0 -0.0044827713040906103 0.019162511512460043 0 -0.0042850451336869438 0.018961331531738998 0 -0.0041805364782619642 0.019141817951492897 0 -0.0042850451336869438 0.018961331531738998 0 -0.0039893216860762718 0.01874642363720538 0 -0.0044782490384145451 0.018907294863863437 0 -0.0042850451336869438 0.018961331531738998 0 -0.0042123961054753179 0.018704398449574011 0 -0.0044782490384145451 0.018907294863863437 0 -0.0044827713040906103 0.019162511512460043 0 -0.0042850451336869438 0.018961331531738998 0 -0.0042850451336869438 0.018961331531738998 0 -0.0042123961054753179 0.018704398449574011 0 -0.0039893216860762718 0.01874642363720538 0 -0.0042123961054753179 0.018704398449574011 0 -0.0039893216860762718 0.01874642363720538 0 -0.0039599718246786115 0.018486203617742683 0 -0.0036954434201976164 0.018310983330673023 0 -0.0039893216860762718 0.01874642363720538 0 -0.0039599718246786115 0.018486203617742683 0 -0.0036954434201976164 0.018310983330673023 0 -0.0039599718246786115 0.018486203617742683 0 -0.0037813311982080331 0.018194224114937044 0 -0.0042123961054753179 0.018704398449574011 0 -0.004035537441028708 0.018344263947600602 0 -0.0043470382531034116 0.018540063530928685 0 -0.0039599718246786115 0.018486203617742683 0 -0.004035537441028708 0.018344263947600602 0 -0.0037813311982080331 0.018194224114937044 0 -0.0042123961054753179 0.018704398449574011 0 -0.0039599718246786115 0.018486203617742683 0 -0.004035537441028708 0.018344263947600602 0 -0.004035537441028708 0.018344263947600602 0 -0.0041848752540686804 0.018306741361324128 0 -0.0043470382531034116 0.018540063530928685 0 -0.0041848752540686804 0.018306741361324128 0 -0.0043470382531034116 0.018540063530928685 0 -0.0043710600334729262 0.018309265386635718 0 -0.0044782490384145451 0.018907294863863437 0 -0.0042123961054753179 0.018704398449574011 0 -0.0043470382531034116 0.018540063530928685 0 -0.0044782490384145451 0.018907294863863437 0 -0.0043470382531034116 0.018540063530928685 0 -0.004628139313660436 0.018724448996543856 0 -0.0040031711433712027 0.017363816866543827 0 -0.0044443075072385834 0.017999372705471802 0 -0.0043470382531034116 0.018540063530928685 0 -0.004628139313660436 0.018724448996543856 0 -0.0045018420452302603 0.018318550048707544 0 -0.0043470382531034116 0.018540063530928685 0 -0.0043710600334729262 0.018309265386635718 0 -0.0045018420452302603 0.018318550048707544 0 -0.0034872591237558349 0.016182332599689507 0 -0.0032677228282175907 0.016415915569799183 0 -0.0036650035777457124 0.016705292570481239 0 -0.0032677228282175907 0.016415915569799183 0 -0.0033053123995461968 0.016707027912265127 0 -0.0036650035777457124 0.016705292570481239 0 -0.0032677228282175907 0.016415915569799183 0 -0.0029588737569320595 0.016703171655993682 0 -0.0033053123995461968 0.016707027912265127 0 -0.0032677228282175907 0.016415915569799183 0 -0.0029608499015800374 0.016279886311213864 0 -0.0029588737569320595 0.016703171655993682 0 -0.0029608499015800374 0.016279886311213864 0 -0.0031376409721645677 0.016026937706541726 0 -0.0028226059499638976 0.01601319451517829 0 -0.0032677228282175907 0.016415915569799183 0 -0.0029608499015800374 0.016279886311213864 0 -0.0031376409721645677 0.016026937706541726 0 -0.0034872591237558349 0.016182332599689507 0 -0.0032677228282175907 0.016415915569799183 0 -0.0031376409721645677 0.016026937706541726 0 -0.0031376409721645677 0.016026937706541726 0 -0.0029997020373847202 0.015629158932085826 0 -0.0032842537542629694 0.01569529677174384 0 -0.0034872591237558349 0.016182332599689507 0 -0.0031376409721645677 0.016026937706541726 0 -0.0032842537542629694 0.01569529677174384 0 -0.0040031711433712027 0.017363816866543827 0 -0.0039107684112608138 0.01723326553851863 0 -0.0029997020373847202 0.015629158932085826 0 -0.0028986730102136403 0.01560325090697553 0 -0.0028632941011745832 0.015584945613546081 0 -0.0030554167917523712 0.01539252644657489 0 -0.0027855120118216331 0.016449728456304467 0 -0.0031376409721645677 0.016026937706541726 0 -0.0029997020373847202 0.015629158932085826 0 -0.0028226059499638976 0.01601319451517829 0 -0.0029997020373847202 0.015629158932085826 0 -0.0028771002310813117 0.015576806979550271 0 -0.0031246317327701854 0.015375760847392721 0 -0.0039107684112608138 0.01723326553851863 0 -0.0041132694943370757 0.017599715039738398 0 -0.0029997020373847202 0.015629158932085826 0 -0.0032842537542629694 0.01569529677174384 0 -0.0031246317327701854 0.015375760847392721 0 -0.0036534386236027265 0.017148160375364787 0 -0.0024345421477231549 0.016133890477228876 0 -0.0031731321366834202 0.018649292263190943 0 -0.004246629472985923 0.018642973581412103 0 -0.003200191228367376 0.019442431454215377 0 -0.0028771002310813117 0.015576806979550271 0 -0.0028600302757213819 0.015590463977595146 0 -0.0028986730102136403 0.01560325090697553 0 -0.0029997020373847202 0.015629158932085826 0 -0.0028771002310813117 0.015576806979550271 0 -0.0028986730102136403 0.01560325090697553 0 -0.0028771002310813117 0.015576806979550271 0 -0.0028600302757213819 0.015590463977595146 0 -0.002861389047468152 0.01559500182245457 0 -0.0028600302757213819 0.015590463977595146 0 -0.0028986730102136403 0.01560325090697553 0 -0.0028632941011745832 0.015584945613546081 0 -0.0028600302757213819 0.015590463977595146 0 -0.0028632941011745832 0.015584945613546081 0 -0.0028237465971939868 0.01554800152902531 0 -0.0028600302757213819 0.015590463977595146 0 -0.002861389047468152 0.01559500182245457 0 -0.0028237465971939868 0.01554800152902531 0 -0.0024345421477231549 0.016133890477228876 0 -0.0027834531910944905 0.015321382539904841 0 -0.0025776046269857067 0.015110712190235142 0 -0.0026898203307136851 0.015536994972846309 0 -0.0023573846414238794 0.01525376605237566 0 8.7536162777990817e-05 0.011025764934876642 0 -0.00059501403000001066 0.013041832673116031 0 -0.0025776046269857067 0.015110712190235142 0 -0.0026898203307136851 0.015536994972846309 0 -0.0028237465971939868 0.01554800152902531 0 0.0021743931273499285 0.0071365559365656802 0 0.0010595492583917864 0.0072952434726514344 0 0.00053273768661123112 0.0087222848394032902 0 -0.0026898203307136851 0.015536994972846309 0 -0.0028237465971939868 0.01554800152902531 0 -0.002859330261655503 0.015589363755979298 0 0.0021743931273499285 0.0071365559365656802 0 0.0036448191831968237 0.0057307665662568869 0 0.0021324381101917203 0.0056342060390948663 0 8.7536162777990817e-05 0.011025764934876642 0 -0.0014292928492343443 0.012168054627683098 0 0.0021743931273499285 0.0071365559365656802 0 0.0014472243168017402 0.0062358413113586496 0 0.0010595492583917864 0.0072952434726514344 0 0.0021743931273499285 0.0071365559365656802 0 0.0014472243168017402 0.0062358413113586496 0 0.0021324381101917203 0.0056342060390948663 0 -0.0029608499015800374 0.016279886311213864 0 -0.0028226059499638976 0.01601319451517829 0 -0.0026326305927580314 0.016391350446025139 0 -0.0028632941011745832 0.015584945613546081 0 -0.0028237465971939868 0.01554800152902531 0 -0.002859330261655503 0.015589363755979298 0 -0.0027855120118216331 0.016449728456304467 0 -0.0014292928492343443 0.012168054627683098 0 -0.0014292928492343443 0.012168054627683098 0 -0.0054671505779511449 0.017294786316676216 0 -0.0028918527147437606 0.01255189972819004 0 -0.0020480579966699495 0.014349204718362381 0 -0.0047879175611072909 0.014276323534914447 0 -0.0029608499015800374 0.016279886311213864 0 -0.0026326305927580314 0.016391350446025139 0 -0.0029588737569320595 0.016703171655993682 0 -0.0014292928492343443 0.012168054627683098 0 -0.002491402889457288 0.011500411820602987 0 0.0014819401947736518 0.0054408803239355827 0 0.0021324381101917203 0.0056342060390948663 0 0.0016538587425097796 0.0047549309481377394 0 0.0014472243168017402 0.0062358413113586496 0 0.0014819401947736518 0.0054408803239355827 0 0.00091688141212790703 0.005651257303581834 0 0.0014472243168017402 0.0062358413113586496 0 0.0014819401947736518 0.0054408803239355827 0 0.0021324381101917203 0.0056342060390948663 0 0.0036448191831968237 0.0057307665662568869 0 0.0021324381101917203 0.0056342060390948663 0 0.0024164342578156454 0.0048802644665745182 0 0.0024164342578156454 0.0048802644665745182 0 0.001985066592627011 0.0043817652594253312 0 0.0027807442663438735 0.0039361144999758759 0 0.0036448191831968237 0.0057307665662568869 0 0.0024164342578156454 0.0048802644665745182 0 0.0027807442663438735 0.0039361144999758759 0 0.001985066592627011 0.0043817652594253312 0 0.001400330545927379 0.0043307080837719598 0 0.001787134113259667 0.0039036148961855599 0 0.0021324381101917203 0.0056342060390948663 0 0.0024164342578156454 0.0048802644665745182 0 0.0016538587425097796 0.0047549309481377394 0 0.0024164342578156454 0.0048802644665745182 0 0.001985066592627011 0.0043817652594253312 0 0.0016538587425097796 0.0047549309481377394 0 0.0014819401947736518 0.0054408803239355827 0 0.0016538587425097796 0.0047549309481377394 0 0.0012378667639306744 0.0049529458371531995 0 0.0016538587425097796 0.0047549309481377394 0 0.0013126978136946969 0.0045952682326143917 0 0.0012378667639306744 0.0049529458371531995 0 0.0016538587425097796 0.0047549309481377394 0 0.0013126978136946969 0.0045952682326143917 0 0.001400330545927379 0.0043307080837719598 0 0.001985066592627011 0.0043817652594253312 0 0.0016538587425097796 0.0047549309481377394 0 0.001400330545927379 0.0043307080837719598 0 0.0009606340024877789 0.0043537467996836166 0 0.0012378667639306744 0.0049529458371531995 0 0.00091688141212790703 0.005651257303581834 0 0.0009606340024877789 0.0043537467996836166 0 0.00051743138063608748 0.0044028094933446496 0 0.00063086289527848627 0.0049594742220276395 0 0.0009606340024877789 0.0043537467996836166 0 0.00091688141212790703 0.005651257303581834 0 -6.4657569881296344e-06 0.0065097568980377303 0 0.00086465405034801272 0.0045119190321239256 0 0.00034644190951975304 0.0056920073383700896 0 0.001400330545927379 0.0043307080837719598 0 0.0009606340024877789 0.0043537467996836166 0 0.001046226876431119 0.0039525401693616073 0 0.0013126978136946969 0.0045952682326143917 0 0.001400330545927379 0.0043307080837719598 0 0.0009606340024877789 0.0043537467996836166 0 0.0013126978136946969 0.0045952682326143917 0 0.0009606340024877789 0.0043537467996836166 0 0.0012378667639306744 0.0049529458371531995 0 0.0014819401947736518 0.0054408803239355827 0 0.0012378667639306744 0.0049529458371531995 0 0.00091688141212790703 0.005651257303581834 0 0.00051743138063608748 0.0044028094933446496 0 5.0381146519278926e-05 0.0045839986933600757 0 0.00063086289527848627 0.0049594742220276395 0 0.0009606340024877789 0.0043537467996836166 0 0.00051743138063608748 0.0044028094933446496 0 0.00067862161694355768 0.0040801757647454745 0 0.00051743138063608748 0.0044028094933446496 0 0.00026660224485944143 0.0040061342310280575 0 0.00067862161694355768 0.0040801757647454745 0 5.0381146519278926e-05 0.0045839986933600757 0 -0.00085962101182274686 0.0048863697219039548 0 -0.00028635603196830027 0.0040339670167904833 0 5.0381146519278926e-05 0.0045839986933600757 0 -0.00028635603196830027 0.0040339670167904833 0 0.00026660224485944143 0.0040061342310280575 0 0.00051743138063608748 0.0044028094933446496 0 5.0381146519278926e-05 0.0045839986933600757 0 0.00026660224485944143 0.0040061342310280575 0 -2.0592257184782855e-05 0.0051688345383303479 0 -0.00085962101182274686 0.0048863697219039548 0 -1.3050225437987882e-05 0.0059173633168289573 0 5.0381146519278926e-05 0.0045839986933600757 0 -2.0592257184782855e-05 0.0051688345383303479 0 -0.00085962101182274686 0.0048863697219039548 0 -2.0592257184782855e-05 0.0051688345383303479 0 0.00063086289527848627 0.0049594742220276395 0 0.00031695146424562718 0.0056996546832396144 0 5.0381146519278926e-05 0.0045839986933600757 0 -2.0592257184782855e-05 0.0051688345383303479 0 0.00063086289527848627 0.0049594742220276395 0 0.00034644190951975304 0.0056920073383700896 0 -0.00049487335855917503 0.0071527342796210052 0 0.0010595492583917864 0.0072952434726514344 0 -6.4657569881296344e-06 0.0065097568980377303 0 -0.00080765584690586413 0.0085521642484027213 0 0.00055166056493789219 0.007685707091769604 0 -0.00049487335855917503 0.0071527342796210052 0 0.0014472243168017402 0.0062358413113586496 0 0.0010595492583917864 0.0072952434726514344 0 0.0008189984264918126 0.0064424130891512117 0 0.0010595492583917864 0.0072952434726514344 0 0.0008189984264918126 0.0064424130891512117 0 -6.4657569881296344e-06 0.0065097568980377303 0 0.0014472243168017402 0.0062358413113586496 0 0.00091688141212790703 0.005651257303581834 0 0.0008189984264918126 0.0064424130891512117 0 0.00091688141212790703 0.005651257303581834 0 0.0008189984264918126 0.0064424130891512117 0 -6.4657569881296344e-06 0.0065097568980377303 0 -0.0059006988962424668 -0.0023199543652940688 0 -0.0045469432908959006 -0.0024937582673894491 0 -0.0044401478572291238 -0.00052588085117015329 0 -0.00085962101182274686 0.0048863697219039548 0 -0.00091991906780453732 0.0035374247190584846 0 -0.001734981836368399 0.0037912651953008621 0 -0.0045469432908959006 -0.0024937582673894491 0 -0.0044401478572291238 -0.00052588085117015329 0 -0.0037374783213546645 -0.0015809459620847342 0 -0.004149979005142323 0.00067316987941232035 0 -0.0009174676450334463 0.00095901065066134126 0 -0.00085962101182274686 0.0048863697219039548 0 -0.00091991906780453732 0.0035374247190584846 0 -0.00028635603196830027 0.0040339670167904833 0 -0.004149979005142323 0.00067316987941232035 0 -0.0018086908655071305 0.0040594772526188162 0 -0.0045469432908959006 -0.0024937582673894491 0 -0.0050313686182666944 -0.0038080796483494776 0 -0.0041141620128850257 -0.0038272842583124311 0 -0.0059006988962424668 -0.0023199543652940688 0 -0.0045469432908959006 -0.0024937582673894491 0 -0.0050313686182666944 -0.0038080796483494776 0 -0.0050313686182666944 -0.0038080796483494776 0 -0.0045706970427852435 -0.004923044177851347 0 -0.0041141620128850257 -0.0038272842583124311 0 -0.0050313686182666944 -0.0038080796483494776 0 -0.0052858328354084905 -0.0045678085451334146 0 -0.0060062093947220235 -0.0041741056629873126 0 -0.0050313686182666944 -0.0038080796483494776 0 -0.0052858328354084905 -0.0045678085451334146 0 -0.0045706970427852435 -0.004923044177851347 0 -0.0059006988962424668 -0.0023199543652940688 0 -0.0060062093947220235 -0.0041741056629873126 0 -0.0072629035163801654 -0.0040070388081976539 0 -0.0059006988962424668 -0.0023199543652940688 0 -0.0050313686182666944 -0.0038080796483494776 0 -0.0060062093947220235 -0.0041741056629873126 0 -0.0060062093947220235 -0.0041741056629873126 0 -0.0055254780215869799 -0.0053598645032806574 0 -0.0072629035163801654 -0.0040070388081976539 0 0.00078364787298836286 0.013197029723795587 0 0.00095192183682857475 0.013062195522077562 0 0.0007929282057117336 0.013270805535902966 0 0.00020089812591188939 0.01312955226612327 0 0.00099327397573573898 0.01324682660684099 0 -0.002639303129761988 0.004033853870776297 0 -0.0018086908655071305 0.0040594772526188162 0 -0.0052858328354084905 -0.0045678085451334146 0 -0.0060062093947220235 -0.0041741056629873126 0 -0.0055254780215869799 -0.0053598645032806574 0 -0.0055254780215869799 -0.0053598645032806574 0 -0.0045706970427852435 -0.004923044177851347 0 -0.003752527576908137 -0.0068766858205449501 0 -0.0052858328354084905 -0.0045678085451334146 0 -0.0055254780215869799 -0.0053598645032806574 0 -0.0045706970427852435 -0.004923044177851347 0 -0.00059501403000001066 0.013041832673116031 0 0.00010105566777258519 0.01239011222494862 0 -0.00046340954129728279 0.015078708793733821 0 -5.787392748389167e-06 0.014671037924964216 0 -0.00031059754010541273 0.014647133264030381 0 0.00053273768661123112 0.0087222848394032902 0 -0.00096569347857078478 0.0087216923141129159 0 -0.0011957935101665231 0.010324940017044868 0 -0.00076475922255658758 0.014864656865279649 0 -0.00046340954129728279 0.015078708793733821 0 -0.00031059754010541273 0.014647133264030381 0 0.0010595492583917864 0.0072952434726514344 0 0.00053273768661123112 0.0087222848394032902 0 -0.00096569347857078478 0.0087216923141129159 0 -0.0024345421477231549 0.016133890477228876 0 -0.00059501403000001066 0.013041832673116031 0 -2.0592257184782855e-05 0.0051688345383303479 0 0.00031695146424562718 0.0056996546832396144 0 -1.3050225437987882e-05 0.0059173633168289573 0 -0.00049487335855917503 0.0071527342796210052 0 -0.0018086908655071305 0.0040594772526188162 0 -0.00096569347857078478 0.0087216923141129159 0 -0.0014587725586399447 0.01000034869241097 0 -0.0011957935101665231 0.010324940017044868 0 0.00092783106479022619 0.012915242903620141 0 0.00097402326652734411 0.012972255841285285 0 0.00095192183682857475 0.013062195522077562 0 -0.00049487335855917503 0.0071527342796210052 0 -1.1058480693231235e-05 0.010490071283008216 0 -0.00062533632531783776 0.0069008136878272964 0 -0.00049295814242689292 0.0068102737158900464 0 -0.00055408035065837287 0.0067388335407171391 0 -0.0018086908655071305 0.0040594772526188162 0 -1.1058480693231235e-05 0.010490071283008216 0 -1.1058480693231235e-05 0.010490071283008216 0 0.00010105566777258519 0.01239011222494862 0 0.00020089812591188939 0.01312955226612327 0 0.00056676692968701001 0.013676798247488589 0 -5.0618166546762398e-06 0.014670131158447546 0 0.0001509610150085825 0.01453357129967054 0 -9.8062934821474079e-05 0.014561279393510861 0 0.0001509610150085825 0.01453357129967054 0 -1.1349590179725521e-05 0.014272847646263838 0 -9.8062934821474079e-05 0.014561279393510861 0 0.00010105566777258519 0.01239011222494862 0 0.00039911128227183059 0.013133629795774529 0 0.00078364787298836286 0.013197029723795587 0 0.00092783106479022619 0.012915242903620141 0 0.00095192183682857475 0.013062195522077562 0 0.0001509610150085825 0.01453357129967054 0 -1.1349590179725521e-05 0.014272847646263838 0 0.00013966424981679421 0.013984898392019883 0 0.00024396944747198668 0.012239283661920163 0 0.00031099681573848589 0.012322838269728428 0 0.00015855322409693645 0.012465472746154348 0 -1.1058480693231235e-05 0.010490071283008216 0 0.00020089812591188939 0.01312955226612327 0 0.00010105566777258519 0.01239011222494862 0 0.00020089812591188939 0.01312955226612327 0 -0.0024345421477231549 0.016133890477228876 0 -0.0012936857153109927 0.016422240086154533 0 -0.00031059754010541273 0.014647133264030381 0 -9.8062934821474079e-05 0.014561279393510861 0 -0.0002217154845772355 0.014061725554724657 0 -0.00076475922255658758 0.014864656865279649 0 -0.00031059754010541273 0.014647133264030381 0 -0.0002217154845772355 0.014061725554724657 0 -0.0031731321366834202 0.018649292263190943 0 -0.003200191228367376 0.019442431454215377 0 -0.0024408256804192784 0.018430817770630898 0 -1.1349590179725521e-05 0.014272847646263838 0 -9.8062934821474079e-05 0.014561279393510861 0 -0.0002217154845772355 0.014061725554724657 0 -5.787392748389167e-06 0.014671037924964216 0 -0.00031059754010541273 0.014647133264030381 0 -9.8062934821474079e-05 0.014561279393510861 0 -0.0029347467763179169 0.018031018344400414 0 -0.0024408256804192784 0.018430817770630898 0 -0.0024789150949927194 0.017499213045124654 0 -0.0031731321366834202 0.018649292263190943 0 -0.0029347467763179169 0.018031018344400414 0 -0.0024408256804192784 0.018430817770630898 0 0.00013966424981679421 0.013984898392019883 0 0.00045666989548021926 0.01379100292003612 0 0.00033841241248267937 0.013301725242792059 0 -1.1349590179725521e-05 0.014272847646263838 0 -0.0002217154845772355 0.014061725554724657 0 0.00013966424981679421 0.013984898392019883 0 -0.0002217154845772355 0.014061725554724657 0 0.00013966424981679421 0.013984898392019883 0 0.00033841241248267937 0.013301725242792059 0 0.0001509610150085825 0.01453357129967054 0 0.00013966424981679421 0.013984898392019883 0 0.00045666989548021926 0.01379100292003612 0 -0.0012936857153109927 0.016422240086154533 0 -0.00052208510742272928 0.015219443154285223 0 -0.0013876514949194927 0.017217492177464544 0 -0.0024789150949927194 0.017499213045124654 0 -0.0020825923448678186 0.0167702511051155 0 -0.0024408256804192784 0.018430817770630898 0 -0.0013876514949194927 0.017217492177464544 0 -0.0024789150949927194 0.017499213045124654 0 -0.0024789150949927194 0.017499213045124654 0 -0.0027761030743348788 0.016828858184661788 0 -0.0020825923448678186 0.0167702511051155 0 -0.0024789150949927194 0.017499213045124654 0 -0.0027761030743348788 0.016828858184661788 0 -0.0033196908171775259 0.017449053048933134 0 -0.0029347467763179169 0.018031018344400414 0 -0.0024789150949927194 0.017499213045124654 0 -0.0033196908171775259 0.017449053048933134 0 0.0007929282057117336 0.013270805535902966 0 0.00088847461716498285 0.013214545503117733 0 0.0010794319278459373 0.013361410880546824 0 -0.002639303129761988 0.004033853870776297 0 -0.0012421481096163312 0.0031647464807043188 0 0.00078364787298836286 0.013197029723795587 0 0.0007929282057117336 0.013270805535902966 0 0.0010794319278459373 0.013361410880546824 0 0.000662935023160241 0.01338730141817163 0 0.0007208288529335741 0.013261214994606698 0 0.0007929282057117336 0.013270805535902966 0 0.0007208288529335741 0.013261214994606698 0 0.0007929282057117336 0.013270805535902966 0 0.00076537624961400927 0.013224552085926428 0 0.00056676692968701001 0.013676798247488589 0 0.00069971041239244266 0.013112168495874238 0 0.00045666989548021926 0.01379100292003612 0 0.00033841241248267937 0.013301725242792059 0 0.00068010247822684433 0.01314522631988365 0 0.0007208288529335741 0.013261214994606698 0 0.00076537624961400927 0.013224552085926428 0 0.00068010247822684433 0.01314522631988365 0 0.00076537624961400927 0.013224552085926428 0 0.00088847461716498285 0.013214545503117733 0 0.00068010247822684433 0.01314522631988365 0 0.0007929282057117336 0.013270805535902966 0 0.00076537624961400927 0.013224552085926428 0 0.00088847461716498285 0.013214545503117733 0 0.00088847461716498285 0.013214545503117733 0 0.00084006419667628871 0.013001308169992757 0 0.0010245012808078227 0.01308662133645771 0 0.00088847461716498285 0.013214545503117733 0 0.00084006419667628871 0.013001308169992757 0 0.00068010247822684433 0.01314522631988365 0 0.00084006419667628871 0.013001308169992757 0 0.00089669684900121384 0.012804840433107209 0 0.0010245012808078227 0.01308662133645771 0 0.00084006419667628871 0.013001308169992757 0 0.00071531225368789313 0.012843974598401987 0 0.00089669684900121384 0.012804840433107209 0 -0.00052208510742272928 0.015219443154285223 0 0.00021974962586715548 0.014083230852595814 0 0.00084006419667628871 0.013001308169992757 0 0.00068010247822684433 0.01314522631988365 0 0.00071531225368789313 0.012843974598401987 0 0.00033841241248267937 0.013301725242792059 0 0.00068010247822684433 0.01314522631988365 0 0.00071531225368789313 0.012843974598401987 0 -0.00044234815192412862 0.013493062666113539 0 -0.00019410023388857862 0.015358159260273825 0 -0.0015636238333866957 0.014708861606904168 0 0.00069106885883374054 0.012824147156263836 0 0.00021974962586715548 0.014083230852595814 0 0.00068032860465405882 0.012695271866727427 0 0.00071531225368789313 0.012843974598401987 0 0.00089669684900121384 0.012804840433107209 0 -0.0021746521531065591 0.015890629425242882 0 -0.0030110419189301892 0.016101841859794807 0 -0.0027761030743348788 0.016828858184661788 0 -0.0021746521531065591 0.015890629425242882 0 -0.0027761030743348788 0.016828858184661788 0 -0.0020825923448678186 0.0167702511051155 0 -0.0013876514949194927 0.017217492177464544 0 -0.00019410023388857862 0.015358159260273825 0 -0.0014923990195410527 0.016012211514875748 0 -0.0013876514949194927 0.017217492177464544 0 -0.0020825923448678186 0.0167702511051155 0 -0.0014923990195410527 0.016012211514875748 0 -0.0021746521531065591 0.015890629425242882 0 -0.0020825923448678186 0.0167702511051155 0 -0.0014923990195410527 0.016012211514875748 0 -0.0021746521531065591 0.015890629425242882 0 -0.0014923990195410527 0.016012211514875748 0 -0.0015636238333866957 0.014708861606904168 0 -0.00019410023388857862 0.015358159260273825 0 -0.0014923990195410527 0.016012211514875748 0 -0.0015636238333866957 0.014708861606904168 0 -0.002531803134817517 0.013843392958359377 0 -0.0015636238333866957 0.014708861606904168 0 -0.0025451320680494921 0.015223958724400308 0 -0.002531803134817517 0.013843392958359377 0 -0.0025451320680494921 0.015223958724400308 0 -0.0033804456289479564 0.015514352015503321 0 -0.0021746521531065591 0.015890629425242882 0 -0.0015636238333866957 0.014708861606904168 0 -0.0025451320680494921 0.015223958724400308 0 -0.0021746521531065591 0.015890629425242882 0 -0.0030110419189301892 0.016101841859794807 0 -0.0025451320680494921 0.015223958724400308 0 -0.0030110419189301892 0.016101841859794807 0 -0.0025451320680494921 0.015223958724400308 0 -0.0033804456289479564 0.015514352015503321 0 -0.003713794802791806 0.014642811589099133 0 -0.0033804456289479564 0.015514352015503321 0 -0.0038906018177081907 0.016016203765520567 0 -0.0033804456289479564 0.015514352015503321 0 -0.0038906018177081907 0.016016203765520567 0 -0.00364425277931495 0.016342131184606867 0 -0.0030110419189301892 0.016101841859794807 0 -0.0033804456289479564 0.015514352015503321 0 -0.00364425277931495 0.016342131184606867 0 -0.0030110419189301892 0.016101841859794807 0 -0.00364425277931495 0.016342131184606867 0 -0.0034290259302928836 0.016812357401456268 0 -0.00364425277931495 0.016342131184606867 0 -0.0038295954718077017 0.016776889787024716 0 -0.0041754657510544458 0.016740030097465008 0 -0.0038906018177081907 0.016016203765520567 0 -0.00364425277931495 0.016342131184606867 0 -0.0041754657510544458 0.016740030097465008 0 -0.00364425277931495 0.016342131184606867 0 -0.0038295954718077017 0.016776889787024716 0 -0.0034290259302928836 0.016812357401456268 0 -0.0038295954718077017 0.016776889787024716 0 -0.0034290259302928836 0.016812357401456268 0 -0.0039917272386123144 0.017130715659072527 0 -0.0030110419189301892 0.016101841859794807 0 -0.0027761030743348788 0.016828858184661788 0 -0.0034290259302928836 0.016812357401456268 0 -0.0043811899843897266 0.017020730155172206 0 -0.0046300608652551489 0.0171076411235766 0 -0.0044889072500944767 0.017242999697273123 0 -0.0043811899843897266 0.017020730155172206 0 -0.0039917272386123144 0.017130715659072527 0 -0.0044889072500944767 0.017242999697273123 0 -0.0038295954718077017 0.016776889787024716 0 -0.0041754657510544458 0.016740030097465008 0 -0.0039917272386123144 0.017130715659072527 0 -0.0043811899843897266 0.017020730155172206 0 -0.0041754657510544458 0.016740030097465008 0 -0.0039917272386123144 0.017130715659072527 0 -0.0041754657510544458 0.016740030097465008 0 -0.004492518027269814 0.016904231984105487 0 -0.0044281332453354628 0.016605306527920791 0 -0.0043811899843897266 0.017020730155172206 0 -0.0041754657510544458 0.016740030097465008 0 -0.004492518027269814 0.016904231984105487 0 -0.004492518027269814 0.016904231984105487 0 -0.004648998492646144 0.017021919014998173 0 -0.0046300608652551489 0.0171076411235766 0 -0.0043811899843897266 0.017020730155172206 0 -0.004492518027269814 0.016904231984105487 0 -0.0046300608652551489 0.0171076411235766 0 -0.004492518027269814 0.016904231984105487 0 -0.0044281332453354628 0.016605306527920791 0 -0.004648998492646144 0.017021919014998173 0 -0.0044281332453354628 0.016605306527920791 0 -0.0048664393066071643 0.01707381213329694 0 -0.004648998492646144 0.017021919014998173 0 -0.0044281332453354628 0.016605306527920791 0 -0.0042516040376385945 0.015795973486790505 0 -0.0048664393066071643 0.01707381213329694 0 -0.0046932791875717661 0.013793209255161983 0 -0.0042516040376385945 0.015795973486790505 0 -0.0048664393066071643 0.01707381213329694 0 -0.0038906018177081907 0.016016203765520567 0 -0.0044281332453354628 0.016605306527920791 0 -0.0042516040376385945 0.015795973486790505 0 -0.0038906018177081907 0.016016203765520567 0 -0.0041754657510544458 0.016740030097465008 0 -0.0044281332453354628 0.016605306527920791 0 -0.003713794802791806 0.014642811589099133 0 -0.0038906018177081907 0.016016203765520567 0 -0.0042516040376385945 0.015795973486790505 0 -0.0046457006769977018 0.017824088419865488 0 -0.0045797352459888974 0.017658483774433211 0 -0.0048664393066071643 0.01707381213329694 0 -0.0045797352459888974 0.017658483774433211 0 -0.0046444961333667453 0.017397318172604339 0 -0.0048664393066071643 0.01707381213329694 0 -0.0045797352459888974 0.017658483774433211 0 -0.0045853877789137935 0.0176068779910474 0 -0.0046444961333667453 0.017397318172604339 0 -0.0045853877789137935 0.0176068779910474 0 -0.0046444961333667453 0.017397318172604339 0 -0.0045845637536543679 0.017632768346768475 0 -0.0046444961333667453 0.017397318172604339 0 -0.0048664393066071643 0.01707381213329694 0 -0.004616041791992315 0.01726473540044306 0 -0.0048664393066071643 0.01707381213329694 0 -0.004648998492646144 0.017021919014998173 0 -0.004616041791992315 0.01726473540044306 0 -0.0045594763774940298 0.01802755652733521 0 -0.0045598998807631474 0.017810207022785709 0 -0.0045845822982455596 0.01798385123983039 0 -0.0045674678238989529 0.018128292952889622 0 -0.0045907743437471806 0.018216634974562301 0 -0.0045594763774940298 0.01802755652733521 0 -0.0045815115234327328 0.01793784236199672 0 -0.0045797352459888974 0.017658483774433211 0 -0.0045526251133863656 0.017904500947119532 0 -0.0045594763774940298 0.01802755652733521 0 -0.0045526251133863656 0.017904500947119532 0 -0.0045598998807631474 0.017810207022785709 0 -0.0045797352459888974 0.017658483774433211 0 -0.0045526251133863656 0.017904500947119532 0 -0.0045598998807631474 0.017810207022785709 0 -0.0045809693261033239 0.017775650609607955 0 -0.0045845822982455596 0.01798385123983039 0 -0.0046048394147007133 0.017989224984005632 0 -0.0045853877789137935 0.0176068779910474 0 -0.0045598998807631474 0.017810207022785709 0 -0.0045809693261033239 0.017775650609607955 0 -0.0045797352459888974 0.017658483774433211 0 -0.0045853877789137935 0.0176068779910474 0 -0.0045598998807631474 0.017810207022785709 0 -0.0045853877789137935 0.0176068779910474 0 -0.0045809693261033239 0.017775650609607955 0 -0.0045845637536543679 0.017632768346768475 0 -0.0045598998807631474 0.017810207022785709 0 -0.0045809693261033239 0.017775650609607955 0 -0.0045845822982455596 0.01798385123983039 0 -0.0045922212860361467 0.018165183476582785 0 -0.0046326213245605069 0.018309106882596123 0 -0.0045845822982455596 0.01798385123983039 0 -0.0045922212860361467 0.018165183476582785 0 -0.0045594763774940298 0.01802755652733521 0 -0.0045845822982455596 0.01798385123983039 0 -0.0046048394147007133 0.017989224984005632 0 -0.0046329904137878079 0.018391483143054794 0 -0.0043580254186751264 0.018357926008129546 0 -0.0046326213245605069 0.018309106882596123 0 -0.0045845822982455596 0.01798385123983039 0 -0.0046048394147007133 0.017989224984005632 0 -0.0046326213245605069 0.018309106882596123 0 -0.0046048394147007133 0.017989224984005632 0 -0.0046329904137878079 0.018391483143054794 0 -0.0045809693261033239 0.017775650609607955 0 -0.0046048394147007133 0.017989224984005632 0 -0.0045845637536543679 0.017632768346768475 0 -0.0046048394147007133 0.017989224984005632 0 -0.0045845637536543679 0.017632768346768475 0 -0.0043580254186751264 0.018357926008129546 0 -0.0045819873326811388 0.017348839176969052 0 -0.0046787681754606554 0.017957205700306129 0 -0.004616041791992315 0.01726473540044306 0 -0.0045845637536543679 0.017632768346768475 0 -0.0043580254186751264 0.018357926008129546 0 -0.004616041791992315 0.01726473540044306 0 -0.0046300608652551489 0.0171076411235766 0 -0.0048357088900033577 0.017232313908979498 0 -0.004648998492646144 0.017021919014998173 0 -0.004616041791992315 0.01726473540044306 0 -0.0046300608652551489 0.0171076411235766 0 -0.0046444961333667453 0.017397318172604339 0 -0.004616041791992315 0.01726473540044306 0 -0.0045845637536543679 0.017632768346768475 0 -0.0046300608652551489 0.0171076411235766 0 -0.0048357088900033577 0.017232313908979498 0 -0.0044889072500944767 0.017242999697273123 0 -0.0046787681754606554 0.017957205700306129 0 -0.0041132694943370757 0.017599715039738398 0 -0.0048357088900033577 0.017232313908979498 0 -0.0045579126346609765 0.017706054476027615 0 -0.0044889072500944767 0.017242999697273123 0 -0.0048357088900033577 0.017232313908979498 0 -0.0045579126346609765 0.017706054476027615 0 -0.0051242836528838142 0.017880493876332389 0 -0.0046220068760512364 0.018673615580888165 0 -0.0043580254186751264 0.018357926008129546 0 -0.004412333444545842 0.018728197792607867 0 -0.0046220068760512364 0.018673615580888165 0 -0.0046329904137878079 0.018391483143054794 0 -0.0043580254186751264 0.018357926008129546 0 -0.0045121596325721361 0.018797018811639758 0 -0.0041132694943370757 0.017599715039738398 0 -0.0046015101351679043 0.01891823589523093 0 -0.0046220068760512364 0.018673615580888165 0 -0.0044862903479487484 0.018857359801790929 0 -0.0046015101351679043 0.01891823589523093 0 -0.0046271295258180408 0.018951478483042603 0 -0.0044862903479487484 0.018857359801790929 0 -0.004246629472985923 0.018642973581412103 0 -0.0045579126346609765 0.017706054476027615 0 -0.0051242836528838142 0.017880493876332389 0 -0.0036534386236027265 0.017148160375364787 0 -0.0041132694943370757 0.017599715039738398 0 -0.004246629472985923 0.018642973581412103 0 -0.003474074085046539 0.018117699784356754 0 -0.004042352828445301 0.017683921831908297 0 -0.004246629472985923 0.018642973581412103 0 -0.0045579126346609765 0.017706054476027615 0 -0.004042352828445301 0.017683921831908297 0 -0.0031731321366834202 0.018649292263190943 0 -0.004246629472985923 0.018642973581412103 0 -0.003474074085046539 0.018117699784356754 0 -0.0031731321366834202 0.018649292263190943 0 -0.0029347467763179169 0.018031018344400414 0 -0.003474074085046539 0.018117699784356754 0 -0.0029347467763179169 0.018031018344400414 0 -0.003474074085046539 0.018117699784356754 0 -0.0033196908171775259 0.017449053048933134 0 -0.003474074085046539 0.018117699784356754 0 -0.0033196908171775259 0.017449053048933134 0 -0.004042352828445301 0.017683921831908297 0 -0.0027761030743348788 0.016828858184661788 0 -0.0034290259302928836 0.016812357401456268 0 -0.0033196908171775259 0.017449053048933134 0 -0.0034290259302928836 0.016812357401456268 0 -0.0033196908171775259 0.017449053048933134 0 -0.0039917272386123144 0.017130715659072527 0 -0.0033196908171775259 0.017449053048933134 0 -0.0039917272386123144 0.017130715659072527 0 -0.004042352828445301 0.017683921831908297 0 -0.0039917272386123144 0.017130715659072527 0 -0.0044889072500944767 0.017242999697273123 0 -0.004042352828445301 0.017683921831908297 0 -0.0045579126346609765 0.017706054476027615 0 -0.0044889072500944767 0.017242999697273123 0 -0.004042352828445301 0.017683921831908297 0 0.0018314540765615654 0.03366983376518632 0 0.0021412926772693712 0.033598313182875074 0 0.0031077443634734509 0.03242010900724384 0 0.0018314540765615654 0.03366983376518632 0 0.0031077443634734509 0.03242010900724384 0 0.0027544452536396192 0.032718517924503421 0 0.0018314540765615654 0.03366983376518632 0 3.2338357584111983e-06 0.034997358402525158 0 4.1055059208173064e-07 0.034993992272826638 0 0.0018314540765615654 0.03366983376518632 0 3.2338357584111983e-06 0.034997358402525158 0 0.0021412926772693712 0.033598313182875074 0 3.2338357584111983e-06 0.034997358402525158 0 0.0016879107350786455 0.034276843552378373 0 0.0021412926772693712 0.033598313182875074 0 0.0016879107350786455 0.034276843552378373 0 0.0021412926772693712 0.033598313182875074 0 0.0032130479391272214 0.032352730932998203 0 3.2338357584111983e-06 0.034997358402525158 0 0.0016879107350786455 0.034276843552378373 0 1.7045844973897634e-06 0.034999366036573117 0 0.0021412926772693712 0.033598313182875074 0 0.0031077443634734509 0.03242010900724384 0 0.0032130479391272214 0.032352730932998203 0 0.0031077443634734509 0.03242010900724384 0 0.0036909257407533079 0.03136800982671404 0 0.0032130479391272214 0.032352730932998203 0 0.0031077443634734509 0.03242010900724384 0 0.0037107630068054743 0.030998798833041786 0 0.0032589397708205933 0.031778084982977753 0 0.0031077443634734509 0.03242010900724384 0 0.0037107630068054743 0.030998798833041786 0 0.0036909257407533079 0.03136800982671404 0 0.0037107630068054743 0.030998798833041786 0 0.0032589397708205933 0.031778084982977753 0 0.0036610360693305997 0.030080768103984364 0 0.0032589397708205933 0.031778084982977753 0 0.0027544452536396192 0.032718517924503421 0 0.0028945033813509158 0.032400226294727823 0 0.0031077443634734509 0.03242010900724384 0 0.0032589397708205933 0.031778084982977753 0 0.0027544452536396192 0.032718517924503421 0 0.0028945033813509158 0.032400226294727823 0 0.0024306565217956807 0.032336965935251802 0 0.002073079482744585 0.033253800902785464 0 0.0027544452536396192 0.032718517924503421 0 0.0028945033813509158 0.032400226294727823 0 0.002073079482744585 0.033253800902785464 0 0.0028945033813509158 0.032400226294727823 0 0.0030684287752981683 0.031858674428781798 0 0.0029307311589092323 0.031998036823539966 0 0.0032589397708205933 0.031778084982977753 0 0.0028945033813509158 0.032400226294727823 0 0.0030684287752981683 0.031858674428781798 0 0.0032589397708205933 0.031778084982977753 0 0.0030684287752981683 0.031858674428781798 0 0.0030036299650756937 0.0314705793424803 0 0.0029307311589092323 0.031998036823539966 0 0.0029823798498752165 0.031672782904236335 0 0.0030677633032544348 0.031693676114346404 0 0.0030684287752981683 0.031858674428781798 0 0.0029307311589092323 0.031998036823539966 0 0.0030677633032544348 0.031693676114346404 0 0.0029307311589092323 0.031998036823539966 0 0.0024306565217956807 0.032336965935251802 0 0.0027101729757379543 0.031805890559838047 0 0.0028945033813509158 0.032400226294727823 0 0.0029307311589092323 0.031998036823539966 0 0.0024306565217956807 0.032336965935251802 0 0.0024306565217956807 0.032336965935251802 0 0.002073079482744585 0.033253800902785464 0 0.0016470252043377241 0.032074452110447065 0 0.0024306565217956807 0.032336965935251802 0 0.0016470252043377241 0.032074452110447065 0 0.0027101729757379543 0.031805890559838047 0 0.0018314540765615654 0.03366983376518632 0 0.0027544452536396192 0.032718517924503421 0 0.002073079482744585 0.033253800902785464 0 0.0018314540765615654 0.03366983376518632 0 0.002073079482744585 0.033253800902785464 0 4.1055059208173064e-07 0.034993992272826638 0 2.8689894655270088e-09 0.035000016601913188 0 2.845899170902721e-08 0.034999993511123026 0 2.5732829822063495e-05 0.035001555442723334 0 0.002073079482744585 0.033253800902785464 0 4.1055059208173064e-07 0.034993992272826638 0 0.0016470252043377241 0.032074452110447065 0 3.0073908262159876e-07 0.034999400328340764 0 0.00085121763284833898 0.033607617198079733 0 2.845899170902721e-08 0.034999993511123026 0 2.5732829822063495e-05 0.035001555442723334 0 3.2088816229728197e-05 0.034992701901714433 0 0.0016470252043377241 0.032074452110447065 0 0.0024741589003482289 0.031400522215672438 0 0.0027101729757379543 0.031805890559838047 0 0.00085121763284833898 0.033607617198079733 0 0.0013494352799567535 0.033017901986747984 0 2.5732829822063495e-05 0.035001555442723334 0 3.2088816229728197e-05 0.034992701901714433 0 6.482046063297399e-05 0.034991119707046867 0 3.2088816229728197e-05 0.034992701901714433 0 5.966504444600063e-05 0.034980873100172359 0 6.482046063297399e-05 0.034991119707046867 0 2.845899170902721e-08 0.034999993511123026 0 3.2088816229728197e-05 0.034992701901714433 0 1.8670640860678959e-08 0.034999986968265978 0 3.2088816229728197e-05 0.034992701901714433 0 1.8670640860678959e-08 0.034999986968265978 0 4.411766693276723e-05 0.034982759772460334 0 3.2088816229728197e-05 0.034992701901714433 0 5.966504444600063e-05 0.034980873100172359 0 4.411766693276723e-05 0.034982759772460334 0 5.966504444600063e-05 0.034980873100172359 0 4.411766693276723e-05 0.034982759772460334 0 6.4259630713665305e-05 0.034969482285413682 0 4.411766693276723e-05 0.034982759772460334 0 5.8832701778941771e-05 0.03496612415747942 0 6.4259630713665305e-05 0.034969482285413682 0 9.0456933685545223e-05 0.034963842471093902 0 0.00011685793436944378 0.03504637140403126 0 0.00020435279314495126 0.03493269073364226 0 5.8832701778941771e-05 0.03496612415747942 0 0.00034461532588622712 0.03506417075520811 0 2.2474764774233368e-05 0.034953091930776815 0 0.00020435279314495126 0.03493269073364226 0 5.8832701778941771e-05 0.03496612415747942 0 1.8670640860678959e-08 0.034999986968265978 0 4.411766693276723e-05 0.034982759772460334 0 5.8832701778941771e-05 0.03496612415747942 0 2.8166243833449163e-08 0.034999879600536188 0 2.2474764774233368e-05 0.034953091930776815 0 1.8670640860678959e-08 0.034999986968265978 0 2.2474764774233368e-05 0.034953091930776815 0 1.8670640860678959e-08 0.034999986968265978 0 5.8832701778941771e-05 0.03496612415747942 0 0.00083574309843581507 0.0347306504601387 0 0.00041205549868703664 0.034780512781011907 0 0.00059641131501233439 0.034954229412346147 0 0.00083574309843581507 0.0347306504601387 0 0.00059641131501233439 0.034954229412346147 0 0.00081290252596447489 0.035036082049423357 0 0.00041205549868703664 0.034780512781011907 0 0.00059641131501233439 0.034954229412346147 0 0.00034461532588622712 0.03506417075520811 0 0.00041205549868703664 0.034780512781011907 0 0.00020435279314495126 0.03493269073364226 0 0.00034461532588622712 0.03506417075520811 0 0.00059641131501233439 0.034954229412346147 0 0.00034461532588622712 0.03506417075520811 0 0.00063290537300268322 0.035231516333020629 0 5.966504444600063e-05 0.034980873100172359 0 6.4259630713665305e-05 0.034969482285413682 0 9.6273407269122498e-05 0.0349724167293805 0 0.00011685793436944378 0.03504637140403126 0 0.0013056194306851386 0.034235483021732703 0 0.00059641131501233439 0.034954229412346147 0 0.00063290537300268322 0.035231516333020629 0 0.00081290252596447489 0.035036082049423357 0 0.00073756885239643932 0.0351227858210061 0 0.00081290252596447489 0.035036082049423357 0 0.00087334795486201727 0.035215071834702516 0 0.0013056194306851386 0.034235483021732703 0 0.00055998289186573317 0.035252535251038122 0 0.0028646652843155734 0.031179937330535437 0 0.002895074600808819 0.031478779632612655 0 0.0030657947814782417 0.031381264441732934 0 0.0013056194306851386 0.034235483021732703 0 0.0019819434311418235 0.033313190955121676 0 0.002895074600808819 0.031478779632612655 0 0.0030612220333331259 0.031518215838269262 0 0.0030657947814782417 0.031381264441732934 0 5.966504444600063e-05 0.034980873100172359 0 9.6273407269122498e-05 0.0349724167293805 0 6.482046063297399e-05 0.034991119707046867 0 0.0028646652843155734 0.031179937330535437 0 0.002895074600808819 0.031478779632612655 0 0.0024741589003482289 0.031400522215672438 0 0.0013056194306851386 0.034235483021732703 0 0.0013494352799567535 0.033017901986747984 0 0.002895074600808819 0.031478779632612655 0 0.0024741589003482289 0.031400522215672438 0 0.0027101729757379543 0.031805890559838047 0 0.002895074600808819 0.031478779632612655 0 0.0029823798498752165 0.031672782904236335 0 0.0030612220333331259 0.031518215838269262 0 0.002895074600808819 0.031478779632612655 0 0.0027101729757379543 0.031805890559838047 0 0.0029823798498752165 0.031672782904236335 0 0.0029307311589092323 0.031998036823539966 0 0.0027101729757379543 0.031805890559838047 0 0.0029823798498752165 0.031672782904236335 0 0.0029823798498752165 0.031672782904236335 0 0.0030678317694243728 0.031597515943911629 0 0.0030677633032544348 0.031693676114346404 0 0.0029823798498752165 0.031672782904236335 0 0.0030678317694243728 0.031597515943911629 0 0.0030612220333331259 0.031518215838269262 0 0.0030678317694243728 0.031597515943911629 0 0.0030948528567748355 0.031518530128124875 0 0.0030726491611911071 0.031481978538815368 0 0.0030948528567748355 0.031518530128124875 0 0.0031364260557121579 0.031498364527486861 0 0.0030612220333331259 0.031518215838269262 0 0.002968318234839023 0.031543262610898966 0 0.0022896587151377012 0.032400147341381899 0 0.0030678317694243728 0.031597515943911629 0 0.0030948528567748355 0.031518530128124875 0 0.0030612220333331259 0.031518215838269262 0 0.0031952670798848968 0.031451194268773741 0 0.0030334207500482165 0.031377428683307867 0 0.0029681178492740991 0.031474045032028428 0 0.0030334207500482165 0.031377428683307867 0 0.0028678036809237587 0.031240747831737203 0 0.002944107013920034 0.03120673747228395 0 0.0030948528567748355 0.031518530128124875 0 0.0030334207500482165 0.031377428683307867 0 0.0030726491611911071 0.031481978538815368 0 0.0022896587151377012 0.032400147341381899 0 0.0029087580740466412 0.031659753369219175 0 0.0030948528567748355 0.031518530128124875 0 0.0030737497281280658 0.0315177714972995 0 0.0030334207500482165 0.031377428683307867 0 0.0030334207500482165 0.031377428683307867 0 0.0029681178492740991 0.031474045032028428 0 0.0028678036809237587 0.031240747831737203 0 0.0031952670798848968 0.031451194268773741 0 0.0030946606440949253 0.031760335508154124 0 0.0029681178492740991 0.031474045032028428 0 0.0010258880078370682 0.035311565791536367 0 0.0010085912704297238 0.0351930079078299 0 0.0011739180103279832 0.035139209954597017 0 0.0022896587151377012 0.032400147341381899 0 0.002044725662016602 0.033630666588138805 0 0.0031364260557121579 0.031498364527486861 0 0.0030612220333331259 0.031518215838269262 0 0.0030657947814782417 0.031381264441732934 0 0.0022896587151377012 0.032400147341381899 0 0.0019819434311418235 0.033313190955121676 0 0.0010258880078370682 0.035311565791536367 0 0.0010085912704297238 0.0351930079078299 0 0.00087334795486201727 0.035215071834702516 0 0.0010085912704297238 0.0351930079078299 0 0.00087334795486201727 0.035215071834702516 0 0.00096984691137514355 0.03510425704070079 0 0.00081290252596447489 0.035036082049423357 0 0.00096984691137514355 0.03510425704070079 0 0.0010574201614667619 0.034944174070206287 0 0.00081290252596447489 0.035036082049423357 0 0.00087334795486201727 0.035215071834702516 0 0.00096984691137514355 0.03510425704070079 0 0.0011739180103279832 0.035139209954597017 0 0.0010574201614667619 0.034944174070206287 0 0.0013493680271528695 0.03492208294550405 0 0.00096984691137514355 0.03510425704070079 0 0.0011739180103279832 0.035139209954597017 0 0.0010574201614667619 0.034944174070206287 0 0.0010085912704297238 0.0351930079078299 0 0.00096984691137514355 0.03510425704070079 0 0.0011739180103279832 0.035139209954597017 0 0.0011752454458761762 0.034703073229779377 0 0.0010574201614667619 0.034944174070206287 0 0.0013493680271528695 0.03492208294550405 0 0.00083574309843581507 0.0347306504601387 0 0.00081290252596447489 0.035036082049423357 0 0.0010574201614667619 0.034944174070206287 0 0.00083574309843581507 0.0347306504601387 0 0.0011752454458761762 0.034703073229779377 0 0.0010574201614667619 0.034944174070206287 0 0.0025794779109190999 0.033003234020749499 0 0.002923125691219595 0.032293665261996285 0 0.0020989828034739437 0.032515476728240136 0 0.002923125691219595 0.032293665261996285 0 0.0023563496709316074 0.031881356457069972 0 0.0020989828034739437 0.032515476728240136 0 0.0017671210450168153 0.033908248036619473 0 0.0021793662783321393 0.033558115667633288 0 0.0015228151748814876 0.034676873770345576 0 0.0011752454458761762 0.034703073229779377 0 0.0013493680271528695 0.03492208294550405 0 0.002044725662016602 0.033630666588138805 0 0.0021793662783321393 0.033558115667633288 0 0.0030946606440949253 0.031760335508154124 0 0.002923125691219595 0.032293665261996285 0 0.0027799343432966654 0.031772493419376928 0 0.002923125691219595 0.032293665261996285 0 0.0027799343432966654 0.031772493419376928 0 0.0023563496709316074 0.031881356457069972 0 0.0023563496709316074 0.031881356457069972 0 0.0027235920683742563 0.031396260004783433 0 0.0022067357905403155 0.031247158346623408 0 0.0027799343432966654 0.031772493419376928 0 0.0023563496709316074 0.031881356457069972 0 0.0027235920683742563 0.031396260004783433 0 0.0030946606440949253 0.031760335508154124 0 0.0027799343432966654 0.031772493419376928 0 0.0029681178492740991 0.031474045032028428 0 0.0027799343432966654 0.031772493419376928 0 0.0027235920683742563 0.031396260004783433 0 0.0029681178492740991 0.031474045032028428 0 0.0027235920683742563 0.031396260004783433 0 0.0028678036809237587 0.031240747831737203 0 0.0026717160235799203 0.030950583398675912 0 0.0027235920683742563 0.031396260004783433 0 0.0029681178492740991 0.031474045032028428 0 0.0028678036809237587 0.031240747831737203 0 0.0027235920683742563 0.031396260004783433 0 0.0026717160235799203 0.030950583398675912 0 0.0022067357905403155 0.031247158346623408 0 0.0026717160235799203 0.030950583398675912 0 0.0019209114685356089 0.030554439892385755 0 0.0022067357905403155 0.031247158346623408 0 0.0026717160235799203 0.030950583398675912 0 0.0023078684423476258 0.030168021175156153 0 0.0019209114685356089 0.030554439892385755 0 0.0030432104351731967 0.030183612907919821 0 0.0026393432208311907 0.029687221968382131 0 0.0023078684423476258 0.030168021175156153 0 0.0026717160235799203 0.030950583398675912 0 0.0028574558444291178 0.030842053494723048 0 0.0023078684423476258 0.030168021175156153 0 0.0029095222053893339 0.030517321360304342 0 0.0023290062443582396 0.030252227870621873 0 0.0026717160235799203 0.030950583398675912 0 0.0028574558444291178 0.030842053494723048 0 0.002944107013920034 0.03120673747228395 0 0.0028678036809237587 0.031240747831737203 0 0.0026717160235799203 0.030950583398675912 0 0.002944107013920034 0.03120673747228395 0 0.0030334207500482165 0.031377428683307867 0 0.002944107013920034 0.03120673747228395 0 0.0030726491611911071 0.031481978538815368 0 0.002944107013920034 0.03120673747228395 0 0.003039070608524222 0.031437001898650029 0 0.0030726491611911071 0.031481978538815368 0 0.0030684287752981683 0.031858674428781798 0 0.003039070608524222 0.031437001898650029 0 0.0030677633032544348 0.031693676114346404 0 0.0030678317694243728 0.031597515943911629 0 0.0030677633032544348 0.031693676114346404 0 0.0030726491611911071 0.031481978538815368 0 0.003039070608524222 0.031437001898650029 0 0.0030677633032544348 0.031693676114346404 0 0.0030726491611911071 0.031481978538815368 0 0.0030684287752981683 0.031858674428781798 0 0.003039070608524222 0.031437001898650029 0 0.0030036299650756937 0.0314705793424803 0 0.0028574558444291178 0.030842053494723048 0 0.002944107013920034 0.03120673747228395 0 0.003039070608524222 0.031437001898650029 0 0.0029095222053893339 0.030517321360304342 0 0.003252892901412785 0.031061349469332065 0 0.0028574558444291178 0.030842053494723048 0 0.003039070608524222 0.031437001898650029 0 0.0030036299650756937 0.0314705793424803 0 0.0030432104351731967 0.030183612907919821 0 0.0034708724802010459 0.030590731117770043 0 0.003140657957330538 0.029583167535661769 0 0.0032589397708205933 0.031778084982977753 0 0.0034708724802010459 0.030590731117770043 0 0.0036610360693305997 0.030080768103984364 0 0.0032881404800847989 0.03162351349113246 0 0.003252892901412785 0.031061349469332065 0 0.0034708724802010459 0.030590731117770043 0 0.0036610360693305997 0.030080768103984364 0 0.003140657957330538 0.029583167535661769 0 0.003140657957330538 0.029583167535661769 0 0.0025590251000015135 0.029036415598647534 0 0.0028263553863734016 0.028316099019576779 0 0.0025590251000015135 0.029036415598647534 0 0.0026393432208311907 0.029687221968382131 0 0.0020088051691237608 0.029203464113025678 0 0.003140657957330538 0.029583167535661769 0 0.0025590251000015135 0.029036415598647534 0 0.0026393432208311907 0.029687221968382131 0 0.0026393432208311907 0.029687221968382131 0 0.0020088051691237608 0.029203464113025678 0 0.0023078684423476258 0.030168021175156153 0 0.0030432104351731967 0.030183612907919821 0 0.003140657957330538 0.029583167535661769 0 0.0026393432208311907 0.029687221968382131 0 0.0020088051691237608 0.029203464113025678 0 0.001186436703588538 0.028468229992082032 0 0.0014332018602278215 0.029546176931264538 0 0.0020088051691237608 0.029203464113025678 0 0.0014332018602278215 0.029546176931264538 0 0.0023078684423476258 0.030168021175156153 0 0.0025590251000015135 0.029036415598647534 0 0.0020088051691237608 0.029203464113025678 0 0.0019666833587645679 0.028250782909366935 0 0.0020088051691237608 0.029203464113025678 0 0.001186436703588538 0.028468229992082032 0 0.0019666833587645679 0.028250782909366935 0 0.001186436703588538 0.028468229992082032 0 0.00040060141689493594 0.02839016426827895 0 0.00059524053931867341 0.027641266719554167 0 0.001186436703588538 0.028468229992082032 0 0.0009279784018560224 0.028949415416914835 0 0.00040060141689493594 0.02839016426827895 0 0.0009279784018560224 0.028949415416914835 0 0.00070832318752366355 0.029491473439420966 0 0.00040060141689493594 0.02839016426827895 0 0.001186436703588538 0.028468229992082032 0 0.0009279784018560224 0.028949415416914835 0 0.0014332018602278215 0.029546176931264538 0 0.00070832318752366355 0.029491473439420966 0 0.0012151260347415182 0.030041044094058549 0 0.0014332018602278215 0.029546176931264538 0 0.0009279784018560224 0.028949415416914835 0 0.00070832318752366355 0.029491473439420966 0 0.0014332018602278215 0.029546176931264538 0 0.00070832318752366355 0.029491473439420966 0 0.00071905977433209061 0.030122691755292724 0 0.00026233184528607001 0.029625293699241984 0 0.00070832318752366355 0.029491473439420966 0 0.00071905977433209061 0.030122691755292724 0 0.0012151260347415182 0.030041044094058549 0 0.00071905977433209061 0.030122691755292724 0 0.0012151260347415182 0.030041044094058549 0 0.00127764702823444 0.030646865483416476 0 0.0012151260347415182 0.030041044094058549 0 0.0019209114685356089 0.030554439892385755 0 0.00127764702823444 0.030646865483416476 0 0.0012151260347415182 0.030041044094058549 0 0.0014332018602278215 0.029546176931264538 0 0.0019209114685356089 0.030554439892385755 0 0.0014332018602278215 0.029546176931264538 0 0.0023078684423476258 0.030168021175156153 0 0.0019209114685356089 0.030554439892385755 0 0.0019209114685356089 0.030554439892385755 0 0.0016446591442055942 0.031106541845749923 0 0.0022067357905403155 0.031247158346623408 0 0.0019209114685356089 0.030554439892385755 0 0.0016446591442055942 0.031106541845749923 0 0.00127764702823444 0.030646865483416476 0 0.0016446591442055942 0.031106541845749923 0 0.0016296326301447194 0.031931122318570974 0 0.0011683879613798478 0.031287825313591852 0 0.0016446591442055942 0.031106541845749923 0 0.0011683879613798478 0.031287825313591852 0 0.00127764702823444 0.030646865483416476 0 0.0016446591442055942 0.031106541845749923 0 0.0022067357905403155 0.031247158346623408 0 0.0016296326301447194 0.031931122318570974 0 0.0023563496709316074 0.031881356457069972 0 0.0016296326301447194 0.031931122318570974 0 0.0020989828034739437 0.032515476728240136 0 0.0023563496709316074 0.031881356457069972 0 0.0022067357905403155 0.031247158346623408 0 0.0016296326301447194 0.031931122318570974 0 0.0016296326301447194 0.031931122318570974 0 0.00095064347681470365 0.032021842011801964 0 0.0011683879613798478 0.031287825313591852 0 0.0016296326301447194 0.031931122318570974 0 0.0011517850664031362 0.032450340749173412 0 0.00095064347681470365 0.032021842011801964 0 0.0016296326301447194 0.031931122318570974 0 0.0011517850664031362 0.032450340749173412 0 0.0013997019214893613 0.032627999831956696 0 0.0011211559422320207 0.033104546293991614 0 0.0011517850664031362 0.032450340749173412 0 0.0013997019214893613 0.032627999831956696 0 0.0016296326301447194 0.031931122318570974 0 0.0013997019214893613 0.032627999831956696 0 0.0020989828034739437 0.032515476728240136 0 0.0014920563070657631 0.033188776865534474 0 0.0013997019214893613 0.032627999831956696 0 0.0020989828034739437 0.032515476728240136 0 0.00076597835469969741 0.03170263459610477 0 0.00045257036856416574 0.030791293545548989 0 0.00075068924502598737 0.03064405256773587 0 0.0012267277401965375 0.030549827968386803 0 0.00056824793148014044 0.030246043297212189 0 0.00098529077983039448 0.030888741061875807 0 0.00075068924502598737 0.03064405256773587 0 0.0012267277401965375 0.030549827968386803 0 0.00087228220981492579 0.031941965305237539 0 0.00076597835469969741 0.03170263459610477 0 0.0011211559422320207 0.033104546293991614 0 0.0011517850664031362 0.032450340749173412 0 0.00076599436929117868 0.032612705183036571 0 0.0011517850664031362 0.032450340749173412 0 0.00076599436929117868 0.032612705183036571 0 0.00095064347681470365 0.032021842011801964 0 0.00076599436929117868 0.032612705183036571 0 0.00055061454987463221 0.032474278966166656 0 0.00095064347681470365 0.032021842011801964 0 0.00055061454987463221 0.032474278966166656 0 0.00076001038101639019 0.031530059648778107 0 0.00095064347681470365 0.032021842011801964 0 0.00076597835469969741 0.03170263459610477 0 0.00072655347150301633 0.0317715753761659 0 0.00076001038101639019 0.031530059648778107 0 0.00095064347681470365 0.032021842011801964 0 0.0011683879613798478 0.031287825313591852 0 0.00075876254306956909 0.031837221906517284 0 0.00076001038101639019 0.031530059648778107 0 0.00027271651103992527 0.031447802130095126 0 0.00076001038101639019 0.031530059648778107 0 0.00024429829943667109 0.030821247342457014 0 0.00027271651103992527 0.031447802130095126 0 0.00076001038101639019 0.031530059648778107 0 0.00069490185569762847 0.030748446948106953 0 0.00024429829943667109 0.030821247342457014 0 0.00076001038101639019 0.031530059648778107 0 0.00069490185569762847 0.030748446948106953 0 0.0011683879613798478 0.031287825313591852 0 0.00069490185569762847 0.030748446948106953 0 0.0011683879613798478 0.031287825313591852 0 0.00127764702823444 0.030646865483416476 0 0.00071905977433209061 0.030122691755292724 0 0.00069490185569762847 0.030748446948106953 0 0.00127764702823444 0.030646865483416476 0 0.00071905977433209061 0.030122691755292724 0 0.00069490185569762847 0.030748446948106953 0 0.0002551085023030706 0.030222692359087974 0 0.0002551085023030706 0.030222692359087974 0 -0.00020363741607694306 0.030294960619956752 0 0.00024429829943667109 0.030821247342457014 0 0.0002551085023030706 0.030222692359087974 0 -0.00020363741607694306 0.030294960619956752 0 -0.00027078423440714554 0.029639798768272 0 -0.00020363741607694306 0.030294960619956752 0 -0.00061311157330058231 0.030000727814604413 0 -0.00027078423440714554 0.029639798768272 0 -0.00020363741607694306 0.030294960619956752 0 -0.00037056286916429371 0.030765149718136566 0 0.00024429829943667109 0.030821247342457014 0 -0.00020363741607694306 0.030294960619956752 0 -0.00037056286916429371 0.030765149718136566 0 -0.00061311157330058231 0.030000727814604413 0 0.00069490185569762847 0.030748446948106953 0 0.0002551085023030706 0.030222692359087974 0 0.00024429829943667109 0.030821247342457014 0 -0.00037056286916429371 0.030765149718136566 0 0.00024429829943667109 0.030821247342457014 0 0.00027271651103992527 0.031447802130095126 0 -0.00018677047129172055 0.030371380169722243 0 0.00045257036856416574 0.030791293545548989 0 -6.5730439932817981e-05 0.029988035835298816 0 0.00056824793148014044 0.030246043297212189 0 0.00014898072723882301 0.030578207607668141 0 -6.5730439932817981e-05 0.029988035835298816 0 0.00014898072723882301 0.030578207607668141 0 -0.00052271992153261502 0.030280039747791955 0 0.00066516982066179391 0.031038958305811312 0 0.00075068924502598737 0.03064405256773587 0 0.00014898072723882301 0.030578207607668141 0 0.00075068924502598737 0.03064405256773587 0 0.00056824793148014044 0.030246043297212189 0 0.00014898072723882301 0.030578207607668141 0 -0.00081319686917776174 0.030605575723227977 0 -0.00039878495988104407 0.030782487942153616 0 -0.00052271992153261502 0.030280039747791955 0 0.00014898072723882301 0.030578207607668141 0 -0.00039878495988104407 0.030782487942153616 0 -0.00052271992153261502 0.030280039747791955 0 -0.0010360004132194682 0.030225406172304528 0 -0.00081319686917776174 0.030605575723227977 0 -0.00052271992153261502 0.030280039747791955 0 -0.0010360004132194682 0.030225406172304528 0 -0.00052271992153261502 0.030280039747791955 0 -0.00070637466935630927 0.029761114920348792 0 -0.000798398809063087 0.028957756876855478 0 -0.00093425506987123092 0.02902123443212189 0 -0.00083147606777787906 0.029450047167487288 0 -0.00090194167911807066 0.029607429487491413 0 -0.00082884637365948177 0.029429532217559184 0 -0.0010360004132194682 0.030225406172304528 0 -0.00070637466935630927 0.029761114920348792 0 -0.00083147606777787906 0.029450047167487288 0 -0.00018677047129172055 0.030371380169722243 0 -0.00065841185210857838 0.029860025944518712 0 -6.5730439932817981e-05 0.029988035835298816 0 -0.00052271992153261502 0.030280039747791955 0 -0.00070637466935630927 0.029761114920348792 0 -0.00037056286916429371 0.030765149718136566 0 -0.00070637466935630927 0.029761114920348792 0 -0.00061311157330058231 0.030000727814604413 0 -0.00061311157330058231 0.030000727814604413 0 -0.00088973259023994477 0.029676394582909989 0 -0.00027078423440714554 0.029639798768272 0 -0.00070637466935630927 0.029761114920348792 0 -0.00061311157330058231 0.030000727814604413 0 -0.00083147606777787906 0.029450047167487288 0 -0.00061311157330058231 0.030000727814604413 0 -0.0016614077845182359 0.030167286146964852 0 -0.00088973259023994477 0.029676394582909989 0 -0.00061311157330058231 0.030000727814604413 0 -0.00083147606777787906 0.029450047167487288 0 -0.00091229758270514668 0.029093795106906142 0 -0.00093425506987123092 0.02902123443212189 0 -0.00083147606777787906 0.029450047167487288 0 -0.00091229758270514668 0.029093795106906142 0 -0.00072281768437289955 0.029927389887146327 0 -0.0013387501274590744 0.029618012558007178 0 -0.0020730243813767697 0.028925443787812977 0 -0.0016333012750670154 0.029525808437725076 0 -0.00073760047589241633 0.028991541830567086 0 -0.0016333012750670154 0.029525808437725076 0 -0.00073760047589241633 0.028991541830567086 0 -0.00088973259023994477 0.029676394582909989 0 -0.0016614077845182359 0.030167286146964852 0 -0.0016333012750670154 0.029525808437725076 0 -0.00088973259023994477 0.029676394582909989 0 -0.0020730243813767697 0.028925443787812977 0 -0.00073760047589241633 0.028991541830567086 0 -0.0013522014831573424 0.028088885081380167 0 -0.00073760047589241633 0.028991541830567086 0 -0.00088973259023994477 0.029676394582909989 0 -0.00027078423440714554 0.029639798768272 0 -0.00073760047589241633 0.028991541830567086 0 -0.00027078423440714554 0.029639798768272 0 0.00020749699969000541 0.02890513616244765 0 -0.00027078423440714554 0.029639798768272 0 0.00026233184528607001 0.029625293699241984 0 0.00020749699969000541 0.02890513616244765 0 0.0002551085023030706 0.030222692359087974 0 -0.00027078423440714554 0.029639798768272 0 0.00026233184528607001 0.029625293699241984 0 0.00071905977433209061 0.030122691755292724 0 0.0002551085023030706 0.030222692359087974 0 0.00026233184528607001 0.029625293699241984 0 0.00070832318752366355 0.029491473439420966 0 0.00020749699969000541 0.02890513616244765 0 0.00040060141689493594 0.02839016426827895 0 0.00070832318752366355 0.029491473439420966 0 0.00026233184528607001 0.029625293699241984 0 0.00020749699969000541 0.02890513616244765 0 -0.00073760047589241633 0.028991541830567086 0 0.00020749699969000541 0.02890513616244765 0 -7.3172761274746702e-05 0.027611787146169801 0 0.00020749699969000541 0.02890513616244765 0 0.00040060141689493594 0.02839016426827895 0 -7.3172761274746702e-05 0.027611787146169801 0 0.00040060141689493594 0.02839016426827895 0 -7.3172761274746702e-05 0.027611787146169801 0 -3.6508498672044362e-05 0.027765600794084442 0 -1.8140441033254492e-05 0.027558464453189945 0 0.00078831306572388479 0.026211285693745621 0 -0.0016013380481537821 0.026857347998200467 0 -7.3172761274746702e-05 0.027611787146169801 0 -0.00056649831572606185 0.024686193685360607 0 -0.0021578791731574811 0.025079089648352912 0 -0.0016013380481537821 0.026857347998200467 0 -0.00056649831572606185 0.024686193685360607 0 -0.0024268689739054554 0.027977616780395228 0 -0.0016013380481537821 0.026857347998200467 0 -0.0013522014831573424 0.028088885081380167 0 -0.0016013380481537821 0.026857347998200467 0 -0.0013522014831573424 0.028088885081380167 0 -7.3172761274746702e-05 0.027611787146169801 0 -0.00073760047589241633 0.028991541830567086 0 -0.0013522014831573424 0.028088885081380167 0 -7.3172761274746702e-05 0.027611787146169801 0 -0.00056649831572606185 0.024686193685360607 0 0.0010959242310622009 0.022690879464145722 0 -0.00066166973946652169 0.022318779548235492 0 -0.0018607439600677371 0.023288957086184121 0 -0.00056649831572606185 0.024686193685360607 0 -0.00066166973946652169 0.022318779548235492 0 -0.0018607439600677371 0.023288957086184121 0 -0.0021578791731574811 0.025079089648352912 0 -0.00056649831572606185 0.024686193685360607 0 -7.3172761274746702e-05 0.027611787146169801 0 -0.00056649831572606185 0.024686193685360607 0 0.0016866333084900786 0.024652042600561554 0 0.00040060141689493594 0.02839016426827895 0 -3.6508498672044362e-05 0.027765600794084442 0 0.00059524053931867341 0.027641266719554167 0 -3.6508498672044362e-05 0.027765600794084442 0 7.9756391690116512e-05 0.026994191267661977 0 0.00059524053931867341 0.027641266719554167 0 0.00078831306572388479 0.026211285693745621 0 0.0013581304302313268 0.024638526778989873 0 0.0016866333084900786 0.024652042600561554 0 0.0010959242310622009 0.022690879464145722 0 0.0026419414041927336 0.022292569186692462 0 -0.00056649831572606185 0.024686193685360607 0 0.0016866333084900786 0.024652042600561554 0 0.0010959242310622009 0.022690879464145722 0 0.0010959242310622009 0.022690879464145722 0 0.001217410862196203 0.02162866473761697 0 0.0026419414041927336 0.022292569186692462 0 0.0010959242310622009 0.022690879464145722 0 0.001217410862196203 0.02162866473761697 0 0.00024911724723944689 0.021290841639714342 0 0.001217410862196203 0.02162866473761697 0 0.0026419414041927336 0.022292569186692462 0 0.0019839090558539936 0.021248096642425784 0 0.0026419414041927336 0.022292569186692462 0 0.0019839090558539936 0.021248096642425784 0 0.0029245514141215184 0.020733075582494778 0 0.0019839090558539936 0.021248096642425784 0 0.002138922340140736 0.020606068958305274 0 0.0013512102758711894 0.02022577773135387 0 0.0019839090558539936 0.021248096642425784 0 0.002138922340140736 0.020606068958305274 0 0.0029245514141215184 0.020733075582494778 0 0.001217410862196203 0.02162866473761697 0 0.0010274405401848434 0.020908680238291767 0 0.00024911724723944689 0.021290841639714342 0 0.001217410862196203 0.02162866473761697 0 0.0019839090558539936 0.021248096642425784 0 0.0010274405401848434 0.020908680238291767 0 0.0019839090558539936 0.021248096642425784 0 0.0010274405401848434 0.020908680238291767 0 0.0013512102758711894 0.02022577773135387 0 0.0010274405401848434 0.020908680238291767 0 0.00031721977235713255 0.020183317613345499 0 0.0013512102758711894 0.02022577773135387 0 -0.00023969085650679762 0.020615204244722095 0 0.00024911724723944689 0.021290841639714342 0 0.00031721977235713255 0.020183317613345499 0 0.0010274405401848434 0.020908680238291767 0 0.00024911724723944689 0.021290841639714342 0 0.00031721977235713255 0.020183317613345499 0 -0.00023969085650679762 0.020615204244722095 0 0.00024911724723944689 0.021290841639714342 0 -0.00093823124665304834 0.020946775878795291 0 0.00024911724723944689 0.021290841639714342 0 -0.00066166973946652169 0.022318779548235492 0 -0.00093823124665304834 0.020946775878795291 0 0.0010959242310622009 0.022690879464145722 0 0.00024911724723944689 0.021290841639714342 0 -0.00066166973946652169 0.022318779548235492 0 -0.0019652746016524431 0.021468968943027592 0 -0.00066166973946652169 0.022318779548235492 0 -0.00093823124665304834 0.020946775878795291 0 -0.0018607439600677371 0.023288957086184121 0 -0.0019652746016524431 0.021468968943027592 0 -0.00066166973946652169 0.022318779548235492 0 -0.0020959558309584089 0.020085486499227773 0 -0.0019652746016524431 0.021468968943027592 0 -0.00093823124665304834 0.020946775878795291 0 -0.0020959558309584089 0.020085486499227773 0 -0.00093823124665304834 0.020946775878795291 0 -0.000524517940157571 0.019877580381444861 0 -0.00023969085650679762 0.020615204244722095 0 -0.00093823124665304834 0.020946775878795291 0 -0.000524517940157571 0.019877580381444861 0 -0.0020959558309584089 0.020085486499227773 0 -0.000524517940157571 0.019877580381444861 0 -0.001109401661248249 0.019121037597676114 0 -0.0020851594203866557 0.020040871901549906 0 -0.00066202554367678426 0.019659655117933793 0 -0.000524517940157571 0.019877580381444861 0 -0.0008586554777189827 0.019434337661982048 0 -9.7457995308160839e-05 0.019455960003900229 0 -0.00067154231130126028 0.019673170685761208 0 -0.00066202554367678426 0.019659655117933793 0 -0.000524517940157571 0.019877580381444861 0 0.00031721977235713255 0.020183317613345499 0 -9.7457995308160839e-05 0.019455960003900229 0 -0.00023969085650679762 0.020615204244722095 0 -0.000524517940157571 0.019877580381444861 0 0.00031721977235713255 0.020183317613345499 0 0.00031721977235713255 0.020183317613345499 0 -9.7457995308160839e-05 0.019455960003900229 0 0.00067134782991651375 0.019346268730586463 0 -9.7457995308160839e-05 0.019455960003900229 0 5.5594545719306058e-06 0.018480622855605578 0 0.00067134782991651375 0.019346268730586463 0 5.5594545719306058e-06 0.018480622855605578 0 0.00067134782991651375 0.019346268730586463 0 0.001216731034502554 0.01857090511540084 0 0.00045762954121457671 0.020667214965018586 0 0.00044277866060591926 0.020642291579132756 0 0.00044185605628391765 0.020671459457606577 0 -0.00066202554367678426 0.019659655117933793 0 0.00022836179279226535 0.019657331202648679 0 -0.0008586554777189827 0.019434337661982048 0 -9.7457995308160839e-05 0.019455960003900229 0 5.5594545719306058e-06 0.018480622855605578 0 -0.00081014190897272381 0.019792953996775494 0 -0.00066202554367678426 0.019659655117933793 0 0.00045762954121457671 0.020667214965018586 0 0.00044185605628391765 0.020671459457606577 0 0.00046078669162798229 0.020702659312515973 0 0.00044185605628391765 0.020671459457606577 0 0.00046078669162798229 0.020702659312515973 0 0.00044530218515417944 0.020701548619163578 0 5.5594545719306058e-06 0.018480622855605578 0 0.00090150287551413286 0.017532243103308542 0 0.001216731034502554 0.01857090511540084 0 0.00022836179279226535 0.019657331202648679 0 0.00067648288951904409 0.018769987063465422 0 0.00046078669162798229 0.020702659312515973 0 0.00044530218515417944 0.020701548619163578 0 0.00046561206029939147 0.020735188173227701 0 0.00044530218515417944 0.020701548619163578 0 0.0004580834550575205 0.020767744218838854 0 0.00046561206029939147 0.020735188173227701 0 0.00046078669162798229 0.020702659312515973 0 0.00046561206029939147 0.020735188173227701 0 0.00046990572744167456 0.020732690363032897 0 0.0030389661027791382 0.020431794688385834 0 0.002690070713682735 0.021794747264111 0 0.0035359760258005246 0.024692085621950157 0 0.0040395410298363415 0.023427876885081696 0 0.0029612837802027998 0.023969784289133229 0 0.0035359760258005246 0.024692085621950157 0 0.0040395410298363415 0.023427876885081696 0 0.0044338298727372031 0.024865485349624333 0 0.00090150287551413286 0.017532243103308542 0 0.0020263905447395238 0.017808917973733109 0 0.001685832977112083 0.016659332397847545 0 0.00067648288951904409 0.018769987063465422 0 0.002690070713682735 0.021794747264111 0 0.00044530218515417944 0.020701548619163578 0 0.0004580834550575205 0.020767744218838854 0 0.00043489780502879965 0.020753082489844796 0 0.00090150287551413286 0.017532243103308542 0 0.0020263905447395238 0.017808917973733109 0 0.001216731034502554 0.01857090511540084 0 0.0030389661027791382 0.020431794688385834 0 0.0030510960198477806 0.020638932603803183 0 0.0040395410298363415 0.023427876885081696 0 0.0036570055782005552 0.022042658671239359 0 0.002968048673318287 0.022814865412976882 0 0.0024795485253505238 0.019097838362997686 0 0.001216731034502554 0.01857090511540084 0 0.001554978600354453 0.019448009197506666 0 0.0020263905447395238 0.017808917973733109 0 0.0024795485253505238 0.019097838362997686 0 0.001216731034502554 0.01857090511540084 0 0.00067134782991651375 0.019346268730586463 0 0.001216731034502554 0.01857090511540084 0 0.001554978600354453 0.019448009197506666 0 0.00067134782991651375 0.019346268730586463 0 0.001554978600354453 0.019448009197506666 0 0.0013512102758711894 0.02022577773135387 0 0.001554978600354453 0.019448009197506666 0 0.0013512102758711894 0.02022577773135387 0 0.0020911247200162829 0.020027075373861038 0 0.00031721977235713255 0.020183317613345499 0 0.00067134782991651375 0.019346268730586463 0 0.0013512102758711894 0.02022577773135387 0 0.0030510960198477806 0.020638932603803183 0 0.0029697490715187977 0.020719377141735686 0 0.0024795485253505238 0.019097838362997686 0 0.0020911247200162829 0.020027075373861038 0 0.0029245514141215184 0.020733075582494778 0 0.0024795485253505238 0.019097838362997686 0 0.001554978600354453 0.019448009197506666 0 0.0020911247200162829 0.020027075373861038 0 0.002138922340140736 0.020606068958305274 0 0.0013512102758711894 0.02022577773135387 0 0.0020911247200162829 0.020027075373861038 0 0.002138922340140736 0.020606068958305274 0 0.0020911247200162829 0.020027075373861038 0 0.0029245514141215184 0.020733075582494778 0 0.0029518628292457029 0.021610017649605288 0 0.0029245514141215184 0.020733075582494778 0 0.002983336688778147 0.020744953152772649 0 0.0036570055782005552 0.022042658671239359 0 0.0029518628292457029 0.021610017649605288 0 0.0029245514141215184 0.020733075582494778 0 0.0029518628292457029 0.021610017649605288 0 0.0018965652647895421 0.022384567831241542 0 0.002983336688778147 0.020744953152772649 0 0.0015222111117889506 0.023360504450557509 0 0.0016816646156831488 0.023294337177290635 0 0.0012897930225739236 0.025379026113126636 0 0.0010705187184277141 0.024335630277874821 0 0.00039282564164349422 0.025757027536348828 0 0.0036570055782005552 0.022042658671239359 0 0.0029518628292457029 0.021610017649605288 0 0.002968048673318287 0.022814865412976882 0 0.0029518628292457029 0.021610017649605288 0 0.0018965652647895421 0.022384567831241542 0 0.002968048673318287 0.022814865412976882 0 0.002968048673318287 0.022814865412976882 0 0.0023431391441885233 0.023418245262394055 0 0.0029612837802027998 0.023969784289133229 0 0.0040395410298363415 0.023427876885081696 0 0.002968048673318287 0.022814865412976882 0 0.0029612837802027998 0.023969784289133229 0 0.0018965652647895421 0.022384567831241542 0 0.002968048673318287 0.022814865412976882 0 0.0023431391441885233 0.023418245262394055 0 0.0018965652647895421 0.022384567831241542 0 0.0019429128084479876 0.023527449694862836 0 0.0023431391441885233 0.023418245262394055 0 0.0018965652647895421 0.022384567831241542 0 0.0019429128084479876 0.023527449694862836 0 0.0015217242472682834 0.024004042215334368 0 0.0019429128084479876 0.023527449694862836 0 0.0023431391441885233 0.023418245262394055 0 0.0019879544353391767 0.02424037829505378 0 0.0019429128084479876 0.023527449694862836 0 0.0019879544353391767 0.02424037829505378 0 0.0015217242472682834 0.024004042215334368 0 0.0035359760258005246 0.024692085621950157 0 0.0029612837802027998 0.023969784289133229 0 0.0027784961873102538 0.025165059340127662 0 0.0019879544353391767 0.02424037829505378 0 0.0029612837802027998 0.023969784289133229 0 0.0027784961873102538 0.025165059340127662 0 0.0023431391441885233 0.023418245262394055 0 0.0019879544353391767 0.02424037829505378 0 0.0029612837802027998 0.023969784289133229 0 0.0019652605886281301 0.023363161222295134 0 0.0024216049476669388 0.023292672656882656 0 0.0017732617284401887 0.023580437985049687 0 0.0019475554629176464 0.023386961716634284 0 0.001446256760879501 0.023671832492107418 0 0.0016363446361480341 0.023792295104049371 0 0.0017732617284401887 0.023580437985049687 0 0.001446256760879501 0.023671832492107418 0 0.0016363446361480341 0.023792295104049371 0 0.001446256760879501 0.023671832492107418 0 0.0014549860845673257 0.023958069320282431 0 0.0017732617284401887 0.023580437985049687 0 0.0018983884162599534 0.023330686461117731 0 0.0015884180899907784 0.024213644554063714 0 0.0019879544353391767 0.02424037829505378 0 0.0015217242472682834 0.024004042215334368 0 0.0016107443341412632 0.024209833498229028 0 0.0017732617284401887 0.023580437985049687 0 0.0018983884162599534 0.023330686461117731 0 0.0019475554629176464 0.023386961716634284 0 0.0010705187184277141 0.024335630277874821 0 0.0018983884162599534 0.023330686461117731 0 0.0019145951818121195 0.024022965880643808 0 0.0018983884162599534 0.023330686461117731 0 0.0019475554629176464 0.023386961716634284 0 0.0019145951818121195 0.024022965880643808 0 0.0015222111117889506 0.023360504450557509 0 0.001691734139725761 0.023668530359894677 0 0.0019475554629176464 0.023386961716634284 0 0.0026500233583074346 0.023652431638470688 0 0.0031675535880931051 0.022853301312205164 0 0.0019475554629176464 0.023386961716634284 0 0.0026500233583074346 0.023652431638470688 0 0.0019145951818121195 0.024022965880643808 0 0.0026500233583074346 0.023652431638470688 0 0.0026389032051039167 0.024421490928543472 0 0.0034014246645736944 0.023847535998628849 0 0.0026500233583074346 0.023652431638470688 0 0.0026389032051039167 0.024421490928543472 0 0.0019145951818121195 0.024022965880643808 0 0.0026389032051039167 0.024421490928543472 0 0.0019145951818121195 0.024022965880643808 0 0.0018783877188901883 0.024852763276517378 0 0.0010705187184277141 0.024335630277874821 0 0.0019145951818121195 0.024022965880643808 0 0.0018783877188901883 0.024852763276517378 0 0.0012897930225739236 0.025379026113126636 0 0.0018783877188901883 0.024852763276517378 0 0.0019269701716271271 0.025807515461106986 0 0.0012897930225739236 0.025379026113126636 0 0.0010705187184277141 0.024335630277874821 0 0.0018783877188901883 0.024852763276517378 0 0.0026389032051039167 0.024421490928543472 0 0.0018783877188901883 0.024852763276517378 0 0.0025991245099486059 0.025282185649115288 0 0.0026389032051039167 0.024421490928543472 0 0.0025991245099486059 0.025282185649115288 0 0.0034451250094739952 0.024656568211346361 0 0.0018783877188901883 0.024852763276517378 0 0.0025991245099486059 0.025282185649115288 0 0.0019269701716271271 0.025807515461106986 0 0.0025991245099486059 0.025282185649115288 0 0.0024072367216049677 0.026348343128759263 0 0.0019269701716271271 0.025807515461106986 0 0.0024072367216049677 0.026348343128759263 0 0.0016676475168926617 0.026538388221654035 0 0.0019269701716271271 0.025807515461106986 0 0.0024072367216049677 0.026348343128759263 0 0.0016676475168926617 0.026538388221654035 0 0.0017456050980574154 0.027353171002657901 0 0.0024072367216049677 0.026348343128759263 0 0.0017456050980574154 0.027353171002657901 0 0.0025072946728444158 0.027428782986756804 0 0.0016676475168926617 0.026538388221654035 0 0.0011392817765126355 0.0270440404363411 0 0.0017456050980574154 0.027353171002657901 0 0.0016676475168926617 0.026538388221654035 0 0.0019269701716271271 0.025807515461106986 0 0.0011582201455774888 0.026100475967218494 0 0.0012897930225739236 0.025379026113126636 0 0.0019269701716271271 0.025807515461106986 0 0.0011582201455774888 0.026100475967218494 0 0.0011582201455774888 0.026100475967218494 0 0.00039282564164349422 0.025757027536348828 0 0.0006522603381805131 0.026679947377371074 0 0.0012897930225739236 0.025379026113126636 0 0.0011582201455774888 0.026100475967218494 0 0.00039282564164349422 0.025757027536348828 0 0.0013581304302313268 0.024638526778989873 0 0.0016816646156831488 0.023294337177290635 0 0.0026419414041927336 0.022292569186692462 0 0.0029245514141215184 0.020733075582494778 0 0.002983336688778147 0.020744953152772649 0 7.9756391690116512e-05 0.026994191267661977 0 0.00039282564164349422 0.025757027536348828 0 0.0006522603381805131 0.026679947377371074 0 0.0011582201455774888 0.026100475967218494 0 0.0006522603381805131 0.026679947377371074 0 0.0011392817765126355 0.0270440404363411 0 0.0016676475168926617 0.026538388221654035 0 0.0011582201455774888 0.026100475967218494 0 0.0011392817765126355 0.0270440404363411 0 0.0006522603381805131 0.026679947377371074 0 0.0011392817765126355 0.0270440404363411 0 0.00059524053931867341 0.027641266719554167 0 0.0011392817765126355 0.0270440404363411 0 0.00059524053931867341 0.027641266719554167 0 0.0012843904503866809 0.02777635784621265 0 7.9756391690116512e-05 0.026994191267661977 0 0.0006522603381805131 0.026679947377371074 0 0.00059524053931867341 0.027641266719554167 0 0.001186436703588538 0.028468229992082032 0 0.00059524053931867341 0.027641266719554167 0 0.0012843904503866809 0.02777635784621265 0 0.001186436703588538 0.028468229992082032 0 0.0012843904503866809 0.02777635784621265 0 0.0019666833587645679 0.028250782909366935 0 0.0019666833587645679 0.028250782909366935 0 0.0017456050980574154 0.027353171002657901 0 0.0025072946728444158 0.027428782986756804 0 0.0012843904503866809 0.02777635784621265 0 0.0019666833587645679 0.028250782909366935 0 0.0017456050980574154 0.027353171002657901 0 0.0011392817765126355 0.0270440404363411 0 0.0012843904503866809 0.02777635784621265 0 0.0017456050980574154 0.027353171002657901 0 0.0033396246765284559 0.027406577785200933 0 0.0028263553863734016 0.028316099019576779 0 0.0034039757067934094 0.028452938970400351 0 0.0033396246765284559 0.027406577785200933 0 0.0025072946728444158 0.027428782986756804 0 0.0028263553863734016 0.028316099019576779 0 0.0019666833587645679 0.028250782909366935 0 0.0025072946728444158 0.027428782986756804 0 0.0028263553863734016 0.028316099019576779 0 0.0025590251000015135 0.029036415598647534 0 0.0019666833587645679 0.028250782909366935 0 0.0028263553863734016 0.028316099019576779 0 0.003140657957330538 0.029583167535661769 0 0.0028263553863734016 0.028316099019576779 0 0.0034039757067934094 0.028452938970400351 0 0.0036610360693305997 0.030080768103984364 0 0.0034039757067934094 0.028452938970400351 0 0.0039798793766800704 0.028532800582451796 0 0.0036610360693305997 0.030080768103984364 0 0.003140657957330538 0.029583167535661769 0 0.0034039757067934094 0.028452938970400351 0 0.0036610360693305997 0.030080768103984364 0 0.0039798793766800704 0.028532800582451796 0 0.0040671667130200055 0.029653290605136367 0 0.0039798793766800704 0.028532800582451796 0 0.0046847818719376964 0.026070009926338129 0 0.0047783809246609004 0.028093861532017914 0 0.0039798793766800704 0.028532800582451796 0 0.0038642584918479497 0.027259522070920261 0 0.0046847818719376964 0.026070009926338129 0 0.0039798793766800704 0.028532800582451796 0 0.0047783809246609004 0.028093861532017914 0 0.0040671667130200055 0.029653290605136367 0 0.0034039757067934094 0.028452938970400351 0 0.0039798793766800704 0.028532800582451796 0 0.0038642584918479497 0.027259522070920261 0 0.0033396246765284559 0.027406577785200933 0 0.0034039757067934094 0.028452938970400351 0 0.0038642584918479497 0.027259522070920261 0 0.0038642584918479497 0.027259522070920261 0 0.0041643813725627437 0.02601131594903253 0 0.0046847818719376964 0.026070009926338129 0 0.0033396246765284559 0.027406577785200933 0 0.0038642584918479497 0.027259522070920261 0 0.0041643813725627437 0.02601131594903253 0 0.0046847818719376964 0.026070009926338129 0 0.006110461809837613 0.023576280294698548 0 0.0054482544929999183 0.025539314002611033 0 0.0046847818719376964 0.026070009926338129 0 0.0052741733845498833 0.024527001429002045 0 0.006110461809837613 0.023576280294698548 0 0.0041643813725627437 0.02601131594903253 0 0.0046847818719376964 0.026070009926338129 0 0.0052741733845498833 0.024527001429002045 0 0.0041643813725627437 0.02601131594903253 0 0.0052741733845498833 0.024527001429002045 0 0.0041226866170177281 0.025318124326148005 0 0.0041643813725627437 0.02601131594903253 0 0.0041226866170177281 0.025318124326148005 0 0.0032805646319582077 0.026380109886361972 0 0.0041226866170177281 0.025318124326148005 0 0.0032805646319582077 0.026380109886361972 0 0.0033329681088690708 0.025478287289925787 0 0.0033396246765284559 0.027406577785200933 0 0.0041643813725627437 0.02601131594903253 0 0.0032805646319582077 0.026380109886361972 0 0.0033396246765284559 0.027406577785200933 0 0.0025072946728444158 0.027428782986756804 0 0.0032805646319582077 0.026380109886361972 0 0.0024072367216049677 0.026348343128759263 0 0.0025072946728444158 0.027428782986756804 0 0.0032805646319582077 0.026380109886361972 0 0.0024072367216049677 0.026348343128759263 0 0.0032805646319582077 0.026380109886361972 0 0.0033329681088690708 0.025478287289925787 0 0.0025991245099486059 0.025282185649115288 0 0.0024072367216049677 0.026348343128759263 0 0.0033329681088690708 0.025478287289925787 0 0.0033329681088690708 0.025478287289925787 0 0.0034451250094739952 0.024656568211346361 0 0.0041077038495462154 0.024781016780474473 0 0.0025991245099486059 0.025282185649115288 0 0.0033329681088690708 0.025478287289925787 0 0.0034451250094739952 0.024656568211346361 0 0.0041077038495462154 0.024781016780474473 0 0.0044922644370271221 0.024091845623712145 0 0.0052333505069364307 0.024394899427442003 0 0.0041226866170177281 0.025318124326148005 0 0.0041077038495462154 0.024781016780474473 0 0.0052333505069364307 0.024394899427442003 0 0.0041226866170177281 0.025318124326148005 0 0.0033329681088690708 0.025478287289925787 0 0.0041077038495462154 0.024781016780474473 0 0.0034451250094739952 0.024656568211346361 0 0.0041077038495462154 0.024781016780474473 0 0.0044922644370271221 0.024091845623712145 0 0.0026389032051039167 0.024421490928543472 0 0.0034451250094739952 0.024656568211346361 0 0.0034014246645736944 0.023847535998628849 0 0.0034451250094739952 0.024656568211346361 0 0.0044922644370271221 0.024091845623712145 0 0.0034014246645736944 0.023847535998628849 0 0.0026500233583074346 0.023652431638470688 0 0.0034014246645736944 0.023847535998628849 0 0.0031675535880931051 0.022853301312205164 0 0.0034014246645736944 0.023847535998628849 0 0.0041406390179296263 0.023348660854908616 0 0.0031675535880931051 0.022853301312205164 0 0.0044922644370271221 0.024091845623712145 0 0.0034014246645736944 0.023847535998628849 0 0.0041406390179296263 0.023348660854908616 0 0.0044922644370271221 0.024091845623712145 0 0.0041406390179296263 0.023348660854908616 0 0.0049502804883334688 0.023284424271760435 0 0.0044379803479608002 0.024411134663514938 0 0.0057047981270882658 0.022898017011226804 0 0.0041406390179296263 0.023348660854908616 0 0.0044287821230091637 0.022619464356463521 0 0.0049502804883334688 0.023284424271760435 0 0.0023751619123058994 0.022937151218685503 0 0.0024216049476669388 0.023292672656882656 0 0.0041406390179296263 0.023348660854908616 0 0.0044287821230091637 0.022619464356463521 0 0.0031675535880931051 0.022853301312205164 0 0.0012753694439178664 0.023921508483405542 0 0.001446256760879501 0.023671832492107418 0 0.001333426873688067 0.023987170955084559 0 0.001446256760879501 0.023671832492107418 0 0.0014549860845673257 0.023958069320282431 0 0.001333426873688067 0.023987170955084559 0 0.0061256052264361113 0.027625715519462055 0 0.0089458124050491097 0.025821911683890936 0 0.0096868330588532753 0.030796420775266307 0 0.012040533906092046 0.030116230366177842 0 0.0079026667947549988 0.025857573445482198 0 0.0067460126330827867 0.023326263628472666 0 0.0069352526358776772 0.024425981718123293 0 0.0079026667947549988 0.025857573445482198 0 0.010426295255766103 0.029118802689107399 0 0.0061256052264361113 0.027625715519462055 0 0.0023751619123058994 0.022937151218685503 0 0.0061256052264361113 0.027625715519462055 0 0.0067460126330827867 0.023326263628472666 0 0.0059383680639826303 0.023901008560156072 0 0.0069352526358776772 0.024425981718123293 0 0.0061256052264361113 0.027625715519462055 0 0.0057047981270882658 0.022898017011226804 0 0.0044287821230091637 0.022619464356463521 0 0.0055346465706527436 0.022514801279022261 0 0.0049502804883334688 0.023284424271760435 0 0.0044922644370271221 0.024091845623712145 0 0.0059383680639826303 0.023901008560156072 0 0.0062611395163913114 0.024112317280797206 0 0.0059383680639826303 0.023901008560156072 0 0.0069352526358776772 0.024425981718123293 0 0.0062611395163913114 0.024112317280797206 0 0.0069352526358776772 0.024425981718123293 0 0.0072946657585471484 0.024205308768718525 0 0.0079026667947549988 0.025857573445482198 0 0.0069352526358776772 0.024425981718123293 0 0.0072946657585471484 0.024205308768718525 0 0.0062611395163913114 0.024112317280797206 0 0.0072946657585471484 0.024205308768718525 0 0.0066736971081093237 0.023418142649529898 0 0.0077505545261637729 0.023582014290863224 0 0.0072946657585471484 0.024205308768718525 0 0.0062611395163913114 0.024112317280797206 0 0.0066736971081093237 0.023418142649529898 0 0.0062611395163913114 0.024112317280797206 0 0.0052333505069364307 0.024394899427442003 0 0.0066736971081093237 0.023418142649529898 0 0.0044922644370271221 0.024091845623712145 0 0.0062611395163913114 0.024112317280797206 0 0.0052333505069364307 0.024394899427442003 0 0.0052741733845498833 0.024527001429002045 0 0.0052333505069364307 0.024394899427442003 0 0.0066736971081093237 0.023418142649529898 0 0.0052741733845498833 0.024527001429002045 0 0.0041226866170177281 0.025318124326148005 0 0.0052333505069364307 0.024394899427442003 0 0.0052741733845498833 0.024527001429002045 0 0.0066736971081093237 0.023418142649529898 0 0.006110461809837613 0.023576280294698548 0 0.0066736971081093237 0.023418142649529898 0 0.0082436746536269073 0.020782926193721123 0 0.0077505545261637729 0.023582014290863224 0 0.0066736971081093237 0.023418142649529898 0 0.0082436746536269073 0.020782926193721123 0 0.006110461809837613 0.023576280294698548 0 0.0082436746536269073 0.020782926193721123 0 0.0072428308653970904 0.023954270660750759 0 0.0072758904465203382 0.016469560995582486 0 0.0082436746536269073 0.020782926193721123 0 0.0072758904465203382 0.016469560995582486 0 0.0091122751513935795 0.018688234413233959 0 0.0072428308653970904 0.023954270660750759 0 0.0077505545261637729 0.023582014290863224 0 0.0079026667947549988 0.025857573445482198 0 0.0082436746536269073 0.020782926193721123 0 0.0072428308653970904 0.023954270660750759 0 0.0077505545261637729 0.023582014290863224 0 0.0072946657585471484 0.024205308768718525 0 0.0077505545261637729 0.023582014290863224 0 0.0079026667947549988 0.025857573445482198 0 0.0079026667947549988 0.025857573445482198 0 0.0057192635262180063 0.02767685457443915 0 0.0059259214845502001 0.029719327881707471 0 0.0072428308653970904 0.023954270660750759 0 0.0057192635262180063 0.02767685457443915 0 0.004107009326434089 0.027139685470058461 0 0.0072428308653970904 0.023954270660750759 0 0.0079026667947549988 0.025857573445482198 0 0.0057192635262180063 0.02767685457443915 0 0.0059259214845502001 0.029719327881707471 0 0.0034242607572951968 0.030827434613814146 0 0.0037244808736791768 0.032364183067457045 0 0.0057192635262180063 0.02767685457443915 0 0.0059259214845502001 0.029719327881707471 0 0.0034242607572951968 0.030827434613814146 0 0.0059259214845502001 0.029719327881707471 0 0.0037244808736791768 0.032364183067457045 0 0.0052366847137116897 0.032272451486075188 0 0.0059259214845502001 0.029719327881707471 0 0.0066328890542075528 0.031567071180867511 0 0.0052366847137116897 0.032272451486075188 0 0.0079026667947549988 0.025857573445482198 0 0.0059259214845502001 0.029719327881707471 0 0.0074861731990165555 0.030055627851443483 0 0.0096868330588532753 0.030796420775266307 0 0.0079026667947549988 0.025857573445482198 0 0.0074861731990165555 0.030055627851443483 0 0.0059259214845502001 0.029719327881707471 0 0.0074861731990165555 0.030055627851443483 0 0.0066328890542075528 0.031567071180867511 0 0.0014966812965927139 0.033612609398096363 0 0.0034242607572951968 0.030827434613814146 0 -4.5944333828877437e-06 0.034985587006153479 0 0.0014966812965927139 0.033612609398096363 0 -4.5944333828877437e-06 0.034985587006153479 0 2.4059143426692037e-06 0.035001439186832066 0 0.0014966812965927139 0.033612609398096363 0 0.0034242607572951968 0.030827434613814146 0 0.0037244808736791768 0.032364183067457045 0 0.0034242607572951968 0.030827434613814146 0 0.004107009326434089 0.027139685470058461 0 -4.5944333828877437e-06 0.034985587006153479 0 0.0057192635262180063 0.02767685457443915 0 0.0034242607572951968 0.030827434613814146 0 0.004107009326434089 0.027139685470058461 0 -7.6045643890922685e-06 0.034981551010136433 0 0.0049847549385438018 0.036114573102976125 0 1.2372051470044497e-05 0.035043147631905379 0 1.4729546329831144e-06 0.034997619610113585 0 0.0031497495465114583 0.029934836662431193 0 0.004107009326434089 0.027139685470058461 0 -4.5944333828877437e-06 0.034985587006153479 0 0.00093913094010158083 0.024632094112542156 0 0.0049847549385438018 0.036114573102976125 0 1.2372051470044497e-05 0.035043147631905379 0 -1.979958398255461e-05 0.03485530254155874 0 0.0072428308653970904 0.023954270660750759 0 0.004107009326434089 0.027139685470058461 0 0.0072758904465203382 0.016469560995582486 0 0.004107009326434089 0.027139685470058461 0 0.00093913094010158083 0.024632094112542156 0 0.0072758904465203382 0.016469560995582486 0 0.0031497495465114583 0.029934836662431193 0 0.011483245128059635 0.013655508362613008 0 0.0049847549385438018 0.036114573102976125 0 -1.979958398255461e-05 0.03485530254155874 0 0.0087993765512725999 0.013938962138460442 0 0.0049847549385438018 0.036114573102976125 0 0.015513995783102285 0.012166276276268349 0 0.0087993765512725999 0.013938962138460442 0 -8.0747200802047846e-06 0.034980306147182408 0 0.0014076268903957052 0.0024809194835186685 0 -1.979958398255461e-05 0.03485530254155874 0 0.0087993765512725999 0.013938962138460442 0 6.16436407246641e-05 -0.014782370327711155 0 0.015513995783102285 0.012166276276268349 0 0.0087993765512725999 0.013938962138460442 0 0.0089759947618396341 -0.0021826954084647365 0 6.16436407246641e-05 -0.014782370327711155 0 0.0089759947618396341 -0.0021826954084647365 0 0.0038397219377768379 -0.0088917631916839608 0 0.0014076268903957052 0.0024809194835186685 0 0.0041327465627914945 0.026288059870566372 0 3.6410709458453404e-08 0.034902840546562779 0 4.3533447617687921e-08 0.034999932687375016 0 -8.7609078938734193e-07 0.034979604749665535 0 0.0087993765512725999 0.013938962138460442 0 6.16436407246641e-05 -0.014782370327711155 0 0.0089759947618396341 -0.0021826954084647365 0 0.0089759947618396341 -0.0021826954084647365 0 0.0038397219377768379 -0.0088917631916839608 0 0.0095661240475373235 -0.0041523210266858034 0 0.0059482808547855681 0.028058535162559108 0 0.0050837513521371233 0.028766038578400599 0 0.0055860407772508015 0.030109709281395905 0 0.0041327465627914945 0.026288059870566372 0 0.0025267572748895861 0.033609379131486074 0 -8.5300779822535697e-07 0.035000546450365974 0 -1.1234517710639147e-05 0.034990948230157227 0 -2.9685191618926819e-05 0.035119517537468593 0 8.9044776662614589e-06 0.034969024193723358 0 0.0041327465627914945 0.026288059870566372 0 0.0041327465627914945 0.026288059870566372 0 0.0065967610507244373 0.012768065268262274 0 0.0059482808547855681 0.028058535162559108 0 0.0050837513521371233 0.028766038578400599 0 0.0050739693856636731 0.028061922595233966 0 0.0053222075174451195 0.027882886735668234 0 0.0056035251563587686 0.027913700870759343 0 0.004905353096813142 0.028891860306224496 0 0.0050837513521371233 0.028766038578400599 0 0.0053222075174451195 0.027882886735668234 0 0.004905353096813142 0.028891860306224496 0 0.0050837513521371233 0.028766038578400599 0 0.0053222075174451195 0.027882886735668234 0 0.0050739693856636731 0.028061922595233966 0 0.0065967610507244373 0.012768065268262274 0 0.0083195839199972661 0.015882188204465315 0 0.0053222075174451195 0.027882886735668234 0 0.0050739693856636731 0.028061922595233966 0 0.0059067994132160741 0.027934756683027129 0 0.0089759947618396341 -0.0021826954084647365 0 0.0095661240475373235 -0.0041523210266858034 0 0.012962302484577536 0.0022472356118782718 0 0.015513995783102285 0.012166276276268349 0 0.0089759947618396341 -0.0021826954084647365 0 0.012962302484577536 0.0022472356118782718 0 0.011483245128059635 0.013655508362613008 0 0.0083195839199972661 0.015882188204465315 0 0.0082436746536269073 0.020782926193721123 0 0.0091122751513935795 0.018688234413233959 0 0.0071072498024574065 0.022845302319240778 0 0.0072758904465203382 0.016469560995582486 0 0.0091122751513935795 0.018688234413233959 0 0.010913323688827123 0.015124146004982946 0 0.0091122751513935795 0.018688234413233959 0 0.0071072498024574065 0.022845302319240778 0 0.010913323688827123 0.015124146004982946 0 0.0067199868261672872 0.021308254209572594 0 0.0083195839199972661 0.015882188204465315 0 0.0082436746536269073 0.020782926193721123 0 0.006110461809837613 0.023576280294698548 0 0.0071072498024574065 0.022845302319240778 0 0.006110461809837613 0.023576280294698548 0 0.0071072498024574065 0.022845302319240778 0 0.0054482544929999183 0.025539314002611033 0 0.0071072498024574065 0.022845302319240778 0 0.0054482544929999183 0.025539314002611033 0 0.0056292932582815806 0.027006179282722895 0 0.0054482544929999183 0.025539314002611033 0 0.0056292932582815806 0.027006179282722895 0 0.0047783809246609004 0.028093861532017914 0 0.0046847818719376964 0.026070009926338129 0 0.0054482544929999183 0.025539314002611033 0 0.0047783809246609004 0.028093861532017914 0 0.0053222075174451195 0.027882886735668234 0 0.0065373889332598642 0.026764314478380336 0 0.0059067994132160741 0.027934756683027129 0 0.0052760907587367642 0.024409714893534371 0 0.0083195839199972661 0.015882188204465315 0 0.0071072498024574065 0.022845302319240778 0 0.0065373889332598642 0.026764314478380336 0 0.0070934795463293149 0.025762312334313871 0 0.0071072498024574065 0.022845302319240778 0 0.0056292932582815806 0.027006179282722895 0 0.0065373889332598642 0.026764314478380336 0 0.0056292932582815806 0.027006179282722895 0 0.0065373889332598642 0.026764314478380336 0 0.0057500240218877575 0.027571868402150489 0 0.0053222075174451195 0.027882886735668234 0 0.0065373889332598642 0.026764314478380336 0 0.0056035251563587686 0.027913700870759343 0 0.0065373889332598642 0.026764314478380336 0 0.0057500240218877575 0.027571868402150489 0 0.0056035251563587686 0.027913700870759343 0 0.0050837666180453571 0.028800287853929317 0 0.0047783809246609004 0.028093861532017914 0 0.0042379740824331023 0.030076709240061637 0 0.0057500240218877575 0.027571868402150489 0 0.0056035251563587686 0.027913700870759343 0 0.0050837666180453571 0.028800287853929317 0 0.0056035251563587686 0.027913700870759343 0 0.0050837666180453571 0.028800287853929317 0 0.004905353096813142 0.028891860306224496 0 0.0056292932582815806 0.027006179282722895 0 0.0057500240218877575 0.027571868402150489 0 0.0050837666180453571 0.028800287853929317 0 0.0050837666180453571 0.028800287853929317 0 0.0042379740824331023 0.030076709240061637 0 0.0040525174506912849 0.030704766967571715 0 0.0056292932582815806 0.027006179282722895 0 0.0050837666180453571 0.028800287853929317 0 0.0047783809246609004 0.028093861532017914 0 0.0047783809246609004 0.028093861532017914 0 0.0040671667130200055 0.029653290605136367 0 0.0042379740824331023 0.030076709240061637 0 0.0037107630068054743 0.030998798833041786 0 0.0036610360693305997 0.030080768103984364 0 0.0040671667130200055 0.029653290605136367 0 0.0037107630068054743 0.030998798833041786 0 0.0040671667130200055 0.029653290605136367 0 0.0042379740824331023 0.030076709240061637 0 0.0042379740824331023 0.030076709240061637 0 0.0036909257407533079 0.03136800982671404 0 0.0040525174506912849 0.030704766967571715 0 0.0037107630068054743 0.030998798833041786 0 0.0042379740824331023 0.030076709240061637 0 0.0036909257407533079 0.03136800982671404 0 0.0036909257407533079 0.03136800982671404 0 0.0032130479391272214 0.032352730932998203 0 0.0040525174506912849 0.030704766967571715 0 0.0032130479391272214 0.032352730932998203 0 0.0040525174506912849 0.030704766967571715 0 0.0035227570042591855 0.031716787582677285 0 0.0040525174506912849 0.030704766967571715 0 0.0035227570042591855 0.031716787582677285 0 0.0042722236958782521 0.030167055797850135 0 0.0016879107350786455 0.034276843552378373 0 0.0035227570042591855 0.031716787582677285 0 0.0055860407772508015 0.030109709281395905 0 0.0020229353544855659 0.03335624606217534 0 0.0025267572748895861 0.033609379131486074 0 0.0016879107350786455 0.034276843552378373 0 0.0032130479391272214 0.032352730932998203 0 0.0035227570042591855 0.031716787582677285 0 0.0016879107350786455 0.034276843552378373 0 1.7045844973897634e-06 0.034999366036573117 0 -2.9685191618926819e-05 0.035119517537468593 0 0.0035227570042591855 0.031716787582677285 0 0.0055860407772508015 0.030109709281395905 0 0.0045409966986834248 0.029862954182601369 0 -8.5300779822535697e-07 0.035000546450365974 0 1.7045844973897634e-06 0.034999366036573117 0 -2.9685191618926819e-05 0.035119517537468593 0 0.0050837513521371233 0.028766038578400599 0 0.0055860407772508015 0.030109709281395905 0 0.0045409966986834248 0.029862954182601369 0 0.0050837513521371233 0.028766038578400599 0 0.004905353096813142 0.028891860306224496 0 0.0045409966986834248 0.029862954182601369 0 0.0050837666180453571 0.028800287853929317 0 0.004905353096813142 0.028891860306224496 0 0.0042722236958782521 0.030167055797850135 0 0.0050837666180453571 0.028800287853929317 0 0.0040525174506912849 0.030704766967571715 0 0.0042722236958782521 0.030167055797850135 0 0.0035227570042591855 0.031716787582677285 0 0.0042722236958782521 0.030167055797850135 0 0.0045409966986834248 0.029862954182601369 0 0.004905353096813142 0.028891860306224496 0 0.0042722236958782521 0.030167055797850135 0 0.0045409966986834248 0.029862954182601369 0 3.0981552739411384e-05 0.034921932221111444 0 -8.3292422447961218e-07 0.0349494426445646 0 2.1266895477331978e-05 0.034976209139040697 0 3.0981552739411384e-05 0.034921932221111444 0 8.24090341465435e-08 0.034999960468803194 0 2.1266895477331978e-05 0.034976209139040697 0 8.24090341465435e-08 0.034999960468803194 0 2.9898203617276537e-05 0.034903980372993262 0 -2.6590024497650042e-09 0.034999827743548859 0 3.0981552739411384e-05 0.034921932221111444 0 8.24090341465435e-08 0.034999960468803194 0 2.9898203617276537e-05 0.034903980372993262 0 3.0981552739411384e-05 0.034921932221111444 0 5.3168305650324376e-05 0.034771101175111417 0 2.9898203617276537e-05 0.034903980372993262 0 5.3168305650324376e-05 0.034771101175111417 0 0.00020879172199558718 0.034441635527686046 0 0.00025122510796189707 0.034637101956157941 0 3.0981552739411384e-05 0.034921932221111444 0 5.3168305650324376e-05 0.034771101175111417 0 -8.3292422447961218e-07 0.0349494426445646 0 5.3168305650324376e-05 0.034771101175111417 0 0.00020879172199558718 0.034441635527686046 0 1.9340586654426912e-05 0.034468108112598136 0 4.1504383623732066e-05 0.034763198409817272 0 3.6201367139340428e-05 0.034740849236846227 0 1.9340586654426912e-05 0.034468108112598136 0 0.00013112850342795047 0.03434173757897082 0 3.433555813032687e-05 0.034273202770207865 0 0.00020879172199558718 0.034441635527686046 0 1.9340586654426912e-05 0.034468108112598136 0 0.00013112850342795047 0.03434173757897082 0 3.6201367139340428e-05 0.034740849236846227 0 -0.00013156373072328406 0.034523011474731517 0 0.00020879172199558718 0.034441635527686046 0 0.00013112850342795047 0.03434173757897082 0 0.0002497126353971705 0.034288154334445417 0 0.00020879172199558718 0.034441635527686046 0 0.0002497126353971705 0.034288154334445417 0 0.00030403408720369176 0.03435501831612793 0 0.0026315408122100721 0.034093651111930134 0 0.0021442063573082456 0.032106160978974806 0 0.00013112850342795047 0.03434173757897082 0 0.0002497126353971705 0.034288154334445417 0 0.00017696579610654384 0.034188644705945084 0 0.0002497126353971705 0.034288154334445417 0 0.00017696579610654384 0.034188644705945084 0 0.0004081146261080441 0.034246348000613012 0 0.00013112850342795047 0.03434173757897082 0 3.433555813032687e-05 0.034273202770207865 0 0.00017696579610654384 0.034188644705945084 0 8.6196797502760271e-06 0.03498828127074393 0 2.1266895477331978e-05 0.034976209139040697 0 3.5557327916550635e-05 0.034999271600244332 0 -8.3292422447961218e-07 0.0349494426445646 0 8.6196797502760271e-06 0.03498828127074393 0 2.1266895477331978e-05 0.034976209139040697 0 8.24090341465435e-08 0.034999960468803194 0 2.1266895477331978e-05 0.034976209139040697 0 -1.0453673584524191e-07 0.034999687881827356 0 -1.0453673584524191e-07 0.034999687881827356 0 3.5557327916550635e-05 0.034999271600244332 0 5.4171332060401557e-07 0.035001166351555493 0 2.1266895477331978e-05 0.034976209139040697 0 -1.0453673584524191e-07 0.034999687881827356 0 3.5557327916550635e-05 0.034999271600244332 0 3.5557327916550635e-05 0.034999271600244332 0 7.4619025421257735e-05 0.035007305619590423 0 5.4171332060401557e-07 0.035001166351555493 0 3.5557327916550635e-05 0.034999271600244332 0 7.4619025421257735e-05 0.035007305619590423 0 3.9288195344769409e-06 0.035022259718811025 0 7.4619025421257735e-05 0.035007305619590423 0 5.4171332060401557e-07 0.035001166351555493 0 0.00023517855537010773 0.035087533659520199 0 -0.00013156373072328406 0.034523011474731517 0 0.0013666469958421212 0.034949554525060683 0 8.6196797502760271e-06 0.03498828127074393 0 3.5557327916550635e-05 0.034999271600244332 0 3.9288195344769409e-06 0.035022259718811025 0 0.0026207733934434391 0.036279349229459412 0 0.0022145269077135962 0.034457016635756461 0 0.00023517855537010773 0.035087533659520199 0 0.003444230789422562 0.035121111462012286 0 0.0035562679021439738 0.034614211194234745 0 0.0044621619233493415 0.034525176754407937 0 0.003444230789422562 0.035121111462012286 0 0.0035562679021439738 0.034614211194234745 0 0.0022145269077135962 0.034457016635756461 0 0.0013666469958421212 0.034949554525060683 0 0.0023716433399221097 0.034833360887253105 0 0.0035562679021439738 0.034614211194234745 0 0.0022145269077135962 0.034457016635756461 0 0.0024639202700980829 0.034029697217623618 0 0.0022145269077135962 0.034457016635756461 0 0.00023517855537010773 0.035087533659520199 0 4.0997323466629072e-07 0.034997375920512296 0 5.4171332060401557e-07 0.035001166351555493 0 0.00023517855537010773 0.035087533659520199 0 4.0997323466629072e-07 0.034997375920512296 0 7.4619025421257735e-05 0.035007305619590423 0 3.9288195344769409e-06 0.035022259718811025 0 0.00023517855537010773 0.035087533659520199 0 0.0013666469958421212 0.034949554525060683 0 0.0003728765829677025 0.035249010731800666 0 0.0022145269077135962 0.034457016635756461 0 4.0997323466629072e-07 0.034997375920512296 0 0.0024639202700980829 0.034029697217623618 0 -1.0816831864628104e-08 0.034999644285052381 0 0.0019178009175971995 0.034764584806590268 0 0.0008862467263227458 0.034594742154941301 0 -1.0816831864628104e-08 0.034999644285052381 0 0.0028169368097016351 0.035499410438477208 0 0.0019178009175971995 0.034764584806590268 0 8.8558461788459932e-07 0.034999809011530623 0 0.0026784868323764979 0.034771636729586275 0 0.0028169368097016351 0.035499410438477208 0 0.0029065896226052003 0.034892188043377133 0 0.0019178009175971995 0.034764584806590268 0 0.0028169368097016351 0.035499410438477208 0 0.0029065896226052003 0.034892188043377133 0 0.0039278802248298638 0.03480445486235724 0 0.003198674720874668 0.034388687500365181 0 0.0029065896226052003 0.034892188043377133 0 0.0039278802248298638 0.03480445486235724 0 0.003198674720874668 0.034388687500365181 0 0.0019178009175971995 0.034764584806590268 0 0.0023960952951720621 0.033927045711564102 0 0.003198674720874668 0.034388687500365181 0 0.0029065896226052003 0.034892188043377133 0 0.0019178009175971995 0.034764584806590268 0 0.0014966812965927139 0.033612609398096363 0 0.0023960952951720621 0.033927045711564102 0 0.0037244808736791768 0.032364183067457045 0 0.003198674720874668 0.034388687500365181 0 0.0023960952951720621 0.033927045711564102 0 0.0041580971767664595 0.033465016456628097 0 0.0023960952951720621 0.033927045711564102 0 0.0037244808736791768 0.032364183067457045 0 0.0041580971767664595 0.033465016456628097 0 -1.0816831864628104e-08 0.034999644285052381 0 2.4059143426692037e-06 0.035001439186832066 0 0.0008862467263227458 0.034594742154941301 0 0.0014966812965927139 0.033612609398096363 0 0.0023960952951720621 0.033927045711564102 0 0.0008862467263227458 0.034594742154941301 0 0.0014966812965927139 0.033612609398096363 0 2.4059143426692037e-06 0.035001439186832066 0 0.0008862467263227458 0.034594742154941301 0 0.0019178009175971995 0.034764584806590268 0 0.0023960952951720621 0.033927045711564102 0 0.0008862467263227458 0.034594742154941301 0 0.0058331365144685243 0.033470042131454956 0 0.0079079277413937298 0.031929101812930703 0 0.0087591469360090175 0.033239876437715921 0 0.0096868330588532753 0.030796420775266307 0 0.0074861731990165555 0.030055627851443483 0 0.0079079277413937298 0.031929101812930703 0 0.0074861731990165555 0.030055627851443483 0 0.0079079277413937298 0.031929101812930703 0 0.0066328890542075528 0.031567071180867511 0 0.0058331365144685243 0.033470042131454956 0 0.0079079277413937298 0.031929101812930703 0 0.0066328890542075528 0.031567071180867511 0 0.0058331365144685243 0.033470042131454956 0 0.0066328890542075528 0.031567071180867511 0 0.0052366847137116897 0.032272451486075188 0 0.0037244808736791768 0.032364183067457045 0 0.0052366847137116897 0.032272451486075188 0 0.0041580971767664595 0.033465016456628097 0 0.0058331365144685243 0.033470042131454956 0 0.0052366847137116897 0.032272451486075188 0 0.0041580971767664595 0.033465016456628097 0 0.0058331365144685243 0.033470042131454956 0 0.0044286518648077892 0.034320277151767303 0 0.0049766504006108995 0.034531989896297736 0 0.0058331365144685243 0.033470042131454956 0 0.0041580971767664595 0.033465016456628097 0 0.0044286518648077892 0.034320277151767303 0 0.003198674720874668 0.034388687500365181 0 0.0044286518648077892 0.034320277151767303 0 0.0039278802248298638 0.03480445486235724 0 0.003198674720874668 0.034388687500365181 0 0.0041580971767664595 0.033465016456628097 0 0.0044286518648077892 0.034320277151767303 0 0.0044286518648077892 0.034320277151767303 0 0.0039278802248298638 0.03480445486235724 0 0.0049766504006108995 0.034531989896297736 0 0.0039278802248298638 0.03480445486235724 0 0.0049766504006108995 0.034531989896297736 0 0.004955202349812793 0.034535117282196569 0 0.0060615867576291216 0.034402242848875317 0 0.006527991446896371 0.035065883205905569 0 0.0058331365144685243 0.033470042131454956 0 0.00560633396227396 0.034682204827757225 0 0.0087591469360090175 0.033239876437715921 0 0.0058331365144685243 0.033470042131454956 0 0.0049766504006108995 0.034531989896297736 0 0.00560633396227396 0.034682204827757225 0 0.00560633396227396 0.034682204827757225 0 0.0050805004934259268 0.034106412287400641 0 0.004477714277324598 0.034362498565999586 0 0.0049766504006108995 0.034531989896297736 0 0.00560633396227396 0.034682204827757225 0 0.004955202349812793 0.034535117282196569 0 0.00560633396227396 0.034682204827757225 0 0.0050805004934259268 0.034106412287400641 0 0.004955202349812793 0.034535117282196569 0 0.0050805004934259268 0.034106412287400641 0 0.004955202349812793 0.034535117282196569 0 0.0049417858236481416 0.034157682360707722 0 0.0028169368097016351 0.035499410438477208 0 0.0039278802248298638 0.03480445486235724 0 0.004955202349812793 0.034535117282196569 0 0.0035562679021439738 0.034614211194234745 0 0.0024639202700980829 0.034029697217623618 0 0.004955202349812793 0.034535117282196569 0 0.0026784868323764979 0.034771636729586275 0 0.0046504217541243065 0.03466010997992254 0 0.004955202349812793 0.034535117282196569 0 0.0044621619233493415 0.034525176754407937 0 0.0049417858236481416 0.034157682360707722 0 0.0035562679021439738 0.034614211194234745 0 0.004955202349812793 0.034535117282196569 0 0.0044621619233493415 0.034525176754407937 0 0.003444230789422562 0.035121111462012286 0 0.0044621619233493415 0.034525176754407937 0 0.0050918831386706897 0.033851170563173064 0 0.0013666469958421212 0.034949554525060683 0 0.0026315408122100721 0.034093651111930134 0 3.433555813032687e-05 0.034273202770207865 0 2.9988770293748351e-05 0.034138101189037082 0 0.00017696579610654384 0.034188644705945084 0 0.0044621619233493415 0.034525176754407937 0 0.0049417858236481416 0.034157682360707722 0 0.0050918831386706897 0.033851170563173064 0 0.0048754246842154401 0.033741688873276637 0 0.0050918831386706897 0.033851170563173064 0 0.0045228565541886772 0.033058748738284904 0 0.0050805004934259268 0.034106412287400641 0 0.0048754246842154401 0.033741688873276637 0 0.0044771066690876757 0.033480236884245639 0 0.0050805004934259268 0.034106412287400641 0 0.0048754246842154401 0.033741688873276637 0 0.0049417858236481416 0.034157682360707722 0 0.0048754246842154401 0.033741688873276637 0 0.0049417858236481416 0.034157682360707722 0 0.0050918831386706897 0.033851170563173064 0 0.0045228565541886772 0.033058748738284904 0 0.0044771066690876757 0.033480236884245639 0 0.0037941636811527368 0.032455270069953232 0 0.0044771066690876757 0.033480236884245639 0 0.0037941636811527368 0.032455270069953232 0 0.003767579735287194 0.033260546384240308 0 0.0048754246842154401 0.033741688873276637 0 0.0045228565541886772 0.033058748738284904 0 0.0044771066690876757 0.033480236884245639 0 0.0037941636811527368 0.032455270069953232 0 0.0030370239710133654 0.032140377097996282 0 0.0029616652840994016 0.031393639464627129 0 0.0037941636811527368 0.032455270069953232 0 0.0030370239710133654 0.032140377097996282 0 0.003767579735287194 0.033260546384240308 0 0.0030370239710133654 0.032140377097996282 0 0.0029566429185162203 0.033483784940113323 0 0.003767579735287194 0.033260546384240308 0 0.0029566429185162203 0.033483784940113323 0 0.003767579735287194 0.033260546384240308 0 0.0034798303136596275 0.03414798312843622 0 0.003767579735287194 0.033260546384240308 0 0.0034798303136596275 0.03414798312843622 0 0.004477714277324598 0.034362498565999586 0 0.0029566429185162203 0.033483784940113323 0 0.0034798303136596275 0.03414798312843622 0 0.002515752562538266 0.034307390440642821 0 0.0044771066690876757 0.033480236884245639 0 0.003767579735287194 0.033260546384240308 0 0.004477714277324598 0.034362498565999586 0 0.0050805004934259268 0.034106412287400641 0 0.0044771066690876757 0.033480236884245639 0 0.004477714277324598 0.034362498565999586 0 0.004477714277324598 0.034362498565999586 0 0.0036387902851985885 0.035038125063358391 0 0.0047798160855189557 0.03554511657408959 0 0.00560633396227396 0.034682204827757225 0 0.004477714277324598 0.034362498565999586 0 0.0047798160855189557 0.03554511657408959 0 0.0036387902851985885 0.035038125063358391 0 0.0024202868846868756 0.035487335736838078 0 0.002515752562538266 0.034307390440642821 0 0.0034798303136596275 0.03414798312843622 0 0.004477714277324598 0.034362498565999586 0 0.0036387902851985885 0.035038125063358391 0 0.0034798303136596275 0.03414798312843622 0 0.0036387902851985885 0.035038125063358391 0 0.002515752562538266 0.034307390440642821 0 0.0039660225735498504 0.036598916263749129 0 0.0038479428069190108 0.03605962409762218 0 0.0024202868846868756 0.035487335736838078 0 0.0036387902851985885 0.035038125063358391 0 0.0038479428069190108 0.03605962409762218 0 0.0024202868846868756 0.035487335736838078 0 0.0061256052264361113 0.027625715519462055 0 0.001276024829153946 0.030070149946616605 0 0.0012753694439178664 0.023921508483405542 0 0.0012264514741419463 0.024009574295816002 0 0.0012598358432092944 0.024106418384980021 0 0.0096868330588532753 0.030796420775266307 0 0.011682126271351427 0.030270106552627022 0 0.0087591469360090175 0.033239876437715921 0 0.0039660225735498504 0.036598916263749129 0 0.0038479428069190108 0.03605962409762218 0 0.0047798160855189557 0.03554511657408959 0 0.0061256052264361113 0.027625715519462055 0 0.006527991446896371 0.035065883205905569 0 0.0036387902851985885 0.035038125063358391 0 0.0038479428069190108 0.03605962409762218 0 0.0047798160855189557 0.03554511657408959 0 0.0096868330588532753 0.030796420775266307 0 0.0079079277413937298 0.031929101812930703 0 0.0087591469360090175 0.033239876437715921 0 0.0014390125785001158 0.024129317965936627 0 0.001333426873688067 0.023987170955084559 0 0.0012598358432092944 0.024106418384980021 0 0.0014390125785001158 0.024129317965936627 0 0.0014549860845673257 0.023958069320282431 0 0.001530102712475183 0.024020938118908791 0 0.0014390125785001158 0.024129317965936627 0 0.0014549860845673257 0.023958069320282431 0 0.001333426873688067 0.023987170955084559 0 0.0012753694439178664 0.023921508483405542 0 0.001333426873688067 0.023987170955084559 0 0.0012598358432092944 0.024106418384980021 0 0.0024202868846868756 0.035487335736838078 0 0.002515752562538266 0.034307390440642821 0 0.00079700848440652117 0.034229699917872704 0 0.0014390125785001158 0.024129317965936627 0 0.001473004339147078 0.02432101323965798 0 0.0015884180899907784 0.024213644554063714 0 0.001276024829153946 0.030070149946616605 0 0.0013986443792330721 0.029208022140786605 0 0.0014390125785001158 0.024129317965936627 0 0.0012598358432092944 0.024106418384980021 0 0.001473004339147078 0.02432101323965798 0 0.0026996844535533064 0.031105147433000097 0 0.0029006194059875792 0.031068889619299132 0 0.0027401991258062283 0.030668159712515939 0 0.0013986443792330721 0.029208022140786605 0 0.0021726743778057861 0.032476271382418972 0 0.002515752562538266 0.034307390440642821 0 0.00079700848440652117 0.034229699917872704 0 0.0018183135638533553 0.033367301858253699 0 0.0029566429185162203 0.033483784940113323 0 0.002515752562538266 0.034307390440642821 0 0.0018183135638533553 0.033367301858253699 0 0.0030370239710133654 0.032140377097996282 0 0.0029566429185162203 0.033483784940113323 0 0.0018183135638533553 0.033367301858253699 0 0.0030370239710133654 0.032140377097996282 0 0.0028585769507540912 0.031174409168180119 0 0.0029616652840994016 0.031393639464627129 0 0.0030731856987898354 0.031953773507541562 0 0.0021726743778057861 0.032476271382418972 0 0.0030370239710133654 0.032140377097996282 0 0.0029006194059875792 0.031068889619299132 0 0.0028585769507540912 0.031174409168180119 0 0.0028585769507540912 0.031174409168180119 0 0.0027401991258062283 0.030668159712515939 0 0.0026879107755461065 0.030357358002059714 0 0.0029006194059875792 0.031068889619299132 0 0.0028585769507540912 0.031174409168180119 0 0.0027401991258062283 0.030668159712515939 0 0.0024259658175180216 0.028604273250670477 0 0.0025351538037714119 0.028430487945948876 0 0.0027259116205617224 0.028581230073913815 0 0.0024259658175180216 0.028604273250670477 0 0.0025351538037714119 0.028430487945948876 0 0.0021897098301181736 0.028290705390353672 0 0.0025351538037714119 0.028430487945948876 0 0.0024606377070737471 0.028219001914567485 0 0.0021897098301181736 0.028290705390353672 0 0.0025351538037714119 0.028430487945948876 0 0.0024606377070737471 0.028219001914567485 0 0.0027588046066136605 0.028417370924555589 0 0.0015058705110994189 0.031305202814534763 0 0.0014724442210035773 0.031270149690683223 0 0.00049541587660644512 0.034336634886613301 0 0.00043616940514941199 0.034323625040334024 0 0.00042021218438741099 0.034389174716981948 0 0.002380643667160307 0.029478798520482463 0 0.0031448164819889747 0.029776974300133159 0 0.0025351538037714119 0.028430487945948876 0 0.0027588046066136605 0.028417370924555589 0 0.0027259116205617224 0.028581230073913815 0 0.0028585769507540912 0.031174409168180119 0 0.0026879107755461065 0.030357358002059714 0 0.0029616652840994016 0.031393639464627129 0 0.0031448164819889747 0.029776974300133159 0 0.0021442063573082456 0.032106160978974806 0 0.0037941636811527368 0.032455270069953232 0 0.0029616652840994016 0.031393639464627129 0 0.0041446986619759962 0.031913797757678677 0 0.0027588046066136605 0.028417370924555589 0 0.0027259116205617224 0.028581230073913815 0 0.0030045066350047694 0.02859624947016744 0 0.0014724442210035773 0.031270149690683223 0 0.0021442063573082456 0.032106160978974806 0 -0.00037314116634275821 0.034266998986108715 0 0.0021442063573082456 0.032106160978974806 0 0.0050918831386706897 0.033851170563173064 0 0.0045228565541886772 0.033058748738284904 0 0.0041446986619759962 0.031913797757678677 0 0.0002497126353971705 0.034288154334445417 0 0.00034494246166768763 0.034275669740648038 0 0.00030403408720369176 0.03435501831612793 0 0.0045228565541886772 0.033058748738284904 0 0.0037941636811527368 0.032455270069953232 0 0.0041446986619759962 0.031913797757678677 0 0.00020879172199558718 0.034441635527686046 0 0.00030403408720369176 0.03435501831612793 0 0.00033596103132454242 0.034428494322968017 0 0.00034494246166768763 0.034275669740648038 0 0.00030403408720369176 0.03435501831612793 0 0.00036868405361069432 0.034352956756332806 0 0.00030403408720369176 0.03435501831612793 0 0.00036868405361069432 0.034352956756332806 0 0.00033596103132454242 0.034428494322968017 0 0.00043616940514941199 0.034323625040334024 0 0.00034494246166768763 0.034275669740648038 0 0.00036868405361069432 0.034352956756332806 0 0.00043616940514941199 0.034323625040334024 0 0.00036868405361069432 0.034352956756332806 0 0.00042021218438741099 0.034389174716981948 0 0.00036868405361069432 0.034352956756332806 0 0.00042021218438741099 0.034389174716981948 0 0.00033596103132454242 0.034428494322968017 0 0.00042021218438741099 0.034389174716981948 0 0.00033596103132454242 0.034428494322968017 0 0.00038994284059665961 0.034489711401345248 0 0.00042021218438741099 0.034389174716981948 0 0.00038994284059665961 0.034489711401345248 0 0.00044716688437030093 0.034413541158986115 0 0.00020879172199558718 0.034441635527686046 0 0.00033596103132454242 0.034428494322968017 0 0.00025122510796189707 0.034637101956157941 0 0.00033596103132454242 0.034428494322968017 0 0.00025122510796189707 0.034637101956157941 0 0.00038994284059665961 0.034489711401345248 0 0.00025122510796189707 0.034637101956157941 0 0.00038994284059665961 0.034489711401345248 0 0.00040824190794344324 0.034515684163258301 0 0.00038994284059665961 0.034489711401345248 0 0.00045281498636292933 0.034449704453913911 0 0.00040824190794344324 0.034515684163258301 0 0.00045281498636292933 0.034449704453913911 0 0.00049513562777037297 0.034379625193990009 0 0.00044716688437030093 0.034413541158986115 0 0.00038994284059665961 0.034489711401345248 0 0.00045281498636292933 0.034449704453913911 0 0.00044716688437030093 0.034413541158986115 0 0.00045281498636292933 0.034449704453913911 0 0.00049513562777037297 0.034379625193990009 0 0.00052252748583456036 0.034388576834956358 0 0.00049541587660644512 0.034336634886613301 0 0.00049513562777037297 0.034379625193990009 0 0.00044716688437030093 0.034413541158986115 0 0.00049541587660644512 0.034336634886613301 0 0.00049513562777037297 0.034379625193990009 0 0.00054736528958319462 0.034315992647270428 0 0.00049541587660644512 0.034336634886613301 0 0.00042021218438741099 0.034389174716981948 0 0.00044716688437030093 0.034413541158986115 0 0.0013666694815685015 0.031110928878073294 0 0.0010112692292948108 0.032175622023215916 0 0.0020701627690427517 0.028098955335779316 0 0.0021547007772766808 0.028085925524577532 0 0.0020314489166253112 0.028100446163066933 0 0.0020701627690427517 0.028098955335779316 0 0.0020539643952831219 0.028090436334744211 0 0.0020314489166253112 0.028100446163066933 0 0.0020701627690427517 0.028098955335779316 0 0.0020539643952831219 0.028090436334744211 0 0.0020409957454782784 0.028124395519711506 0 0.0020701627690427517 0.028098955335779316 0 0.0021547007772766808 0.028085925524577532 0 0.0021897098301181736 0.028290705390353672 0 0.0015058705110994189 0.031305202814534763 0 0.0013666694815685015 0.031110928878073294 0 0.00049513562777037297 0.034379625193990009 0 0.00054736528958319462 0.034315992647270428 0 0.00052252748583456036 0.034388576834956358 0 0.00054736528958319462 0.034315992647270428 0 0.00052252748583456036 0.034388576834956358 0 0.00057215090498284778 0.034323291357117737 0 0.00052252748583456036 0.034388576834956358 0 0.0005753774341749001 0.034345070511450262 0 0.00057215090498284778 0.034323291357117737 0 0.00054736528958319462 0.034315992647270428 0 0.00057215090498284778 0.034323291357117737 0 0.00062042197223790489 0.034285908093039309 0 0.0005753774341749001 0.034345070511450262 0 0.00057215090498284778 0.034323291357117737 0 0.00060719507776445128 0.034310549292912322 0 0.00057215090498284778 0.034323291357117737 0 0.00060719507776445128 0.034310549292912322 0 0.00062042197223790489 0.034285908093039309 0 0.00060719507776445128 0.034310549292912322 0 0.00062042197223790489 0.034285908093039309 0 0.00062138125007204191 0.034293613725750523 0 0.0005753774341749001 0.034345070511450262 0 0.00060719507776445128 0.034310549292912322 0 0.00060695446561283793 0.03433099651369706 0 0.00060695446561283793 0.03433099651369706 0 0.00062399773706346587 0.034312017482111101 0 0.00063107016836378186 0.034322609769189646 0 0.00060719507776445128 0.034310549292912322 0 0.00060695446561283793 0.03433099651369706 0 0.00062399773706346587 0.034312017482111101 0 0.0020834545141981912 0.028102706200798959 0 0.0020314489166253112 0.028100446163066933 0 0.0021543461365149466 0.028133573110668875 0 0.00062399773706346587 0.034312017482111101 0 0.00062974372945406583 0.034296998750734831 0 0.00064693650674422501 0.034300714966621536 0 0.00062399773706346587 0.034312017482111101 0 0.00064693650674422501 0.034300714966621536 0 0.00063107016836378186 0.034322609769189646 0 0.0010112692292948108 0.032175622023215916 0 0.0015372281499902052 0.031205260672162317 0 0.00065527220636146127 0.034275398009787024 0 0.00062042197223790489 0.034285908093039309 0 0.00075490477482545698 0.034218729536416768 0 0.00065527220636146127 0.034275398009787024 0 0.00067411974589755665 0.034268507784353891 0 0.00075490477482545698 0.034218729536416768 0 0.0010112692292948108 0.032175622023215916 0 0.00071447593772514981 0.034681702094831922 0 0.0020314489166253112 0.028100446163066933 0 0.0022349532316033958 0.028205689007871251 0 0.0021543461365149466 0.028133573110668875 0 0.00060719507776445128 0.034310549292912322 0 0.00062974372945406583 0.034296998750734831 0 0.00062138125007204191 0.034293613725750523 0 0.00060719507776445128 0.034310549292912322 0 0.00062399773706346587 0.034312017482111101 0 0.00062974372945406583 0.034296998750734831 0 0.00062974372945406583 0.034296998750734831 0 0.00062138125007204191 0.034293613725750523 0 0.00063601743346322994 0.034286795890764207 0 0.00062974372945406583 0.034296998750734831 0 0.00065069627786488668 0.034285847826191769 0 0.00063601743346322994 0.034286795890764207 0 0.00062974372945406583 0.034296998750734831 0 0.00065069627786488668 0.034285847826191769 0 0.00064693650674422501 0.034300714966621536 0 0.00065527220636146127 0.034275398009787024 0 0.00065069627786488668 0.034285847826191769 0 0.00063601743346322994 0.034286795890764207 0 0.00065069627786488668 0.034285847826191769 0 0.00064693650674422501 0.034300714966621536 0 0.00066831035948028742 0.034281247907619557 0 0.00066831035948028742 0.034281247907619557 0 0.00069649619487950046 0.034261446165185651 0 0.00067507859580656182 0.034288718758207326 0 0.00064693650674422501 0.034300714966621536 0 0.00066831035948028742 0.034281247907619557 0 0.00067507859580656182 0.034288718758207326 0 0.00066831035948028742 0.034281247907619557 0 0.00069649619487950046 0.034261446165185651 0 0.00067411974589755665 0.034268507784353891 0 0.00069649619487950046 0.034261446165185651 0 0.00070471943967230857 0.034270473960763777 0 0.00067507859580656182 0.034288718758207326 0 0.00065069627786488668 0.034285847826191769 0 0.00066831035948028742 0.034281247907619557 0 0.00067411974589755665 0.034268507784353891 0 0.00065527220636146127 0.034275398009787024 0 0.00065069627786488668 0.034285847826191769 0 0.00067411974589755665 0.034268507784353891 0 0.0021142154104594338 0.028106348701295358 0 0.0020834545141981912 0.028102706200798959 0 0.0021543461365149466 0.028133573110668875 0 0.0021310236146973903 0.028108662478228113 0 0.0021142154104594338 0.028106348701295358 0 0.0021543461365149466 0.028133573110668875 0 0.0021310236146973903 0.028108662478228113 0 0.0021522667607063767 0.028092328278678032 0 0.0021178659038411079 0.028085080234778625 0 0.0021142154104594338 0.028106348701295358 0 0.0020891046694406857 0.028091488468185832 0 0.0021178659038411079 0.028085080234778625 0 0.0021310236146973903 0.028108662478228113 0 0.0021142154104594338 0.028106348701295358 0 0.0021178659038411079 0.028085080234778625 0 0.0021142154104594338 0.028106348701295358 0 0.0020834545141981912 0.028102706200798959 0 0.0020891046694406857 0.028091488468185832 0 0.0020834545141981912 0.028102706200798959 0 0.0020654286752209254 0.028095892404746397 0 0.0020891046694406857 0.028091488468185832 0 0.0020834545141981912 0.028102706200798959 0 0.0020654286752209254 0.028095892404746397 0 0.0020314489166253112 0.028100446163066933 0 0.0020654286752209254 0.028095892404746397 0 0.0020314489166253112 0.028100446163066933 0 0.0020598259417125078 0.028090801436565914 0 0.00062042197223790489 0.034285908093039309 0 0.00062138125007204191 0.034293613725750523 0 0.00063601743346322994 0.034286795890764207 0 0.00065527220636146127 0.034275398009787024 0 0.00062042197223790489 0.034285908093039309 0 0.00063601743346322994 0.034286795890764207 0 0.00041141906637883022 0.033933071151764679 0 0.00075490477482545698 0.034218729536416768 0 0.00079255185659348165 0.034164824331648656 0 0.0022349532316033958 0.028205689007871251 0 0.0022708088920464992 0.028145617753795822 0 0.0023368545165545818 0.028144249236008268 0 0.00078953132559754838 0.034216016748793959 0 0.00079255185659348165 0.034164824331648656 0 0.00082917108939151336 0.034218839176145315 0 0.00078953132559754838 0.034216016748793959 0 0.00075490477482545698 0.034218729536416768 0 0.00079255185659348165 0.034164824331648656 0 0.0022349532316033958 0.028205689007871251 0 0.0022084633360938293 0.028159593497399771 0 0.002235170920691395 0.028148978943401348 0 0.0022349532316033958 0.028205689007871251 0 0.002235170920691395 0.028148978943401348 0 0.0022708088920464992 0.028145617753795822 0 0.00069649619487950046 0.034261446165185651 0 0.00067411974589755665 0.034268507784353891 0 0.00075490477482545698 0.034218729536416768 0 0.00069649619487950046 0.034261446165185651 0 0.00075490477482545698 0.034218729536416768 0 0.00072295002971932193 0.034253546578900201 0 0.00069649619487950046 0.034261446165185651 0 0.00070471943967230857 0.034270473960763777 0 0.00072295002971932193 0.034253546578900201 0 0.0022349532316033958 0.028205689007871251 0 0.0021543461365149466 0.028133573110668875 0 0.0022084633360938293 0.028159593497399771 0 0.0021543461365149466 0.028133573110668875 0 0.0021522667607063767 0.028092328278678032 0 0.0021839885279402709 0.028100516996477899 0 0.0021310236146973903 0.028108662478228113 0 0.0021543461365149466 0.028133573110668875 0 0.0021522667607063767 0.028092328278678032 0 0.0021839885279402709 0.028100516996477899 0 0.0022075011845286647 0.028121898439138541 0 0.0022277761973172922 0.028070373087816011 0 0.0021543461365149466 0.028133573110668875 0 0.0021839885279402709 0.028100516996477899 0 0.0022075011845286647 0.028121898439138541 0 0.0021543461365149466 0.028133573110668875 0 0.0022075011845286647 0.028121898439138541 0 0.0022084633360938293 0.028159593497399771 0 0.0022075011845286647 0.028121898439138541 0 0.0022084633360938293 0.028159593497399771 0 0.002235170920691395 0.028148978943401348 0 0.002235170920691395 0.028148978943401348 0 0.0022520425304784694 0.028113335774625339 0 0.0022708088920464992 0.028145617753795822 0 0.0022075011845286647 0.028121898439138541 0 0.002235170920691395 0.028148978943401348 0 0.0022520425304784694 0.028113335774625339 0 0.0022075011845286647 0.028121898439138541 0 0.0022520425304784694 0.028113335774625339 0 0.0022277761973172922 0.028070373087816011 0 0.0022520425304784694 0.028113335774625339 0 0.0022277761973172922 0.028070373087816011 0 0.0023064293136134378 0.028037409210950263 0 0.0022520425304784694 0.028113335774625339 0 0.0023070752799476267 0.028101773647958368 0 0.0023064293136134378 0.028037409210950263 0 0.0023070752799476267 0.028101773647958368 0 0.0022708088920464992 0.028145617753795822 0 0.0023368545165545818 0.028144249236008268 0 0.0022520425304784694 0.028113335774625339 0 0.0023070752799476267 0.028101773647958368 0 0.0022708088920464992 0.028145617753795822 0 0.0023064293136134378 0.028037409210950263 0 0.002252601641965845 0.028008292388593068 0 0.0023337973855187639 0.027916151052369692 0 0.002252601641965845 0.028008292388593068 0 0.0022293928090304006 0.027966228822972138 0 0.0023337973855187639 0.027916151052369692 0 0.0022277761973172922 0.028070373087816011 0 0.0023064293136134378 0.028037409210950263 0 0.002252601641965845 0.028008292388593068 0 0.0022277761973172922 0.028070373087816011 0 0.002252601641965845 0.028008292388593068 0 0.0021917507176634869 0.028050088574482095 0 0.002252601641965845 0.028008292388593068 0 0.0021917507176634869 0.028050088574482095 0 0.0022293928090304006 0.027966228822972138 0 0.0021917507176634869 0.028050088574482095 0 0.002157224596681153 0.028017445651102049 0 0.0022293928090304006 0.027966228822972138 0 0.0021522667607063767 0.028092328278678032 0 0.0021839885279402709 0.028100516996477899 0 0.0021917507176634869 0.028050088574482095 0 0.0021839885279402709 0.028100516996477899 0 0.0022277761973172922 0.028070373087816011 0 0.0021917507176634869 0.028050088574482095 0 0.0021522667607063767 0.028092328278678032 0 0.0021917507176634869 0.028050088574482095 0 0.0021464699199874528 0.028062936896367154 0 0.0021522667607063767 0.028092328278678032 0 0.0021464699199874528 0.028062936896367154 0 0.0021178659038411079 0.028085080234778625 0 0.0021464699199874528 0.028062936896367154 0 0.002157224596681153 0.028017445651102049 0 0.0021115866124221147 0.02806050922369633 0 0.0021917507176634869 0.028050088574482095 0 0.0021464699199874528 0.028062936896367154 0 0.002157224596681153 0.028017445651102049 0 0.002157224596681153 0.028017445651102049 0 0.0021269516872518394 0.028015316719758192 0 0.0021883497161912435 0.027954089554113725 0 0.002157224596681153 0.028017445651102049 0 0.0022293928090304006 0.027966228822972138 0 0.0021883497161912435 0.027954089554113725 0 0.0022293928090304006 0.027966228822972138 0 0.0022811348951691699 0.027884590669038738 0 0.0023337973855187639 0.027916151052369692 0 0.0022293928090304006 0.027966228822972138 0 0.0022811348951691699 0.027884590669038738 0 0.0021883497161912435 0.027954089554113725 0 0.0020539643952831219 0.028090436334744211 0 0.0020314489166253112 0.028100446163066933 0 0.0020556551789921189 0.028087588648182976 0 0.0020765831869707548 0.028072316590378572 0 0.0020556551789921189 0.028087588648182976 0 0.0020718940406651595 0.028084299679906621 0 0.0020608823433408857 0.028080956860707811 0 0.0020765831869707548 0.028072316590378572 0 0.0020556551789921189 0.028087588648182976 0 0.0020539643952831219 0.028090436334744211 0 0.0020608823433408857 0.028080956860707811 0 0.0020556551789921189 0.028087588648182976 0 0.0020314489166253112 0.028100446163066933 0 0.0020556551789921189 0.028087588648182976 0 0.0020598259417125078 0.028090801436565914 0 0.0020556551789921189 0.028087588648182976 0 0.0020598259417125078 0.028090801436565914 0 0.0020718940406651595 0.028084299679906621 0 0.0020654286752209254 0.028095892404746397 0 0.0020598259417125078 0.028090801436565914 0 0.0020718940406651595 0.028084299679906621 0 0.0020654286752209254 0.028095892404746397 0 0.0020718940406651595 0.028084299679906621 0 0.0020891046694406857 0.028091488468185832 0 0.0020891046694406857 0.028091488468185832 0 0.0020915062271277675 0.028078878801713961 0 0.0021178659038411079 0.028085080234778625 0 0.0020718940406651595 0.028084299679906621 0 0.0020891046694406857 0.028091488468185832 0 0.0020915062271277675 0.028078878801713961 0 0.0021464699199874528 0.028062936896367154 0 0.0021178659038411079 0.028085080234778625 0 0.0021115866124221147 0.02806050922369633 0 0.0020915062271277675 0.028078878801713961 0 0.0021178659038411079 0.028085080234778625 0 0.0021115866124221147 0.02806050922369633 0 0.0020765831869707548 0.028072316590378572 0 0.0020915062271277675 0.028078878801713961 0 0.0021115866124221147 0.02806050922369633 0 0.0020765831869707548 0.028072316590378572 0 0.0021115866124221147 0.02806050922369633 0 0.0020986111457599803 0.028049322168273143 0 0.0020765831869707548 0.028072316590378572 0 0.0020718940406651595 0.028084299679906621 0 0.0020915062271277675 0.028078878801713961 0 0.0020765831869707548 0.028072316590378572 0 0.0020986111457599803 0.028049322168273143 0 0.0020606350427110473 0.028079122869200807 0 0.002157224596681153 0.028017445651102049 0 0.0020986111457599803 0.028049322168273143 0 0.0021269516872518394 0.028015316719758192 0 0.002157224596681153 0.028017445651102049 0 0.0021115866124221147 0.02806050922369633 0 0.0020986111457599803 0.028049322168273143 0 0.0020986111457599803 0.028049322168273143 0 0.0021269516872518394 0.028015316719758192 0 0.0020846614859335129 0.028055073102922257 0 0.0020986111457599803 0.028049322168273143 0 0.0020846614859335129 0.028055073102922257 0 0.0020606350427110473 0.028079122869200807 0 0.0020846614859335129 0.028055073102922257 0 0.0020606350427110473 0.028079122869200807 0 0.0020569660958550109 0.028089339657800465 0 0.0020539643952831219 0.028090436334744211 0 0.0020606350427110473 0.028079122869200807 0 0.0020409957454782784 0.028124395519711506 0 0.0020608823433408857 0.028080956860707811 0 0.0020765831869707548 0.028072316590378572 0 0.0020606350427110473 0.028079122869200807 0 0.0020539643952831219 0.028090436334744211 0 0.0020608823433408857 0.028080956860707811 0 0.0020606350427110473 0.028079122869200807 0 0.0020569660958550109 0.028089339657800465 0 0.0020130082984724028 0.02817818254369113 0 0.0020409957454782784 0.028124395519711506 0 0.0020606350427110473 0.028079122869200807 0 0.0020569660958550109 0.028089339657800465 0 0.0020409957454782784 0.028124395519711506 0 0.0020846614859335129 0.028055073102922257 0 0.0020569660958550109 0.028089339657800465 0 0.0021111008385655051 0.028024837219426665 0 0.0021269516872518394 0.028015316719758192 0 0.0020846614859335129 0.028055073102922257 0 0.0021111008385655051 0.028024837219426665 0 0.0020569660958550109 0.028089339657800465 0 0.0021111008385655051 0.028024837219426665 0 0.0020728419357097369 0.028083870843130448 0 0.0021111008385655051 0.028024837219426665 0 0.0020728419357097369 0.028083870843130448 0 0.0021704240662648428 0.027961352685240581 0 0.0020728419357097369 0.028083870843130448 0 0.0021704240662648428 0.027961352685240581 0 0.0021390554256681261 0.028032129652823177 0 0.0020569660958550109 0.028089339657800465 0 0.0020728419357097369 0.028083870843130448 0 0.0020130082984724028 0.02817818254369113 0 0.0020728419357097369 0.028083870843130448 0 0.0020130082984724028 0.02817818254369113 0 0.0020078728705395731 0.028196995098299486 0 0.0022811348951691699 0.027884590669038738 0 0.0022722891976947089 0.027856552313194751 0 0.0024092957313233071 0.02773684835274811 0 0.0022811348951691699 0.027884590669038738 0 0.0022722891976947089 0.027856552313194751 0 0.0021883497161912435 0.027954089554113725 0 0.0021111008385655051 0.028024837219426665 0 0.0021883497161912435 0.027954089554113725 0 0.0021704240662648428 0.027961352685240581 0 0.0022722891976947089 0.027856552313194751 0 0.0021883497161912435 0.027954089554113725 0 0.0021704240662648428 0.027961352685240581 0 0.0021269516872518394 0.028015316719758192 0 0.0021111008385655051 0.028024837219426665 0 0.0021883497161912435 0.027954089554113725 0 0.0022722891976947089 0.027856552313194751 0 0.0021704240662648428 0.027961352685240581 0 0.002271080037599744 0.027853779216842942 0 0.0021704240662648428 0.027961352685240581 0 0.002271080037599744 0.027853779216842942 0 0.0021390554256681261 0.028032129652823177 0 0.0022722891976947089 0.027856552313194751 0 0.002271080037599744 0.027853779216842942 0 0.0024366487913288068 0.027632472209747117 0 0.0023260573999229887 0.027823577368229171 0 0.0025283081138276244 0.027618119365845177 0 0.0024366487913288068 0.027632472209747117 0 0.002271080037599744 0.027853779216842942 0 0.0023260573999229887 0.027823577368229171 0 0.0024366487913288068 0.027632472209747117 0 0.0023260573999229887 0.027823577368229171 0 0.0022210863454543931 0.02798361020275356 0 0.0021390554256681261 0.028032129652823177 0 0.002271080037599744 0.027853779216842942 0 0.0023260573999229887 0.027823577368229171 0 0.0021390554256681261 0.028032129652823177 0 0.0023260573999229887 0.027823577368229171 0 0.0022210863454543931 0.02798361020275356 0 0.0025283081138276244 0.027618119365845177 0 0.0020078728705395731 0.028196995098299486 0 0.0021390554256681261 0.028032129652823177 0 0.001980425471574987 0.028264784474216081 0 0.0020078728705395731 0.028196995098299486 0 0.001980425471574987 0.028264784474216081 0 0.001937239213201972 0.028356355181068854 0 0.0020728419357097369 0.028083870843130448 0 0.0020078728705395731 0.028196995098299486 0 0.0021390554256681261 0.028032129652823177 0 0.0022210863454543931 0.02798361020275356 0 0.001980425471574987 0.028264784474216081 0 0.0019305324133978882 0.028314637738130598 0 0.0022210863454543931 0.02798361020275356 0 0.0021390554256681261 0.028032129652823177 0 0.001980425471574987 0.028264784474216081 0 0.001980425471574987 0.028264784474216081 0 0.0018323391150408556 0.028528561732792244 0 0.001937239213201972 0.028356355181068854 0 0.0018323391150408556 0.028528561732792244 0 0.0019314520798833011 0.028778164794851093 0 0.001937239213201972 0.028356355181068854 0 0.001937239213201972 0.028356355181068854 0 0.0020442554726967724 0.028227004737438426 0 0.0020892300837825257 0.028436106281197176 0 0.0019314520798833011 0.028778164794851093 0 0.001937239213201972 0.028356355181068854 0 0.0020892300837825257 0.028436106281197176 0 0.0020130082984724028 0.02817818254369113 0 0.0020078728705395731 0.028196995098299486 0 0.001937239213201972 0.028356355181068854 0 0.0020701627690427517 0.028098955335779316 0 0.0020442554726967724 0.028227004737438426 0 0.0021897098301181736 0.028290705390353672 0 0.0020130082984724028 0.02817818254369113 0 0.001937239213201972 0.028356355181068854 0 0.0020442554726967724 0.028227004737438426 0 0.0020701627690427517 0.028098955335779316 0 0.0020442554726967724 0.028227004737438426 0 0.0020409957454782784 0.028124395519711506 0 0.0020130082984724028 0.02817818254369113 0 0.0020442554726967724 0.028227004737438426 0 0.0020409957454782784 0.028124395519711506 0 0.0024606377070737471 0.028219001914567485 0 0.0021547007772766808 0.028085925524577532 0 0.0021897098301181736 0.028290705390353672 0 0.0020442554726967724 0.028227004737438426 0 0.0021897098301181736 0.028290705390353672 0 0.0020892300837825257 0.028436106281197176 0 0.0024259658175180216 0.028604273250670477 0 0.0021897098301181736 0.028290705390353672 0 0.0020892300837825257 0.028436106281197176 0 0.0024259658175180216 0.028604273250670477 0 0.0019314520798833011 0.028778164794851093 0 0.0020892300837825257 0.028436106281197176 0 0.002380643667160307 0.029478798520482463 0 0.0019261723413360914 0.028947675575238616 0 0.0026879107755461065 0.030357358002059714 0 0.0019314520798833011 0.028778164794851093 0 0.002307095373277709 0.029773192256134878 0 0.0027401991258062283 0.030668159712515939 0 0.0026879107755461065 0.030357358002059714 0 0.002307095373277709 0.029773192256134878 0 0.002307095373277709 0.029773192256134878 0 0.0015579506701601431 0.028855028240138251 0 0.00227427650181864 0.030637859121221443 0 0.0027401991258062283 0.030668159712515939 0 0.002307095373277709 0.029773192256134878 0 0.00227427650181864 0.030637859121221443 0 0.0018323391150408556 0.028528561732792244 0 0.0015579506701601431 0.028855028240138251 0 0.0019305324133978882 0.028314637738130598 0 0.0018323391150408556 0.028528561732792244 0 0.0019314520798833011 0.028778164794851093 0 0.0015579506701601431 0.028855028240138251 0 0.0019314520798833011 0.028778164794851093 0 0.002307095373277709 0.029773192256134878 0 0.0015579506701601431 0.028855028240138251 0 0.0015383631433543699 0.029034309198790166 0 0.0012021898597693588 0.029109572757192028 0 0.0015579506701601431 0.028855028240138251 0 0.0017813389958993512 0.028086355210896235 0 0.0012267635313709608 0.027617264632513776 0 0.0015579506701601431 0.028855028240138251 0 0.0017813389958993512 0.028086355210896235 0 0.0019305324133978882 0.028314637738130598 0 0.0017813389958993512 0.028086355210896235 0 0.0012267635313709608 0.027617264632513776 0 0.001839878785949191 0.027554184418212987 0 0.0015579506701601431 0.028855028240138251 0 0.0012267635313709608 0.027617264632513776 0 0.00014436946649340997 0.027772285002491712 0 0.0012267635313709608 0.027617264632513776 0 0.00014436946649340997 0.027772285002491712 0 0.00070541920539705265 0.026855814351744733 0 0.0012267635313709608 0.027617264632513776 0 0.00070541920539705265 0.026855814351744733 0 0.0016995075497629264 0.026964092187244167 0 0.0012267635313709608 0.027617264632513776 0 0.0016995075497629264 0.026964092187244167 0 0.001839878785949191 0.027554184418212987 0 -0.00080058660090769626 0.026959873285271621 0 0.00014436946649340997 0.027772285002491712 0 0.00070541920539705265 0.026855814351744733 0 0.0026996844535533064 0.031105147433000097 0 0.0027401991258062283 0.030668159712515939 0 0.00227427650181864 0.030637859121221443 0 0.0013986443792330721 0.029208022140786605 0 0.0012021898597693588 0.029109572757192028 0 -0.00080058660090769626 0.026959873285271621 0 0.00070541920539705265 0.026855814351744733 0 0.00064022210089134852 0.025700669843178526 0 0.0013986443792330721 0.029208022140786605 0 0.0011030174430049476 0.024337376616287151 0 0.001473004339147078 0.02432101323965798 0 0.0016107443341412632 0.024209833498229028 0 0.0015884180899907784 0.024213644554063714 0 0.00070541920539705265 0.026855814351744733 0 0.001278529939539159 0.026264187906615673 0 0.00064022210089134852 0.025700669843178526 0 0.00070541920539705265 0.026855814351744733 0 0.001278529939539159 0.026264187906615673 0 0.0016995075497629264 0.026964092187244167 0 0.0019366535248092176 0.024459033645259292 0 0.0011030174430049476 0.024337376616287151 0 0.001278529939539159 0.026264187906615673 0 0.00064022210089134852 0.025700669843178526 0 0.0018651284005442245 0.02571098013006675 0 0.0015217242472682834 0.024004042215334368 0 0.0016107443341412632 0.024209833498229028 0 0.0015884180899907784 0.024213644554063714 0 0.001691734139725761 0.023668530359894677 0 0.0015844606263111518 0.024181909649777279 0 0.0016363446361480341 0.023792295104049371 0 0.0017732617284401887 0.023580437985049687 0 0.0015884180899907784 0.024213644554063714 0 0.0016363446361480341 0.023792295104049371 0 0.001530102712475183 0.024020938118908791 0 0.0015884180899907784 0.024213644554063714 0 0.0016363446361480341 0.023792295104049371 0 0.0014549860845673257 0.023958069320282431 0 0.001530102712475183 0.024020938118908791 0 0.0014390125785001158 0.024129317965936627 0 0.001530102712475183 0.024020938118908791 0 0.0015884180899907784 0.024213644554063714 0 0.0035359760258005246 0.024692085621950157 0 0.0027784961873102538 0.025165059340127662 0 0.0034364427560163455 0.026086906507684512 0 0.0027784961873102538 0.025165059340127662 0 0.0018651284005442245 0.02571098013006675 0 0.0027312662380063421 0.02601437376126162 0 0.0027784961873102538 0.025165059340127662 0 0.0027312662380063421 0.02601437376126162 0 0.0034364427560163455 0.026086906507684512 0 0.0019879544353391767 0.02424037829505378 0 0.0027784961873102538 0.025165059340127662 0 0.0018651284005442245 0.02571098013006675 0 0.0019879544353391767 0.02424037829505378 0 0.00064022210089134852 0.025700669843178526 0 0.0018651284005442245 0.02571098013006675 0 0.0018651284005442245 0.02571098013006675 0 0.0018005539573034588 0.026380470265862599 0 0.0022931867398039859 0.026541079582714573 0 0.0018651284005442245 0.02571098013006675 0 0.0022931867398039859 0.026541079582714573 0 0.0027312662380063421 0.02601437376126162 0 0.001278529939539159 0.026264187906615673 0 0.0018651284005442245 0.02571098013006675 0 0.0018005539573034588 0.026380470265862599 0 0.001278529939539159 0.026264187906615673 0 0.0018005539573034588 0.026380470265862599 0 0.0016995075497629264 0.026964092187244167 0 0.0018005539573034588 0.026380470265862599 0 0.0016995075497629264 0.026964092187244167 0 0.0022931867398039859 0.026541079582714573 0 0.0016995075497629264 0.026964092187244167 0 0.0022931867398039859 0.026541079582714573 0 0.0022198680702015666 0.027262432552011058 0 0.0022931867398039859 0.026541079582714573 0 0.0027312662380063421 0.02601437376126162 0 0.002844579186169018 0.027153049962511219 0 0.0022931867398039859 0.026541079582714573 0 0.002844579186169018 0.027153049962511219 0 0.0022198680702015666 0.027262432552011058 0 0.0027312662380063421 0.02601437376126162 0 0.002844579186169018 0.027153049962511219 0 0.0034364427560163455 0.026086906507684512 0 0.002844579186169018 0.027153049962511219 0 0.0024803884018049505 0.027507925954051621 0 0.0027645505114625942 0.027377890328306367 0 0.002844579186169018 0.027153049962511219 0 0.0024803884018049505 0.027507925954051621 0 0.0022198680702015666 0.027262432552011058 0 0.0016995075497629264 0.026964092187244167 0 0.0022198680702015666 0.027262432552011058 0 0.001839878785949191 0.027554184418212987 0 0.0024803884018049505 0.027507925954051621 0 0.0022198680702015666 0.027262432552011058 0 0.0020967826296428562 0.027807208579591694 0 0.0017813389958993512 0.028086355210896235 0 0.0020967826296428562 0.027807208579591694 0 0.001839878785949191 0.027554184418212987 0 0.0022198680702015666 0.027262432552011058 0 0.0020967826296428562 0.027807208579591694 0 0.001839878785949191 0.027554184418212987 0 0.0017813389958993512 0.028086355210896235 0 0.0020967826296428562 0.027807208579591694 0 0.0019305324133978882 0.028314637738130598 0 0.0020967826296428562 0.027807208579591694 0 0.0019305324133978882 0.028314637738130598 0 0.0023586821902303223 0.027810519199445931 0 0.0024803884018049505 0.027507925954051621 0 0.0020967826296428562 0.027807208579591694 0 0.0023586821902303223 0.027810519199445931 0 0.0022210863454543931 0.02798361020275356 0 0.0019305324133978882 0.028314637738130598 0 0.0023586821902303223 0.027810519199445931 0 0.001980425471574987 0.028264784474216081 0 0.0018323391150408556 0.028528561732792244 0 0.0019305324133978882 0.028314637738130598 0 0.0023586821902303223 0.027810519199445931 0 0.0027645505114625942 0.027377890328306367 0 0.0025283081138276244 0.027618119365845177 0 0.0024803884018049505 0.027507925954051621 0 0.0023586821902303223 0.027810519199445931 0 0.0027645505114625942 0.027377890328306367 0 0.0022210863454543931 0.02798361020275356 0 0.0023586821902303223 0.027810519199445931 0 0.0025283081138276244 0.027618119365845177 0 0.0027422452565532994 0.027368376951771783 0 0.0027645505114625942 0.027377890328306367 0 0.0025283081138276244 0.027618119365845177 0 0.0027422452565532994 0.027368376951771783 0 0.0027482685889702505 0.027324551843524711 0 0.0027645505114625942 0.027377890328306367 0 0.0027422452565532994 0.027368376951771783 0 0.0027482685889702505 0.027324551843524711 0 0.0027314564173001516 0.027183375317892042 0 0.0027482685889702505 0.027324551843524711 0 0.0027645505114625942 0.027377890328306367 0 0.0028239001317368439 0.027240190794206965 0 0.0033334692671959359 0.025570151027225287 0 0.0037084608230218987 0.026262303821636412 0 0.0032575018213130643 0.026008035638992445 0 0.0031739160951640773 0.02684633808653324 0 0.0026358316394116048 0.025224276107580483 0 0.002844579186169018 0.027153049962511219 0 0.0027645505114625942 0.027377890328306367 0 0.0028239001317368439 0.027240190794206965 0 0.002844579186169018 0.027153049962511219 0 0.0034364427560163455 0.026086906507684512 0 0.0050309325073623042 0.026552481615956421 0 0.0033468167824923663 0.027513500317607638 0 0.0026358316394116048 0.025224276107580483 0 0.0026358316394116048 0.025224276107580483 0 0.002690070713682735 0.021794747264111 0 0.00045555984532268709 0.02082522507700868 0 0.0004580834550575205 0.020767744218838854 0 0.00043489780502879965 0.020753082489844796 0 0.0034364427560163455 0.026086906507684512 0 0.0050309325073623042 0.026552481615956421 0 0.0045341936408913814 0.02464696241497108 0 0.0035882064719440243 0.026643785205757341 0 0.002690070713682735 0.021794747264111 0 0.0035359760258005246 0.024692085621950157 0 0.0034364427560163455 0.026086906507684512 0 0.0044338298727372031 0.024865485349624333 0 0.00046561206029939147 0.020735188173227701 0 0.0004757089277551413 0.020772517928836123 0 0.00046990572744167456 0.020732690363032897 0 0.0017995394516089698 0.023593158286826742 0 0.00095928050088129626 0.022421493312393171 0 0.0004580834550575205 0.020767744218838854 0 0.00046561206029939147 0.020735188173227701 0 0.0004757089277551413 0.020772517928836123 0 0.0037084608230218987 0.026262303821636412 0 0.0031562312688175422 0.026540686572578732 0 0.0032575018213130643 0.026008035638992445 0 0.00045555984532268709 0.02082522507700868 0 0.0004580834550575205 0.020767744218838854 0 0.0004757089277551413 0.020772517928836123 0 0.0026358316394116048 0.025224276107580483 0 0.0017995394516089698 0.023593158286826742 0 0.0031562312688175422 0.026540686572578732 0 0.0027485907777609017 0.026251426542502124 0 0.0025176952265607592 0.026838221801278032 0 0.0031562312688175422 0.026540686572578732 0 0.0027485907777609017 0.026251426542502124 0 0.0032575018213130643 0.026008035638992445 0 0.0027485907777609017 0.026251426542502124 0 0.0032575018213130643 0.026008035638992445 0 0.0032090293191041671 0.025636751438684609 0 0.0027485907777609017 0.026251426542502124 0 0.0032090293191041671 0.025636751438684609 0 0.0024053313456610958 0.025435382603738618 0 0.0033334692671959359 0.025570151027225287 0 0.0032575018213130643 0.026008035638992445 0 0.0032090293191041671 0.025636751438684609 0 0.0033334692671959359 0.025570151027225287 0 0.0032090293191041671 0.025636751438684609 0 0.003671280984011979 0.025170012923700649 0 0.0032090293191041671 0.025636751438684609 0 0.003671280984011979 0.025170012923700649 0 0.0024053313456610958 0.025435382603738618 0 0.003671280984011979 0.025170012923700649 0 0.0026844393867626053 0.023007781193588813 0 0.0024254053251986487 0.024469596379421154 0 0.003671280984011979 0.025170012923700649 0 0.0036916387799984613 0.022435170599445695 0 0.0051354443133027833 0.021761918773361481 0 0.0037412320493812232 0.02522022524372983 0 0.0043372734190816791 0.024406920953068626 0 0.003671280984011979 0.025170012923700649 0 0.0036916387799984613 0.022435170599445695 0 0.0026844393867626053 0.023007781193588813 0 0.0036916387799984613 0.022435170599445695 0 0.0051354443133027833 0.021761918773361481 0 0.0041013777571155237 0.02115548958017243 0 0.0036916387799984613 0.022435170599445695 0 0.0030488805867753474 0.021391345601093181 0 0.0026844393867626053 0.023007781193588813 0 0.0036916387799984613 0.022435170599445695 0 0.0030488805867753474 0.021391345601093181 0 0.0041013777571155237 0.02115548958017243 0 0.003671280984011979 0.025170012923700649 0 0.003508974007588146 0.027243479079863683 0 0.0029360659585479874 0.026508772670546153 0 0.003508974007588146 0.027243479079863683 0 0.0029360659585479874 0.026508772670546153 0 0.002891514978098936 0.027351856211094962 0 0.0031739160951640773 0.02684633808653324 0 0.0029196496261907029 0.02639468531910074 0 0.0033334692671959359 0.025570151027225287 0 0.003671280984011979 0.025170012923700649 0 0.0029360659585479874 0.026508772670546153 0 0.0029360659585479874 0.026508772670546153 0 0.0027314564173001516 0.027183375317892042 0 0.0027306510286668035 0.027143776949789013 0 0.0027482685889702505 0.027324551843524711 0 0.0029360659585479874 0.026508772670546153 0 0.0027314564173001516 0.027183375317892042 0 0.0027314564173001516 0.027183375317892042 0 0.0025283081138276244 0.027618119365845177 0 0.0024366487913288068 0.027632472209747117 0 0.0027422452565532994 0.027368376951771783 0 0.0027314564173001516 0.027183375317892042 0 0.0025283081138276244 0.027618119365845177 0 0.0024366487913288068 0.027632472209747117 0 0.0025908583560236755 0.027430053221618188 0 0.0024092957313233071 0.02773684835274811 0 0.0027314564173001516 0.027183375317892042 0 0.0024366487913288068 0.027632472209747117 0 0.0025908583560236755 0.027430053221618188 0 0.0025908583560236755 0.027430053221618188 0 0.0025403152036811765 0.02764682945211288 0 0.0024092957313233071 0.02773684835274811 0 0.0022722891976947089 0.027856552313194751 0 0.0024366487913288068 0.027632472209747117 0 0.0024092957313233071 0.02773684835274811 0 0.0029360659585479874 0.026508772670546153 0 0.0027306510286668035 0.027143776949789013 0 0.002891514978098936 0.027351856211094962 0 0.0027314564173001516 0.027183375317892042 0 0.0025908583560236755 0.027430053221618188 0 0.0027306510286668035 0.027143776949789013 0 0.0025908583560236755 0.027430053221618188 0 0.0027306510286668035 0.027143776949789013 0 0.0026534127781986517 0.027594124043824574 0 0.0025908583560236755 0.027430053221618188 0 0.0025403152036811765 0.02764682945211288 0 0.0026534127781986517 0.027594124043824574 0 0.0027306510286668035 0.027143776949789013 0 0.002891514978098936 0.027351856211094962 0 0.0026534127781986517 0.027594124043824574 0 0.002891514978098936 0.027351856211094962 0 0.0027807824550092381 0.027714921607980145 0 0.0026534127781986517 0.027594124043824574 0 0.002891514978098936 0.027351856211094962 0 0.0027807824550092381 0.027714921607980145 0 0.0029973975550576406 0.027763470623326167 0 0.0026534127781986517 0.027594124043824574 0 0.0026353757528285631 0.027841665155740311 0 0.0024916093685431085 0.027811841244812893 0 0.0027807824550092381 0.027714921607980145 0 0.0026534127781986517 0.027594124043824574 0 0.0026353757528285631 0.027841665155740311 0 0.0027807824550092381 0.027714921607980145 0 0.0026353757528285631 0.027841665155740311 0 0.0027664659726826463 0.027915150756040584 0 0.0026353757528285631 0.027841665155740311 0 0.0025190137747396406 0.027975242072536283 0 0.0026380155839517585 0.028013087924471006 0 0.0026353757528285631 0.027841665155740311 0 0.0027664659726826463 0.027915150756040584 0 0.0026380155839517585 0.028013087924471006 0 0.0027807824550092381 0.027714921607980145 0 0.0027664659726826463 0.027915150756040584 0 0.0029973975550576406 0.027763470623326167 0 0.0027664659726826463 0.027915150756040584 0 0.0028822643126703868 0.028007529415712325 0 0.0029973975550576406 0.027763470623326167 0 0.0022811348951691699 0.027884590669038738 0 0.0024092957313233071 0.02773684835274811 0 0.0023337973855187639 0.027916151052369692 0 0.0024092957313233071 0.02773684835274811 0 0.0023337973855187639 0.027916151052369692 0 0.0024916093685431085 0.027811841244812893 0 0.0025403152036811765 0.02764682945211288 0 0.0026534127781986517 0.027594124043824574 0 0.0024916093685431085 0.027811841244812893 0 0.0025403152036811765 0.02764682945211288 0 0.0024092957313233071 0.02773684835274811 0 0.0024916093685431085 0.027811841244812893 0 0.0024916093685431085 0.027811841244812893 0 0.0025190137747396406 0.027975242072536283 0 0.0024073475095132001 0.02798346625676195 0 0.0026353757528285631 0.027841665155740311 0 0.0024916093685431085 0.027811841244812893 0 0.0025190137747396406 0.027975242072536283 0 0.0023337973855187639 0.027916151052369692 0 0.0024916093685431085 0.027811841244812893 0 0.0024073475095132001 0.02798346625676195 0 0.0023064293136134378 0.028037409210950263 0 0.0023337973855187639 0.027916151052369692 0 0.0024073475095132001 0.02798346625676195 0 0.0015372281499902052 0.031205260672162317 0 0.0019733374729681927 0.029915130374469079 0 0.0022349532316033958 0.028205689007871251 0 0.0025314974387376796 0.028228283033111218 0 0.002424139174172417 0.028178923225131366 0 0.00079255185659348165 0.034164824331648656 0 0.00098608574222752167 0.034188416892729008 0 0.00082917108939151336 0.034218839176145315 0 0.0022349532316033958 0.028205689007871251 0 0.0025314974387376796 0.028228283033111218 0 0.0027044175821601471 0.028357752964204664 0 0.0023368545165545818 0.028144249236008268 0 0.00236853245406964 0.028076680867646565 0 0.0024125546174035258 0.028125212379711821 0 0.0023070752799476267 0.028101773647958368 0 0.0023368545165545818 0.028144249236008268 0 0.00236853245406964 0.028076680867646565 0 0.0023070752799476267 0.028101773647958368 0 0.0023064293136134378 0.028037409210950263 0 0.00236853245406964 0.028076680867646565 0 0.0023064293136134378 0.028037409210950263 0 0.0024073475095132001 0.02798346625676195 0 0.00236853245406964 0.028076680867646565 0 0.0024073475095132001 0.02798346625676195 0 0.00236853245406964 0.028076680867646565 0 0.0024542824189216698 0.028071196717359612 0 0.0023368545165545818 0.028144249236008268 0 0.0024125546174035258 0.028125212379711821 0 0.002424139174172417 0.028178923225131366 0 0.00236853245406964 0.028076680867646565 0 0.0024125546174035258 0.028125212379711821 0 0.0024542824189216698 0.028071196717359612 0 0.0024125546174035258 0.028125212379711821 0 0.0024661818209373507 0.028133687830401589 0 0.002424139174172417 0.028178923225131366 0 0.0024661818209373507 0.028133687830401589 0 0.0024542824189216698 0.028071196717359612 0 0.002535576814892053 0.028119359124875825 0 0.0024661818209373507 0.028133687830401589 0 0.002535576814892053 0.028119359124875825 0 0.0025072913711460926 0.02817307913007697 0 0.0024125546174035258 0.028125212379711821 0 0.0024661818209373507 0.028133687830401589 0 0.0024542824189216698 0.028071196717359612 0 0.0025190137747396406 0.027975242072536283 0 0.0024073475095132001 0.02798346625676195 0 0.0024542824189216698 0.028071196717359612 0 0.0025190137747396406 0.027975242072536283 0 0.0024542824189216698 0.028071196717359612 0 0.002535576814892053 0.028119359124875825 0 0.0025190137747396406 0.027975242072536283 0 0.002535576814892053 0.028119359124875825 0 0.0026380155839517585 0.028013087924471006 0 0.0025668559253404512 0.028180099358131754 0 0.0025314974387376796 0.028228283033111218 0 0.0026136489879554185 0.028207246098355485 0 0.002535576814892053 0.028119359124875825 0 0.0025668559253404512 0.028180099358131754 0 0.0026456063230636206 0.028147826828148485 0 0.002535576814892053 0.028119359124875825 0 0.0025668559253404512 0.028180099358131754 0 0.0025072913711460926 0.02817307913007697 0 0.0025668559253404512 0.028180099358131754 0 0.0025314974387376796 0.028228283033111218 0 0.0025072913711460926 0.02817307913007697 0 0.0025314974387376796 0.028228283033111218 0 0.0025072913711460926 0.02817307913007697 0 0.002424139174172417 0.028178923225131366 0 0.0024661818209373507 0.028133687830401589 0 0.0025072913711460926 0.02817307913007697 0 0.002424139174172417 0.028178923225131366 0 0.0022349532316033958 0.028205689007871251 0 0.0023368545165545818 0.028144249236008268 0 0.002424139174172417 0.028178923225131366 0 0.0028623549671445126 0.028151553685622367 0 0.0030610678714091538 0.027982164768931995 0 0.0028594900474229129 0.028403339313706213 0 0.0028822643126703868 0.028007529415712325 0 0.0028623549671445126 0.028151553685622367 0 0.0030610678714091538 0.027982164768931995 0 0.0027452728791478266 0.028073666569135739 0 0.0027339443359196526 0.028179686171364442 0 0.0028623549671445126 0.028151553685622367 0 0.0028822643126703868 0.028007529415712325 0 0.0027452728791478266 0.028073666569135739 0 0.0028623549671445126 0.028151553685622367 0 0.0027664659726826463 0.027915150756040584 0 0.0028822643126703868 0.028007529415712325 0 0.0027452728791478266 0.028073666569135739 0 0.0027664659726826463 0.027915150756040584 0 0.0026380155839517585 0.028013087924471006 0 0.0027452728791478266 0.028073666569135739 0 0.002535576814892053 0.028119359124875825 0 0.0026380155839517585 0.028013087924471006 0 0.0026456063230636206 0.028147826828148485 0 0.0026380155839517585 0.028013087924471006 0 0.0027452728791478266 0.028073666569135739 0 0.0026456063230636206 0.028147826828148485 0 0.0027452728791478266 0.028073666569135739 0 0.0027339443359196526 0.028179686171364442 0 0.0026456063230636206 0.028147826828148485 0 0.0027339443359196526 0.028179686171364442 0 0.0026722135018321324 0.028206963951794735 0 0.0026456063230636206 0.028147826828148485 0 0.0025314974387376796 0.028228283033111218 0 0.0026578307571576798 0.028265510662478257 0 0.0027044175821601471 0.028357752964204664 0 0.0027339443359196526 0.028179686171364442 0 0.0026722135018321324 0.028206963951794735 0 0.0027168344908122888 0.028249036892984993 0 0.0025668559253404512 0.028180099358131754 0 0.0026456063230636206 0.028147826828148485 0 0.0026136489879554185 0.028207246098355485 0 0.0026722135018321324 0.028206963951794735 0 0.0026456063230636206 0.028147826828148485 0 0.0026136489879554185 0.028207246098355485 0 0.0025314974387376796 0.028228283033111218 0 0.0026136489879554185 0.028207246098355485 0 0.0026578307571576798 0.028265510662478257 0 0.0026722135018321324 0.028206963951794735 0 0.0026136489879554185 0.028207246098355485 0 0.0026578307571576798 0.028265510662478257 0 0.0027339443359196526 0.028179686171364442 0 0.0027168344908122888 0.028249036892984993 0 0.0027738596976291823 0.028267069479852767 0 0.0026578307571576798 0.028265510662478257 0 0.0027168344908122888 0.028249036892984993 0 0.0027044175821601471 0.028357752964204664 0 0.0027168344908122888 0.028249036892984993 0 0.0027738596976291823 0.028267069479852767 0 0.0027044175821601471 0.028357752964204664 0 0.0026722135018321324 0.028206963951794735 0 0.0026578307571576798 0.028265510662478257 0 0.0027168344908122888 0.028249036892984993 0 0.0027738596976291823 0.028267069479852767 0 0.0028623549671445126 0.028151553685622367 0 0.0028594900474229129 0.028403339313706213 0 0.0027339443359196526 0.028179686171364442 0 0.0027738596976291823 0.028267069479852767 0 0.0028623549671445126 0.028151553685622367 0 0.0034195277622827 0.024354431408147106 0 0.0012140354926201968 0.026121194284059419 0 0.0054317157062097792 0.019756444344611598 0 0.0044446565672830703 0.019109808912001192 0 0.004705162626889677 0.020296478898058586 0 0.0034195277622827 0.024354431408147106 0 0.0027059346553281031 0.020909536217128436 0 0.0054317157062097792 0.019756444344611598 0 0.0044446565672830703 0.019109808912001192 0 0.0043070721196889761 0.018040009687486414 0 0.004705162626889677 0.020296478898058586 0 0.0037163640101079099 0.016901978593133027 0 0.0030501280833407939 0.018027673637876343 0 0.0044446565672830703 0.019109808912001192 0 0.004705162626889677 0.020296478898058586 0 0.0033168684622844695 0.018323207882986945 0 0.004705162626889677 0.020296478898058586 0 0.0030501280833407939 0.018027673637876343 0 0.0029660272633237231 0.019150026382748177 0 0.0046167477752876718 0.020131811779927292 0 0.0035057087497547823 0.017634812052271725 0 0.004705162626889677 0.020296478898058586 0 0.003436584180374032 0.020393067819622149 0 0.0029660272633237231 0.019150026382748177 0 0.0030488805867753474 0.021391345601093181 0 0.003436584180374032 0.020393067819622149 0 0.0041013777571155237 0.02115548958017243 0 0.0051354443133027833 0.021761918773361481 0 0.004705162626889677 0.020296478898058586 0 0.0041013777571155237 0.02115548958017243 0 0.004705162626889677 0.020296478898058586 0 0.003436584180374032 0.020393067819622149 0 0.0041013777571155237 0.02115548958017243 0 0.0043372734190816791 0.024406920953068626 0 0.0034195277622827 0.024354431408147106 0 0.0051354443133027833 0.021761918773361481 0 0.0054317157062097792 0.019756444344611598 0 0.004705162626889677 0.020296478898058586 0 0.003508974007588146 0.027243479079863683 0 0.003143497130852452 0.028123340933773156 0 0.0029973975550576406 0.027763470623326167 0 0.003508974007588146 0.027243479079863683 0 0.002891514978098936 0.027351856211094962 0 0.0029973975550576406 0.027763470623326167 0 0.0028822643126703868 0.028007529415712325 0 0.0030610678714091538 0.027982164768931995 0 0.0029973975550576406 0.027763470623326167 0 0.0034195277622827 0.024354431408147106 0 0.0037586655775335236 0.027811747966837243 0 0.000524712249571901 0.025314553638674301 0 0.00053639512572444654 0.025307232274763416 0 0.00049506753046259342 0.025274582531007412 0 0.000524712249571901 0.025314553638674301 0 0.00051041042286114333 0.025287595463285076 0 0.00049506753046259342 0.025274582531007412 0 0.000524712249571901 0.025314553638674301 0 0.00053639512572444654 0.025307232274763416 0 0.0005327578198169626 0.025319280026424907 0 0.000524712249571901 0.025314553638674301 0 0.0005327578198169626 0.025319280026424907 0 0.0005326643030838284 0.025337355894215173 0 0.000524712249571901 0.025314553638674301 0 0.00053040192700235704 0.025339258276258714 0 0.00052478351447230972 0.02530919614694549 0 0.000524712249571901 0.025314553638674301 0 0.00051041042286114333 0.025287595463285076 0 0.00052478351447230972 0.02530919614694549 0 0.000524712249571901 0.025314553638674301 0 0.0005326643030838284 0.025337355894215173 0 0.00053040192700235704 0.025339258276258714 0 0.0031686958927999113 0.017923287409558251 0 0.0033168684622844695 0.018323207882986945 0 0.0020415724489667494 0.016691329937129799 0 0.0027059346553281031 0.020909536217128436 0 0.0014987592253675292 0.021289862667778259 0 0.0031686958927999113 0.017923287409558251 0 0.0029709409984896786 0.016755000595982554 0 0.0020415724489667494 0.016691329937129799 0 0.0031686958927999113 0.017923287409558251 0 0.003835683066356203 0.018130932722679103 0 0.0029709409984896786 0.016755000595982554 0 0.0035057087497547823 0.017634812052271725 0 0.0022118169111669359 0.015461439589762668 0 0.0031686958927999113 0.017923287409558251 0 0.0033168684622844695 0.018323207882986945 0 0.0043070721196889761 0.018040009687486414 0 0.0032351444849617974 0.018830737332605603 0 0.0027059346553281031 0.020909536217128436 0 0.0037163640101079099 0.016901978593133027 0 0.0030501280833407939 0.018027673637876343 0 0.0025832431459553982 0.016944459771707394 0 0.0044446565672830703 0.019109808912001192 0 0.0033168684622844695 0.018323207882986945 0 0.0043070721196889761 0.018040009687486414 0 0.0025704948155131058 0.024331813597502042 0 0.0021626071014139029 0.02329370664956637 0 0.0028887761343114812 0.023521317412017483 0 0.00053639512572444654 0.025307232274763416 0 0.0005327578198169626 0.025319280026424907 0 0.00052556017910926215 0.025302155014117169 0 0.0027059346553281031 0.020909536217128436 0 0.0012140354926201968 0.026121194284059419 0 0.0005327578198169626 0.025319280026424907 0 0.00052556017910926215 0.025302155014117169 0 0.0005326643030838284 0.025337355894215173 0 0.00033965473429197108 0.025952957604365421 0 0.00051089473267330356 0.026003187255405843 0 0.00053360888810506494 0.025388179795478347 0 0.0019733374729681927 0.029915130374469079 0 0.00060445081716423437 0.030603950426916299 0 0.0012140354926201968 0.026121194284059419 0 0.0019733374729681927 0.029915130374469079 0 0.0027738596976291823 0.028267069479852767 0 0.0028594900474229129 0.028403339313706213 0 0.0027044175821601471 0.028357752964204664 0 0.00098608574222752167 0.034188416892729008 0 0.00082917108939151336 0.034218839176145315 0 0.00087871166495390694 0.034271301144695003 0 0.00098608574222752167 0.034188416892729008 0 0.00087871166495390694 0.034271301144695003 0 0.0008859025862038624 0.034376164898027521 0 0.00082917108939151336 0.034218839176145315 0 0.00087871166495390694 0.034271301144695003 0 0.00081242645727047289 0.034301564919811824 0 0.00087871166495390694 0.034271301144695003 0 0.0008859025862038624 0.034376164898027521 0 0.00081242645727047289 0.034301564919811824 0 0.0008859025862038624 0.034376164898027521 0 0.00074716005557321614 0.03436940188035946 0 0.00081242645727047289 0.034301564919811824 0 0.0012140354926201968 0.026121194284059419 0 0.00038288154560493743 0.02526433218347756 0 0.00052556017910926215 0.025302155014117169 0 0.0005326643030838284 0.025337355894215173 0 0.00053360888810506494 0.025388179795478347 0 0.00051089473267330356 0.026003187255405843 0 0.00065910975377749968 0.025398548455981402 0 0.00053360888810506494 0.025388179795478347 0 0.00065910975377749968 0.025398548455981402 0 0.00053360888810506494 0.025388179795478347 0 0.00056126367795212076 0.025324411921817721 0 0.00053360888810506494 0.025388179795478347 0 0.00053040192700235704 0.025339258276258714 0 0.00056126367795212076 0.025324411921817721 0 0.0005326643030838284 0.025337355894215173 0 0.00053360888810506494 0.025388179795478347 0 0.00053040192700235704 0.025339258276258714 0 0.00053040192700235704 0.025339258276258714 0 0.00056126367795212076 0.025324411921817721 0 0.00052478351447230972 0.02530919614694549 0 0.00056126367795212076 0.025324411921817721 0 0.00066533982767198166 0.025256704295331479 0 0.00053051071922545533 0.025270441791024643 0 0.00056126367795212076 0.025324411921817721 0 0.00053051071922545533 0.025270441791024643 0 0.00052478351447230972 0.02530919614694549 0 0.00065910975377749968 0.025398548455981402 0 0.00056126367795212076 0.025324411921817721 0 0.00066533982767198166 0.025256704295331479 0 0.0008859025862038624 0.034376164898027521 0 0.00080943279384717074 0.034504806541184756 0 0.00074895969792691146 0.034463102856674491 0 0.00060445081716423437 0.030603950426916299 0 -9.5095665315283982e-05 0.026589512573387659 0 -9.5095665315283982e-05 0.026589512573387659 0 0.00053819405270853879 0.022732663081660991 0 9.1482058927789219e-05 0.02067283623207079 0 0.0003084982273175265 0.020669019984051545 0 0.00031156885773089078 0.020750343099093672 0 0.0003084982273175265 0.020669019984051545 0 0.00029011523398811406 0.020665943627286583 0 0.00031156885773089078 0.020750343099093672 0 0.0003084982273175265 0.020669019984051545 0 0.00029011523398811406 0.020665943627286583 0 0.00028321158011866557 0.020751478338432019 0 0.00029011523398811406 0.020665943627286583 0 0.00023057395472005313 0.020663434733878275 0 0.00025841777250196939 0.020681133531594495 0 0.00053051071922545533 0.025270441791024643 0 0.00051041042286114333 0.025287595463285076 0 0.00048632420419817774 0.025245575426559242 0 0.00053819405270853879 0.022732663081660991 0 0.00038995560698974009 0.021032392024372668 0 0.00053051071922545533 0.025270441791024643 0 0.00051041042286114333 0.025287595463285076 0 0.00052478351447230972 0.02530919614694549 0 0.0029709409984896786 0.016755000595982554 0 0.002560908423315657 0.016130782513199146 0 0.0020415724489667494 0.016691329937129799 0 0.0014987592253675292 0.021289862667778259 0 0.00038995560698974009 0.021032392024372668 0 0.00051041042286114333 0.025287595463285076 0 0.00049506753046259342 0.025274582531007412 0 0.00048632420419817774 0.025245575426559242 0 0.00030297624589844055 0.020608243466929167 0 0.0004006460626948833 0.018636497205877449 0 -5.8305311406875965e-05 0.020345341779432861 0 0.00028321158011866557 0.020751478338432019 0 0.00030297624589844055 0.020608243466929167 0 -5.8305311406875965e-05 0.020345341779432861 0 0.00029011523398811406 0.020665943627286583 0 0.00028321158011866557 0.020751478338432019 0 0.00030297624589844055 0.020608243466929167 0 0.00038995560698974009 0.021032392024372668 0 0.00076931840040886737 0.017541833606142747 0 0.00030297624589844055 0.020608243466929167 0 0.00023057395472005313 0.020663434733878275 0 0.0001209168349878894 0.020657035018582653 0 0.00029011523398811406 0.020665943627286583 0 0.00030297624589844055 0.020608243466929167 0 0.00023057395472005313 0.020663434733878275 0 0.00029571749611391745 0.020499498980486835 0 0.00011003915561993752 0.019602481987969374 0 0.00030297624589844055 0.020608243466929167 0 0.0001209168349878894 0.020657035018582653 0 -0.00011767777637279531 0.020643852197291063 0 0.00023057395472005313 0.020663434733878275 0 0.0001209168349878894 0.020657035018582653 0 0.00025841777250196939 0.020681133531594495 0 0.0001209168349878894 0.020657035018582653 0 0.00025841777250196939 0.020681133531594495 0 0.00014842363079691835 0.020547118530161963 0 0.0001209168349878894 0.020657035018582653 0 -0.00011767777637279531 0.020643852197291063 0 0.00014842363079691835 0.020547118530161963 0 0.00025841777250196939 0.020681133531594495 0 0.00030223728945410333 0.02065009651546458 0 0.00031156885773089078 0.020750343099093672 0 0.00029011523398811406 0.020665943627286583 0 0.00025841777250196939 0.020681133531594495 0 0.00031156885773089078 0.020750343099093672 0 0.00025841777250196939 0.020681133531594495 0 0.00030223728945410333 0.02065009651546458 0 0.00014842363079691835 0.020547118530161963 0 0.00030223728945410333 0.02065009651546458 0 0.00024954586919665345 0.020341469472291845 0 0.00036103317225869095 0.020804866709691883 0 0.00030223728945410333 0.02065009651546458 0 0.00024954586919665345 0.020341469472291845 0 0.00014842363079691835 0.020547118530161963 0 -0.00011767777637279531 0.020643852197291063 0 -3.6946056075897589e-05 0.0201372193520882 0 -0.00061705599523689716 0.019589116691108382 0 -0.00011767777637279531 0.020643852197291063 0 0.00014842363079691835 0.020547118530161963 0 -3.6946056075897589e-05 0.0201372193520882 0 0.00024954586919665345 0.020341469472291845 0 0.00014842363079691835 0.020547118530161963 0 -3.6946056075897589e-05 0.0201372193520882 0 0.00024954586919665345 0.020341469472291845 0 -3.6946056075897589e-05 0.0201372193520882 0 5.9637452946027722e-05 0.019262018206158693 0 -3.6946056075897589e-05 0.0201372193520882 0 5.9637452946027722e-05 0.019262018206158693 0 -0.00061705599523689716 0.019589116691108382 0 0.00024954586919665345 0.020341469472291845 0 5.9637452946027722e-05 0.019262018206158693 0 0.00025015440606048492 0.020266741522211657 0 0.00024954586919665345 0.020341469472291845 0 0.00025015440606048492 0.020266741522211657 0 0.00036103317225869095 0.020804866709691883 0 9.8395411413464543e-07 0.018670081210528842 0 5.3335723367441518e-07 0.020595181333184696 0 0.00025015440606048492 0.020266741522211657 0 5.9637452946027722e-05 0.019262018206158693 0 9.8395411413464543e-07 0.018670081210528842 0 0.00025015440606048492 0.020266741522211657 0 5.9637452946027722e-05 0.019262018206158693 0 9.8395411413464543e-07 0.018670081210528842 0 -2.4291676220410206e-06 0.016748351863704731 0 5.3335723367441518e-07 0.020595181333184696 0 0.00024591728726269156 0.021611216862443414 0 -3.2095225836362855e-07 0.022519892638031759 0 5.3335723367441518e-07 0.020595181333184696 0 0.00025015440606048492 0.020266741522211657 0 0.00024591728726269156 0.021611216862443414 0 0.00025015440606048492 0.020266741522211657 0 0.00024591728726269156 0.021611216862443414 0 0.00036103317225869095 0.020804866709691883 0 0.00024591728726269156 0.021611216862443414 0 0.00021118474564935796 0.020934915590331581 0 -0.00018991253785249573 0.02113154379725286 0 0.00024591728726269156 0.021611216862443414 0 0.00036103317225869095 0.020804866709691883 0 0.00021118474564935796 0.020934915590331581 0 0.00036103317225869095 0.020804866709691883 0 0.00031156885773089078 0.020750343099093672 0 0.00021118474564935796 0.020934915590331581 0 0.00030223728945410333 0.02065009651546458 0 0.00036103317225869095 0.020804866709691883 0 0.00031156885773089078 0.020750343099093672 0 9.1482058927789219e-05 0.02067283623207079 0 0.00031156885773089078 0.020750343099093672 0 0.00021118474564935796 0.020934915590331581 0 -0.0016504485285380101 0.026749577981612163 0 -0.001208082039695242 0.025574924100463428 0 -0.00042078272846404876 0.026506493948301471 0 9.1482058927789219e-05 0.02067283623207079 0 0.00021118474564935796 0.020934915590331581 0 -0.00018991253785249573 0.02113154379725286 0 -9.5095665315283982e-05 0.026589512573387659 0 -0.00065953499381738204 0.022741658281051243 0 -0.001208082039695242 0.025574924100463428 0 3.4541720560762045e-05 0.025401447899922359 0 -0.00042078272846404876 0.026506493948301471 0 -0.00065953499381738204 0.022741658281051243 0 -0.00043832709740411555 0.023658810204238542 0 -0.001208082039695242 0.025574924100463428 0 -0.00035834050620589709 0.023473196942430868 0 3.4541720560762045e-05 0.025401447899922359 0 0.00024591728726269156 0.021611216862443414 0 -0.00018991253785249573 0.02113154379725286 0 -0.00035834050620589709 0.023473196942430868 0 -0.00035834050620589709 0.023473196942430868 0 -3.2095225836362855e-07 0.022519892638031759 0 -5.646521700435313e-08 0.024444421522850826 0 0.00024591728726269156 0.021611216862443414 0 -0.00035834050620589709 0.023473196942430868 0 -3.2095225836362855e-07 0.022519892638031759 0 -5.646521700435313e-08 0.024444421522850826 0 0.00010349397855338529 0.024672974722204307 0 4.588740118754243e-07 0.026368977122822934 0 -0.00035834050620589709 0.023473196942430868 0 -5.646521700435313e-08 0.024444421522850826 0 0.00010349397855338529 0.024672974722204307 0 0.00010349397855338529 0.024672974722204307 0 0.00035141348757154094 0.025609147299876209 0 3.4541720560762045e-05 0.025401447899922359 0 -0.00035834050620589709 0.023473196942430868 0 0.00010349397855338529 0.024672974722204307 0 3.4541720560762045e-05 0.025401447899922359 0 0.00010349397855338529 0.024672974722204307 0 0.00035141348757154094 0.025609147299876209 0 4.588740118754243e-07 0.026368977122822934 0 0.00035141348757154094 0.025609147299876209 0 0.00044138443263972267 0.026194452083157668 0 0.00046372494944838248 0.026153920901124606 0 0.00035141348757154094 0.025609147299876209 0 3.4541720560762045e-05 0.025401447899922359 0 0.00044138443263972267 0.026194452083157668 0 3.4541720560762045e-05 0.025401447899922359 0 0.00044138443263972267 0.026194452083157668 0 -0.00042078272846404876 0.026506493948301471 0 0.0004798707358111958 0.034694478280432178 0 0.00052248161297345649 0.034562759131839406 0 0.00038665285857559817 0.034676364019876393 0 0.00052117770251264902 0.034572580687853148 0 0.00042038212557194863 0.034569509104847997 0 0.00052248161297345649 0.034562759131839406 0 0.00054035175304373707 0.034471067579443029 0 0.00045995083668738288 0.034484154741224259 0 0.00052248161297345649 0.034562759131839406 0 0.00065221701353640731 0.034469388286908022 0 0.00054035175304373707 0.034471067579443029 0 0.00052248161297345649 0.034562759131839406 0 0.00064856018891965266 0.034599620406240122 0 0.00065221701353640731 0.034469388286908022 0 0.0004798707358111958 0.034694478280432178 0 0.00052248161297345649 0.034562759131839406 0 0.00064856018891965266 0.034599620406240122 0 0.00048730063198235715 0.030416734683009525 0 -4.1805716381220462e-05 0.031076509042895117 0 -9.5095665315283982e-05 0.026589512573387659 0 -4.1805716381220462e-05 0.031076509042895117 0 0.00080943279384717074 0.034504806541184756 0 0.00064856018891965266 0.034599620406240122 0 0.00074895969792691146 0.034463102856674491 0 0.00064856018891965266 0.034599620406240122 0 0.00074895969792691146 0.034463102856674491 0 0.00065221701353640731 0.034469388286908022 0 0.00065221701353640731 0.034469388286908022 0 0.00066751289765041644 0.034385184004614038 0 0.00060046092672056328 0.034402211999853986 0 0.00065221701353640731 0.034469388286908022 0 0.00066751289765041644 0.034385184004614038 0 0.00074716005557321614 0.03436940188035946 0 0.00066751289765041644 0.034385184004614038 0 0.00074716005557321614 0.03436940188035946 0 0.00069949899500863322 0.034316995301418823 0 0.00066751289765041644 0.034385184004614038 0 0.00064785864167664266 0.03435561605205914 0 0.00060046092672056328 0.034402211999853986 0 0.00074895969792691146 0.034463102856674491 0 0.00065221701353640731 0.034469388286908022 0 0.00074716005557321614 0.03436940188035946 0 0.0008859025862038624 0.034376164898027521 0 0.00074895969792691146 0.034463102856674491 0 0.00074716005557321614 0.03436940188035946 0 0.00074716005557321614 0.03436940188035946 0 0.00081242645727047289 0.034301564919811824 0 0.00075458388416816617 0.034301897368480258 0 0.00081242645727047289 0.034301564919811824 0 0.00075458388416816617 0.034301897368480258 0 0.00078106649803142932 0.03425299414748019 0 0.00074716005557321614 0.03436940188035946 0 0.00075458388416816617 0.034301897368480258 0 0.00069949899500863322 0.034316995301418823 0 0.00075458388416816617 0.034301897368480258 0 0.00073701368293657319 0.034265558308575875 0 0.00069949899500863322 0.034316995301418823 0 0.00070471943967230857 0.034270473960763777 0 0.00073701368293657319 0.034265558308575875 0 0.00069949899500863322 0.034316995301418823 0 0.00070471943967230857 0.034270473960763777 0 0.00072295002971932193 0.034253546578900201 0 0.00073701368293657319 0.034265558308575875 0 0.00075490477482545698 0.034218729536416768 0 0.00072295002971932193 0.034253546578900201 0 0.00073701368293657319 0.034265558308575875 0 0.00082917108939151336 0.034218839176145315 0 0.00081242645727047289 0.034301564919811824 0 0.00078106649803142932 0.03425299414748019 0 0.00075458388416816617 0.034301897368480258 0 0.00073701368293657319 0.034265558308575875 0 0.00078106649803142932 0.03425299414748019 0 0.00075490477482545698 0.034218729536416768 0 0.00073701368293657319 0.034265558308575875 0 0.00078106649803142932 0.03425299414748019 0 0.00078953132559754838 0.034216016748793959 0 0.00075490477482545698 0.034218729536416768 0 0.00078106649803142932 0.03425299414748019 0 0.00078953132559754838 0.034216016748793959 0 0.00082917108939151336 0.034218839176145315 0 0.00078106649803142932 0.03425299414748019 0 0.00064785864167664266 0.03435561605205914 0 0.00065869347690971768 0.034317790191566472 0 0.00061748279888935596 0.034354796656089044 0 0.00066751289765041644 0.034385184004614038 0 0.00064785864167664266 0.03435561605205914 0 0.00069949899500863322 0.034316995301418823 0 0.00064785864167664266 0.03435561605205914 0 0.00069949899500863322 0.034316995301418823 0 0.00065869347690971768 0.034317790191566472 0 0.00070471943967230857 0.034270473960763777 0 0.00069949899500863322 0.034316995301418823 0 0.00068462262236464763 0.034298616799533034 0 0.00069949899500863322 0.034316995301418823 0 0.00068462262236464763 0.034298616799533034 0 0.00065869347690971768 0.034317790191566472 0 0.00070471943967230857 0.034270473960763777 0 0.00068462262236464763 0.034298616799533034 0 0.00067507859580656182 0.034288718758207326 0 0.00068462262236464763 0.034298616799533034 0 0.00067507859580656182 0.034288718758207326 0 0.00065869347690971768 0.034317790191566472 0 0.00064693650674422501 0.034300714966621536 0 0.00065869347690971768 0.034317790191566472 0 0.00063107016836378186 0.034322609769189646 0 0.00065869347690971768 0.034317790191566472 0 0.00063107016836378186 0.034322609769189646 0 0.00061748279888935596 0.034354796656089044 0 0.00064693650674422501 0.034300714966621536 0 0.00067507859580656182 0.034288718758207326 0 0.00065869347690971768 0.034317790191566472 0 0.00057208459306785041 0.034373312384739639 0 0.0005250097785268709 0.034429618757307427 0 0.00060046092672056328 0.034402211999853986 0 0.00060695446561283793 0.03433099651369706 0 0.00063107016836378186 0.034322609769189646 0 0.00061748279888935596 0.034354796656089044 0 0.00060695446561283793 0.03433099651369706 0 0.00061748279888935596 0.034354796656089044 0 0.00057208459306785041 0.034373312384739639 0 0.00061748279888935596 0.034354796656089044 0 0.00057208459306785041 0.034373312384739639 0 0.00060046092672056328 0.034402211999853986 0 0.00064785864167664266 0.03435561605205914 0 0.00061748279888935596 0.034354796656089044 0 0.00060046092672056328 0.034402211999853986 0 0.0005753774341749001 0.034345070511450262 0 0.00060695446561283793 0.03433099651369706 0 0.00057208459306785041 0.034373312384739639 0 0.00052252748583456036 0.034388576834956358 0 0.00057208459306785041 0.034373312384739639 0 0.0005250097785268709 0.034429618757307427 0 0.00052252748583456036 0.034388576834956358 0 0.0005250097785268709 0.034429618757307427 0 0.00045995083668738288 0.034484154741224259 0 0.00052252748583456036 0.034388576834956358 0 0.0005753774341749001 0.034345070511450262 0 0.00057208459306785041 0.034373312384739639 0 0.0005250097785268709 0.034429618757307427 0 0.00054035175304373707 0.034471067579443029 0 0.00045995083668738288 0.034484154741224259 0 0.0005250097785268709 0.034429618757307427 0 0.00054035175304373707 0.034471067579443029 0 0.00060046092672056328 0.034402211999853986 0 0.00065221701353640731 0.034469388286908022 0 0.00054035175304373707 0.034471067579443029 0 0.00060046092672056328 0.034402211999853986 0 0.00042038212557194863 0.034569509104847997 0 0.00034493770468763428 0.034606139109809968 0 0.00036539534329181822 0.034648216503849673 0 0.00029597585806907529 0.034699100078918764 0 0.00030847215452130581 0.034718803244313402 0 0.00045281498636292933 0.034449704453913911 0 0.00052252748583456036 0.034388576834956358 0 0.00045995083668738288 0.034484154741224259 0 0.00045281498636292933 0.034449704453913911 0 0.00045995083668738288 0.034484154741224259 0 0.00040824190794344324 0.034515684163258301 0 0.00025145330389526768 0.034623139458079259 0 0.00034493770468763428 0.034606139109809968 0 0.00025122510796189707 0.034637101956157941 0 0.00029597585806907529 0.034699100078918764 0 0.0002364101164815733 0.034739076483021422 0 0.0002364101164815733 0.034739076483021422 0 0.00025136666590772712 0.034752277109787108 0 0.00019103117653868605 0.034790701984603323 0 0.00025136666590772712 0.034752277109787108 0 0.00020710298787486126 0.034796132477658774 0 0.00019103117653868605 0.034790701984603323 0 0.00029597585806907529 0.034699100078918764 0 0.0002364101164815733 0.034739076483021422 0 0.00025136666590772712 0.034752277109787108 0 0.00029597585806907529 0.034699100078918764 0 0.00025136666590772712 0.034752277109787108 0 0.00030847215452130581 0.034718803244313402 0 0.00025136666590772712 0.034752277109787108 0 0.00023804599265270885 0.034783464633820309 0 0.00030847215452130581 0.034718803244313402 0 0.00025136666590772712 0.034752277109787108 0 0.00020710298787486126 0.034796132477658774 0 0.00023804599265270885 0.034783464633820309 0 0.00020710298787486126 0.034796132477658774 0 0.00023804599265270885 0.034783464633820309 0 0.00017891463887071454 0.034827866557143504 0 0.00023804599265270885 0.034783464633820309 0 0.00018442555412208277 0.034833089680333641 0 0.00017891463887071454 0.034827866557143504 0 0.00023804599265270885 0.034783464633820309 0 0.00018442555412208277 0.034833089680333641 0 0.00024092951635567645 0.034801165172263393 0 0.00023804599265270885 0.034783464633820309 0 0.00028523958005253022 0.034760776798346465 0 0.00030847215452130581 0.034718803244313402 0 0.00023804599265270885 0.034783464633820309 0 0.00028523958005253022 0.034760776798346465 0 0.00024092951635567645 0.034801165172263393 0 0.00028523958005253022 0.034760776798346465 0 0.00024092951635567645 0.034801165172263393 0 0.00030590960181115943 0.03477300029783062 0 0.00032295644327066161 0.034738374535073051 0 0.00038665285857559817 0.034676364019876393 0 0.0003381472007692374 0.03476427047110231 0 0.00032295644327066161 0.034738374535073051 0 0.00030847215452130581 0.034718803244313402 0 0.00038665285857559817 0.034676364019876393 0 0.00028523958005253022 0.034760776798346465 0 0.00032295644327066161 0.034738374535073051 0 0.00030590960181115943 0.03477300029783062 0 0.00028523958005253022 0.034760776798346465 0 0.00032295644327066161 0.034738374535073051 0 0.00030847215452130581 0.034718803244313402 0 0.00052248161297345649 0.034562759131839406 0 0.00036539534329181822 0.034648216503849673 0 0.00038665285857559817 0.034676364019876393 0 0.00036539534329181822 0.034648216503849673 0 0.00030847215452130581 0.034718803244313402 0 0.00038665285857559817 0.034676364019876393 0 0.0004798707358111958 0.034694478280432178 0 0.00038665285857559817 0.034676364019876393 0 0.0003381472007692374 0.03476427047110231 0 0.00048730063198235715 0.030416734683009525 0 0.00034809895064627299 0.030208573338788163 0 0.00044138443263972267 0.026194452083157668 0 0.00042686836328664681 0.026187174273645336 0 0.00046372494944838248 0.026153920901124606 0 0.00042686836328664681 0.026187174273645336 0 0.00020302062563323789 0.026584828788768593 0 -0.00026831745388819077 0.026321433733791699 0 0.00034809895064627299 0.030208573338788163 0 0.00026975808909803092 0.032691873896196093 0 0.00032295644327066161 0.034738374535073051 0 0.0003381472007692374 0.03476427047110231 0 0.00030590960181115943 0.03477300029783062 0 0.00042686836328664681 0.026187174273645336 0 0.00020302062563323789 0.026584828788768593 0 0.00046372494944838248 0.026153920901124606 0 0.00020302062563323789 0.026584828788768593 0 0.00046372494944838248 0.026153920901124606 0 0.00031083236773227885 0.026706559488077621 0 0.00035141348757154094 0.025609147299876209 0 0.00046372494944838248 0.026153920901124606 0 0.00031083236773227885 0.026706559488077621 0 0.00035141348757154094 0.025609147299876209 0 0.00031083236773227885 0.026706559488077621 0 4.588740118754243e-07 0.026368977122822934 0 0.00031083236773227885 0.026706559488077621 0 1.2761802833461886e-06 0.02829423918370846 0 -1.9696924679060927e-05 0.027356756168139911 0 0.00020302062563323789 0.026584828788768593 0 0.00031083236773227885 0.026706559488077621 0 -1.9696924679060927e-05 0.027356756168139911 0 0.00031083236773227885 0.026706559488077621 0 1.2761802833461886e-06 0.02829423918370846 0 4.588740118754243e-07 0.026368977122822934 0 -0.00016561286936493999 0.028421456672653538 0 -3.0683549492461894e-06 0.030215502133085031 0 -0.0014076790286315821 0.028425814900163254 0 1.7282100490545701e-10 0.030219530098348327 0 -0.00088611554899874201 0.029508011305264471 0 1.2761802833461886e-06 0.02829423918370846 0 -0.00016561286936493999 0.028421456672653538 0 -1.9696924679060927e-05 0.027356756168139911 0 1.2761802833461886e-06 0.02829423918370846 0 -0.00016561286936493999 0.028421456672653538 0 -3.0683549492461894e-06 0.030215502133085031 0 -0.00016561286936493999 0.028421456672653538 0 -0.00084870350664251106 0.027635746874232384 0 -0.0014076790286315821 0.028425814900163254 0 -1.9696924679060927e-05 0.027356756168139911 0 -0.00084870350664251106 0.027635746874232384 0 -0.00095267942279199153 0.026816606944175956 0 -0.00016561286936493999 0.028421456672653538 0 -1.9696924679060927e-05 0.027356756168139911 0 -0.00084870350664251106 0.027635746874232384 0 -0.00033971844440908524 0.030639523509942937 0 0.00026975808909803092 0.032691873896196093 0 -1.9696924679060927e-05 0.027356756168139911 0 -0.00095267942279199153 0.026816606944175956 0 -0.00026831745388819077 0.026321433733791699 0 0.00016627269990446362 0.034842816784741125 0 0.00019953619219867724 0.034802274044312284 0 0.00017058432648550643 0.034841812526131451 0 0.00020302062563323789 0.026584828788768593 0 -1.9696924679060927e-05 0.027356756168139911 0 -0.00026831745388819077 0.026321433733791699 0 0.0003381472007692374 0.03476427047110231 0 0.00028355658726837203 0.0347636195399516 0 0.00030590960181115943 0.03477300029783062 0 0.00024092951635567645 0.034801165172263393 0 0.00023978539831102049 0.034845734168982269 0 0.00030590960181115943 0.03477300029783062 0 0.00026975808909803092 0.032691873896196093 0 -5.981126042111596e-05 0.034899698434533631 0 0.00023978539831102049 0.034845734168982269 0 0.00017058432648550643 0.034841812526131451 0 0.00019898404281958187 0.034834835944204071 0 0.00026975808909803092 0.032691873896196093 0 2.8502298837975767e-05 0.034816636184708587 0 0.00017058432648550643 0.034841812526131451 0 0.00019898404281958187 0.034834835944204071 0 0.00017235216430794024 0.0348437448779765 0 0.00024092951635567645 0.034801165172263393 0 0.00023978539831102049 0.034845734168982269 0 0.00019898404281958187 0.034834835944204071 0 0.00018442555412208277 0.034833089680333641 0 0.00024092951635567645 0.034801165172263393 0 0.00019898404281958187 0.034834835944204071 0 0.00018442555412208277 0.034833089680333641 0 0.00019898404281958187 0.034834835944204071 0 0.00017235216430794024 0.0348437448779765 0 0.00018442555412208277 0.034833089680333641 0 0.00017235216430794024 0.0348437448779765 0 0.00015494328590673638 0.034853706707619919 0 0.00018442555412208277 0.034833089680333641 0 0.00015494328590673638 0.034853706707619919 0 0.00014897334589073624 0.034857989989698079 0 0.00015494328590673638 0.034853706707619919 0 0.00013742102077861942 0.034868112821591676 0 0.00014897334589073624 0.034857989989698079 0 0.00015494328590673638 0.034853706707619919 0 0.00014684335918856053 0.034854488910569963 0 0.00015871108256146466 0.034848056875539442 0 0.00015494328590673638 0.034853706707619919 0 0.00014684335918856053 0.034854488910569963 0 0.00013742102077861942 0.034868112821591676 0 0.00017235216430794024 0.0348437448779765 0 0.00015494328590673638 0.034853706707619919 0 0.00015871108256146466 0.034848056875539442 0 0.00017058432648550643 0.034841812526131451 0 0.00017235216430794024 0.0348437448779765 0 0.00015871108256146466 0.034848056875539442 0 0.00014684335918856053 0.034854488910569963 0 0.00013252053589384233 0.034876659993466612 0 0.00013742102077861942 0.034868112821591676 0 0.00013252053589384233 0.034876659993466612 0 0.00013742102077861942 0.034868112821591676 0 0.00011670997237058707 0.034891071992802496 0 -9.9116653707503863e-05 0.032803698117589035 0 0.00013293175356852009 0.034780430510243592 0 0.00014684335918856053 0.034854488910569963 0 0.00013252053589384233 0.034876659993466612 0 0.00015336991058802893 0.034829569543048534 0 -0.00016386679180775346 0.034690992360768245 0 -0.00012644456423187072 0.034665805265409827 0 1.9198337392805383e-05 0.034777329960816721 0 -1.5436073912666903e-05 0.034921597120126234 0 -0.00016386679180775346 0.034690992360768245 0 1.9198337392805383e-05 0.034777329960816721 0 0.00018246831698182705 0.035446276946673599 0 -0.00010618056628858162 0.032209519734634595 0 -0.00033971844440908524 0.030639523509942937 0 -0.00010618056628858162 0.032209519734634595 0 0.00016627269990446362 0.034842816784741125 0 0.00015585436051938437 0.034843553058625701 0 0.00015336991058802893 0.034829569543048534 0 -0.00084870350664251106 0.027635746874232384 0 -0.00095267942279199153 0.026816606944175956 0 -0.0019689291644414695 0.027415739262007723 0 0.00014684335918856053 0.034854488910569963 0 0.00015585436051938437 0.034843553058625701 0 0.00015336991058802893 0.034829569543048534 0 0.00016627269990446362 0.034842816784741125 0 0.00015871108256146466 0.034848056875539442 0 0.00015585436051938437 0.034843553058625701 0 0.00016627269990446362 0.034842816784741125 0 0.00017058432648550643 0.034841812526131451 0 0.00015871108256146466 0.034848056875539442 0 0.00014684335918856053 0.034854488910569963 0 0.00015871108256146466 0.034848056875539442 0 0.00015585436051938437 0.034843553058625701 0 -0.00084870350664251106 0.027635746874232384 0 -0.0019689291644414695 0.027415739262007723 0 -0.0014076790286315821 0.028425814900163254 0 6.6521092207701309e-05 0.031513583651415829 0 7.8309105922174987e-05 0.031494847895330989 0 -1.7158085249481486e-05 0.03141176087119224 0 -0.00010618056628858162 0.032209519734634595 0 -0.00088611554899874201 0.029508011305264471 0 6.7243156620102771e-05 0.031530294707671637 0 7.8309105922174987e-05 0.031494847895330989 0 -1.7158085249481486e-05 0.03141176087119224 0 -0.00040837976868402534 0.033601669842178487 0 8.727664796580045e-05 0.033271582113078055 0 0.0003105282947480327 0.03403397860628337 0 -0.00010618056628858162 0.032209519734634595 0 -9.9116653707503863e-05 0.032803698117589035 0 6.7243156620102771e-05 0.031530294707671637 0 7.8309105922174987e-05 0.031494847895330989 0 0.00010033073024955574 0.031510042731981026 0 7.8309105922174987e-05 0.031494847895330989 0 4.1602019502486071e-05 0.031431115583728658 0 2.6976110298443245e-05 0.031508690348943415 0 -0.00018937318141277264 0.032610026948053351 0 -9.9116653707503863e-05 0.032803698117589035 0 -9.9116653707503863e-05 0.032803698117589035 0 -7.0224716130771014e-05 0.033252519024752389 0 4.1602019502486071e-05 0.031431115583728658 0 -0.00027233622107093714 0.031486769232128009 0 2.6976110298443245e-05 0.031508690348943415 0 6.6521092207701309e-05 0.031513583651415829 0 2.6976110298443245e-05 0.031508690348943415 0 0.0001203178863550736 0.031676592498187085 0 -0.00027233622107093714 0.031486769232128009 0 2.6976110298443245e-05 0.031508690348943415 0 0.0001203178863550736 0.031676592498187085 0 6.6521092207701309e-05 0.031513583651415829 0 7.8309105922174987e-05 0.031494847895330989 0 2.6976110298443245e-05 0.031508690348943415 0 -0.00027233622107093714 0.031486769232128009 0 0.0001203178863550736 0.031676592498187085 0 2.8082060671728853e-08 0.032324437295228818 0 -7.0224716130771014e-05 0.033252519024752389 0 -3.0697161849617596e-07 0.032327368387002051 0 -4.2847544859301592e-08 0.030222703743683164 0 0.0001203178863550736 0.031676592498187085 0 2.8082060671728853e-08 0.032324437295228818 0 -4.2847544859301592e-08 0.030222703743683164 0 0.0001203178863550736 0.031676592498187085 0 -1.7158085249481486e-05 0.03141176087119224 0 6.6521092207701309e-05 0.031513583651415829 0 0.0001203178863550736 0.031676592498187085 0 -1.7158085249481486e-05 0.03141176087119224 0 -3.9609182404606657e-07 0.032330965304079168 0 2.7233285789333097e-07 0.034998165363647228 0 -1.3654698921703677e-05 0.034619811732941867 0 2.7233285789333097e-07 0.034998165363647228 0 -9.889509809577825e-06 0.034915942092030354 0 -1.3973596540378821e-07 0.035000709382675382 0 2.7233285789333097e-07 0.034998165363647228 0 -1.3654698921703677e-05 0.034619811732941867 0 -9.889509809577825e-06 0.034915942092030354 0 -1.3654698921703677e-05 0.034619811732941867 0 -9.2714039371558402e-05 0.034748006171325993 0 -9.889509809577825e-06 0.034915942092030354 0 3.5837673615694599e-05 0.034395431576984999 0 -4.9311026536790942e-05 0.034186456749800032 0 -0.00015281336256666632 0.033488989644347364 0 -3.9609182404606657e-07 0.032330965304079168 0 9.2901916046982596e-05 0.033473706553250715 0 -3.9609182404606657e-07 0.032330965304079168 0 -1.3654698921703677e-05 0.034619811732941867 0 9.2901916046982596e-05 0.033473706553250715 0 -7.0224716130771014e-05 0.033252519024752389 0 -4.9311026536790942e-05 0.034186456749800032 0 -7.0224716130771014e-05 0.033252519024752389 0 0.00013293175356852009 0.034780430510243592 0 -9.2714039371558402e-05 0.034748006171325993 0 -9.9485716019608866e-05 0.034877038576854376 0 -9.889509809577825e-06 0.034915942092030354 0 -0.00017391889003236501 0.034842825277017257 0 -9.9485716019608866e-05 0.034877038576854376 0 -0.00010942250099763404 0.034965885824492171 0 -0.00017391889003236501 0.034842825277017257 0 -9.2714039371558402e-05 0.034748006171325993 0 -9.9485716019608866e-05 0.034877038576854376 0 -9.9485716019608866e-05 0.034877038576854376 0 -9.889509809577825e-06 0.034915942092030354 0 -0.00010942250099763404 0.034965885824492171 0 -9.889509809577825e-06 0.034915942092030354 0 -3.0941206337186548e-05 0.034984832097861643 0 -1.3973596540378821e-07 0.035000709382675382 0 -9.889509809577825e-06 0.034915942092030354 0 -3.0941206337186548e-05 0.034984832097861643 0 -0.00010942250099763404 0.034965885824492171 0 -1.0697134694135812e-05 0.034984511866341848 0 0.00013293175356852009 0.034780430510243592 0 0.00013293175356852009 0.034780430510243592 0 5.3303098460530174e-06 0.034997581439915833 0 -1.5436073912666903e-05 0.034921597120126234 0 1.9198337392805383e-05 0.034777329960816721 0 2.4425098267981342e-05 0.034959601125049637 0 1.7086247472485506e-05 0.035001593552941253 0 4.7430070335085925e-05 0.035017515848187866 0 2.4425098267981342e-05 0.034959601125049637 0 1.7086247472485506e-05 0.035001593552941253 0 -1.9425726301283809e-08 0.034999962391316995 0 2.4425098267981342e-05 0.034959601125049637 0 -1.0697134694135812e-05 0.034984511866341848 0 1.0710377312853813e-09 0.034999998674302014 0 3.9168382997921662e-05 0.034966928237808732 0 5.53314843076651e-08 0.034999942854179344 0 2.4425098267981342e-05 0.034959601125049637 0 -1.9425726301283809e-08 0.034999962391316995 0 5.53314843076651e-08 0.034999942854179344 0 2.4425098267981342e-05 0.034959601125049637 0 3.9168382997921662e-05 0.034966928237808732 0 5.53314843076651e-08 0.034999942854179344 0 2.9998796408527328e-05 0.034945784982847866 0 3.9168382997921662e-05 0.034966928237808732 0 6.0827359518453648e-05 0.034922573826767542 0 2.9998796408527328e-05 0.034945784982847866 0 3.9168382997921662e-05 0.034966928237808732 0 6.0827359518453648e-05 0.034922573826767542 0 9.4314468965960187e-05 0.034902250375369044 0 0.00013252053589384233 0.034876659993466612 0 3.9168382997921662e-05 0.034966928237808732 0 0.00011670997237058707 0.034891071992802496 0 -1.5436073912666903e-05 0.034921597120126234 0 3.9168382997921662e-05 0.034966928237808732 0 2.4425098267981342e-05 0.034959601125049637 0 0.00018246831698182705 0.035446276946673599 0 -4.0966249907569262e-05 0.034730579728050139 0 3.9168382997921662e-05 0.034966928237808732 0 0.00011670997237058707 0.034891071992802496 0 9.4314468965960187e-05 0.034902250375369044 0 0.00013742102077861942 0.034868112821591676 0 0.00011670997237058707 0.034891071992802496 0 0.00014897334589073624 0.034857989989698079 0 0.00011670997237058707 0.034891071992802496 0 0.00014897334589073624 0.034857989989698079 0 0.00013476042425432735 0.034864865724290504 0 0.00011670997237058707 0.034891071992802496 0 9.4314468965960187e-05 0.034902250375369044 0 0.00013476042425432735 0.034864865724290504 0 0.00018442555412208277 0.034833089680333641 0 0.00014897334589073624 0.034857989989698079 0 0.00017891463887071454 0.034827866557143504 0 0.00014897334589073624 0.034857989989698079 0 0.00017891463887071454 0.034827866557143504 0 0.00013476042425432735 0.034864865724290504 0 0.00020710298787486126 0.034796132477658774 0 0.00017891463887071454 0.034827866557143504 0 0.00016546932399211559 0.034829331924909883 0 0.00017891463887071454 0.034827866557143504 0 0.00016546932399211559 0.034829331924909883 0 0.00013476042425432735 0.034864865724290504 0 0.00016546932399211559 0.034829331924909883 0 0.00013476042425432735 0.034864865724290504 0 0.00011196788724987556 0.03486364318522335 0 0.00020710298787486126 0.034796132477658774 0 0.00016546932399211559 0.034829331924909883 0 0.00019103117653868605 0.034790701984603323 0 6.0827359518453648e-05 0.034922573826767542 0 9.4314468965960187e-05 0.034902250375369044 0 0.00011196788724987556 0.03486364318522335 0 9.4314468965960187e-05 0.034902250375369044 0 0.00013476042425432735 0.034864865724290504 0 0.00011196788724987556 0.03486364318522335 0 6.0827359518453648e-05 0.034922573826767542 0 0.00011196788724987556 0.03486364318522335 0 6.4623818759811395e-05 0.034880131959754986 0 0.00011196788724987556 0.03486364318522335 0 0.00014172823606229074 0.034793291743984177 0 6.4623818759811395e-05 0.034880131959754986 0 0.00011196788724987556 0.03486364318522335 0 0.00019103117653868605 0.034790701984603323 0 0.00014172823606229074 0.034793291743984177 0 0.0002364101164815733 0.034739076483021422 0 0.00019103117653868605 0.034790701984603323 0 0.00014172823606229074 0.034793291743984177 0 0.00016546932399211559 0.034829331924909883 0 0.00011196788724987556 0.03486364318522335 0 0.00019103117653868605 0.034790701984603323 0 5.3168305650324376e-05 0.034771101175111417 0 0.00025122510796189707 0.034637101956157941 0 0.00014172823606229074 0.034793291743984177 0 0.00025122510796189707 0.034637101956157941 0 0.0002364101164815733 0.034739076483021422 0 0.00014172823606229074 0.034793291743984177 0 5.3168305650324376e-05 0.034771101175111417 0 0.00014172823606229074 0.034793291743984177 0 6.4623818759811395e-05 0.034880131959754986 0 5.3168305650324376e-05 0.034771101175111417 0 2.9898203617276537e-05 0.034903980372993262 0 6.4623818759811395e-05 0.034880131959754986 0 2.9898203617276537e-05 0.034903980372993262 0 -2.6590024497650042e-09 0.034999827743548859 0 2.9998796408527328e-05 0.034945784982847866 0 5.53314843076651e-08 0.034999942854179344 0 -2.6590024497650042e-09 0.034999827743548859 0 2.9998796408527328e-05 0.034945784982847866 0 6.0827359518453648e-05 0.034922573826767542 0 2.9998796408527328e-05 0.034945784982847866 0 6.4623818759811395e-05 0.034880131959754986 0 2.9898203617276537e-05 0.034903980372993262 0 2.9998796408527328e-05 0.034945784982847866 0 6.4623818759811395e-05 0.034880131959754986 0 0.0010282996831416725 0.00091306738159035907 0 0.0011488944858465877 0.0003689569453829588 0 0.00033420770609715388 0.0012070617570853317 0 -0.0011216944660340591 0.0052016072969846448 0 -0.0036924237487984575 0.0079531648091199832 0 0.0010282996831416725 0.00091306738159035907 0 0.00033420770609715388 0.0012070617570853317 0 0.00089492995030221185 0.0015507024204401666 0 0.0010282996831416725 0.00091306738159035907 0 0.0013160626362605959 0.00092564489767399448 0 0.0011569616729570846 0.0013254867805080957 0 0.0010282996831416725 0.00091306738159035907 0 0.0013160626362605959 0.00092564489767399448 0 0.0012811236153423369 0.00070744702171667429 0 0.0010282996831416725 0.00091306738159035907 0 0.0012811236153423369 0.00070744702171667429 0 0.0013487142192963653 0.00072263558027877881 0 0.0012824175345758093 0.00089333714217139652 0 0.0012811236153423369 0.00070744702171667429 0 0.0013487142192963653 0.00072263558027877881 0 -0.0076391711531506182 0.015094204362182249 0 -0.0069394254038483887 0.015339147039733573 0 -0.006779096637900126 0.013579447997059289 0 -0.0076391711531506182 0.015094204362182249 0 -0.0069394254038483887 0.015339147039733573 0 -0.0070520600460028116 0.016205152842143314 0 0.0012324287448958746 -0.00053805185221027468 0 -0.0011216944660340591 0.0052016072969846448 0 -0.0069394254038483887 0.015339147039733573 0 -0.0062964196295944731 0.015128765390751815 0 -0.006779096637900126 0.013579447997059289 0 -0.0069394254038483887 0.015339147039733573 0 -0.0062964196295944731 0.015128765390751815 0 -0.0063574938243183641 0.016025331485622251 0 -0.0062964196295944731 0.015128765390751815 0 -0.0054850194423695575 0.015840475582448148 0 -0.0063574938243183641 0.016025331485622251 0 -0.005630691549626028 0.014758002488780128 0 -0.0054850194423695575 0.015840475582448148 0 -0.0044629558965405 0.015396536153193394 0 -0.0062964196295944731 0.015128765390751815 0 -0.005630691549626028 0.014758002488780128 0 -0.0054850194423695575 0.015840475582448148 0 -0.0054588511211846706 0.013838813827683748 0 -0.006779096637900126 0.013579447997059289 0 -0.0051500915406248677 0.012783595160360114 0 -0.005630691549626028 0.014758002488780128 0 -0.0054588511211846706 0.013838813827683748 0 -0.006779096637900126 0.013579447997059289 0 -0.005630691549626028 0.014758002488780128 0 -0.0054588511211846706 0.013838813827683748 0 -0.0045484760033092245 0.014141977877675146 0 -0.0054588511211846706 0.013838813827683748 0 -0.0051500915406248677 0.012783595160360114 0 -0.0045484760033092245 0.014141977877675146 0 -0.0062964196295944731 0.015128765390751815 0 -0.005630691549626028 0.014758002488780128 0 -0.006779096637900126 0.013579447997059289 0 0.00033420770609715388 0.0012070617570853317 0 0.00042930045474262271 0.0020855952712438863 0 -0.00061542794198453572 0.002722768005585231 0 -0.0036924237487984575 0.0079531648091199832 0 -0.0029674808365606005 0.0069606683420530609 0 0.00033420770609715388 0.0012070617570853317 0 0.00042930045474262271 0.0020855952712438863 0 0.00089492995030221185 0.0015507024204401666 0 -0.006779096637900126 0.013579447997059289 0 -0.0051500915406248677 0.012783595160360114 0 -0.0056300349639978962 0.011501368842476033 0 -0.00061542794198453572 0.002722768005585231 0 0.00060103654275015536 0.0028335460803527723 0 -0.00061793121915006241 0.0042590776589509823 0 0.00042930045474262271 0.0020855952712438863 0 -0.00061542794198453572 0.002722768005585231 0 0.00060103654275015536 0.0028335460803527723 0 0.00042930045474262271 0.0020855952712438863 0 0.00060103654275015536 0.0028335460803527723 0 0.00085157704153289286 0.0020228868682684417 0 0.0004419675681099203 0.0035509490918197023 0 0.00088759555685403969 0.0030391118547305148 0 0.00080444880936408187 0.0035763158665107699 0 0.00060103654275015536 0.0028335460803527723 0 0.00085157704153289286 0.0020228868682684417 0 0.0013111696138450495 0.0016566313200715881 0 0.0004419675681099203 0.0035509490918197023 0 0.00093958031851668533 0.002377310019580095 0 0.00088759555685403969 0.0030391118547305148 0 0.00047339656119976369 0.0031985126032959637 0 0.0011438130809359954 0.0019842477364254906 0 0.00042930045474262271 0.0020855952712438863 0 0.00085157704153289286 0.0020228868682684417 0 0.00089492995030221185 0.0015507024204401666 0 0.00085157704153289286 0.0020228868682684417 0 0.0010473628027181966 0.0016683137513226799 0 0.0013111696138450495 0.0016566313200715881 0 0.0010282996831416725 0.00091306738159035907 0 0.00089492995030221185 0.0015507024204401666 0 0.0011569616729570846 0.0013254867805080957 0 0.00085157704153289286 0.0020228868682684417 0 0.0010473628027181966 0.0016683137513226799 0 0.00089492995030221185 0.0015507024204401666 0 0.0010473628027181966 0.0016683137513226799 0 0.00089492995030221185 0.0015507024204401666 0 0.0011569616729570846 0.0013254867805080957 0 0.0013160626362605959 0.00092564489767399448 0 0.0011569616729570846 0.0013254867805080957 0 0.0013111696138450495 0.0016566313200715881 0 0.0010648792795638459 0.002408313527067823 0 0.00093958031851668533 0.002377310019580095 0 0.0015258193640136143 0.00085888144667621634 0 0.0010473628027181966 0.0016683137513226799 0 0.0011569616729570846 0.0013254867805080957 0 0.0013111696138450495 0.0016566313200715881 0 0.0010648792795638459 0.002408313527067823 0 0.00093958031851668533 0.002377310019580095 0 0.00088759555685403969 0.0030391118547305148 0 0.00088759555685403969 0.0030391118547305148 0 0.0010549431074904302 0.0033948193829532142 0 0.00080444880936408187 0.0035763158665107699 0 0.0010648792795638459 0.002408313527067823 0 0.00088759555685403969 0.0030391118547305148 0 0.0010855337202393739 0.0030016551367495212 0 0.00088759555685403969 0.0030391118547305148 0 0.0010855337202393739 0.0030016551367495212 0 0.0010549431074904302 0.0033948193829532142 0 0.0010648792795638459 0.002408313527067823 0 0.0010855337202393739 0.0030016551367495212 0 0.0014268141463264804 0.0031642081083118824 0 0.0010855337202393739 0.0030016551367495212 0 0.0014268141463264804 0.0031642081083118824 0 0.0010549431074904302 0.0033948193829532142 0 0.0010648792795638459 0.002408313527067823 0 0.0014268141463264804 0.0031642081083118824 0 0.0026209701479261069 0.0031312164922117224 0 0.0010648792795638459 0.002408313527067823 0 0.0016826378853334605 0.00097239574651965114 0 0.0015258193640136143 0.00085888144667621634 0 0.0010009572443432119 0.0022724505955144716 0 0.0021771165160915538 0.0021452726185214794 0 0.0016826378853334605 0.00097239574651965114 0 0.0017542010198268207 0.00055489323062900796 0 0.0018959372759395519 0.00038577262137098396 0 0.0016826378853334605 0.00097239574651965114 0 0.0017542010198268207 0.00055489323062900796 0 0.0015258193640136143 0.00085888144667621634 0 0.0017542010198268207 0.00055489323062900796 0 0.0015258193640136143 0.00085888144667621634 0 0.0017694153516523031 9.5683752917920121e-05 0 0.0011438130809359954 0.0019842477364254906 0 0.0015723210780921994 0.0010239277438841893 0 0.0013160626362605959 0.00092564489767399448 0 0.0013111696138450495 0.0016566313200715881 0 0.0015258193640136143 0.00085888144667621634 0 0.0018959372759395519 0.00038577262137098396 0 0.0020543741942507633 -1.1333626666736627e-05 0 0.002026132031817277 0.00022300069691858919 0 0.0020543741942507633 -1.1333626666736627e-05 0 0.002026132031817277 0.00022300069691858919 0 0.002175001073709115 -0.00025251928138220967 0 0.0020543741942507633 -1.1333626666736627e-05 0 0.002175001073709115 -0.00025251928138220967 0 0.0021786940410392537 -0.00034257705713426514 0 0.0016826378853334605 0.00097239574651965114 0 0.0018959372759395519 0.00038577262137098396 0 0.002026132031817277 0.00022300069691858919 0 0.0021771165160915538 0.0021452726185214794 0 0.0026244383328942792 0.0013555133428448988 0 0.0017542010198268207 0.00055489323062900796 0 0.0019248636349168589 0.00017746234313088146 0 0.0017694153516523031 9.5683752917920121e-05 0 0.0017542010198268207 0.00055489323062900796 0 0.0018959372759395519 0.00038577262137098396 0 0.0019248636349168589 0.00017746234313088146 0 0.0018959372759395519 0.00038577262137098396 0 0.0019248636349168589 0.00017746234313088146 0 0.0020543741942507633 -1.1333626666736627e-05 0 0.0020543741942507633 -1.1333626666736627e-05 0 0.0020806247499876541 -0.00027107607643183095 0 0.0021786940410392537 -0.00034257705713426514 0 0.0019248636349168589 0.00017746234313088146 0 0.0020543741942507633 -1.1333626666736627e-05 0 0.0020806247499876541 -0.00027107607643183095 0 0.0020806247499876541 -0.00027107607643183095 0 0.0017694153516523031 9.5683752917920121e-05 0 0.0020030516068649902 -0.00071592756379590882 0 0.0019248636349168589 0.00017746234313088146 0 0.0020806247499876541 -0.00027107607643183095 0 0.0017694153516523031 9.5683752917920121e-05 0 0.0017694153516523031 9.5683752917920121e-05 0 0.0011414922562820585 0.00036943156440562546 0 0.0016075159117856794 -0.00056162787519872521 0 0.0013160626362605959 0.00092564489767399448 0 0.0012811236153423369 0.00070744702171667429 0 0.0011414922562820585 0.00036943156440562546 0 0.0013160626362605959 0.00092564489767399448 0 0.0015258193640136143 0.00085888144667621634 0 0.0011414922562820585 0.00036943156440562546 0 0.0015258193640136143 0.00085888144667621634 0 0.0017694153516523031 9.5683752917920121e-05 0 0.0011414922562820585 0.00036943156440562546 0 0.0012824175345758093 0.00089333714217139652 0 0.0012811236153423369 0.00070744702171667429 0 0.0011414922562820585 0.00036943156440562546 0 0.0012824175345758093 0.00089333714217139652 0 0.0011414922562820585 0.00036943156440562546 0 0.0012902297488055191 0.0015628077384695499 0 0.0011414922562820585 0.00036943156440562546 0 0.0012902297488055191 0.0015628077384695499 0 -2.333787562203024e-05 0.0014833545545335609 0 0.0011001883040053304 0.00036204146048778014 0 0.00078678121809351836 0.00047438726729271986 0 -2.333787562203024e-05 0.0014833545545335609 0 0.00033035156191925651 0.0023666860373418694 0 -0.000934048223085383 0.0026608013559397598 0 0.0012902297488055191 0.0015628077384695499 0 -2.333787562203024e-05 0.0014833545545335609 0 0.00033035156191925651 0.0023666860373418694 0 0.0012902297488055191 0.0015628077384695499 0 0.00033035156191925651 0.0023666860373418694 0 0.0011649988124183585 0.0023755937485276787 0 0.0017694153516523031 9.5683752917920121e-05 0 0.0016075159117856794 -0.00056162787519872521 0 0.0020030516068649902 -0.00071592756379590882 0 0.00078678121809351836 0.00047438726729271986 0 0.00061333649076334871 0.001021049809257564 0 0.0016075159117856794 -0.00056162787519872521 0 0.0020030516068649902 -0.00071592756379590882 0 0.0018946450755781496 -0.00080127220847821322 0 0.0020030516068649902 -0.00071592756379590882 0 0.0018946450755781496 -0.00080127220847821322 0 0.0019520454088289194 -0.00079576820126147719 0 0.00061333649076334871 0.001021049809257564 0 -0.0009174676450334463 0.00095901065066134126 0 0.0018946450755781496 -0.00080127220847821322 0 0.0019342802213749813 -0.00062993664850954781 0 0.0019520454088289194 -0.00079576820126147719 0 -0.000934048223085383 0.0026608013559397598 0 -0.00091991906780453732 0.0035374247190584846 0 -5.6898610367086719e-06 0.0033352453893938476 0 -0.00091991906780453732 0.0035374247190584846 0 -5.6898610367086719e-06 0.0033352453893938476 0 -0.00028635603196830027 0.0040339670167904833 0 -0.000934048223085383 0.0026608013559397598 0 -0.00091991906780453732 0.0035374247190584846 0 -0.001734981836368399 0.0037912651953008621 0 0.0018946450755781496 -0.00080127220847821322 0 0.0019409400852422618 -0.00060561995920358825 0 0.0019342802213749813 -0.00062993664850954781 0 -0.0009174676450334463 0.00095901065066134126 0 0.00048623909245534722 0.00050923586765847721 0 0.0011649988124183585 0.0023755937485276787 0 0.00081365587276516172 0.0030695152169068173 0 0.0015724794697621713 0.0033429338375718558 0 0.00033035156191925651 0.0023666860373418694 0 0.0011649988124183585 0.0023755937485276787 0 0.00081365587276516172 0.0030695152169068173 0 0.00033035156191925651 0.0023666860373418694 0 -0.000934048223085383 0.0026608013559397598 0 -5.6898610367086719e-06 0.0033352453893938476 0 0.00033035156191925651 0.0023666860373418694 0 0.00081365587276516172 0.0030695152169068173 0 -5.6898610367086719e-06 0.0033352453893938476 0 -5.6898610367086719e-06 0.0033352453893938476 0 0.00026660224485944143 0.0040061342310280575 0 0.00066496022058287676 0.0036643189790847523 0 -5.6898610367086719e-06 0.0033352453893938476 0 -0.00028635603196830027 0.0040339670167904833 0 0.00026660224485944143 0.0040061342310280575 0 0.00026660224485944143 0.0040061342310280575 0 0.00067862161694355768 0.0040801757647454745 0 0.00066496022058287676 0.0036643189790847523 0 0.00081365587276516172 0.0030695152169068173 0 -5.6898610367086719e-06 0.0033352453893938476 0 0.00066496022058287676 0.0036643189790847523 0 0.00081365587276516172 0.0030695152169068173 0 0.00066496022058287676 0.0036643189790847523 0 0.001112204792012689 0.0035949902604702922 0 0.00081365587276516172 0.0030695152169068173 0 0.001112204792012689 0.0035949902604702922 0 0.0015724794697621713 0.0033429338375718558 0 0.00066496022058287676 0.0036643189790847523 0 0.001112204792012689 0.0035949902604702922 0 0.001046226876431119 0.0039525401693616073 0 0.00067862161694355768 0.0040801757647454745 0 0.00066496022058287676 0.0036643189790847523 0 0.001046226876431119 0.0039525401693616073 0 0.0009606340024877789 0.0043537467996836166 0 0.00067862161694355768 0.0040801757647454745 0 0.001046226876431119 0.0039525401693616073 0 0.001400330545927379 0.0043307080837719598 0 0.001046226876431119 0.0039525401693616073 0 0.001787134113259667 0.0039036148961855599 0 0.0011966287038013782 0.0054614051521419994 0 0.0011804459293928496 0.0064587885508585767 0 0.001112204792012689 0.0035949902604702922 0 0.001046226876431119 0.0039525401693616073 0 0.0014373015854809489 0.0039799720730832235 0 0.0011804459293928496 0.0064587885508585767 0 -0.002491402889457288 0.011500411820602987 0 0.001985066592627011 0.0043817652594253312 0 0.001787134113259667 0.0039036148961855599 0 0.0027807442663438735 0.0039361144999758759 0 -0.0011815476474471398 0.0092082530179198683 0 -0.0010824074463962326 0.009219547206750469 0 -0.0011556338742776456 0.009056700877513613 0 -0.0075799766418964149 0.018794329711174184 0 -0.007894671921818865 0.018147750621946446 0 -0.0071314602164802053 0.018247891166481511 0 -0.002491402889457288 0.011500411820602987 0 -0.0010638971485614139 0.0088540470068372984 0 0.001112204792012689 0.0035949902604702922 0 0.0014373015854809489 0.0039799720730832235 0 0.0015724794697621713 0.0033429338375718558 0 0.0011804459293928496 0.0064587885508585767 0 -0.0010638971485614139 0.0088540470068372984 0 -0.0075799766418964149 0.018794329711174184 0 -0.0071314602164802053 0.018247891166481511 0 -0.0064337786769225773 0.01891924829371967 0 -0.002491402889457288 0.011500411820602987 0 -0.0054671505779511449 0.017294786316676216 0 -0.0071314602164802053 0.018247891166481511 0 -0.0068553883416132737 0.017685496604628696 0 -0.0064378218712434166 0.018209553511305467 0 -0.0071314602164802053 0.018247891166481511 0 -0.0073700923433483367 0.017595724392104158 0 -0.0068553883416132737 0.017685496604628696 0 -0.007894671921818865 0.018147750621946446 0 -0.0071314602164802053 0.018247891166481511 0 -0.0073700923433483367 0.017595724392104158 0 -0.0073700923433483367 0.017595724392104158 0 -0.0068553883416132737 0.017685496604628696 0 -0.0071044340490160202 0.017046926972973629 0 0.0011649988124183585 0.0023755937485276787 0 0.0015865127174650828 0.0034138371847009779 0 0.0017885525354764511 0.001889470139872869 0 -0.007894671921818865 0.018147750621946446 0 -0.0073700923433483367 0.017595724392104158 0 -0.0077485653748114256 0.016731674511753808 0 0.00099220012732488083 0.00097960518977384804 0 -0.0010638971485614139 0.0088540470068372984 0 -0.0010638971485614139 0.0088540470068372984 0 -0.0035772448937017843 0.010394931645011263 0 0.0012902297488055191 0.0015628077384695499 0 0.0011649988124183585 0.0023755937485276787 0 0.0017885525354764511 0.001889470139872869 0 -0.0073700923433483367 0.017595724392104158 0 -0.0077485653748114256 0.016731674511753808 0 -0.0071044340490160202 0.017046926972973629 0 -0.0068553883416132737 0.017685496604628696 0 -0.0071044340490160202 0.017046926972973629 0 -0.0064774358647259169 0.016959415195504007 0 -0.0071044340490160202 0.017046926972973629 0 -0.0070520600460028116 0.016205152842143314 0 -0.0064774358647259169 0.016959415195504007 0 -0.0077485653748114256 0.016731674511753808 0 -0.0071044340490160202 0.017046926972973629 0 -0.0070520600460028116 0.016205152842143314 0 -0.0076391711531506182 0.015094204362182249 0 -0.0077485653748114256 0.016731674511753808 0 -0.0070520600460028116 0.016205152842143314 0 -0.0011216944660340591 0.0052016072969846448 0 -0.0035772448937017843 0.010394931645011263 0 0.0018420236380131533 0.0010548489721115724 0 0.0012902297488055191 0.0015628077384695499 0 0.0017885525354764511 0.001889470139872869 0 -0.0011216944660340591 0.0052016072969846448 0 0.0025358212963254106 -0.00023098036911383226 0 0.0012824175345758093 0.00089333714217139652 0 0.0013487142192963653 0.00072263558027877881 0 0.0012902297488055191 0.0015628077384695499 0 -0.0058464595568967336 0.016569413909895338 0 -0.0054850194423695575 0.015840475582448148 0 -0.0051304369206163492 0.016902258785660387 0 -0.0054850194423695575 0.015840475582448148 0 -0.0051304369206163492 0.016902258785660387 0 -0.004546255662505742 0.016530019268104556 0 -0.0058464595568967336 0.016569413909895338 0 -0.0054850194423695575 0.015840475582448148 0 -0.0063574938243183641 0.016025331485622251 0 -0.0070520600460028116 0.016205152842143314 0 -0.0063574938243183641 0.016025331485622251 0 -0.0064774358647259169 0.016959415195504007 0 -0.0058464595568967336 0.016569413909895338 0 -0.0063574938243183641 0.016025331485622251 0 -0.0064774358647259169 0.016959415195504007 0 -0.0069394254038483887 0.015339147039733573 0 -0.0070520600460028116 0.016205152842143314 0 -0.0063574938243183641 0.016025331485622251 0 -0.0058464595568967336 0.016569413909895338 0 -0.0064774358647259169 0.016959415195504007 0 -0.0056904325143785194 0.0171880665102245 0 -0.0064774358647259169 0.016959415195504007 0 -0.0056904325143785194 0.0171880665102245 0 -0.0059840894325745714 0.017751813104457233 0 -0.0058464595568967336 0.016569413909895338 0 -0.0056904325143785194 0.0171880665102245 0 -0.0051304369206163492 0.016902258785660387 0 -0.0056904325143785194 0.0171880665102245 0 -0.0051304369206163492 0.016902258785660387 0 -0.0051623130209932965 0.017586831788932743 0 -0.0051623130209932965 0.017586831788932743 0 -0.0052902690470573574 0.018108722062863368 0 -0.0059840894325745714 0.017751813104457233 0 -0.0056904325143785194 0.0171880665102245 0 -0.0051623130209932965 0.017586831788932743 0 -0.0059840894325745714 0.017751813104457233 0 -0.0052902690470573574 0.018108722062863368 0 -0.0059840894325745714 0.017751813104457233 0 -0.0057669917918242572 0.018424588112007072 0 -0.0068553883416132737 0.017685496604628696 0 -0.0059840894325745714 0.017751813104457233 0 -0.0064378218712434166 0.018209553511305467 0 -0.0068553883416132737 0.017685496604628696 0 -0.0064774358647259169 0.016959415195504007 0 -0.0059840894325745714 0.017751813104457233 0 -0.0059840894325745714 0.017751813104457233 0 -0.0064378218712434166 0.018209553511305467 0 -0.0057669917918242572 0.018424588112007072 0 -0.0054671505779511449 0.017294786316676216 0 -0.0042170177099376243 0.017875333490520489 0 -0.0063778494496216347 0.018981558004837373 0 -0.0057669917918242572 0.018424588112007072 0 -0.0054983308009006584 0.01903475113071294 0 -0.0071314602164802053 0.018247891166481511 0 -0.0064378218712434166 0.018209553511305467 0 -0.0064337786769225773 0.01891924829371967 0 -0.0064378218712434166 0.018209553511305467 0 -0.0064337786769225773 0.01891924829371967 0 -0.0057669917918242572 0.018424588112007072 0 -0.0054671505779511449 0.017294786316676216 0 -0.0062841576178571685 0.018850357960182734 0 -0.0042170177099376243 0.017875333490520489 0 -0.0044443075072385834 0.017999372705471802 0 -0.0051135161829456233 0.018574533349427984 0 -0.0054983308009006584 0.01903475113071294 0 -0.0046177966758183496 0.019072266573892549 0 -0.0052902690470573574 0.018108722062863368 0 -0.0051135161829456233 0.018574533349427984 0 -0.0057669917918242572 0.018424588112007072 0 -0.0051135161829456233 0.018574533349427984 0 -0.0057669917918242572 0.018424588112007072 0 -0.0054983308009006584 0.01903475113071294 0 -0.0052902690470573574 0.018108722062863368 0 -0.0051135161829456233 0.018574533349427984 0 -0.0043614779558068242 0.018273452778485761 0 -0.0051135161829456233 0.018574533349427984 0 -0.0046177966758183496 0.019072266573892549 0 -0.0043614779558068242 0.018273452778485761 0 -0.0044443075072385834 0.017999372705471802 0 -0.0043720274665272575 0.01823621203806176 0 -0.0045005124618933282 0.018305562469537909 0 -0.0043328590630957974 0.017978100540065239 0 -0.0042817724594815029 0.018186402675773039 0 -0.0043710600334729262 0.018309265386635718 0 -0.0045005124618933282 0.018305562469537909 0 -0.0042817724594815029 0.018186402675773039 0 -0.0044111501834518492 0.01811705354185689 0 -0.0044443075072385834 0.017999372705471802 0 -0.0043720274665272575 0.01823621203806176 0 -0.0041237326743948349 0.017589978803870341 0 -0.0043614779558068242 0.018273452778485761 0 -0.0045932118704936587 0.017365277765001449 0 -0.0040838515352246002 0.017562745240425365 0 -0.0051623130209932965 0.017586831788932743 0 -0.0052902690470573574 0.018108722062863368 0 -0.0043614779558068242 0.018273452778485761 0 -0.0051623130209932965 0.017586831788932743 0 -0.0043614779558068242 0.018273452778485761 0 -0.0045932118704936587 0.017365277765001449 0 -0.0043328590630957974 0.017978100540065239 0 -0.003845714855382354 0.017809332277896106 0 -0.004048098702291115 0.018106249592137472 0 -0.0043328590630957974 0.017978100540065239 0 -0.003845714855382354 0.017809332277896106 0 -0.0040838515352246002 0.017562745240425365 0 -0.0043328590630957974 0.017978100540065239 0 -0.004048098702291115 0.018106249592137472 0 -0.0042817724594815029 0.018186402675773039 0 -0.0041848752540686804 0.018306741361324128 0 -0.0043710600334729262 0.018309265386635718 0 -0.0042817724594815029 0.018186402675773039 0 -0.004035537441028708 0.018344263947600602 0 -0.0041848752540686804 0.018306741361324128 0 -0.004048098702291115 0.018106249592137472 0 -0.0041848752540686804 0.018306741361324128 0 -0.004048098702291115 0.018106249592137472 0 -0.0042817724594815029 0.018186402675773039 0 -0.004035537441028708 0.018344263947600602 0 -0.0037813311982080331 0.018194224114937044 0 -0.0037096559576148213 0.017962384620626892 0 -0.004035537441028708 0.018344263947600602 0 -0.004048098702291115 0.018106249592137472 0 -0.0037096559576148213 0.017962384620626892 0 -0.0036954434201976164 0.018310983330673023 0 -0.0037813311982080331 0.018194224114937044 0 -0.0035428287973238311 0.017940265432342086 0 -0.0037813311982080331 0.018194224114937044 0 -0.0035428287973238311 0.017940265432342086 0 -0.0037096559576148213 0.017962384620626892 0 -0.0034572882993359863 0.017780381417183577 0 -0.0037096559576148213 0.017962384620626892 0 -0.003417336211413719 0.017640561063593112 0 -0.0035428287973238311 0.017940265432342086 0 -0.0034572882993359863 0.017780381417183577 0 -0.0037096559576148213 0.017962384620626892 0 -0.003845714855382354 0.017809332277896106 0 -0.004048098702291115 0.018106249592137472 0 -0.0037096559576148213 0.017962384620626892 0 -0.003845714855382354 0.017809332277896106 0 -0.0037096559576148213 0.017962384620626892 0 -0.003417336211413719 0.017640561063593112 0 -0.003845714855382354 0.017809332277896106 0 -0.003417336211413719 0.017640561063593112 0 -0.0034902306741535234 0.0174246846800238 0 -0.003417336211413719 0.017640561063593112 0 -0.0032856675746780512 0.017492610717516191 0 -0.0034902306741535234 0.0174246846800238 0 -0.0032856675746780512 0.017492610717516191 0 -0.0034902306741535234 0.0174246846800238 0 -0.0031451162590084209 0.017286644345171527 0 -0.003417336211413719 0.017640561063593112 0 -0.003351789910969797 0.017727196149910994 0 -0.0032538319447232775 0.017613899960297139 0 -0.0034572882993359863 0.017780381417183577 0 -0.003417336211413719 0.017640561063593112 0 -0.003351789910969797 0.017727196149910994 0 -0.003417336211413719 0.017640561063593112 0 -0.0032856675746780512 0.017492610717516191 0 -0.0032538319447232775 0.017613899960297139 0 -0.003351789910969797 0.017727196149910994 0 -0.0032538319447232775 0.017613899960297139 0 -0.0033351335212134002 0.017824867250837699 0 -0.0032538319447232775 0.017613899960297139 0 -0.0032338660502687876 0.017907029360610949 0 -0.0033351335212134002 0.017824867250837699 0 -0.0032538319447232775 0.017613899960297139 0 -0.0031268262548713481 0.017804942207982587 0 -0.0031451162590084209 0.017286644345171527 0 -0.0032538319447232775 0.017613899960297139 0 -0.0031268262548713481 0.017804942207982587 0 -0.0032338660502687876 0.017907029360610949 0 -0.0031451162590084209 0.017286644345171527 0 -0.0032735519937956551 0.016954611110173795 0 -0.0030722661869639228 0.01689505278994204 0 -0.0034902306741535234 0.0174246846800238 0 -0.0031451162590084209 0.017286644345171527 0 -0.0032735519937956551 0.016954611110173795 0 -0.0032856675746780512 0.017492610717516191 0 -0.0032538319447232775 0.017613899960297139 0 -0.0031451162590084209 0.017286644345171527 0 -0.0034902306741535234 0.0174246846800238 0 -0.0032735519937956551 0.016954611110173795 0 -0.0039281024326134097 0.017075728490658096 0 -0.0032735519937956551 0.016954611110173795 0 -0.0039090113242357992 0.016341091647830347 0 -0.0039281024326134097 0.017075728490658096 0 -0.0032735519937956551 0.016954611110173795 0 -0.0039090113242357992 0.016341091647830347 0 -0.0034927082195268201 0.015462774648291978 0 -0.0039090113242357992 0.016341091647830347 0 -0.004546255662505742 0.016530019268104556 0 -0.0044629558965405 0.015396536153193394 0 -0.0054850194423695575 0.015840475582448148 0 -0.004546255662505742 0.016530019268104556 0 -0.0044629558965405 0.015396536153193394 0 -0.0039090113242357992 0.016341091647830347 0 -0.004546255662505742 0.016530019268104556 0 -0.0039281024326134097 0.017075728490658096 0 -0.0051304369206163492 0.016902258785660387 0 -0.004546255662505742 0.016530019268104556 0 -0.0045932118704936587 0.017365277765001449 0 -0.004546255662505742 0.016530019268104556 0 -0.0045932118704936587 0.017365277765001449 0 -0.0039281024326134097 0.017075728490658096 0 -0.0051304369206163492 0.016902258785660387 0 -0.0051623130209932965 0.017586831788932743 0 -0.0045932118704936587 0.017365277765001449 0 -0.0045932118704936587 0.017365277765001449 0 -0.0040838515352246002 0.017562745240425365 0 -0.0039281024326134097 0.017075728490658096 0 -0.003845714855382354 0.017809332277896106 0 -0.0034902306741535234 0.0174246846800238 0 -0.0040838515352246002 0.017562745240425365 0 -0.0034902306741535234 0.0174246846800238 0 -0.0040838515352246002 0.017562745240425365 0 -0.0039281024326134097 0.017075728490658096 0 0.0027485907777609017 0.026251426542502124 0 0.0025176952265607592 0.026838221801278032 0 0.00186022277777396 0.026289855309579651 0 -0.0018335754135686741 0.019811715926089688 0 -0.0025072321239041468 0.01950612580464306 0 -0.0025343357505236363 0.018807505372518192 0 0.00095928050088129626 0.022421493312393171 0 -0.00041656471561348136 0.022678582858060597 0 0.00046166013386460351 0.020706561702887379 0 0.00046990572744167456 0.020732690363032897 0 0.00044914577064063998 0.020702417218923633 0 -0.0018335754135686741 0.019811715926089688 0 -0.0029342464107239559 0.020124845336253264 0 -0.0025072321239041468 0.01950612580464306 0 0.00095928050088129626 0.022421493312393171 0 -0.0020467540340150907 0.019386881962466334 0 -0.0020467540340150907 0.019386881962466334 0 -0.003245612781832951 0.018325713127065872 0 -0.0020467540340150907 0.019386881962466334 0 -0.0034722454190888878 0.018287390813869025 0 -0.0029342464107239559 0.020124845336253264 0 -0.0025072321239041468 0.01950612580464306 0 -0.0033028617406195278 0.018964039929264653 0 -0.0025072321239041468 0.01950612580464306 0 -0.0033028617406195278 0.018964039929264653 0 -0.0025343357505236363 0.018807505372518192 0 -0.0032713021887661813 0.017960365206111141 0 -0.0033566813946546824 0.017812227288380496 0 -0.003368232977449012 0.017896942315029005 0 -0.0033566813946546824 0.017812227288380496 0 -0.003368232977449012 0.017896942315029005 0 -0.0033893934872280592 0.017810202258775373 0 -0.0036954434201976164 0.018310983330673023 0 -0.003368232977449012 0.017896942315029005 0 -0.003143267566367933 0.018184111445041024 0 -0.0032713021887661813 0.017960365206111141 0 -0.003368232977449012 0.017896942315029005 0 -0.003315118410886999 0.017971833018577469 0 -0.0033908386656001772 0.017864822193265718 0 -0.003245612781832951 0.018325713127065872 0 -0.0036954434201976164 0.018310983330673023 0 -0.0035428287973238311 0.017940265432342086 0 -0.003368232977449012 0.017896942315029005 0 -0.0035428287973238311 0.017940265432342086 0 -0.003368232977449012 0.017896942315029005 0 -0.0033893934872280592 0.017810202258775373 0 -0.0034572882993359863 0.017780381417183577 0 -0.003351789910969797 0.017727196149910994 0 -0.0033893934872280592 0.017810202258775373 0 -0.0035428287973238311 0.017940265432342086 0 -0.0034572882993359863 0.017780381417183577 0 -0.0033893934872280592 0.017810202258775373 0 -0.003351789910969797 0.017727196149910994 0 -0.0033893934872280592 0.017810202258775373 0 -0.0033746622733282776 0.017815610478152645 0 -0.003351789910969797 0.017727196149910994 0 -0.0033746622733282776 0.017815610478152645 0 -0.0033351335212134002 0.017824867250837699 0 -0.0032338660502687876 0.017907029360610949 0 -0.0033351335212134002 0.017824867250837699 0 -0.0033677497006960912 0.018053206547251763 0 -0.0033351335212134002 0.017824867250837699 0 -0.0033677497006960912 0.018053206547251763 0 -0.0034655664140534246 0.017998328899496298 0 -0.0033746622733282776 0.017815610478152645 0 -0.0033351335212134002 0.017824867250837699 0 -0.0034655664140534246 0.017998328899496298 0 -0.0034722454190888878 0.018287390813869025 0 -0.0034098291558579104 0.018089542321309875 0 -0.0033028617406195278 0.018964039929264653 0 -0.0034655664140534246 0.017998328899496298 0 -0.0032511623984192695 0.017992104189228721 0 -0.0033566813946546824 0.017812227288380496 0 -0.0033893934872280592 0.017810202258775373 0 -0.0033746622733282776 0.017815610478152645 0 -0.0033566813946546824 0.017812227288380496 0 -0.0033746622733282776 0.017815610478152645 0 -0.0034655664140534246 0.017998328899496298 0 -0.0014012831287580673 0.021566358827364879 0 -0.00041656471561348136 0.022678582858060597 0 -0.0033028617406195278 0.018964039929264653 0 -0.0032511623984192695 0.017992104189228721 0 -0.0025343357505236363 0.018807505372518192 0 0.00046228069906845457 0.02519670289368561 0 0.0024053313456610958 0.025435382603738618 0 0.00186022277777396 0.026289855309579651 0 0.00046228069906845457 0.02519670289368561 0 0.0024053313456610958 0.025435382603738618 0 0.0014844141421245032 0.024410100597817209 0 0.0027485907777609017 0.026251426542502124 0 0.0024053313456610958 0.025435382603738618 0 0.00186022277777396 0.026289855309579651 0 0.0030488805867753474 0.021391345601093181 0 0.0017713047947687641 0.021457912741022961 0 0.0026844393867626053 0.023007781193588813 0 0.0017713047947687641 0.021457912741022961 0 0.0015525935548093236 0.023034437962641124 0 0.0026844393867626053 0.023007781193588813 0 0.0015525935548093236 0.023034437962641124 0 0.0026844393867626053 0.023007781193588813 0 0.0024254053251986487 0.024469596379421154 0 0.003671280984011979 0.025170012923700649 0 0.0024053313456610958 0.025435382603738618 0 0.0024254053251986487 0.024469596379421154 0 0.0024053313456610958 0.025435382603738618 0 0.0024254053251986487 0.024469596379421154 0 0.0014844141421245032 0.024410100597817209 0 0.0015525935548093236 0.023034437962641124 0 0.0024254053251986487 0.024469596379421154 0 0.0014844141421245032 0.024410100597817209 0 0.0015525935548093236 0.023034437962641124 0 0.0014844141421245032 0.024410100597817209 0 0.00053252973038487726 0.023464759052759795 0 0.00046228069906845457 0.02519670289368561 0 0.0014844141421245032 0.024410100597817209 0 0.00053252973038487726 0.023464759052759795 0 0.0015525935548093236 0.023034437962641124 0 0.00053252973038487726 0.023464759052759795 0 0.00044109396072632812 0.021686242097940425 0 0.0017713047947687641 0.021457912741022961 0 0.0015525935548093236 0.023034437962641124 0 0.00044109396072632812 0.021686242097940425 0 0.00053252973038487726 0.023464759052759795 0 0.00044109396072632812 0.021686242097940425 0 -0.0013760580186643321 0.022762808171937123 0 0.00044109396072632812 0.021686242097940425 0 -0.0013760580186643321 0.022762808171937123 0 -0.00072884663437161438 0.019894127478485159 0 -0.0013760580186643321 0.022762808171937123 0 -0.0028217541457467707 0.019356011403476307 0 -0.00072884663437161438 0.019894127478485159 0 0.00046228069906845457 0.02519670289368561 0 0.00053252973038487726 0.023464759052759795 0 -0.0013760580186643321 0.022762808171937123 0 -0.0033677497006960912 0.018053206547251763 0 -0.0034655664140534246 0.017998328899496298 0 -0.0035535770998790855 0.018403276336809781 0 -0.0034655664140534246 0.017998328899496298 0 -0.0032511623984192695 0.017992104189228721 0 -0.0035535770998790855 0.018403276336809781 0 -0.0014012831287580673 0.021566358827364879 0 -0.0023957865145241854 0.020555582179481901 0 -0.0035535770998790855 0.018403276336809781 0 -0.0032242322441801432 0.018213102310332817 0 -0.0030317068966425531 0.018723807628057795 0 -0.0033677497006960912 0.018053206547251763 0 -0.0035535770998790855 0.018403276336809781 0 -0.0032242322441801432 0.018213102310332817 0 -0.0032338660502687876 0.017907029360610949 0 -0.0033677497006960912 0.018053206547251763 0 -0.0032242322441801432 0.018213102310332817 0 -0.0035535770998790855 0.018403276336809781 0 -0.0030317068966425531 0.018723807628057795 0 -0.0028217541457467707 0.019356011403476307 0 -0.0023957865145241854 0.020555582179481901 0 -0.002842004386895425 0.019471834143317473 0 -0.0030317068966425531 0.018723807628057795 0 -0.0028217541457467707 0.019356011403476307 0 -0.0031506276669415402 0.019139379104149503 0 -0.0028217541457467707 0.019356011403476307 0 -0.0015617847240858038 0.018847386621631507 0 -0.00072884663437161438 0.019894127478485159 0 -0.0028217541457467707 0.019356011403476307 0 -0.002187156953984581 0.018359523532288285 0 -0.0015617847240858038 0.018847386621631507 0 -0.0028217541457467707 0.019356011403476307 0 -0.002187156953984581 0.018359523532288285 0 -0.0031506276669415402 0.019139379104149503 0 -0.002187156953984581 0.018359523532288285 0 -0.0031506276669415402 0.019139379104149503 0 -0.0023513574829499171 0.016166835222167667 0 -0.002187156953984581 0.018359523532288285 0 -0.00087097008300366968 0.017900145422491215 0 -0.0023513574829499171 0.016166835222167667 0 -0.002187156953984581 0.018359523532288285 0 -0.00087097008300366968 0.017900145422491215 0 -0.0015617847240858038 0.018847386621631507 0 -0.00087097008300366968 0.017900145422491215 0 -0.00011354100894200362 0.018837322132755279 0 -0.0015617847240858038 0.018847386621631507 0 -0.00087097008300366968 0.017900145422491215 0 -0.00011354100894200362 0.018837322132755279 0 0.00076779027404037109 0.01768598759825912 0 -0.00011354100894200362 0.018837322132755279 0 -0.0015617847240858038 0.018847386621631507 0 -0.00072884663437161438 0.019894127478485159 0 0.0017713047947687641 0.021457912741022961 0 0.00044109396072632812 0.021686242097940425 0 0.00090926424599428626 0.019683377011519433 0 -0.00011354100894200362 0.018837322132755279 0 -0.00072884663437161438 0.019894127478485159 0 0.00090926424599428626 0.019683377011519433 0 0.00044109396072632812 0.021686242097940425 0 -0.00072884663437161438 0.019894127478485159 0 0.00090926424599428626 0.019683377011519433 0 -0.00011354100894200362 0.018837322132755279 0 0.00090926424599428626 0.019683377011519433 0 0.00076779027404037109 0.01768598759825912 0 0.00090926424599428626 0.019683377011519433 0 0.00076779027404037109 0.01768598759825912 0 0.0018423237837186118 0.0185917154443343 0 0.00076779027404037109 0.01768598759825912 0 0.0018423237837186118 0.0185917154443343 0 0.0020623752388035507 0.017499694098400624 0 0.0018423237837186118 0.0185917154443343 0 0.0030501280833407939 0.018027673637876343 0 0.0020623752388035507 0.017499694098400624 0 0.0018423237837186118 0.0185917154443343 0 0.0030501280833407939 0.018027673637876343 0 0.0029660272633237231 0.019150026382748177 0 0.0018423237837186118 0.0185917154443343 0 0.0029660272633237231 0.019150026382748177 0 0.0022693694731438598 0.0200710388335247 0 0.003436584180374032 0.020393067819622149 0 0.0029660272633237231 0.019150026382748177 0 0.0022693694731438598 0.0200710388335247 0 0.00090926424599428626 0.019683377011519433 0 0.0018423237837186118 0.0185917154443343 0 0.0022693694731438598 0.0200710388335247 0 0.0017713047947687641 0.021457912741022961 0 0.00090926424599428626 0.019683377011519433 0 0.0022693694731438598 0.0200710388335247 0 0.0030488805867753474 0.021391345601093181 0 0.0017713047947687641 0.021457912741022961 0 0.0022693694731438598 0.0200710388335247 0 0.0030488805867753474 0.021391345601093181 0 0.003436584180374032 0.020393067819622149 0 0.0022693694731438598 0.0200710388335247 0 -0.0035469861461855856 0.014222781103228881 0 -0.0034927082195268201 0.015462774648291978 0 -0.0022238971622315128 0.0142462057764376 0 -0.0035469861461855856 0.014222781103228881 0 -0.0022238971622315128 0.0142462057764376 0 -0.0029775181807737924 0.012896656123519578 0 -0.0035469861461855856 0.014222781103228881 0 -0.0029775181807737924 0.012896656123519578 0 -0.0040828701176736188 0.013099775921498276 0 -0.0035469861461855856 0.014222781103228881 0 -0.0045484760033092245 0.014141977877675146 0 -0.0040828701176736188 0.013099775921498276 0 -0.0051500915406248677 0.012783595160360114 0 -0.0045484760033092245 0.014141977877675146 0 -0.0040828701176736188 0.013099775921498276 0 -0.0035469861461855856 0.014222781103228881 0 -0.0045484760033092245 0.014141977877675146 0 -0.0044629558965405 0.015396536153193394 0 -0.005630691549626028 0.014758002488780128 0 -0.0045484760033092245 0.014141977877675146 0 -0.0044629558965405 0.015396536153193394 0 -0.0039090113242357992 0.016341091647830347 0 -0.0044629558965405 0.015396536153193394 0 -0.0034927082195268201 0.015462774648291978 0 -0.0032735519937956551 0.016954611110173795 0 -0.0034927082195268201 0.015462774648291978 0 -0.0022238971622315128 0.0142462057764376 0 -0.0035469861461855856 0.014222781103228881 0 -0.0044629558965405 0.015396536153193394 0 -0.0034927082195268201 0.015462774648291978 0 -0.0031891259099410085 0.016864155387466592 0 -0.0027209167359869514 0.015549651151469468 0 -0.0032735519937956551 0.016954611110173795 0 -0.0030722661869639228 0.01689505278994204 0 -0.0031518770110197779 0.016869779647756732 0 -0.0031019688277330922 0.017351168839485148 0 -0.002967737228138327 0.017717731422336076 0 -0.0031268262548713481 0.017804942207982587 0 -0.0031451162590084209 0.017286644345171527 0 -0.0027822191388822818 0.018525907650998163 0 -0.0031268262548713481 0.017804942207982587 0 -0.0030800042453213313 0.018197440034369978 0 -0.0027822191388822818 0.018525907650998163 0 -0.0030317068966425531 0.018723807628057795 0 -0.0030800042453213313 0.018197440034369978 0 -0.0027822191388822818 0.018525907650998163 0 -0.0031268262548713481 0.017804942207982587 0 -0.0032338660502687876 0.017907029360610949 0 -0.0030800042453213313 0.018197440034369978 0 -0.0032338660502687876 0.017907029360610949 0 -0.0032242322441801432 0.018213102310332817 0 -0.0030800042453213313 0.018197440034369978 0 -0.0032242322441801432 0.018213102310332817 0 -0.0030317068966425531 0.018723807628057795 0 -0.0030800042453213313 0.018197440034369978 0 -0.0030722661869639228 0.01689505278994204 0 -0.0030688319878114084 0.01679913903721806 0 -0.0028695350702104298 0.016724928523285838 0 -0.0030317068966425531 0.018723807628057795 0 -0.0027822191388822818 0.018525907650998163 0 -0.0031506276669415402 0.019139379104149503 0 -0.002967737228138327 0.017717731422336076 0 -0.0029627342228793741 0.017850024761618014 0 -0.0030722661869639228 0.01689505278994204 0 -0.0031518770110197779 0.016869779647756732 0 -0.0030688319878114084 0.01679913903721806 0 -0.0031518770110197779 0.016869779647756732 0 -0.0030688319878114084 0.01679913903721806 0 -0.0032223609735568502 0.016634820374560336 0 -0.0030688319878114084 0.01679913903721806 0 -0.0028695350702104298 0.016724928523285838 0 -0.0032223609735568502 0.016634820374560336 0 -0.0027209167359869514 0.015549651151469468 0 -0.0024346526854291776 0.013989738442299724 0 -0.0028695350702104298 0.016724928523285838 0 -0.0029061909988358655 0.016355939234162849 0 -0.0023513574829499171 0.016166835222167667 0 -0.0029627342228793741 0.017850024761618014 0 -0.0024082100751880203 0.016252066428321402 0 -0.0028695350702104298 0.016724928523285838 0 -0.0029061909988358655 0.016355939234162849 0 -0.0032223609735568502 0.016634820374560336 0 -0.0016303973974656075 0.011417684522947592 0 -0.003878042889155435 0.011174372490217729 0 -0.0026058836492838348 0.0098842788898575919 0 -0.0016303973974656075 0.011417684522947592 0 -0.0029775181807737924 0.012896656123519578 0 -0.003878042889155435 0.011174372490217729 0 -0.0029775181807737924 0.012896656123519578 0 -0.0040828701176736188 0.013099775921498276 0 -0.003878042889155435 0.011174372490217729 0 -0.0022238971622315128 0.0142462057764376 0 -0.0016303973974656075 0.011417684522947592 0 -0.0029775181807737924 0.012896656123519578 0 -0.0051500915406248677 0.012783595160360114 0 -0.0040828701176736188 0.013099775921498276 0 -0.003878042889155435 0.011174372490217729 0 -0.0051500915406248677 0.012783595160360114 0 -0.0056300349639978962 0.011501368842476033 0 -0.003878042889155435 0.011174372490217729 0 -0.0056300349639978962 0.011501368842476033 0 -0.003878042889155435 0.011174372490217729 0 -0.0039029200472508207 0.0090788764265421224 0 -0.0029674808365606005 0.0069606683420530609 0 -0.0026587220785434119 0.007021150250964862 0 -0.00061542794198453572 0.002722768005585231 0 -0.0015054786428179089 0.0049031793821254681 0 -0.00061793121915006241 0.0042590776589509823 0 -0.0015054786428179089 0.0049031793821254681 0 -0.00072951161323317178 0.0054741115677534478 0 -0.00061793121915006241 0.0042590776589509823 0 -0.0015054786428179089 0.0049031793821254681 0 -0.00072951161323317178 0.0054741115677534478 0 -0.0011382270168549288 0.006434245359988577 0 -0.00072951161323317178 0.0054741115677534478 0 -0.0011382270168549288 0.006434245359988577 0 -0.00049834544777543563 0.0063526025988949828 0 -0.0026587220785434119 0.007021150250964862 0 -0.001962962419182512 0.0070724103801973444 0 -0.0015054786428179089 0.0049031793821254681 0 -0.0011382270168549288 0.006434245359988577 0 -0.0018904668647471278 0.0071862028239896075 0 -0.0039029200472508207 0.0090788764265421224 0 -0.0013472054147223289 0.0081462776280154751 0 -0.0018904668647471278 0.0071862028239896075 0 -0.003878042889155435 0.011174372490217729 0 -0.0039029200472508207 0.0090788764265421224 0 -0.0026058836492838348 0.0098842788898575919 0 -0.0039029200472508207 0.0090788764265421224 0 -0.0026058836492838348 0.0098842788898575919 0 -0.0013472054147223289 0.0081462776280154751 0 -0.0024346526854291776 0.013989738442299724 0 -0.0023999713767545411 0.011882637141974448 0 -0.0016303973974656075 0.011417684522947592 0 -0.0026058836492838348 0.0098842788898575919 0 -0.0013472054147223289 0.0081462776280154751 0 -0.0029061909988358655 0.016355939234162849 0 -0.0032223609735568502 0.016634820374560336 0 -0.0033972460028308432 0.015580671286262357 0 -0.0029061909988358655 0.016355939234162849 0 -0.0033972460028308432 0.015580671286262357 0 -0.0023513574829499171 0.016166835222167667 0 -0.0023428965509112594 0.01452097534468362 0 -0.0033972460028308432 0.015580671286262357 0 -0.0023513574829499171 0.016166835222167667 0 -0.0013472054147223289 0.0081462776280154751 0 -0.0019378615822996841 0.0072417770755463188 0 -0.0018904668647471278 0.0071862028239896075 0 -0.0023428965509112594 0.01452097534468362 0 -0.0033972460028308432 0.015580671286262357 0 -0.0030668002773199133 0.013293564956762609 0 -0.0019378615822996841 0.0072417770755463188 0 -0.0018904668647471278 0.0071862028239896075 0 -0.0013793009828853696 0.0072218941838642662 0 -0.0023999713767545411 0.011882637141974448 0 -0.0023799784554104468 0.0103484877481602 0 -0.0023428965509112594 0.01452097534468362 0 -0.0030668002773199133 0.013293564956762609 0 -0.0017996721206435236 0.012693667668033131 0 -0.0023428965509112594 0.01452097534468362 0 -0.0017996721206435236 0.012693667668033131 0 -0.0012878927174027627 0.013304371238251934 0 -0.0030668002773199133 0.013293564956762609 0 -0.0017996721206435236 0.012693667668033131 0 -0.0014623456139308028 0.010400368429656262 0 -0.0017996721206435236 0.012693667668033131 0 -0.0012878927174027627 0.013304371238251934 0 -0.0010058270981860725 0.011998614948963425 0 -0.0023799784554104468 0.0103484877481602 0 -0.0016533790120697334 0.010380576452844802 0 -0.0019378615822996841 0.0072417770755463188 0 -0.001182585102583418 0.0086586974764994405 0 -0.00091994485781984306 0.0078883814734494809 0 -0.0019378615822996841 0.0072417770755463188 0 -0.001182585102583418 0.0086586974764994405 0 -0.0014623456139308028 0.010400368429656262 0 -0.001182585102583418 0.0086586974764994405 0 -0.00091994485781984306 0.0078883814734494809 0 -0.00052364261115490462 0.0085976526013310552 0 -0.00091994485781984306 0.0078883814734494809 0 -0.0002350335311886522 0.0078114814490866076 0 -0.00074467032995690599 0.0072206159305734643 0 -0.00091994485781984306 0.0078883814734494809 0 -0.0002350335311886522 0.0078114814490866076 0 -0.00052364261115490462 0.0085976526013310552 0 -0.0002350335311886522 0.0078114814490866076 0 -0.00074467032995690599 0.0072206159305734643 0 -0.00024357609630868204 0.0070542795423625612 0 -0.00074467032995690599 0.0072206159305734643 0 -0.00024357609630868204 0.0070542795423625612 0 -0.00049834544777543563 0.0063526025988949828 0 -0.0011382270168549288 0.006434245359988577 0 -0.00074467032995690599 0.0072206159305734643 0 -0.00049834544777543563 0.0063526025988949828 0 -0.0011382270168549288 0.006434245359988577 0 -0.00074467032995690599 0.0072206159305734643 0 -0.0013793009828853696 0.0072218941838642662 0 -0.0019378615822996841 0.0072417770755463188 0 -0.00091994485781984306 0.0078883814734494809 0 -0.0013793009828853696 0.0072218941838642662 0 -0.0011382270168549288 0.006434245359988577 0 -0.0018904668647471278 0.0071862028239896075 0 -0.0013793009828853696 0.0072218941838642662 0 -0.00091994485781984306 0.0078883814734494809 0 -0.00074467032995690599 0.0072206159305734643 0 -0.0013793009828853696 0.0072218941838642662 0 0.0022251993655591634 0.015834634182366854 0 0.0010578250292820341 0.014739682463685864 0 0.0023912891883206382 0.014251565449957593 0 0.0037163640101079099 0.016901978593133027 0 0.0022251993655591634 0.015834634182366854 0 0.0023912891883206382 0.014251565449957593 0 0.0037163640101079099 0.016901978593133027 0 0.0022251993655591634 0.015834634182366854 0 0.0025832431459553982 0.016944459771707394 0 0.0030501280833407939 0.018027673637876343 0 0.0025832431459553982 0.016944459771707394 0 0.0020623752388035507 0.017499694098400624 0 0.00076779027404037109 0.01768598759825912 0 0.0020623752388035507 0.017499694098400624 0 0.0019102577400856894 0.016556305959871263 0 0.0025832431459553982 0.016944459771707394 0 0.0020623752388035507 0.017499694098400624 0 0.0019102577400856894 0.016556305959871263 0 0.0022251993655591634 0.015834634182366854 0 0.0025832431459553982 0.016944459771707394 0 0.0019102577400856894 0.016556305959871263 0 0.0022251993655591634 0.015834634182366854 0 0.0019102577400856894 0.016556305959871263 0 0.00095726247803882734 0.016120387418424063 0 0.00076779027404037109 0.01768598759825912 0 0.0019102577400856894 0.016556305959871263 0 0.00095726247803882734 0.016120387418424063 0 0.00076779027404037109 0.01768598759825912 0 0.00095726247803882734 0.016120387418424063 0 -0.00039623564551350787 0.016483908704743377 0 0.00095726247803882734 0.016120387418424063 0 0.00020504382657172447 0.015290934275814181 0 -0.00039623564551350787 0.016483908704743377 0 0.00095726247803882734 0.016120387418424063 0 0.00020504382657172447 0.015290934275814181 0 0.0010578250292820341 0.014739682463685864 0 0.0022251993655591634 0.015834634182366854 0 0.00095726247803882734 0.016120387418424063 0 0.0010578250292820341 0.014739682463685864 0 0.00020504382657172447 0.015290934275814181 0 0.0010578250292820341 0.014739682463685864 0 3.3788067767939856e-06 0.014090033841188355 0 -0.00078605111064658224 0.01530595121713404 0 -0.0014143918436502071 0.014531266267796767 0 3.3788067767939856e-06 0.014090033841188355 0 0.00020504382657172447 0.015290934275814181 0 -0.00078605111064658224 0.01530595121713404 0 3.3788067767939856e-06 0.014090033841188355 0 0.00020504382657172447 0.015290934275814181 0 -0.00078605111064658224 0.01530595121713404 0 -0.00039623564551350787 0.016483908704743377 0 -0.00087097008300366968 0.017900145422491215 0 0.00076779027404037109 0.01768598759825912 0 -0.00039623564551350787 0.016483908704743377 0 -0.00087097008300366968 0.017900145422491215 0 -0.00039623564551350787 0.016483908704743377 0 -0.0023513574829499171 0.016166835222167667 0 -0.00078605111064658224 0.01530595121713404 0 -0.00039623564551350787 0.016483908704743377 0 -0.0023513574829499171 0.016166835222167667 0 -0.00078605111064658224 0.01530595121713404 0 -0.0023513574829499171 0.016166835222167667 0 -0.0014143918436502071 0.014531266267796767 0 -0.0023428965509112594 0.01452097534468362 0 -0.0023513574829499171 0.016166835222167667 0 -0.0014143918436502071 0.014531266267796767 0 -0.0014143918436502071 0.014531266267796767 0 -0.0012878927174027627 0.013304371238251934 0 -0.00045215120689665218 0.01303034283956191 0 -0.0023428965509112594 0.01452097534468362 0 -0.0014143918436502071 0.014531266267796767 0 -0.0012878927174027627 0.013304371238251934 0 -0.0012878927174027627 0.013304371238251934 0 -0.00045215120689665218 0.01303034283956191 0 -0.0010058270981860725 0.011998614948963425 0 -0.00045215120689665218 0.01303034283956191 0 -0.000338207500063705 0.012053309892589929 0 -0.0010058270981860725 0.011998614948963425 0 -0.00045215120689665218 0.01303034283956191 0 0.00021464948400449344 0.012696852194639993 0 -0.000338207500063705 0.012053309892589929 0 -0.00045215120689665218 0.01303034283956191 0 3.3788067767939856e-06 0.014090033841188355 0 0.00021464948400449344 0.012696852194639993 0 -0.0014143918436502071 0.014531266267796767 0 -0.00045215120689665218 0.01303034283956191 0 3.3788067767939856e-06 0.014090033841188355 0 3.3788067767939856e-06 0.014090033841188355 0 0.00091415213237176155 0.013572123107575959 0 0.00021464948400449344 0.012696852194639993 0 0.0010578250292820341 0.014739682463685864 0 3.3788067767939856e-06 0.014090033841188355 0 0.00091415213237176155 0.013572123107575959 0 0.00021464948400449344 0.012696852194639993 0 0.0010105692707452903 0.012318100213093711 0 -7.9641501564868948e-06 0.012009967491330268 0 0.00091415213237176155 0.013572123107575959 0 0.00021464948400449344 0.012696852194639993 0 0.0010105692707452903 0.012318100213093711 0 0.00081179339164618076 0.014802816255380068 0 0.0018495262793191997 0.015134029800869789 0 0.0020415724489667494 0.016691329937129799 0 0.00090213959015240409 0.013595728936808167 0 0.0022118169111669359 0.015461439589762668 0 0.00091415213237176155 0.013572123107575959 0 0.0010105692707452903 0.012318100213093711 0 0.0023912891883206382 0.014251565449957593 0 0.002560908423315657 0.016130782513199146 0 0.0018495262793191997 0.015134029800869789 0 0.0020415724489667494 0.016691329937129799 0 0.0010578250292820341 0.014739682463685864 0 0.00091415213237176155 0.013572123107575959 0 0.0023912891883206382 0.014251565449957593 0 0.0004006460626948833 0.018636497205877449 0 -0.000309678772145474 0.018420143596681864 0 0.00014673927900521298 0.017090838027266519 0 0.00011003915561993752 0.019602481987969374 0 -0.00016073561711051204 0.01836235591647933 0 0.00024138857238308148 0.016300073506067384 0 -0.00020872187513389041 0.015426892918032734 0 0.0004006460626948833 0.018636497205877449 0 -5.8305311406875965e-05 0.020345341779432861 0 -0.000309678772145474 0.018420143596681864 0 0.00081179339164618076 0.014802816255380068 0 0.0018495262793191997 0.015134029800869789 0 0.00069979650849865142 0.013919074617785156 0 0.00076931840040886737 0.017541833606142747 0 0.00024138857238308148 0.016300073506067384 0 0.00090213959015240409 0.013595728936808167 0 -0.00019090073630590173 0.012791824292376457 0 0.0010105692707452903 0.012318100213093711 0 -7.9641501564868948e-06 0.012009967491330268 0 -0.00045818944838847166 0.011774259056125284 0 0.00081179339164618076 0.014802816255380068 0 0.00069979650849865142 0.013919074617785156 0 -4.6095317810728301e-05 0.013633593986020471 0 -7.9641501564868948e-06 0.012009967491330268 0 -0.00045818944838847166 0.011774259056125284 0 -0.00026758813619900214 0.011793514675950252 0 0.00069979650849865142 0.013919074617785156 0 -4.6095317810728301e-05 0.013633593986020471 0 -0.00027227802954675695 0.013712911959629023 0 -0.00045818944838847166 0.011774259056125284 0 -0.00026758813619900214 0.011793514675950252 0 -0.00013503675371190428 0.012444458930725962 0 -0.00026758813619900214 0.011793514675950252 0 -0.00028152582427991535 0.01188930145598579 0 -0.00013503675371190428 0.012444458930725962 0 -7.9641501564868948e-06 0.012009967491330268 0 -0.00026758813619900214 0.011793514675950252 0 -0.000338207500063705 0.012053309892589929 0 0.00021464948400449344 0.012696852194639993 0 -7.9641501564868948e-06 0.012009967491330268 0 -0.000338207500063705 0.012053309892589929 0 -0.00026758813619900214 0.011793514675950252 0 -0.000338207500063705 0.012053309892589929 0 -0.00063403252943155554 0.011583207390402785 0 -0.000338207500063705 0.012053309892589929 0 -0.0010058270981860725 0.011998614948963425 0 -0.00063403252943155554 0.011583207390402785 0 -0.00026758813619900214 0.011793514675950252 0 -0.00063403252943155554 0.011583207390402785 0 -0.00028152582427991535 0.01188930145598579 0 -0.00063403252943155554 0.011583207390402785 0 -0.00028152582427991535 0.01188930145598579 0 -0.0014623456139308028 0.010400368429656262 0 -0.00028152582427991535 0.01188930145598579 0 -9.8287978960169049e-05 0.012846389241684948 0 -0.00034649529173955444 0.011480845990162601 0 -0.00028152582427991535 0.01188930145598579 0 -9.8287978960169049e-05 0.012846389241684948 0 -0.00013503675371190428 0.012444458930725962 0 -9.8287978960169049e-05 0.012846389241684948 0 6.7959794091067558e-07 0.013609379717886127 0 -0.00034649529173955444 0.011480845990162601 0 -9.8287978960169049e-05 0.012846389241684948 0 6.7959794091067558e-07 0.013609379717886127 0 -0.00010233645496605229 0.014258177482497594 0 6.7959794091067558e-07 0.013609379717886127 0 -0.00010233645496605229 0.014258177482497594 0 -2.662548713617276e-06 0.015500946451500604 0 -9.8287978960169049e-05 0.012846389241684948 0 -0.00010233645496605229 0.014258177482497594 0 -0.00013503675371190428 0.012444458930725962 0 -0.00045818944838847166 0.011774259056125284 0 -0.00010233645496605229 0.014258177482497594 0 -0.00013503675371190428 0.012444458930725962 0 -0.00019090073630590173 0.012791824292376457 0 -8.7278627028459103e-05 0.014152086232017759 0 -4.6095317810728301e-05 0.013633593986020471 0 -0.00010233645496605229 0.014258177482497594 0 -0.00027227802954675695 0.013712911959629023 0 -0.00027776057601306016 0.016984017372979887 0 -1.3353525970211352e-06 0.01551088654674674 0 1.0944784751946425e-06 0.016740214290540831 0 -0.00010233645496605229 0.014258177482497594 0 -0.00027227802954675695 0.013712911959629023 0 -2.662548713617276e-06 0.015500946451500604 0 -0.00020872187513389041 0.015426892918032734 0 -5.1100874954924082e-08 0.015505952580757387 0 -1.2895065988110197e-07 0.016745708258835885 0 -0.00016073561711051204 0.01836235591647933 0 5.9637452946027722e-05 0.019262018206158693 0 -2.4291676220410206e-06 0.016748351863704731 0 -0.00061705599523689716 0.019589116691108382 0 -0.00027776057601306016 0.016984017372979887 0 1.0944784751946425e-06 0.016740214290540831 0 0.00014673927900521298 0.017090838027266519 0 -0.000309678772145474 0.018420143596681864 0 -0.00027776057601306016 0.016984017372979887 0 0.00014673927900521298 0.017090838027266519 0 -0.00028405281735737853 0.0092396607969156223 0 -0.0014623456139308028 0.010400368429656262 0 -0.00028105014447313726 0.010279429832609656 0 -0.00028405281735737853 0.0092396607969156223 0 2.1419282062078151e-05 0.0085683318782244708 0 1.4360925932177543e-05 0.0082243687826325101 0 -0.00028405281735737853 0.0092396607969156223 0 -0.00052364261115490462 0.0085976526013310552 0 1.4360925932177543e-05 0.0082243687826325101 0 -0.0002350335311886522 0.0078114814490866076 0 -0.00052364261115490462 0.0085976526013310552 0 1.4360925932177543e-05 0.0082243687826325101 0 -0.00028405281735737853 0.0092396607969156223 0 -0.00052364261115490462 0.0085976526013310552 0 -0.0014623456139308028 0.010400368429656262 0 -0.001182585102583418 0.0086586974764994405 0 -0.00052364261115490462 0.0085976526013310552 0 -0.0014623456139308028 0.010400368429656262 0 -0.0017996721206435236 0.012693667668033131 0 -0.0010058270981860725 0.011998614948963425 0 -0.0014623456139308028 0.010400368429656262 0 -0.0010058270981860725 0.011998614948963425 0 -0.00063403252943155554 0.011583207390402785 0 -0.0014623456139308028 0.010400368429656262 0 -0.00028152582427991535 0.01188930145598579 0 -0.0014623456139308028 0.010400368429656262 0 -0.00034649529173955444 0.011480845990162601 0 -0.0014623456139308028 0.010400368429656262 0 -0.00034649529173955444 0.011480845990162601 0 -0.00028105014447313726 0.010279429832609656 0 6.7959794091067558e-07 0.013609379717886127 0 -0.00034649529173955444 0.011480845990162601 0 -5.3813476923061817e-07 0.011712570315400721 0 -0.00034649529173955444 0.011480845990162601 0 -5.3813476923061817e-07 0.011712570315400721 0 -0.00028105014447313726 0.010279429832609656 0 -5.3813476923061817e-07 0.011712570315400721 0 -0.00028105014447313726 0.010279429832609656 0 -4.3975583333924838e-08 0.0098169288458067657 0 -0.00028405281735737853 0.0092396607969156223 0 -0.00028105014447313726 0.010279429832609656 0 2.1419282062078151e-05 0.0085683318782244708 0 -4.3975583333924838e-08 0.0098169288458067657 0 2.0878760824248614e-07 0.0079207179694968047 0 2.1419282062078151e-05 0.0085683318782244708 0 -0.00028105014447313726 0.010279429832609656 0 -4.3975583333924838e-08 0.0098169288458067657 0 2.1419282062078151e-05 0.0085683318782244708 0 2.0878760824248614e-07 0.0079207179694968047 0 0.00015826938199496533 0.0071419072350150381 0 2.1419282062078151e-05 0.0085683318782244708 0 2.0878760824248614e-07 0.0079207179694968047 0 0.00015826938199496533 0.0071419072350150381 0 4.6988180353263258e-07 0.0060248918213265529 0 0.00015826938199496533 0.0071419072350150381 0 0.00041763019510698715 0.0065572201559111467 0 5.2247019135814444e-05 0.0075217326543563414 0 0.00015826938199496533 0.0071419072350150381 0 2.1419282062078151e-05 0.0085683318782244708 0 5.2247019135814444e-05 0.0075217326543563414 0 4.6988180353263258e-07 0.0060248918213265529 0 0.00029533692406705518 0.0057247481064853422 0 6.4740903243290073e-07 0.0041284057513656025 0 0.00015826938199496533 0.0071419072350150381 0 4.6988180353263258e-07 0.0060248918213265529 0 0.00029533692406705518 0.0057247481064853422 0 0.00015826938199496533 0.0071419072350150381 0 0.00029533692406705518 0.0057247481064853422 0 0.00041763019510698715 0.0065572201559111467 0 0.00029533692406705518 0.0057247481064853422 0 0.00041760361896253287 0.0061644967310300431 0 0.00041763019510698715 0.0065572201559111467 0 0.00069068122693026479 0.0048680741225617438 0 0.00074994478784526451 0.0051678198135019218 0 0.00041760361896253287 0.0061644967310300431 0 0.00041763019510698715 0.0065572201559111467 0 0.00080946479592186799 0.0052893250975052175 0 0.00041763019510698715 0.0065572201559111467 0 0.00080946479592186799 0.0052893250975052175 0 5.2247019135814444e-05 0.0075217326543563414 0 0.00080946479592186799 0.0052893250975052175 0 5.2247019135814444e-05 0.0075217326543563414 0 0.00042701704331366539 0.0049069386616721828 0 0.00080946479592186799 0.0052893250975052175 0 0.00042701704331366539 0.0049069386616721828 0 0.00087598700973641583 0.0047431901967986065 0 0.00080946479592186799 0.0052893250975052175 0 0.00087598700973641583 0.0047431901967986065 0 0.00089714912362294735 0.0044520071644731877 0 0.0010749431533206191 0.0037372053603886113 0 0.00080946479592186799 0.0052893250975052175 0 0.00089714912362294735 0.0044520071644731877 0 2.1419282062078151e-05 0.0085683318782244708 0 5.2247019135814444e-05 0.0075217326543563414 0 1.4360925932177543e-05 0.0082243687826325101 0 0.00010674644270430785 0.0073286747712906913 0 0.00076297663015835958 0.0064046541152132461 0 5.2247019135814444e-05 0.0075217326543563414 0 0.00023409000915910458 0.0077699989254784987 0 0.00053789038427975143 0.0076120973172559394 0 5.2247019135814444e-05 0.0075217326543563414 0 0.00053789038427975143 0.0076120973172559394 0 0.00091366262613288359 0.0076988325485862147 0 -0.0002350335311886522 0.0078114814490866076 0 1.4360925932177543e-05 0.0082243687826325101 0 0.00023409000915910458 0.0077699989254784987 0 5.2247019135814444e-05 0.0075217326543563414 0 1.4360925932177543e-05 0.0082243687826325101 0 0.00023409000915910458 0.0077699989254784987 0 -0.0002350335311886522 0.0078114814490866076 0 0.00023409000915910458 0.0077699989254784987 0 0.00016907229821461309 0.0073065752367972815 0 -0.0002350335311886522 0.0078114814490866076 0 0.00016907229821461309 0.0073065752367972815 0 -0.00024357609630868204 0.0070542795423625612 0 0.00016907229821461309 0.0073065752367972815 0 -0.00024357609630868204 0.0070542795423625612 0 0.00012640662545904862 0.0065211256810038219 0 -0.00024357609630868204 0.0070542795423625612 0 0.00012640662545904862 0.0065211256810038219 0 -0.00049834544777543563 0.0063526025988949828 0 0.00012640662545904862 0.0065211256810038219 0 0.00065204057897705716 0.0068341083212144276 0 0.00060862985860551532 0.0057609371874968417 0 0.00065204057897705716 0.0068341083212144276 0 0.0012271306123585964 0.006388978364095731 0 0.00060862985860551532 0.0057609371874968417 0 0.00016907229821461309 0.0073065752367972815 0 0.00012640662545904862 0.0065211256810038219 0 0.00065204057897705716 0.0068341083212144276 0 0.00065204057897705716 0.0068341083212144276 0 0.00053789038427975143 0.0076120973172559394 0 0.0011045937534285698 0.0070026531553136319 0 0.00016907229821461309 0.0073065752367972815 0 0.00065204057897705716 0.0068341083212144276 0 0.00053789038427975143 0.0076120973172559394 0 0.00023409000915910458 0.0077699989254784987 0 0.00016907229821461309 0.0073065752367972815 0 0.00053789038427975143 0.0076120973172559394 0 0.00091366262613288359 0.0076988325485862147 0 0.0011045937534285698 0.0070026531553136319 0 0.0022697176941358275 0.0064613337876864661 0 0.00076297663015835958 0.0064046541152132461 0 0.0011827462297067499 0.004864027278423882 0 0.00053789038427975143 0.0076120973172559394 0 0.00091366262613288359 0.0076988325485862147 0 0.0011045937534285698 0.0070026531553136319 0 0.00087598700973641583 0.0047431901967986065 0 0.00086907804146486173 0.004431284851401842 0 0.00087344914587782739 0.0046393193110907645 0 0.00042701704331366539 0.0049069386616721828 0 0.00087598700973641583 0.0047431901967986065 0 0.00086907804146486173 0.004431284851401842 0 0.0011045937534285698 0.0070026531553136319 0 0.0022697176941358275 0.0064613337876864661 0 0.0012271306123585964 0.006388978364095731 0 0.0022697176941358275 0.0064613337876864661 0 0.0012271306123585964 0.006388978364095731 0 0.0016132443695349909 0.005621789430468844 0 0.00065204057897705716 0.0068341083212144276 0 0.0011045937534285698 0.0070026531553136319 0 0.0012271306123585964 0.006388978364095731 0 0.0012271306123585964 0.006388978364095731 0 0.0016132443695349909 0.005621789430468844 0 0.00060862985860551532 0.0057609371874968417 0 0.0016132443695349909 0.005621789430468844 0 0.0006713335084239738 0.0044155209608017628 0 0.00060862985860551532 0.0057609371874968417 0 0.001266371048387942 0.0049473282206144694 0 0.00068615419479410057 0.0044062781967340002 0 0.0010156359455293059 0.0042461296122657151 0 0.0010054789170232629 0.0040547224218615849 0 0.0011020068393659331 0.0039658291513184453 0 0.0011827462297067499 0.004864027278423882 0 0.0011834023274212772 0.0037882684883005272 0 0.0011827462297067499 0.004864027278423882 0 0.001266371048387942 0.0049473282206144694 0 0.0010156359455293059 0.0042461296122657151 0 0.00083512572575931661 0.0041465044077358924 0 0.0010054789170232629 0.0040547224218615849 0 0.00083512572575931661 0.0041465044077358924 0 0.0010054789170232629 0.0040547224218615849 0 0.00093536402894739369 0.0038967032675358321 0 0.0010054789170232629 0.0040547224218615849 0 0.0013219870434102725 0.0038272369945145665 0 0.0011020068393659331 0.0039658291513184453 0 0.0010054789170232629 0.0040547224218615849 0 0.00093536402894739369 0.0038967032675358321 0 0.0013219870434102725 0.0038272369945145665 0 0.00093536402894739369 0.0038967032675358321 0 0.0010549431074904302 0.0033948193829532142 0 0.00080444880936408187 0.0035763158665107699 0 0.0014268141463264804 0.0031642081083118824 0 0.0010549431074904302 0.0033948193829532142 0 0.0013219870434102725 0.0038272369945145665 0 0.00093536402894739369 0.0038967032675358321 0 0.0010549431074904302 0.0033948193829532142 0 0.0013219870434102725 0.0038272369945145665 0 0.00083512572575931661 0.0041465044077358924 0 0.00076910022378326622 0.0040384172129879041 0 0.0006713335084239738 0.0044155209608017628 0 0.00083512572575931661 0.0041465044077358924 0 0.00093536402894739369 0.0038967032675358321 0 0.00076910022378326622 0.0040384172129879041 0 0.0004419675681099203 0.0035509490918197023 0 0.00076910022378326622 0.0040384172129879041 0 0.0006713335084239738 0.0044155209608017628 0 0.00093536402894739369 0.0038967032675358321 0 0.00076910022378326622 0.0040384172129879041 0 0.00080444880936408187 0.0035763158665107699 0 0.0004419675681099203 0.0035509490918197023 0 0.00076910022378326622 0.0040384172129879041 0 0.00080444880936408187 0.0035763158665107699 0 0.00047339656119976369 0.0031985126032959637 0 -0.00060509817427835562 0.0041469471941242581 0 0.0004419675681099203 0.0035509490918197023 0 0.0006713335084239738 0.0044155209608017628 0 6.7608764662964452e-05 0.0047749770837744922 0 0.0004419675681099203 0.0035509490918197023 0 6.7608764662964452e-05 0.0047749770837744922 0 -0.00061793121915006241 0.0042590776589509823 0 -0.00072951161323317178 0.0054741115677534478 0 6.7608764662964452e-05 0.0047749770837744922 0 -0.00061793121915006241 0.0042590776589509823 0 -0.00072951161323317178 0.0054741115677534478 0 6.7608764662964452e-05 0.0047749770837744922 0 -9.4066429558155936e-05 0.0057109517219711406 0 -0.00072951161323317178 0.0054741115677534478 0 -0.00049834544777543563 0.0063526025988949828 0 -9.4066429558155936e-05 0.0057109517219711406 0 0.00012640662545904862 0.0065211256810038219 0 -0.00049834544777543563 0.0063526025988949828 0 -9.4066429558155936e-05 0.0057109517219711406 0 0.00012640662545904862 0.0065211256810038219 0 -9.4066429558155936e-05 0.0057109517219711406 0 0.00060862985860551532 0.0057609371874968417 0 0.0006713335084239738 0.0044155209608017628 0 6.7608764662964452e-05 0.0047749770837744922 0 0.00060862985860551532 0.0057609371874968417 0 6.7608764662964452e-05 0.0047749770837744922 0 -9.4066429558155936e-05 0.0057109517219711406 0 0.00060862985860551532 0.0057609371874968417 0 0.00056809298380902293 0.0039940739929496634 0 0.0005205974387956433 0.0038476857245424777 0 0.00038561945249109729 0.0039334119460356209 0 0.00056809298380902293 0.0039940739929496634 0 0.0005205974387956433 0.0038476857245424777 0 0.00066644122436963023 0.0039066509381971357 0 0.0005205974387956433 0.0038476857245424777 0 0.00066644122436963023 0.0039066509381971357 0 0.00067639581242248572 0.0038265496339423746 0 0.0005205974387956433 0.0038476857245424777 0 0.00038561945249109729 0.0039334119460356209 0 0.00035836017358345469 0.0037856590991212687 0 0.00024775043460694801 0.0038434811554106515 0 0.00038561945249109729 0.0039334119460356209 0 0.00035836017358345469 0.0037856590991212687 0 0.00024775043460694801 0.0038434811554106515 0 0.00021231867822428353 0.0037017750036120217 0 0.00011969779325111315 0.0037453233878153298 0 0.00024775043460694801 0.0038434811554106515 0 0.00021231867822428353 0.0037017750036120217 0 0.00035836017358345469 0.0037856590991212687 0 0.00024775043460694801 0.0038434811554106515 0 0.00025217687139253306 0.004001948700161578 0 0.00013691880722282507 0.0039156859224330504 0 0.00024775043460694801 0.0038434811554106515 0 0.00038561945249109729 0.0039334119460356209 0 0.00025217687139253306 0.004001948700161578 0 0.0026244383328942792 0.0013555133428448988 0 0.0018678008955110581 0.00086551948371550139 0 0.00038191867830892289 0.0041696088877433354 0 0.00025217687139253306 0.004001948700161578 0 9.6833533189647367e-05 0.0041130573003263764 0 0.00038561945249109729 0.0039334119460356209 0 0.00038191867830892289 0.0041696088877433354 0 0.00025217687139253306 0.004001948700161578 0 0.00056809298380902293 0.0039940739929496634 0 0.00038191867830892289 0.0041696088877433354 0 0.00075339981983474835 0.0041739285384383889 0 0.0026244383328942792 0.0013555133428448988 0 0.0016548069107657967 0.0041403097715614623 0 0.0026209701479261069 0.0031312164922117224 0 0.004047745137477886 0.0034996896836523707 0 0.0028278301233554495 0.0036441729640698021 0 0.00056809298380902293 0.0039940739929496634 0 0.00038561945249109729 0.0039334119460356209 0 0.00038191867830892289 0.0041696088877433354 0 0.0026209701479261069 0.0031312164922117224 0 0.0028278301233554495 0.0036441729640698021 0 0.0013219870434102725 0.0038272369945145665 0 0.00056809298380902293 0.0039940739929496634 0 0.00075339981983474835 0.0041739285384383889 0 0.00074272773638687768 0.0039869611491141922 0 0.00075339981983474835 0.0041739285384383889 0 0.00092856645614066335 0.0039861888383866256 0 0.00074272773638687768 0.0039869611491141922 0 0.00092856645614066335 0.0039861888383866256 0 0.0013219870434102725 0.0038272369945145665 0 0.0010536915263289692 0.0039301145736046553 0 0.0014268141463264804 0.0031642081083118824 0 0.0026209701479261069 0.0031312164922117224 0 0.0013219870434102725 0.0038272369945145665 0 0.00075339981983474835 0.0041739285384383889 0 0.00092856645614066335 0.0039861888383866256 0 0.0013219870434102725 0.0038272369945145665 0 0.0016548069107657967 0.0041403097715614623 0 0.0013872398311116829 0.0038049966718831053 0 0.0013219870434102725 0.0038272369945145665 0 0.0011020068393659331 0.0039658291513184453 0 0.0010536915263289692 0.0039301145736046553 0 0.0010883651447156264 0.0038052455129361329 0 0.0011020068393659331 0.0039658291513184453 0 0.00087176246700145822 0.0038205712853749078 0 0.0011020068393659331 0.0039658291513184453 0 0.0010536915263289692 0.0039301145736046553 0 0.00086431646934604441 0.0039111918175914117 0 0.0011020068393659331 0.0039658291513184453 0 0.00086431646934604441 0.0039111918175914117 0 0.00087176246700145822 0.0038205712853749078 0 0.00074272773638687768 0.0039869611491141922 0 0.00066644122436963023 0.0039066509381971357 0 0.00086431646934604441 0.0039111918175914117 0 0.00056809298380902293 0.0039940739929496634 0 0.00074272773638687768 0.0039869611491141922 0 0.00066644122436963023 0.0039066509381971357 0 0.00092856645614066335 0.0039861888383866256 0 0.00074272773638687768 0.0039869611491141922 0 0.00086431646934604441 0.0039111918175914117 0 0.00092856645614066335 0.0039861888383866256 0 0.0010536915263289692 0.0039301145736046553 0 0.00086431646934604441 0.0039111918175914117 0 0.00086431646934604441 0.0039111918175914117 0 0.00067639581242248572 0.0038265496339423746 0 0.00087176246700145822 0.0038205712853749078 0 0.00066644122436963023 0.0039066509381971357 0 0.00086431646934604441 0.0039111918175914117 0 0.00067639581242248572 0.0038265496339423746 0 0.00067639581242248572 0.0038265496339423746 0 0.00069074503723101958 0.0037589431120205155 0 0.00047427859636744963 0.0037419999134014562 0 0.00069074503723101958 0.0037589431120205155 0 0.00054528711004767007 0.0037198289613634321 0 0.00047427859636744963 0.0037419999134014562 0 0.00067639581242248572 0.0038265496339423746 0 0.00069074503723101958 0.0037589431120205155 0 0.00087176246700145822 0.0038205712853749078 0 0.0010883651447156264 0.0038052455129361329 0 0.00087176246700145822 0.0038205712853749078 0 0.00079046302337472819 0.0036940042021351453 0 0.00069074503723101958 0.0037589431120205155 0 0.00087176246700145822 0.0038205712853749078 0 0.00079046302337472819 0.0036940042021351453 0 0.0011827462297067499 0.004864027278423882 0 0.00075776896625102095 0.004035517569553222 0 0.00087598700973641583 0.0047431901967986065 0 0.00087344914587782739 0.0046393193110907645 0 0.00089714912362294735 0.0044520071644731877 0 0.00069074503723101958 0.0037589431120205155 0 0.00079046302337472819 0.0036940042021351453 0 0.00054528711004767007 0.0037198289613634321 0 0.00079046302337472819 0.0036940042021351453 0 0.00054528711004767007 0.0037198289613634321 0 0.0005291237883429513 0.0038879352422126539 0 0.00075776896625102095 0.004035517569553222 0 0.00062472120485249365 0.0039851713134001591 0 0.00054528711004767007 0.0037198289613634321 0 0.00038658428574866907 0.0036660129893472003 0 0.0005291237883429513 0.0038879352422126539 0 0.00054528711004767007 0.0037198289613634321 0 0.00047427859636744963 0.0037419999134014562 0 0.00028973116096496292 0.0036434508487198352 0 0.00038658428574866907 0.0036660129893472003 0 0.00028973116096496292 0.0036434508487198352 0 0.00019370248732585916 0.0035079016218525823 0 0.00054528711004767007 0.0037198289613634321 0 0.00038658428574866907 0.0036660129893472003 0 0.00028973116096496292 0.0036434508487198352 0 0.00047427859636744963 0.0037419999134014562 0 0.00029352621016971806 0.0036891642552674868 0 0.00028973116096496292 0.0036434508487198352 0 0.00047427859636744963 0.0037419999134014562 0 0.00035836017358345469 0.0037856590991212687 0 0.00029352621016971806 0.0036891642552674868 0 0.0005205974387956433 0.0038476857245424777 0 0.00047427859636744963 0.0037419999134014562 0 0.00035836017358345469 0.0037856590991212687 0 0.0005205974387956433 0.0038476857245424777 0 0.00067639581242248572 0.0038265496339423746 0 0.00047427859636744963 0.0037419999134014562 0 0.00021231867822428353 0.0037017750036120217 0 0.00035836017358345469 0.0037856590991212687 0 0.00029352621016971806 0.0036891642552674868 0 0.00029352621016971806 0.0036891642552674868 0 0.0001302707820991121 0.003581447811057794 0 0.00028973116096496292 0.0036434508487198352 0 0.00021231867822428353 0.0037017750036120217 0 0.00029352621016971806 0.0036891642552674868 0 0.0001302707820991121 0.003581447811057794 0 0.0001302707820991121 0.003581447811057794 0 0.00028973116096496292 0.0036434508487198352 0 -1.3068320478427278e-05 0.0034598151399001858 0 0.00028973116096496292 0.0036434508487198352 0 0.00019370248732585916 0.0035079016218525823 0 -1.3068320478427278e-05 0.0034598151399001858 0 -3.7715048903410192e-05 0.0033535111058425227 0 0.00019370248732585916 0.0035079016218525823 0 -1.3068320478427278e-05 0.0034598151399001858 0 -3.7715048903410192e-05 0.0033535111058425227 0 0.00019370248732585916 0.0035079016218525823 0 0.00014736477283735076 0.0032993717810059376 0 0.00038658428574866907 0.0036660129893472003 0 0.00033973340623884101 0.0035524407129148687 0 0.00019370248732585916 0.0035079016218525823 0 0.00038658428574866907 0.0036660129893472003 0 0.00033973340623884101 0.0035524407129148687 0 0.0005291237883429513 0.0038879352422126539 0 0.00033973340623884101 0.0035524407129148687 0 0.00019370248732585916 0.0035079016218525823 0 0.00014736477283735076 0.0032993717810059376 0 0.00033973340623884101 0.0035524407129148687 0 0.00014736477283735076 0.0032993717810059376 0 0.00027630988380706191 0.0031523091338409182 0 0.00014736477283735076 0.0032993717810059376 0 0.00027630988380706191 0.0031523091338409182 0 4.7319306315092308e-05 0.0028874951245465952 0 0.00014736477283735076 0.0032993717810059376 0 -8.3588107962830014e-05 0.0031339609239618392 0 4.7319306315092308e-05 0.0028874951245465952 0 -8.3588107962830014e-05 0.0031339609239618392 0 -0.00021144809189041887 0.0028367318510999833 0 -0.00021816570994976343 0.0032883256280722114 0 -8.3588107962830014e-05 0.0031339609239618392 0 -0.00021144809189041887 0.0028367318510999833 0 4.7319306315092308e-05 0.0028874951245465952 0 -3.7715048903410192e-05 0.0033535111058425227 0 -8.3588107962830014e-05 0.0031339609239618392 0 -0.00021816570994976343 0.0032883256280722114 0 -3.7715048903410192e-05 0.0033535111058425227 0 0.00014736477283735076 0.0032993717810059376 0 -8.3588107962830014e-05 0.0031339609239618392 0 0.00087344914587782739 0.0046393193110907645 0 0.00089714912362294735 0.0044520071644731877 0 0.0005291237883429513 0.0038879352422126539 0 0.00089714912362294735 0.0044520071644731877 0 0.0005291237883429513 0.0038879352422126539 0 0.00057910180983060508 0.0035222460374231676 0 0.00033973340623884101 0.0035524407129148687 0 0.0005291237883429513 0.0038879352422126539 0 0.00057910180983060508 0.0035222460374231676 0 0.00033973340623884101 0.0035524407129148687 0 0.00027630988380706191 0.0031523091338409182 0 0.00057910180983060508 0.0035222460374231676 0 0.00027630988380706191 0.0031523091338409182 0 0.00057910180983060508 0.0035222460374231676 0 0.00039153149899879744 0.0027961990925193772 0 0.0010749431533206191 0.0037372053603886113 0 0.00089714912362294735 0.0044520071644731877 0 0.00057910180983060508 0.0035222460374231676 0 0.00029533692406705518 0.0057247481064853422 0 0.00041760361896253287 0.0061644967310300431 0 -0.00025279283422621708 0.0048744881436942368 0 0.0010749431533206191 0.0037372053603886113 0 0.00057910180983060508 0.0035222460374231676 0 0.00071017033413961407 0.0027161282654166704 0 0.00069068122693026479 0.0048680741225617438 0 0.00032643644973244182 0.0038334405666463952 0 0.00057910180983060508 0.0035222460374231676 0 0.00071017033413961407 0.0027161282654166704 0 0.00039153149899879744 0.0027961990925193772 0 0.00032643644973244182 0.0038334405666463952 0 1.6405244978804473e-07 0.0022325348007293314 0 -0.00025279283422621708 0.0048744881436942368 0 -1.7291071045811163e-06 0.0022342478923194427 0 6.4740903243290073e-07 0.0041284057513656025 0 0.00071017033413961407 0.0027161282654166704 0 0.00039153149899879744 0.0027961990925193772 0 2.7185308822866278e-06 0.0022283836264050164 0 0.00029533692406705518 0.0057247481064853422 0 -0.00025279283422621708 0.0048744881436942368 0 6.4740903243290073e-07 0.0041284057513656025 0 -0.00043756871121213269 0.0025379836698848491 0 -0.00021144809189041887 0.0028367318510999833 0 -0.00021816570994976343 0.0032883256280722114 0 -1.3485665887466334e-05 0.0024659616467598753 0 -0.00037531724947996681 0.0025236375559152548 0 -0.00021144809189041887 0.0028367318510999833 0 -0.00037531724947996681 0.0025236375559152548 0 -0.00072741126480766795 0.0024606330793352483 0 9.9006487628515604e-05 0.0018304726897782622 0 -1.3485665887466334e-05 0.0024659616467598753 0 -0.00037531724947996681 0.0025236375559152548 0 9.9006487628515604e-05 0.0018304726897782622 0 -0.00037531724947996681 0.0025236375559152548 0 -0.00043756871121213269 0.0025379836698848491 0 -0.00021144809189041887 0.0028367318510999833 0 0.00026257194780257863 3.1858877549246173e-05 0 0.00054850065842853299 -0.00042407508900331648 0 -1.3485665887466334e-05 0.0024659616467598753 0 -0.00021144809189041887 0.0028367318510999833 0 4.7319306315092308e-05 0.0028874951245465952 0 0.00027630988380706191 0.0031523091338409182 0 4.7319306315092308e-05 0.0028874951245465952 0 0.00020529236752851637 0.0024767027489805693 0 0.00027630988380706191 0.0031523091338409182 0 0.00039153149899879744 0.0027961990925193772 0 0.00020529236752851637 0.0024767027489805693 0 -1.3485665887466334e-05 0.0024659616467598753 0 4.7319306315092308e-05 0.0028874951245465952 0 0.00020529236752851637 0.0024767027489805693 0 -1.3485665887466334e-05 0.0024659616467598753 0 0.00020529236752851637 0.0024767027489805693 0 9.9006487628515604e-05 0.0018304726897782622 0 2.7185308822866278e-06 0.0022283836264050164 0 -2.2947525484301088e-06 0.00067608259378482637 0 9.9006487628515604e-05 0.0018304726897782622 0 0.00039153149899879744 0.0027961990925193772 0 2.7185308822866278e-06 0.0022283836264050164 0 0.00020529236752851637 0.0024767027489805693 0 2.7185308822866278e-06 0.0022283836264050164 0 0.00020529236752851637 0.0024767027489805693 0 9.9006487628515604e-05 0.0018304726897782622 0 -0.00072741126480766795 0.0024606330793352483 0 -2.2947525484301088e-06 0.00067608259378482637 0 9.9006487628515604e-05 0.0018304726897782622 0 0.00054850065842853299 -0.00042407508900331648 0 -7.8845961537139122e-07 0.00067326117246280779 0 -2.6492942400708583e-05 -0.00052952047892520593 0 -8.7170242961540117e-07 0.00066896715783471418 0 6.2590683806336891e-07 -0.0010870194361135338 0 -2.6492942400708583e-05 -0.00052952047892520593 0 6.2590683806336891e-07 -0.0010870194361135338 0 4.9171839555592616e-05 -0.00155244227569082 0 0.00054850065842853299 -0.00042407508900331648 0 0.0013004441491465321 -0.0034677808944050159 0 0.0033429029639137436 -0.0045165494755549694 0 0.0021555277795324984 -0.0039530095010020866 0 0.002873481876391091 -0.0031862059072172294 0 0.0033429029639137436 -0.0045165494755549694 0 0.0021555277795324984 -0.0039530095010020866 0 0.001989780589724187 -0.0048386287281359302 0 0.0021555277795324984 -0.0039530095010020866 0 0.001989780589724187 -0.0048386287281359302 0 0.001271307592488615 -0.0042202783988197802 0 6.2590683806336891e-07 -0.0010870194361135338 0 4.9171839555592616e-05 -0.00155244227569082 0 -7.9743684401214276e-08 -0.0028468379476507787 0 0.001989780589724187 -0.0048386287281359302 0 0.00082232008724893776 -0.0051281629800292734 0 0.00088080620096347192 -0.0046089002027975721 0 0.0013004441491465321 -0.0034677808944050159 0 0.00044512486443223595 -0.004266171278639294 0 4.9171839555592616e-05 -0.00155244227569082 0 -7.9743684401214276e-08 -0.0028468379476507787 0 -2.1159617131795877e-05 -0.0034136845107937096 0 -7.9743684401214276e-08 -0.0028468379476507787 0 -2.1159617131795877e-05 -0.0034136845107937096 0 -3.5246268432328822e-08 -0.0046066648996334466 0 0.00082232008724893776 -0.0051281629800292734 0 0.00047645004734699553 -0.0048408082800416984 0 0.00088080620096347192 -0.0046089002027975721 0 0.00088080620096347192 -0.0046089002027975721 0 0.00050674071250916841 -0.0042887808031008279 0 0.001271307592488615 -0.0042202783988197802 0 -0.00068413189730569561 -0.004096769646460675 0 0.0015770205186394232 -0.0042771884669703273 0 0.00047645004734699553 -0.0048408082800416984 0 0.00088080620096347192 -0.0046089002027975721 0 0.00050674071250916841 -0.0042887808031008279 0 0.001989780589724187 -0.0048386287281359302 0 0.00088080620096347192 -0.0046089002027975721 0 0.001271307592488615 -0.0042202783988197802 0 0.0021555277795324984 -0.0039530095010020866 0 0.001271307592488615 -0.0042202783988197802 0 0.0012560249278215391 -0.0028938188825355995 0 9.2421784128087617e-05 -0.0040596474366677137 0 0.001271307592488615 -0.0042202783988197802 0 0.0012560249278215391 -0.0028938188825355995 0 -0.00068413189730569561 -0.004096769646460675 0 0.00032695089246000949 -0.00052116529167272555 0 -0.001803453446753741 0.00024027464614894846 0 -0.0015470073685244275 0.0019760107241155612 0 -0.00073149306241122229 0.0014640274268864233 0 -0.0015470073685244275 0.0019760107241155612 0 -0.00073149306241122229 0.0014640274268864233 0 -0.00092465183056747511 0.0028397517314305695 0 0.0021555277795324984 -0.0039530095010020866 0 0.0012560249278215391 -0.0028938188825355995 0 0.002873481876391091 -0.0031862059072172294 0 0.00032695089246000949 -0.00052116529167272555 0 0.00094524659256902798 0.0015868462578298487 0 0.0012560249278215391 -0.0028938188825355995 0 0.002873481876391091 -0.0031862059072172294 0 0.0023374341040310644 -0.0017512262191714239 0 0.0015213933929453909 -0.00027229869999530779 0 0.00094524659256902798 0.0015868462578298487 0 -3.7715048903410192e-05 0.0033535111058425227 0 -1.3068320478427278e-05 0.0034598151399001858 0 -0.00021816570994976343 0.0032883256280722114 0 -1.3068320478427278e-05 0.0034598151399001858 0 -0.00021816570994976343 0.0032883256280722114 0 -4.6639019779540383e-05 0.0034725939621543661 0 0.00054850065842853299 -0.00042407508900331648 0 0.0015213933929453909 -0.00027229869999530779 0 0.00032001330604883343 -0.0083286166861713321 0 0.00034265951084524652 -0.0082423829472027654 0 0.00026793910744167396 -0.0083499864352603557 0 0.00034265951084524652 -0.0082423829472027654 0 0.00026793910744167396 -0.0083499864352603557 0 0.00023981301611284382 -0.0080452167471918631 0 0.00026793910744167396 -0.0083499864352603557 0 0.00018988192011323417 -0.0081173660060868836 0 0.00023981301611284382 -0.0080452167471918631 0 9.2814595655985098e-07 -0.0078549392052023777 0 0.00018988192011323417 -0.0081173660060868836 0 5.0209364004265302e-07 -0.0093452185250849328 0 0.00026793910744167396 -0.0083499864352603557 0 0.00018988192011323417 -0.0081173660060868836 0 5.0209364004265302e-07 -0.0093452185250849328 0 9.2814595655985098e-07 -0.0078549392052023777 0 0.00018988192011323417 -0.0081173660060868836 0 0.0001189993446854325 -0.0074797472427831496 0 0.00018988192011323417 -0.0081173660060868836 0 0.0001189993446854325 -0.0074797472427831496 0 0.00023981301611284382 -0.0080452167471918631 0 9.2814595655985098e-07 -0.0078549392052023777 0 0.0001189993446854325 -0.0074797472427831496 0 -1.4283787438025445e-06 -0.0063687207994388619 0 -0.00020220186467898347 -0.0080095926579598319 0 -0.00034750675987582863 -0.0082792399109844657 0 0.0001591138081419495 -0.0083543852593912418 0 0.0001189993446854325 -0.0074797472427831496 0 0.00023981301611284382 -0.0080452167471918631 0 -0.00020220186467898347 -0.0080095926579598319 0 0.00034265951084524652 -0.0082423829472027654 0 0.00023981301611284382 -0.0080452167471918631 0 0.0001591138081419495 -0.0083543852593912418 0 0.00023981301611284382 -0.0080452167471918631 0 -0.00020220186467898347 -0.0080095926579598319 0 0.0001591138081419495 -0.0083543852593912418 0 0.0001189993446854325 -0.0074797472427831496 0 -0.00020220186467898347 -0.0080095926579598319 0 -0.0010417484694776216 -0.0075379576262229759 0 -0.00020220186467898347 -0.0080095926579598319 0 -0.0010417484694776216 -0.0075379576262229759 0 -0.00047326603547979544 -0.0084703605039335647 0 -0.0010454515998686794 -0.0080850012795733294 0 -0.0011044601503998309 -0.0051569971683422663 0 -2.5855266183142093e-07 -0.0063646904205415661 0 -3.9146522661026447e-07 -0.0055590720017013916 0 -3.5246268432328822e-08 -0.0046066648996334466 0 0.0001189993446854325 -0.0074797472427831496 0 -1.4283787438025445e-06 -0.0063687207994388619 0 -0.0010417484694776216 -0.0075379576262229759 0 1.6886507256743316e-07 -0.0063654728619104428 0 -0.00057716344993977338 -0.0065160019459888441 0 -2.5855266183142093e-07 -0.0063646904205415661 0 -3.9146522661026447e-07 -0.0055590720017013916 0 9.5552311240163294e-06 -0.0049698003726369256 0 0.00044512486443223595 -0.004266171278639294 0 8.8617770513423066e-05 -0.005342950113842327 0 0.00047645004734699553 -0.0048408082800416984 0 -3.9146522661026447e-07 -0.0055590720017013916 0 9.5552311240163294e-06 -0.0049698003726369256 0 0.00082232008724893776 -0.0051281629800292734 0 0.00047645004734699553 -0.0048408082800416984 0 -3.9146522661026447e-07 -0.0055590720017013916 0 -2.1159617131795877e-05 -0.0034136845107937096 0 -3.9146522661026447e-07 -0.0055590720017013916 0 -3.5246268432328822e-08 -0.0046066648996334466 0 -0.00068413189730569561 -0.004096769646460675 0 -0.00057716344993977338 -0.0065160019459888441 0 -0.0017765403757080643 -0.0082376392856051122 0 -0.0010417484694776216 -0.0075379576262229759 0 -0.00047326603547979544 -0.0084703605039335647 0 0.00047645004734699553 -0.0048408082800416984 0 0.00050674071250916841 -0.0042887808031008279 0 9.5552311240163294e-06 -0.0049698003726369256 0 -0.00068413189730569561 -0.004096769646460675 0 -0.0011044601503998309 -0.0051569971683422663 0 -0.001803453446753741 0.00024027464614894846 0 -0.0025380152027167117 0.0017751759275013545 0 -0.0032203610510682951 0.00037861776233212823 0 -0.001803453446753741 0.00024027464614894846 0 -0.0015470073685244275 0.0019760107241155612 0 -0.0025380152027167117 0.0017751759275013545 0 0.0020945620553774595 -0.0076929314137991929 0 0.0017123193710076733 -0.0084077828739720206 0 0.0015189051106232071 -0.0079131323783235251 0 0.0020945620553774595 -0.0076929314137991929 0 0.0015189051106232071 -0.0079131323783235251 0 0.0014008007357261102 -0.0073432755719789258 0 -0.00011451360002427711 -0.0027485961541363593 0 -0.0011044601503998309 -0.0051569971683422663 0 0.0017123193710076733 -0.0084077828739720206 0 0.001210599677284558 -0.0083677798047072701 0 0.0015189051106232071 -0.0079131323783235251 0 -0.0011044601503998309 -0.0051569971683422663 0 0.0010440656235543298 -0.0083789818436550839 0 0.001210599677284558 -0.0083677798047072701 0 0.0015189051106232071 -0.0079131323783235251 0 0.0010931910645212051 -0.0078021691949211351 0 0.0015189051106232071 -0.0079131323783235251 0 0.0010931910645212051 -0.0078021691949211351 0 0.0014008007357261102 -0.0073432755719789258 0 0.0010931910645212051 -0.0078021691949211351 0 0.00093047201260122443 -0.0087479739726780137 0 0.00082433087938939568 -0.0082897966915687332 0 0.0010931910645212051 -0.0078021691949211351 0 0.00087120994523677705 -0.0074389771948801331 0 0.00077716227057990535 -0.00793129555597296 0 0.0010931910645212051 -0.0078021691949211351 0 0.00082433087938939568 -0.0082897966915687332 0 0.00077716227057990535 -0.00793129555597296 0 0.0010931910645212051 -0.0078021691949211351 0 0.00048318241483078167 -0.0082661346320430946 0 0.00029591976220269111 -0.0082291573312848407 0 0.0010440656235543298 -0.0083789818436550839 0 0.00037534270705253471 -0.0082743822956618494 0 0.001210599677284558 -0.0083677798047072701 0 0.0010931910645212051 -0.0078021691949211351 0 0.00048318241483078167 -0.0082661346320430946 0 0.001037098649828096 -0.0078879195331148858 0 0.00060169730197591161 -0.0085116025429322791 0 0.00034265951084524652 -0.0082423829472027654 0 0.0001591138081419495 -0.0083543852593912418 0 0.00048318241483078167 -0.0082661346320430946 0 0.00032001330604883343 -0.0083286166861713321 0 0.00048318241483078167 -0.0082661346320430946 0 0.00029591976220269111 -0.0082291573312848407 0 0.00032001330604883343 -0.0083286166861713321 0 0.00034265951084524652 -0.0082423829472027654 0 0.00048318241483078167 -0.0082661346320430946 0 0.0010931910645212051 -0.0078021691949211351 0 0.00087120994523677705 -0.0074389771948801331 0 0.0014008007357261102 -0.0073432755719789258 0 0.00088649668690305621 -0.0068988986987347746 0 0.00087120994523677705 -0.0074389771948801331 0 0.0014008007357261102 -0.0073432755719789258 0 0.00038846180225222081 -0.0058437833285525584 0 0.00090806291912713004 -0.0055758253775931854 0 0.00088649668690305621 -0.0068988986987347746 0 0.0014008007357261102 -0.0073432755719789258 0 0.0014900756371721334 -0.0066703333270398202 0 0.0014008007357261102 -0.0073432755719789258 0 0.00192152958255735 -0.0070218984128296615 0 0.0014900756371721334 -0.0066703333270398202 0 0.00192152958255735 -0.0070218984128296615 0 0.0021575668246606038 -0.0064125081480983287 0 0.0014900756371721334 -0.0066703333270398202 0 0.0020945620553774595 -0.0076929314137991929 0 0.0014008007357261102 -0.0073432755719789258 0 0.00192152958255735 -0.0070218984128296615 0 -0.00011451360002427711 -0.0027485961541363593 0 0.00022649167811580726 -0.0017975830652024202 0 -0.0015470073685244275 0.0019760107241155612 0 -0.0025380152027167117 0.0017751759275013545 0 -0.0017973184189634297 0.0030800324280335235 0 0.0020945620553774595 -0.0076929314137991929 0 0.00192152958255735 -0.0070218984128296615 0 0.0024865222424004288 -0.0069613766748666478 0 0.00192152958255735 -0.0070218984128296615 0 0.0021575668246606038 -0.0064125081480983287 0 0.0024865222424004288 -0.0069613766748666478 0 0.0012509115070581383 -0.0038735533979354191 0 0.001787192272332124 -0.0029512077570837095 0 0.0014303229771109589 -0.0025272807834278285 0 0.0012509115070581383 -0.0038735533979354191 0 0.00065715475916569555 -0.003282313034108517 0 0.0014303229771109589 -0.0025272807834278285 0 0.0012509115070581383 -0.0038735533979354191 0 0.00065715475916569555 -0.003282313034108517 0 0.00036008384166507875 -0.004567255570533022 0 0.0017495696142965935 -0.0053866696406270993 0 0.00090806291912713004 -0.0055758253775931854 0 0.00036008384166507875 -0.004567255570533022 0 5.291119197342998e-05 -0.0042388762345900418 0 -0.00015187071163138074 -0.0047053817370229321 0 0.00065715475916569555 -0.003282313034108517 0 0.00036008384166507875 -0.004567255570533022 0 5.291119197342998e-05 -0.0042388762345900418 0 0.00065715475916569555 -0.003282313034108517 0 5.291119197342998e-05 -0.0042388762345900418 0 9.4372665704024292e-05 -0.003638938360169638 0 5.291119197342998e-05 -0.0042388762345900418 0 9.4372665704024292e-05 -0.003638938360169638 0 -0.00024267231535474818 -0.0043206651847193522 0 5.291119197342998e-05 -0.0042388762345900418 0 -0.00024267231535474818 -0.0043206651847193522 0 -0.00025780881621041886 -0.0050011551474595075 0 5.291119197342998e-05 -0.0042388762345900418 0 -0.00015187071163138074 -0.0047053817370229321 0 -0.00025780881621041886 -0.0050011551474595075 0 -0.00015645801392506173 -0.0047699267651348035 0 -0.00015187071163138074 -0.0047053817370229321 0 0.00014224432323707117 -0.0049700048582707202 0 -0.00015645801392506173 -0.0047699267651348035 0 0.00036008384166507875 -0.004567255570533022 0 -0.00015187071163138074 -0.0047053817370229321 0 -2.7809126525326905e-05 0.0032558166163483286 0 -0.00032194934905437365 0.0033967852972788763 0 -4.7704797078029396e-05 0.0034804214365149202 0 -2.7809126525326905e-05 0.0032558166163483286 0 -4.7704797078029396e-05 0.0034804214365149202 0 -1.1318250848629126e-05 0.0034099442259809183 0 -2.7809126525326905e-05 0.0032558166163483286 0 -1.1318250848629126e-05 0.0034099442259809183 0 -2.4937028737294105e-05 0.0034450201122221461 0 -2.7809126525326905e-05 0.0032558166163483286 0 -0.00032194934905437365 0.0033967852972788763 0 -0.00035855002504867837 0.0027422587275742808 0 -0.00032194934905437365 0.0033967852972788763 0 -0.00012658613422577355 0.0036829513559187904 0 -0.00038152958053110482 0.0037994435967679085 0 -0.00032194934905437365 0.0033967852972788763 0 -4.7704797078029396e-05 0.0034804214365149202 0 -0.00012658613422577355 0.0036829513559187904 0 -4.7704797078029396e-05 0.0034804214365149202 0 1.5824241570623683e-05 0.0036445041883755684 0 -0.00012658613422577355 0.0036829513559187904 0 1.5824241570623683e-05 0.0036445041883755684 0 9.3078406270771276e-05 0.003605093488561814 0 2.1562065245050513e-05 0.0035209692464385055 0 -4.7704797078029396e-05 0.0034804214365149202 0 1.5824241570623683e-05 0.0036445041883755684 0 2.1562065245050513e-05 0.0035209692464385055 0 0.00021231867822428353 0.0037017750036120217 0 9.3078406270771276e-05 0.003605093488561814 0 0.00011969779325111315 0.0037453233878153298 0 1.5824241570623683e-05 0.0036445041883755684 0 9.3078406270771276e-05 0.003605093488561814 0 0.00011969779325111315 0.0037453233878153298 0 0.00021231867822428353 0.0037017750036120217 0 0.0001302707820991121 0.003581447811057794 0 9.3078406270771276e-05 0.003605093488561814 0 0.0001302707820991121 0.003581447811057794 0 9.3078406270771276e-05 0.003605093488561814 0 2.6903096877809753e-05 0.0035040301153758152 0 -4.7704797078029396e-05 0.0034804214365149202 0 2.1562065245050513e-05 0.0035209692464385055 0 -1.1318250848629126e-05 0.0034099442259809183 0 9.3078406270771276e-05 0.003605093488561814 0 2.1562065245050513e-05 0.0035209692464385055 0 2.6903096877809753e-05 0.0035040301153758152 0 2.1562065245050513e-05 0.0035209692464385055 0 2.6903096877809753e-05 0.0035040301153758152 0 -1.1318250848629126e-05 0.0034099442259809183 0 -2.4937028737294105e-05 0.0034450201122221461 0 -1.8353825765316194e-06 0.0034862138016791893 0 -4.6639019779540383e-05 0.0034725939621543661 0 -1.3068320478427278e-05 0.0034598151399001858 0 -1.8353825765316194e-06 0.0034862138016791893 0 -4.6639019779540383e-05 0.0034725939621543661 0 2.6903096877809753e-05 0.0035040301153758152 0 -1.1318250848629126e-05 0.0034099442259809183 0 -2.4937028737294105e-05 0.0034450201122221461 0 0.0001302707820991121 0.003581447811057794 0 -1.3068320478427278e-05 0.0034598151399001858 0 -1.8353825765316194e-06 0.0034862138016791893 0 2.6903096877809753e-05 0.0035040301153758152 0 -2.4937028737294105e-05 0.0034450201122221461 0 -1.8353825765316194e-06 0.0034862138016791893 0 0.0001302707820991121 0.003581447811057794 0 2.6903096877809753e-05 0.0035040301153758152 0 -1.8353825765316194e-06 0.0034862138016791893 0 -0.00073149306241122229 0.0014640274268864233 0 0.0002437308247426852 0.0026798840474012088 0 -0.00035855002504867837 0.0027422587275742808 0 -2.7809126525326905e-05 0.0032558166163483286 0 0.0002437308247426852 0.0026798840474012088 0 -0.00035855002504867837 0.0027422587275742808 0 -2.7809126525326905e-05 0.0032558166163483286 0 -2.4937028737294105e-05 0.0034450201122221461 0 1.362710545940161e-05 0.0034730065931522594 0 8.2753842937777357e-05 0.0033637312565841281 0 0.00094524659256902798 0.0015868462578298487 0 0.00089238813265044156 0.0021858476970856816 0 0.00094524659256902798 0.0015868462578298487 0 -0.00073149306241122229 0.0014640274268864233 0 -0.00035855002504867837 0.0027422587275742808 0 -0.00092465183056747511 0.0028397517314305695 0 -0.00032194934905437365 0.0033967852972788763 0 -0.00035855002504867837 0.0027422587275742808 0 -0.00092465183056747511 0.0028397517314305695 0 -0.0015470073685244275 0.0019760107241155612 0 -0.00092465183056747511 0.0028397517314305695 0 -0.0017973184189634297 0.0030800324280335235 0 -0.0017973184189634297 0.0030800324280335235 0 -0.0011305561191514676 0.0033924201697078699 0 -0.0010990593905998562 0.0040478965148466302 0 -0.00092465183056747511 0.0028397517314305695 0 -0.0017973184189634297 0.0030800324280335235 0 -0.0011305561191514676 0.0033924201697078699 0 -0.00032194934905437365 0.0033967852972788763 0 -0.00092465183056747511 0.0028397517314305695 0 -0.00068985449664095259 0.0035467741553113878 0 -0.00092465183056747511 0.0028397517314305695 0 -0.0011305561191514676 0.0033924201697078699 0 -0.00068985449664095259 0.0035467741553113878 0 -0.00032194934905437365 0.0033967852972788763 0 -0.00068985449664095259 0.0035467741553113878 0 -0.00038152958053110482 0.0037994435967679085 0 -0.0011305561191514676 0.0033924201697078699 0 -0.00068985449664095259 0.0035467741553113878 0 -0.0010990593905998562 0.0040478965148466302 0 -0.00068985449664095259 0.0035467741553113878 0 -0.0010990593905998562 0.0040478965148466302 0 -0.00038152958053110482 0.0037994435967679085 0 0.0018379202195638034 -0.0022561958595272115 0 0.0011105319946539116 0.00087435075444077686 0 -0.0010990593905998562 0.0040478965148466302 0 -0.00035247470978168164 0.0041163009524992113 0 -0.00038152958053110482 0.0037994435967679085 0 0.0012509115070581383 -0.0038735533979354191 0 0.0021207296077522648 -0.003155581300026699 0 0.001787192272332124 -0.0029512077570837095 0 0.00022649167811580726 -0.0017975830652024202 0 0.0018379202195638034 -0.0022561958595272115 0 0.0017495696142965935 -0.0053866696406270993 0 0.0018379202195638034 -0.0022561958595272115 0 0.0021575668246606038 -0.0064125081480983287 0 0.0024865222424004288 -0.0069613766748666478 0 0.0028769945013936765 -0.0061665710052289839 0 0.0018379202195638034 -0.0022561958595272115 0 0.0018281077335774928 -0.002601414144810279 0 0.001787192272332124 -0.0029512077570837095 0 0.0020051448676038004 -0.0023838162232091126 0 0.0014303229771109589 -0.0025272807834278285 0 0.001787192272332124 -0.0029512077570837095 0 0.0020051448676038004 -0.0023838162232091126 0 0.0021966659015543745 -0.0028511546921509631 0 0.0021207296077522648 -0.003155581300026699 0 0.001787192272332124 -0.0029512077570837095 0 0.0021966659015543745 -0.0028511546921509631 0 0.0020924122096943579 -0.0030740768962573186 0 0.0021966659015543745 -0.0028511546921509631 0 0.0029344590244310092 -0.0026456413482182236 0 0.0025405380250250612 -0.0024516342135765443 0 0.0021966659015543745 -0.0028511546921509631 0 0.0029344590244310092 -0.0026456413482182236 0 0.0020051448676038004 -0.0023838162232091126 0 0.0025405380250250612 -0.0024516342135765443 0 0.0021966659015543745 -0.0028511546921509631 0 0.0020051448676038004 -0.0023838162232091126 0 0.0025405380250250612 -0.0024516342135765443 0 0.0023416475956205959 -0.0018460746987109613 0 0.0011105319946539116 0.00087435075444077686 0 0.0018678008955110581 0.00086551948371550139 0 0.0025405380250250612 -0.0024516342135765443 0 0.003541309480363776 -0.0020644251950160467 0 0.0023416475956205959 -0.0018460746987109613 0 0.0025405380250250612 -0.0024516342135765443 0 0.0029344590244310092 -0.0026456413482182236 0 0.003541309480363776 -0.0020644251950160467 0 0.0029344590244310092 -0.0026456413482182236 0 0.003541309480363776 -0.0020644251950160467 0 0.0037386891084251169 -0.0023077596523927058 0 -0.00035247470978168164 0.0041163009524992113 0 -2.6004797972091203e-05 0.0038882003093573874 0 9.6833533189647367e-05 0.0041130573003263764 0 -0.00035247470978168164 0.0041163009524992113 0 -0.00038152958053110482 0.0037994435967679085 0 -2.6004797972091203e-05 0.0038882003093573874 0 -0.00012658613422577355 0.0036829513559187904 0 -0.00038152958053110482 0.0037994435967679085 0 -2.6004797972091203e-05 0.0038882003093573874 0 1.5824241570623683e-05 0.0036445041883755684 0 -0.00012658613422577355 0.0036829513559187904 0 -2.6004797972091203e-05 0.0038882003093573874 0 0.00024775043460694801 0.0038434811554106515 0 0.00011969779325111315 0.0037453233878153298 0 0.00013691880722282507 0.0039156859224330504 0 1.5824241570623683e-05 0.0036445041883755684 0 0.00011969779325111315 0.0037453233878153298 0 -2.6004797972091203e-05 0.0038882003093573874 0 0.00011969779325111315 0.0037453233878153298 0 -2.6004797972091203e-05 0.0038882003093573874 0 0.00013691880722282507 0.0039156859224330504 0 -2.6004797972091203e-05 0.0038882003093573874 0 0.00013691880722282507 0.0039156859224330504 0 9.6833533189647367e-05 0.0041130573003263764 0 0.00025217687139253306 0.004001948700161578 0 0.00013691880722282507 0.0039156859224330504 0 9.6833533189647367e-05 0.0041130573003263764 0 0.0026244383328942792 0.0013555133428448988 0 0.0030070912902562664 -0.0016137398769016573 0 0.0043366025128075301 -0.0020927396775118567 0 0.003541309480363776 -0.0020644251950160467 0 0.0037386891084251169 -0.0023077596523927058 0 0.0023113604064858217 -0.0005277226580195657 0 0.002175001073709115 -0.00025251928138220967 0 0.0022775381044790807 -0.00061887110468903327 0 0.002026132031817277 0.00022300069691858919 0 0.0023113604064858217 -0.0005277226580195657 0 0.002175001073709115 -0.00025251928138220967 0 0.002175001073709115 -0.00025251928138220967 0 0.0021786940410392537 -0.00034257705713426514 0 0.0022775381044790807 -0.00061887110468903327 0 0.0030070912902562664 -0.0016137398769016573 0 0.0022439063493207853 -0.0016581847193648024 0 0.0023113604064858217 -0.0005277226580195657 0 0.0023491470381063711 -0.0010323499548133732 0 0.0022775381044790807 -0.00061887110468903327 0 0.0023113604064858217 -0.0005277226580195657 0 0.0023491470381063711 -0.0010323499548133732 0 0.0023416475956205959 -0.0018460746987109613 0 0.00228473653094846 -0.00083123888544008745 0 0.0022775381044790807 -0.00061887110468903327 0 0.0022064421084858356 -0.00053467150729894126 0 0.0023491470381063711 -0.0010323499548133732 0 0.00228473653094846 -0.00083123888544008745 0 0.0022775381044790807 -0.00061887110468903327 0 0.0023491470381063711 -0.0010323499548133732 0 0.00228473653094846 -0.00083123888544008745 0 0.0022459724820153952 -0.0013221255708472037 0 0.0020806247499876541 -0.00027107607643183095 0 0.0021786940410392537 -0.00034257705713426514 0 0.0022064421084858356 -0.00053467150729894126 0 0.0021786940410392537 -0.00034257705713426514 0 0.0022775381044790807 -0.00061887110468903327 0 0.0022064421084858356 -0.00053467150729894126 0 0.0020806247499876541 -0.00027107607643183095 0 0.0022064421084858356 -0.00053467150729894126 0 0.002179914581402289 -0.00065802206480376942 0 0.0020806247499876541 -0.00027107607643183095 0 0.0020030516068649902 -0.00071592756379590882 0 0.002179914581402289 -0.00065802206480376942 0 0.00228473653094846 -0.00083123888544008745 0 0.0022064421084858356 -0.00053467150729894126 0 0.002179914581402289 -0.00065802206480376942 0 0.00228473653094846 -0.00083123888544008745 0 0.002179914581402289 -0.00065802206480376942 0 0.0021299810836085484 -0.00087588434004110829 0 0.0012719937621907362 -0.0027182789972616727 0 -8.4269945949628201e-05 -0.0040698506963431826 0 0.00023106472921898176 -0.0027013785255003103 0 0.0016620284155751213 -0.0017330360033455154 0 0.00080834631003321637 -0.0024182582437435713 0 0.0021737427998276665 -0.00074279600173311582 0 0.0021299810836085484 -0.00087588434004110829 0 0.0017049991273086873 -0.00080535384459723403 0 0.002179914581402289 -0.00065802206480376942 0 0.0021737427998276665 -0.00074279600173311582 0 0.0021299810836085484 -0.00087588434004110829 0 0.0021299810836085484 -0.00087588434004110829 0 0.0017365144442028093 -0.0012127675322369908 0 0.002057021755123858 -0.0012504089118468066 0 0.0021299810836085484 -0.00087588434004110829 0 0.0017365144442028093 -0.0012127675322369908 0 0.0017049991273086873 -0.00080535384459723403 0 0.002057021755123858 -0.0012504089118468066 0 0.0019220170931900096 -0.0018511085793531804 0 0.0015467462335003901 -0.0017712735866142267 0 0.0017365144442028093 -0.0012127675322369908 0 0.002057021755123858 -0.0012504089118468066 0 0.0015467462335003901 -0.0017712735866142267 0 0.002057021755123858 -0.0012504089118468066 0 0.0022459724820153952 -0.0013221255708472037 0 0.0019220170931900096 -0.0018511085793531804 0 0.00228473653094846 -0.00083123888544008745 0 0.0021299810836085484 -0.00087588434004110829 0 0.002057021755123858 -0.0012504089118468066 0 0.00228473653094846 -0.00083123888544008745 0 0.002057021755123858 -0.0012504089118468066 0 0.0022459724820153952 -0.0013221255708472037 0 0.0023491470381063711 -0.0010323499548133732 0 0.0022459724820153952 -0.0013221255708472037 0 0.0023416475956205959 -0.0018460746987109613 0 0.0022459724820153952 -0.0013221255708472037 0 0.0023416475956205959 -0.0018460746987109613 0 0.0019220170931900096 -0.0018511085793531804 0 0.0020051448676038004 -0.0023838162232091126 0 0.0019220170931900096 -0.0018511085793531804 0 0.0014303229771109589 -0.0025272807834278285 0 0.0020051448676038004 -0.0023838162232091126 0 0.0023416475956205959 -0.0018460746987109613 0 0.0019220170931900096 -0.0018511085793531804 0 0.0019220170931900096 -0.0018511085793531804 0 0.0014303229771109589 -0.0025272807834278285 0 0.0015467462335003901 -0.0017712735866142267 0 0.0014303229771109589 -0.0025272807834278285 0 0.00093841246727049759 -0.0023476384204709189 0 0.0015467462335003901 -0.0017712735866142267 0 0.00065715475916569555 -0.003282313034108517 0 0.0014303229771109589 -0.0025272807834278285 0 0.00093841246727049759 -0.0023476384204709189 0 0.00065715475916569555 -0.003282313034108517 0 0.00093841246727049759 -0.0023476384204709189 0 7.4786742877606813e-05 -0.0026637862333747341 0 0.00012919687770038445 -0.0027852363532776189 0 -3.268044627045833e-05 -0.0032705390507361872 0 0.00093841246727049759 -0.0023476384204709189 0 0.00088666707725256291 -0.0014523769346768271 0 7.4786742877606813e-05 -0.0026637862333747341 0 0.0017365144442028093 -0.0012127675322369908 0 0.00088666707725256291 -0.0014523769346768271 0 0.0015467462335003901 -0.0017712735866142267 0 0.00093841246727049759 -0.0023476384204709189 0 0.00088666707725256291 -0.0014523769346768271 0 0.0015467462335003901 -0.0017712735866142267 0 -0.00024267231535474818 -0.0043206651847193522 0 -0.00030876339588403089 -0.0037745430914692259 0 -0.00021032225514847958 -0.0037837794203672767 0 9.4372665704024292e-05 -0.003638938360169638 0 -0.00024267231535474818 -0.0043206651847193522 0 7.4786742877606813e-05 -0.0026637862333747341 0 -0.00026508669516627333 -0.0041428857509552743 0 -3.268044627045833e-05 -0.0032705390507361872 0 0.00065715475916569555 -0.003282313034108517 0 9.4372665704024292e-05 -0.003638938360169638 0 7.4786742877606813e-05 -0.0026637862333747341 0 -0.0007285492723387144 -0.0041022436382838565 0 -0.00021032225514847958 -0.0037837794203672767 0 -0.0004027126641544671 -0.0040946109372084405 0 -0.00021032225514847958 -0.0037837794203672767 0 -0.00017993302409140068 -0.0039057493335514447 0 -0.0004027126641544671 -0.0040946109372084405 0 -0.00022397000247770412 -0.0055080214986740492 0 7.9380696363913909e-05 -0.0057267830683406032 0 -0.00030876339588403089 -0.0037745430914692259 0 -0.00017993302409140068 -0.0039057493335514447 0 0.00012939882837332051 -0.0041388726528453585 0 -0.00030876339588403089 -0.0037745430914692259 0 -0.00021032225514847958 -0.0037837794203672767 0 -0.00017993302409140068 -0.0039057493335514447 0 -0.00017993302409140068 -0.0039057493335514447 0 0.00012939882837332051 -0.0041388726528453585 0 -0.0004027126641544671 -0.0040946109372084405 0 0.00012939882837332051 -0.0041388726528453585 0 -0.0004027126641544671 -0.0040946109372084405 0 -0.0003258388694731203 -0.0046025711983243576 0 -0.0004027126641544671 -0.0040946109372084405 0 -0.0003258388694731203 -0.0046025711983243576 0 -0.00089292636322727882 -0.0040748351391961474 0 0.00012939882837332051 -0.0041388726528453585 0 -0.0003258388694731203 -0.0046025711983243576 0 0.00038545456870053954 -0.0050955282133836113 0 7.9380696363913909e-05 -0.0057267830683406032 0 0.00024893166165887502 -0.0061254581015029739 0 -0.0007285492723387144 -0.0041022436382838565 0 -8.4269945949628201e-05 -0.0040698506963431826 0 -0.00089292636322727882 -0.0040748351391961474 0 0.00012919687770038445 -0.0027852363532776189 0 0.00080834631003321637 -0.0024182582437435713 0 0.0017365144442028093 -0.0012127675322369908 0 0.00088666707725256291 -0.0014523769346768271 0 0.0017049991273086873 -0.00080535384459723403 0 -0.0007285492723387144 -0.0041022436382838565 0 -0.0004027126641544671 -0.0040946109372084405 0 -0.00089292636322727882 -0.0040748351391961474 0 -0.0003258388694731203 -0.0046025711983243576 0 -0.00089292636322727882 -0.0040748351391961474 0 -0.00074785536186857023 -0.0049248775824816829 0 -0.00094168006103505003 -0.0041058386216260628 0 -0.00099519367736505154 -0.0036951464735019146 0 -0.00089292636322727882 -0.0040748351391961474 0 -0.0013814789076517548 -0.0054504488431101287 0 -0.00074785536186857023 -0.0049248775824816829 0 -8.4269945949628201e-05 -0.0040698506963431826 0 -0.00089292636322727882 -0.0040748351391961474 0 0.00023106472921898176 -0.0027013785255003103 0 -0.00089292636322727882 -0.0040748351391961474 0 -0.00067566215700468404 -0.0022086270684958313 0 0.00023106472921898176 -0.0027013785255003103 0 -0.00067566215700468404 -0.0022086270684958313 0 0.00023106472921898176 -0.0027013785255003103 0 0.00030007006251420496 -0.0015589352334175887 0 -0.00074785536186857023 -0.0049248775824816829 0 -0.0007556425705398808 -0.0058720656316110422 0 -0.00034638947274480338 -0.0054159861963922933 0 -0.0013814789076517548 -0.0054504488431101287 0 -0.00074785536186857023 -0.0049248775824816829 0 -0.0007556425705398808 -0.0058720656316110422 0 -0.0007556425705398808 -0.0058720656316110422 0 -0.0011301937565005448 -0.0062086884819078881 0 -0.00073287578253879669 -0.006589871907558326 0 -0.0013814789076517548 -0.0054504488431101287 0 -0.0007556425705398808 -0.0058720656316110422 0 -0.0011301937565005448 -0.0062086884819078881 0 -0.00067566215700468404 -0.0022086270684958313 0 -0.00016330891058090983 -0.00089861200541457257 0 0.00030007006251420496 -0.0015589352334175887 0 -0.00099519367736505154 -0.0036951464735019146 0 -0.00055518216019255777 -0.0044913830471939179 0 -0.0013814789076517548 -0.0054504488431101287 0 -0.0011301937565005448 -0.0062086884819078881 0 -0.0015112773266936364 -0.0065784886257824636 0 -0.0011301937565005448 -0.0062086884819078881 0 -0.0011840735368181491 -0.0064833233857909366 0 -0.0010291776961936366 -0.0065041922196909414 0 -0.0015798722058970474 -0.0062797833458284723 0 -0.00055518216019255777 -0.0044913830471939179 0 -0.00016330891058090983 -0.00089861200541457257 0 0.00063445239283384637 -0.00091187403371544929 0 0.00030007006251420496 -0.0015589352334175887 0 -0.0003258388694731203 -0.0046025711983243576 0 0.00038545456870053954 -0.0050955282133836113 0 -0.00034638947274480338 -0.0054159861963922933 0 0.00038545456870053954 -0.0050955282133836113 0 -0.00034638947274480338 -0.0054159861963922933 0 -0.00028224782593279303 -0.0062212397046031501 0 -0.0003258388694731203 -0.0046025711983243576 0 -0.00074785536186857023 -0.0049248775824816829 0 -0.00034638947274480338 -0.0054159861963922933 0 -0.00028224782593279303 -0.0062212397046031501 0 0.0001712322067946096 -0.0067045446836077457 0 -0.00023257370871727239 -0.0068177126655935361 0 -0.0007556425705398808 -0.0058720656316110422 0 -0.00028224782593279303 -0.0062212397046031501 0 -0.00073287578253879669 -0.006589871907558326 0 -0.0007556425705398808 -0.0058720656316110422 0 -0.00034638947274480338 -0.0054159861963922933 0 -0.00028224782593279303 -0.0062212397046031501 0 0.00024893166165887502 -0.0061254581015029739 0 0.00018807383957792831 -0.0066671218163364653 0 0.00038545456870053954 -0.0050955282133836113 0 -0.00028224782593279303 -0.0062212397046031501 0 0.0001712322067946096 -0.0067045446836077457 0 0.00016023106945380473 -0.0071275616223493397 0 0.0001712322067946096 -0.0067045446836077457 0 6.6246997598219922e-05 -0.0069165854941286575 0 0.0001712322067946096 -0.0067045446836077457 0 0.00010656260342072001 -0.0069640750107046083 0 6.6246997598219922e-05 -0.0069165854941286575 0 0.0001712322067946096 -0.0067045446836077457 0 0.00010656260342072001 -0.0069640750107046083 0 -0.00023257370871727239 -0.0068177126655935361 0 0.00010656260342072001 -0.0069640750107046083 0 -0.00023257370871727239 -0.0068177126655935361 0 -0.00014242347511706237 -0.0070815149746297247 0 -0.00028224782593279303 -0.0062212397046031501 0 -0.00023257370871727239 -0.0068177126655935361 0 -0.00073287578253879669 -0.006589871907558326 0 -0.00023257370871727239 -0.0068177126655935361 0 -0.00073287578253879669 -0.006589871907558326 0 -0.00056086579020504248 -0.0070110113588557161 0 -0.0003875546824049241 -0.0071296537768586942 0 -0.00014242347511706237 -0.0070815149746297247 0 -6.9527562354737416e-05 -0.0073944204267739778 0 -0.00023257370871727239 -0.0068177126655935361 0 -0.0003875546824049241 -0.0071296537768586942 0 -0.00056086579020504248 -0.0070110113588557161 0 -0.0003875546824049241 -0.0071296537768586942 0 -0.00057574021684861441 -0.0072198483653545678 0 -0.00046370068482589971 -0.0073985503805781457 0 -0.0003875546824049241 -0.0071296537768586942 0 -0.00056086579020504248 -0.0070110113588557161 0 -0.00057574021684861441 -0.0072198483653545678 0 -0.00023257370871727239 -0.0068177126655935361 0 -0.0003875546824049241 -0.0071296537768586942 0 -0.00014242347511706237 -0.0070815149746297247 0 0.00010656260342072001 -0.0069640750107046083 0 2.6709169568136243e-05 -0.0069818490998073994 0 9.377287518437031e-05 -0.0069284596990956326 0 0.00025156403716567046 -0.0066009041797377302 0 -0.00052597935936506178 -0.0080180808499834139 0 0.00010656260342072001 -0.0069640750107046083 0 -0.00014242347511706237 -0.0070815149746297247 0 -6.9527562354737416e-05 -0.0073944204267739778 0 -0.0002736276219914253 -0.0048755325375776683 0 -0.0004736251463617538 -0.0057780005870703213 0 -0.0009957534027309992 -0.0055594519812573297 0 -0.00055518216019255777 -0.0044913830471939179 0 -0.00083685057184431288 -0.006541068515794465 0 -0.0010108527572132919 -0.0066901206479284625 0 -0.0011840735368181491 -0.0064833233857909366 0 -0.0011070658730714762 -0.0068625924676261859 0 -0.0010108527572132919 -0.0066901206479284625 0 -0.0011840735368181491 -0.0064833233857909366 0 -0.0010291776961936366 -0.0065041922196909414 0 -0.0010108527572132919 -0.0066901206479284625 0 -0.0010291776961936366 -0.0065041922196909414 0 -0.00073287578253879669 -0.006589871907558326 0 -0.0010108527572132919 -0.0066901206479284625 0 -0.00073287578253879669 -0.006589871907558326 0 -0.00096909681238583321 -0.0069311365988040628 0 -0.0011301937565005448 -0.0062086884819078881 0 -0.0010291776961936366 -0.0065041922196909414 0 -0.00073287578253879669 -0.006589871907558326 0 -0.00073287578253879669 -0.006589871907558326 0 -0.00056086579020504248 -0.0070110113588557161 0 -0.00079690135817492454 -0.0072645141153603668 0 -0.00072898412126106305 -0.0066068226016059561 0 -0.00087133604271822089 -0.0070816632799127711 0 -0.00056086579020504248 -0.0070110113588557161 0 -0.00057574021684861441 -0.0072198483653545678 0 -0.00079690135817492454 -0.0072645141153603668 0 -0.00057574021684861441 -0.0072198483653545678 0 -0.00079690135817492454 -0.0072645141153603668 0 -0.00063869472207317521 -0.0073431717746669182 0 -0.0010108527572132919 -0.0066901206479284625 0 -0.00096909681238583321 -0.0069311365988040628 0 -0.0011070658730714762 -0.0068625924676261859 0 -0.0004736251463617538 -0.0057780005870703213 0 -0.0009957534027309992 -0.0055594519812573297 0 -0.0010177982227820629 -0.0061626379942075309 0 -0.0009957534027309992 -0.0055594519812573297 0 -0.0010177982227820629 -0.0061626379942075309 0 -0.0016476145530464423 -0.0062282645031816533 0 -0.00016330891058090983 -0.00089861200541457257 0 0.00085276469567281319 -0.00039867754770513201 0 0.00063445239283384637 -0.00091187403371544929 0 -0.00055518216019255777 -0.0044913830471939179 0 6.5838721515350181e-05 -0.0027301236480352506 0 0.00085276469567281319 -0.00039867754770513201 0 0.00063445239283384637 -0.00091187403371544929 0 0.0011705627485216182 -0.00072501550732681334 0 0.00063445239283384637 -0.00091187403371544929 0 0.0011705627485216182 -0.00072501550732681334 0 0.00089581817387345301 -0.0011603685087496157 0 0.00085276469567281319 -0.00039867754770513201 0 0.0011705627485216182 -0.00072501550732681334 0 0.0013755454596490191 -0.00051340591845409293 0 0.0011705627485216182 -0.00072501550732681334 0 0.0016414617262307855 -0.00072287550716922805 0 0.0015639898974131718 -0.0010124693248305785 0 0.0011705627485216182 -0.00072501550732681334 0 0.0013755454596490191 -0.00051340591845409293 0 0.0016414617262307855 -0.00072287550716922805 0 0.0011705627485216182 -0.00072501550732681334 0 0.00089581817387345301 -0.0011603685087496157 0 0.0015639898974131718 -0.0010124693248305785 0 0.0013755454596490191 -0.00051340591845409293 0 0.0016861920653097042 -0.00051414064206160436 0 0.0014003539298933321 -0.00026677508310314353 0 6.5838721515350181e-05 -0.0027301236480352506 0 -0.00019983701320216402 -0.0033601961765755712 0 0.00085276469567281319 -0.00039867754770513201 0 0.0013755454596490191 -0.00051340591845409293 0 0.0014003539298933321 -0.00026677508310314353 0 0.0016861920653097042 -0.00051414064206160436 0 0.0014003539298933321 -0.00026677508310314353 0 0.0016692609718613192 -0.00033799827761940636 0 0.0016861920653097042 -0.00051414064206160436 0 0.0018630033330543179 -0.00049916509439093895 0 0.0016692609718613192 -0.00033799827761940636 0 0.0013755454596490191 -0.00051340591845409293 0 0.0016861920653097042 -0.00051414064206160436 0 0.0016414617262307855 -0.00072287550716922805 0 0.0019053377347362434 -0.00051910225124283471 0 0.0018630033330543179 -0.00049916509439093895 0 0.0018543943072184437 -0.00046672640177932313 0 0.0019053377347362434 -0.00051910225124283471 0 0.0018630033330543179 -0.00049916509439093895 0 0.0019342802213749813 -0.00062993664850954781 0 0.0019589135039322875 -0.00051929115045011673 0 0.0019053377347362434 -0.00051910225124283471 0 0.0019342802213749813 -0.00062993664850954781 0 0.0016861920653097042 -0.00051414064206160436 0 0.0018630033330543179 -0.00049916509439093895 0 0.0018819379831630488 -0.00065020137541067454 0 0.0016861920653097042 -0.00051414064206160436 0 0.0018819379831630488 -0.00065020137541067454 0 0.0018683184320454661 -0.00073216912290263866 0 0.0018630033330543179 -0.00049916509439093895 0 0.0018819379831630488 -0.00065020137541067454 0 0.0019342802213749813 -0.00062993664850954781 0 0.0018819379831630488 -0.00065020137541067454 0 0.0019342802213749813 -0.00062993664850954781 0 0.0019520454088289194 -0.00079576820126147719 0 0.0018819379831630488 -0.00065020137541067454 0 0.0018683184320454661 -0.00073216912290263866 0 0.0019520454088289194 -0.00079576820126147719 0 0.0018683184320454661 -0.00073216912290263866 0 0.0019520454088289194 -0.00079576820126147719 0 0.0019605705271550818 -0.00090645618498405914 0 0.0016414617262307855 -0.00072287550716922805 0 0.0019605705271550818 -0.00090645618498405914 0 0.0015639898974131718 -0.0010124693248305785 0 0.0016861920653097042 -0.00051414064206160436 0 0.0018683184320454661 -0.00073216912290263866 0 0.0016414617262307855 -0.00072287550716922805 0 0.0018683184320454661 -0.00073216912290263866 0 0.0016414617262307855 -0.00072287550716922805 0 0.0019605705271550818 -0.00090645618498405914 0 0.0019605705271550818 -0.00090645618498405914 0 0.0020187833039998437 -0.00109811228738523 0 0.0015639898974131718 -0.0010124693248305785 0 0.0020030516068649902 -0.00071592756379590882 0 0.0019605705271550818 -0.00090645618498405914 0 0.0020187833039998437 -0.00109811228738523 0 0.0020030516068649902 -0.00071592756379590882 0 0.0019520454088289194 -0.00079576820126147719 0 0.0019605705271550818 -0.00090645618498405914 0 0.0020030516068649902 -0.00071592756379590882 0 0.002179914581402289 -0.00065802206480376942 0 0.0020187833039998437 -0.00109811228738523 0 0.002179914581402289 -0.00065802206480376942 0 0.0021737427998276665 -0.00074279600173311582 0 0.0020187833039998437 -0.00109811228738523 0 0.0012719937621907362 -0.0027182789972616727 0 0.0020187833039998437 -0.00109811228738523 0 0.0011098162121722917 -0.0016539886863153979 0 0.0016620284155751213 -0.0017330360033455154 0 0.0019964634057552787 -0.0012002181855814199 0 0.0012719937621907362 -0.0027182789972616727 0 0.0011098162121722917 -0.0016539886863153979 0 0.00023106472921898176 -0.0027013785255003103 0 0.0011098162121722917 -0.0016539886863153979 0 0.00023106472921898176 -0.0027013785255003103 0 0.00030007006251420496 -0.0015589352334175887 0 0.0011098162121722917 -0.0016539886863153979 0 0.00030007006251420496 -0.0015589352334175887 0 0.00089581817387345301 -0.0011603685087496157 0 0.00063445239283384637 -0.00091187403371544929 0 0.00030007006251420496 -0.0015589352334175887 0 0.00089581817387345301 -0.0011603685087496157 0 0.0011098162121722917 -0.0016539886863153979 0 0.00089581817387345301 -0.0011603685087496157 0 0.0015639898974131718 -0.0010124693248305785 0 0.0020187833039998437 -0.00109811228738523 0 0.0011098162121722917 -0.0016539886863153979 0 0.0015639898974131718 -0.0010124693248305785 0 0.0016357829135157404 -0.0077358280428869814 0 0.0021066165104274203 -0.0077507041849594338 0 0.0020979233239555271 -0.0081483012203195804 0 0.0016357829135157404 -0.0077358280428869814 0 0.0020979233239555271 -0.0081483012203195804 0 0.0016767175633023482 -0.008185349577594524 0 0.0016357829135157404 -0.0077358280428869814 0 0.0016767175633023482 -0.008185349577594524 0 0.0012046089704918889 -0.0080662273958502489 0 -0.00016393330421366555 -0.0071028347634861169 0 -0.00023813246950817729 -0.0072318244858819714 0 -4.5555327243578433e-05 -0.0072029620425121945 0 0.00070300748182600451 -0.0075020153296401944 0 0.0008721712316274126 -0.0069828968915468933 0 -0.00023813246950817729 -0.0072318244858819714 0 -0.00041172926874198906 -0.0072018417364167918 0 -0.00033975111116945196 -0.0073288571237178331 0 -0.00016393330421366555 -0.0071028347634861169 0 -0.00023813246950817729 -0.0072318244858819714 0 -0.00041172926874198906 -0.0072018417364167918 0 0.00055790419667123834 -0.013137118317000665 0 0.00021380663689240847 -0.013867517802009077 0 0.00010361584491760528 -0.013377818478799559 0 0.0021066165104274203 -0.0077507041849594338 0 0.0021973214651710253 -0.007865269733177192 0 0.0022470194388191814 -0.0078176805403665176 0 0.0008721712316274126 -0.0069828968915468933 0 0.0010305645279652725 -0.01079377400047229 0 0.0013945582597535704 -0.010517632409924873 0 0.0010305645279652725 -0.01079377400047229 0 0.00055790419667123834 -0.013137118317000665 0 0.00010361584491760528 -0.013377818478799559 0 9.5587279770376033e-05 -0.012852796075797542 0 0.00055790419667123834 -0.013137118317000665 0 0.00040724024494063501 -0.012700077755303775 0 9.5587279770376033e-05 -0.012852796075797542 0 0.0021066165104274203 -0.0077507041849594338 0 0.0021973214651710253 -0.007865269733177192 0 0.0020979233239555271 -0.0081483012203195804 0 0.00055790419667123834 -0.013137118317000665 0 0.00040724024494063501 -0.012700077755303775 0 0.00068636627979746134 -0.012611148546896886 0 0.0013945582597535704 -0.010517632409924873 0 0.0013759887417336585 -0.010403427873209021 0 0.00041566174578175087 -0.012464421332298638 0 0.00040724024494063501 -0.012700077755303775 0 0.00068636627979746134 -0.012611148546896886 0 0.00041566174578175087 -0.012464421332298638 0 0.00053165316895270836 -0.01224838856884918 0 0.00068636627979746134 -0.012611148546896886 0 0.00040724024494063501 -0.012700077755303775 0 9.5587279770376033e-05 -0.012852796075797542 0 0.00017996428847378846 -0.01254591570028123 0 0.00041566174578175087 -0.012464421332298638 0 0.00040724024494063501 -0.012700077755303775 0 0.00017996428847378846 -0.01254591570028123 0 0.00041566174578175087 -0.012464421332298638 0 0.00029763551682602195 -0.012265820573163983 0 0.00017996428847378846 -0.01254591570028123 0 0.00029763551682602195 -0.012265820573163983 0 0.00053165316895270836 -0.01224838856884918 0 0.00043985336013255413 -0.012093372153030696 0 0.00041566174578175087 -0.012464421332298638 0 0.00029763551682602195 -0.012265820573163983 0 0.00053165316895270836 -0.01224838856884918 0 0.00053165316895270836 -0.01224838856884918 0 0.00068636627979746134 -0.012611148546896886 0 0.00076271894945939642 -0.012160436741299996 0 0.00053165316895270836 -0.01224838856884918 0 0.00076271894945939642 -0.012160436741299996 0 0.00057155324760687894 -0.011889041947153563 0 0.0013759887417336585 -0.010403427873209021 0 0.0013053281138188015 -0.010469120921638106 0 0.0020979233239555271 -0.0081483012203195804 0 0.0016767175633023482 -0.008185349577594524 0 0.0018819907856136866 -0.0087392328205918805 0 0.0016767175633023482 -0.008185349577594524 0 0.0018819907856136866 -0.0087392328205918805 0 0.0012476167637274194 -0.0084916988013584317 0 0.0018819907856136866 -0.0087392328205918805 0 0.0012476167637274194 -0.0084916988013584317 0 0.0014618579130494193 -0.0096455291863707018 0 0.0012476167637274194 -0.0084916988013584317 0 0.00057878012807068165 -0.0089530150933729413 0 0.0014618579130494193 -0.0096455291863707018 0 0.0012476167637274194 -0.0084916988013584317 0 0.00057878012807068165 -0.0089530150933729413 0 0.0006756091877091776 -0.0081836587682170767 0 0.00057878012807068165 -0.0089530150933729413 0 0.0006756091877091776 -0.0081836587682170767 0 0.00013578695720911757 -0.0084997627390075454 0 0.0006756091877091776 -0.0081836587682170767 0 0.0012046089704918889 -0.0080662273958502489 0 0.00065116966202163266 -0.0077909463389294531 0 0.0006756091877091776 -0.0081836587682170767 0 0.00032250534072947144 -0.0074902965230381558 0 0.00065116966202163266 -0.0077909463389294531 0 0.0012476167637274194 -0.0084916988013584317 0 0.0006756091877091776 -0.0081836587682170767 0 0.0012046089704918889 -0.0080662273958502489 0 0.0016767175633023482 -0.008185349577594524 0 0.0012476167637274194 -0.0084916988013584317 0 0.0012046089704918889 -0.0080662273958502489 0 -0.00079414486988110345 -0.0086446858547776471 0 -0.0015022321444163567 -0.0095266669920874084 0 -0.00031564943517745948 -0.0092464959329936515 0 -0.00037489214731731551 -0.0078630655200717312 0 -0.00052597935936506178 -0.0080180808499834139 0 0.00057878012807068165 -0.0089530150933729413 0 0.00013578695720911757 -0.0084997627390075454 0 -0.00031564943517745948 -0.0092464959329936515 0 -0.00079414486988110345 -0.0086446858547776471 0 0.00013578695720911757 -0.0084997627390075454 0 -0.00031564943517745948 -0.0092464959329936515 0 0.0006756091877091776 -0.0081836587682170767 0 0.00013578695720911757 -0.0084997627390075454 0 0.00032250534072947144 -0.0074902965230381558 0 3.0635800755385421e-05 -0.0071948591900059793 0 0.00031232303422707418 -0.0073856538454400624 0 2.6709169568136243e-05 -0.0069818490998073994 0 0.00032250534072947144 -0.0074902965230381558 0 5.1347675829147042e-05 -0.0071200855756132905 0 0.00032250534072947144 -0.0074902965230381558 0 5.1347675829147042e-05 -0.0071200855756132905 0 0.00065116966202163266 -0.0077909463389294531 0 -0.00079414486988110345 -0.0086446858547776471 0 0.00013578695720911757 -0.0084997627390075454 0 0.00032250534072947144 -0.0074902965230381558 0 -0.00037489214731731551 -0.0078630655200717312 0 0.00028766178272800051 -0.0074379391246996475 0 0.00010656260342072001 -0.0069640750107046083 0 5.1347675829147042e-05 -0.0071200855756132905 0 6.6246997598219922e-05 -0.0069165854941286575 0 0.00010656260342072001 -0.0069640750107046083 0 2.6709169568136243e-05 -0.0069818490998073994 0 5.1347675829147042e-05 -0.0071200855756132905 0 5.1347675829147042e-05 -0.0071200855756132905 0 6.6246997598219922e-05 -0.0069165854941286575 0 3.9473118628261253e-05 -0.0070398662867959287 0 6.6246997598219922e-05 -0.0069165854941286575 0 3.9473118628261253e-05 -0.0070398662867959287 0 4.2570728969830626e-05 -0.0070541530694519525 0 3.9473118628261253e-05 -0.0070398662867959287 0 4.2570728969830626e-05 -0.0070541530694519525 0 1.3457818797779129e-05 -0.0070834844499374598 0 5.1347675829147042e-05 -0.0071200855756132905 0 3.9473118628261253e-05 -0.0070398662867959287 0 1.4270172514917427e-05 -0.0070408565515559275 0 2.1832131275128972e-05 -0.0071308109995885443 0 4.2570728969830626e-05 -0.0070541530694519525 0 1.3457818797779129e-05 -0.0070834844499374598 0 2.1832131275128972e-05 -0.0071308109995885443 0 1.3457818797779129e-05 -0.0070834844499374598 0 -1.1898209553908009e-05 -0.0071585442547005282 0 2.1832131275128972e-05 -0.0071308109995885443 0 4.2570728969830626e-05 -0.0070541530694519525 0 6.4073554025688046e-05 -0.0071952245071903271 0 0.00016023106945380473 -0.0071275616223493397 0 6.6246997598219922e-05 -0.0069165854941286575 0 4.2570728969830626e-05 -0.0070541530694519525 0 0.00016023106945380473 -0.0071275616223493397 0 4.2570728969830626e-05 -0.0070541530694519525 0 6.4073554025688046e-05 -0.0071952245071903271 0 0.0016357829135157404 -0.0077358280428869814 0 0.0012046089704918889 -0.0080662273958502489 0 0.00065116966202163266 -0.0077909463389294531 0 0.00070300748182600451 -0.0075020153296401944 0 0.00031232303422707418 -0.0073856538454400624 0 -0.00016393330421366555 -0.0071028347634861169 0 1.4270172514917427e-05 -0.0070408565515559275 0 -2.7103209833292341e-05 -0.0071106102693276989 0 3.9473118628261253e-05 -0.0070398662867959287 0 1.4270172514917427e-05 -0.0070408565515559275 0 1.3457818797779129e-05 -0.0070834844499374598 0 1.4270172514917427e-05 -0.0070408565515559275 0 1.3457818797779129e-05 -0.0070834844499374598 0 -2.7103209833292341e-05 -0.0071106102693276989 0 1.3457818797779129e-05 -0.0070834844499374598 0 -8.8768212832660283e-05 -0.0071452743453738025 0 -1.1898209553908009e-05 -0.0071585442547005282 0 1.3457818797779129e-05 -0.0070834844499374598 0 -4.5555327243578433e-05 -0.0072029620425121945 0 -2.7103209833292341e-05 -0.0071106102693276989 0 7.1211055037971804e-06 -0.0070962449389623599 0 -7.0350135235146868e-05 -0.0071744398734595455 0 -0.00016393330421366555 -0.0071028347634861169 0 -4.5555327243578433e-05 -0.0072029620425121945 0 -2.7103209833292341e-05 -0.0071106102693276989 0 -8.8768212832660283e-05 -0.0071452743453738025 0 -2.9499456912857186e-05 -0.0072587132717057915 0 -0.00014254425312797792 -0.0073335529580002678 0 -7.0350135235146868e-05 -0.0071744398734595455 0 -0.00019474481391213539 -0.0072845987725544152 0 -1.1898209553908009e-05 -0.0071585442547005282 0 -2.9499456912857186e-05 -0.0072587132717057915 0 1.6781777766172776e-05 -0.0072068095068267253 0 -8.8768212832660283e-05 -0.0071452743453738025 0 -1.1898209553908009e-05 -0.0071585442547005282 0 -2.9499456912857186e-05 -0.0072587132717057915 0 -2.9499456912857186e-05 -0.0072587132717057915 0 2.9072686500136799e-05 -0.0072882624944542798 0 -4.2464341752774679e-05 -0.007370227527608483 0 -2.9499456912857186e-05 -0.0072587132717057915 0 -4.2464341752774679e-05 -0.007370227527608483 0 -0.00014254425312797792 -0.0073335529580002678 0 6.086157208806215e-05 -0.0072707085758910023 0 0.00016023106945380473 -0.0071275616223493397 0 6.4073554025688046e-05 -0.0071952245071903271 0 2.1832131275128972e-05 -0.0071308109995885443 0 6.4073554025688046e-05 -0.0071952245071903271 0 1.6781777766172776e-05 -0.0072068095068267253 0 2.1832131275128972e-05 -0.0071308109995885443 0 -1.1898209553908009e-05 -0.0071585442547005282 0 1.6781777766172776e-05 -0.0072068095068267253 0 -2.9499456912857186e-05 -0.0072587132717057915 0 1.6781777766172776e-05 -0.0072068095068267253 0 2.9072686500136799e-05 -0.0072882624944542798 0 6.4073554025688046e-05 -0.0071952245071903271 0 1.6781777766172776e-05 -0.0072068095068267253 0 2.9072686500136799e-05 -0.0072882624944542798 0 6.086157208806215e-05 -0.0072707085758910023 0 6.4073554025688046e-05 -0.0071952245071903271 0 2.9072686500136799e-05 -0.0072882624944542798 0 -0.00019991092483088194 -0.0072829496631644014 0 6.086157208806215e-05 -0.0072707085758910023 0 1.6846124824726619e-05 -0.0072683179730276878 0 6.086157208806215e-05 -0.0072707085758910023 0 2.9072686500136799e-05 -0.0072882624944542798 0 1.6846124824726619e-05 -0.0072683179730276878 0 2.9072686500136799e-05 -0.0072882624944542798 0 1.6846124824726619e-05 -0.0072683179730276878 0 5.1828810391284778e-05 -0.0073566396158250575 0 1.6846124824726619e-05 -0.0072683179730276878 0 1.4532530019987588e-05 -0.0070171660718949067 0 5.1828810391284778e-05 -0.0073566396158250575 0 4.7774162596764361e-05 -0.0070373825465809003 0 0.00078750528317770197 -0.0070701270283661652 0 1.4532530019987588e-05 -0.0070171660718949067 0 0.0016279620191932164 -0.0067993324698808416 0 0.00079602752061766783 -0.006268596498233062 0 1.4532530019987588e-05 -0.0070171660718949067 0 6.8192734507748582e-05 -0.0060629307271602125 0 0.00079602752061766783 -0.006268596498233062 0 -0.00019991092483088194 -0.0072829496631644014 0 1.4532530019987588e-05 -0.0070171660718949067 0 6.8192734507748582e-05 -0.0060629307271602125 0 -0.00019991092483088194 -0.0072829496631644014 0 1.6846124824726619e-05 -0.0072683179730276878 0 1.4532530019987588e-05 -0.0070171660718949067 0 -4.2464341752774679e-05 -0.007370227527608483 0 -0.00010317527190191766 -0.0075389789220921344 0 -0.00020588325977662618 -0.0074873805009865041 0 -4.2464341752774679e-05 -0.007370227527608483 0 -0.00020588325977662618 -0.0074873805009865041 0 -0.00014254425312797792 -0.0073335529580002678 0 2.9072686500136799e-05 -0.0072882624944542798 0 -4.2464341752774679e-05 -0.007370227527608483 0 5.1828810391284778e-05 -0.0073566396158250575 0 0.00078750528317770197 -0.0070701270283661652 0 0.0006242107348800631 -0.0071250712638706781 0 -4.2464341752774679e-05 -0.007370227527608483 0 5.1828810391284778e-05 -0.0073566396158250575 0 -0.00010317527190191766 -0.0075389789220921344 0 0.0016279620191932164 -0.0067993324698808416 0 0.0013702822117434988 -0.0066955432940593602 0 0.0015856181211167306 -0.0070222520207780994 0 0.0013702822117434988 -0.0066955432940593602 0 -0.00029421523380624033 -0.0070197305439836611 0 0.00019037823697442061 -0.0074535827673028309 0 0.0006242107348800631 -0.0071250712638706781 0 -0.00032900070676379254 -0.0074113318937093012 0 -0.00010317527190191766 -0.0075389789220921344 0 -0.00033536835005130224 -0.0077015301822489805 0 -0.00020588325977662618 -0.0074873805009865041 0 -0.00033536835005130224 -0.0077015301822489805 0 -0.00037461618010286012 -0.0075630001901804021 0 -0.00020588325977662618 -0.0074873805009865041 0 -0.00037461618010286012 -0.0075630001901804021 0 -0.00020588325977662618 -0.0074873805009865041 0 -0.00035320071114036721 -0.0073506190263231868 0 -0.00020588325977662618 -0.0074873805009865041 0 -0.00014254425312797792 -0.0073335529580002678 0 -0.00035320071114036721 -0.0073506190263231868 0 -0.00014254425312797792 -0.0073335529580002678 0 -0.00035320071114036721 -0.0073506190263231868 0 -0.00019895010898911405 -0.0072264350272577757 0 -0.00035718950843394561 -0.0074156516124984882 0 -0.00019474481391213539 -0.0072845987725544152 0 -0.00036127018149260498 -0.0074747835594581374 0 -0.00033975111116945196 -0.0073288571237178331 0 -0.00018705051630931138 -0.0073423626108646625 0 -0.00023813246950817729 -0.0072318244858819714 0 -0.00033975111116945196 -0.0073288571237178331 0 -0.00018705051630931138 -0.0073423626108646625 0 -8.8768212832660283e-05 -0.0071452743453738025 0 -0.00014254425312797792 -0.0073335529580002678 0 -0.00019895010898911405 -0.0072264350272577757 0 -0.00023813246950817729 -0.0072318244858819714 0 -4.5555327243578433e-05 -0.0072029620425121945 0 -0.00018705051630931138 -0.0073423626108646625 0 -0.00050515138079426549 -0.0073945205998756196 0 -0.00065352789540590892 -0.007497275055281959 0 -0.00067986520701690837 -0.0073256508531930678 0 -0.00041172926874198906 -0.0072018417364167918 0 -0.00050515138079426549 -0.0073945205998756196 0 -0.00067986520701690837 -0.0073256508531930678 0 -0.00041172926874198906 -0.0072018417364167918 0 -0.00033975111116945196 -0.0073288571237178331 0 -0.00050515138079426549 -0.0073945205998756196 0 -0.00036127018149260498 -0.0074747835594581374 0 -0.00033975111116945196 -0.0073288571237178331 0 -0.00050515138079426549 -0.0073945205998756196 0 -0.00036127018149260498 -0.0074747835594581374 0 -0.00050515138079426549 -0.0073945205998756196 0 -0.00053756174319278594 -0.0075712148479756824 0 -0.00035718950843394561 -0.0074156516124984882 0 -0.00052145117274398321 -0.0075515104537156484 0 -0.00050515138079426549 -0.0073945205998756196 0 -0.00065352789540590892 -0.007497275055281959 0 -0.00053756174319278594 -0.0075712148479756824 0 -0.00065352789540590892 -0.007497275055281959 0 -0.00053756174319278594 -0.0075712148479756824 0 -0.00072831110900950318 -0.0076677679210120494 0 -0.00053756174319278594 -0.0075712148479756824 0 -0.00062042149474395567 -0.0077091049706895032 0 -0.00072831110900950318 -0.0076677679210120494 0 -0.00053756174319278594 -0.0075712148479756824 0 -0.00049007731806639029 -0.0076765846148702617 0 -0.00062042149474395567 -0.0077091049706895032 0 -0.00037461618010286012 -0.0075630001901804021 0 -0.00053756174319278594 -0.0075712148479756824 0 -0.00049007731806639029 -0.0076765846148702617 0 -0.00037461618010286012 -0.0075630001901804021 0 -0.00035320071114036721 -0.0073506190263231868 0 -0.00053756174319278594 -0.0075712148479756824 0 -0.00033536835005130224 -0.0077015301822489805 0 -0.00037461618010286012 -0.0075630001901804021 0 -0.00049007731806639029 -0.0076765846148702617 0 -0.00029421523380624033 -0.0070197305439836611 0 -0.0019601470977514976 -0.0074108372899713889 0 -0.00087410086294164332 -0.0072889887750789252 0 -0.00032900070676379254 -0.0074113318937093012 0 -0.001191977644388038 -0.0072418914697786026 0 -0.00033536835005130224 -0.0077015301822489805 0 -0.00049007731806639029 -0.0076765846148702617 0 -0.00060837835170527983 -0.0078429932734958956 0 -0.00062042149474395567 -0.0077091049706895032 0 -0.00060837835170527983 -0.0078429932734958956 0 -0.00074071950810203075 -0.0077987994475193232 0 -0.00049007731806639029 -0.0076765846148702617 0 -0.00062042149474395567 -0.0077091049706895032 0 -0.00060837835170527983 -0.0078429932734958956 0 -0.0019601470977514976 -0.0074108372899713889 0 -0.0016298693019566328 -0.0086593070239186377 0 -0.0026668973422156899 -0.0083069359956565517 0 -0.0016871905541388304 -0.0084070194335123059 0 -0.0024376864859584888 -0.0096811525289154429 0 -0.0015397984296295166 -0.0093935736030550752 0 -0.0016684578866517866 -0.0085698619642449944 0 -0.0024681092985272394 -0.0094787081209838364 0 -0.0016298693019566328 -0.0086593070239186377 0 -0.0026668973422156899 -0.0083069359956565517 0 -0.0026387130143832494 -0.0089250815905914209 0 -0.0016298693019566328 -0.0086593070239186377 0 -0.0024755700569109819 -0.0099331617384817855 0 -0.0026387130143832494 -0.0089250815905914209 0 -0.00093937323346547955 -0.0092131293986315276 0 -0.0009010501018340615 -0.0084242329888191241 0 -0.00043618625566212897 -0.0090722837019933372 0 -0.00093937323346547955 -0.0092131293986315276 0 -0.0009010501018340615 -0.0084242329888191241 0 -0.0015397984296295166 -0.0093935736030550752 0 -0.0016871905541388304 -0.0084070194335123059 0 -0.0009010501018340615 -0.0084242329888191241 0 -0.0015397984296295166 -0.0093935736030550752 0 -0.0019601470977514976 -0.0074108372899713889 0 -0.0016298693019566328 -0.0086593070239186377 0 -0.00087410086294164332 -0.0072889887750789252 0 -0.0009010501018340615 -0.0084242329888191241 0 -0.00087410086294164332 -0.0072889887750789252 0 -0.00044013895082446557 -0.0076667561869200223 0 -0.0016684578866517866 -0.0085698619642449944 0 -0.00091663187308850611 -0.0073897104057511773 0 -0.0016871905541388304 -0.0084070194335123059 0 -0.0009010501018340615 -0.0084242329888191241 0 -0.00087410086294164332 -0.0072889887750789252 0 -0.00029421523380624033 -0.0070197305439836611 0 -0.00087410086294164332 -0.0072889887750789252 0 -0.00044013895082446557 -0.0076667561869200223 0 -0.00029421523380624033 -0.0070197305439836611 0 0.00019037823697442061 -0.0074535827673028309 0 -0.00044013895082446557 -0.0076667561869200223 0 0.00019037823697442061 -0.0074535827673028309 0 0.00060379287257945565 -0.007854953328038634 0 -0.00030307154330971441 -0.0081395069595149444 0 0.00019037823697442061 -0.0074535827673028309 0 -0.00044013895082446557 -0.0076667561869200223 0 -0.00030307154330971441 -0.0081395069595149444 0 -0.0009010501018340615 -0.0084242329888191241 0 -0.00044013895082446557 -0.0076667561869200223 0 -0.00030307154330971441 -0.0081395069595149444 0 0.0013702822117434988 -0.0066955432940593602 0 0.00019037823697442061 -0.0074535827673028309 0 0.00060379287257945565 -0.007854953328038634 0 0.00060379287257945565 -0.007854953328038634 0 0.00083096343616497175 -0.0088388586617391372 0 0.0012735240067520879 -0.0078571144413135396 0 0.00060379287257945565 -0.007854953328038634 0 0.00030396532663371075 -0.0089449630514652542 0 3.0418431147929522e-05 -0.0085111498907269895 0 0.00060379287257945565 -0.007854953328038634 0 0.00030396532663371075 -0.0089449630514652542 0 0.00083096343616497175 -0.0088388586617391372 0 0.00060379287257945565 -0.007854953328038634 0 -0.00030307154330971441 -0.0081395069595149444 0 3.0418431147929522e-05 -0.0085111498907269895 0 -0.00030307154330971441 -0.0081395069595149444 0 3.0418431147929522e-05 -0.0085111498907269895 0 -0.00043618625566212897 -0.0090722837019933372 0 -0.0009010501018340615 -0.0084242329888191241 0 -0.00030307154330971441 -0.0081395069595149444 0 -0.00043618625566212897 -0.0090722837019933372 0 0.00030396532663371075 -0.0089449630514652542 0 3.0418431147929522e-05 -0.0085111498907269895 0 -0.00043618625566212897 -0.0090722837019933372 0 -0.00043618625566212897 -0.0090722837019933372 0 -0.00010546971494225175 -0.010005673387832578 0 -0.00088882720228754535 -0.0099867998348568045 0 0.00030396532663371075 -0.0089449630514652542 0 -0.00043618625566212897 -0.0090722837019933372 0 -0.00010546971494225175 -0.010005673387832578 0 -0.00010546971494225175 -0.010005673387832578 0 -0.00051359769323898225 -0.010493083652293634 0 -0.00088882720228754535 -0.0099867998348568045 0 0.00083096343616497175 -0.0088388586617391372 0 0.00043773213164777908 -0.0097748119591092048 0 0.0010392110955551373 -0.0096935272371776911 0 0.00030396532663371075 -0.0089449630514652542 0 -0.00010546971494225175 -0.010005673387832578 0 0.00043773213164777908 -0.0097748119591092048 0 0.00030396532663371075 -0.0089449630514652542 0 0.00083096343616497175 -0.0088388586617391372 0 0.00043773213164777908 -0.0097748119591092048 0 -0.00010546971494225175 -0.010005673387832578 0 0.00043773213164777908 -0.0097748119591092048 0 0.00048981163994928404 -0.010747811008303345 0 0.00043773213164777908 -0.0097748119591092048 0 0.00074307339286285349 -0.010219438279936932 0 0.00048981163994928404 -0.010747811008303345 0 0.00074307339286285349 -0.010219438279936932 0 0.0010392110955551373 -0.0096935272371776911 0 0.0010314321519118831 -0.010645060598586225 0 0.00043773213164777908 -0.0097748119591092048 0 0.00074307339286285349 -0.010219438279936932 0 0.0010392110955551373 -0.0096935272371776911 0 0.00048981163994928404 -0.010747811008303345 0 0.0009651700979652608 -0.011574010879805766 0 0.00019442767129772056 -0.011928119222665734 0 0.00074307339286285349 -0.010219438279936932 0 0.00048981163994928404 -0.010747811008303345 0 0.0010314321519118831 -0.010645060598586225 0 0.00048981163994928404 -0.010747811008303345 0 0.0010314321519118831 -0.010645060598586225 0 0.0009651700979652608 -0.011574010879805766 0 0.00048981163994928404 -0.010747811008303345 0 -0.0001879317684791598 -0.010984495679549816 0 0.00019442767129772056 -0.011928119222665734 0 -0.00010546971494225175 -0.010005673387832578 0 -0.00051359769323898225 -0.010493083652293634 0 -0.0001879317684791598 -0.010984495679549816 0 -0.00051359769323898225 -0.010493083652293634 0 -0.0001879317684791598 -0.010984495679549816 0 -0.00085834032033177399 -0.010987826639126081 0 -0.00010546971494225175 -0.010005673387832578 0 0.00048981163994928404 -0.010747811008303345 0 -0.0001879317684791598 -0.010984495679549816 0 -0.0001879317684791598 -0.010984495679549816 0 -0.00085834032033177399 -0.010987826639126081 0 -0.00039470473624481366 -0.011706451058484812 0 -0.00051359769323898225 -0.010493083652293634 0 -0.00085834032033177399 -0.010987826639126081 0 -0.00088882720228754535 -0.0099867998348568045 0 -0.00085834032033177399 -0.010987826639126081 0 -0.0016561884689340269 -0.01134328330177994 0 -0.001574790851721496 -0.010409652851809842 0 -0.00085834032033177399 -0.010987826639126081 0 -0.001574790851721496 -0.010409652851809842 0 -0.00088882720228754535 -0.0099867998348568045 0 -0.00085834032033177399 -0.010987826639126081 0 -0.0016561884689340269 -0.01134328330177994 0 -0.00097027234051934546 -0.012016404922514623 0 -0.0016561884689340269 -0.01134328330177994 0 -0.0022711096365686172 -0.010780004465968447 0 -0.0024085598822426693 -0.011545189001089489 0 -0.0016561884689340269 -0.01134328330177994 0 -0.0022711096365686172 -0.010780004465968447 0 -0.001574790851721496 -0.010409652851809842 0 -0.0022711096365686172 -0.010780004465968447 0 -0.001574790851721496 -0.010409652851809842 0 -0.0024376864859584888 -0.0096811525289154429 0 -0.001574790851721496 -0.010409652851809842 0 -0.0024376864859584888 -0.0096811525289154429 0 -0.0015397984296295166 -0.0093935736030550752 0 -0.00093937323346547955 -0.0092131293986315276 0 -0.0015397984296295166 -0.0093935736030550752 0 -0.00088882720228754535 -0.0099867998348568045 0 -0.00093937323346547955 -0.0092131293986315276 0 -0.00043618625566212897 -0.0090722837019933372 0 -0.00088882720228754535 -0.0099867998348568045 0 -0.001574790851721496 -0.010409652851809842 0 -0.0015397984296295166 -0.0093935736030550752 0 -0.00088882720228754535 -0.0099867998348568045 0 -0.00015187071163138074 -0.0047053817370229321 0 0.00014224432323707117 -0.0049700048582707202 0 -0.00025780881621041886 -0.0050011551474595075 0 0.00014224432323707117 -0.0049700048582707202 0 -0.00025780881621041886 -0.0050011551474595075 0 0.00049978707553770252 -0.0055236515962937428 0 -0.00025780881621041886 -0.0050011551474595075 0 6.8192734507748582e-05 -0.0060629307271602125 0 0.00049978707553770252 -0.0055236515962937428 0 -0.00024267231535474818 -0.0043206651847193522 0 -0.00030876339588403089 -0.0037745430914692259 0 -0.00025780881621041886 -0.0050011551474595075 0 -0.00019991092483088194 -0.0072829496631644014 0 -0.00025780881621041886 -0.0050011551474595075 0 6.8192734507748582e-05 -0.0060629307271602125 0 -0.00022397000247770412 -0.0055080214986740492 0 -0.00025606344218309331 -0.0050082164967984793 0 6.8192734507748582e-05 -0.0060629307271602125 0 0.00049978707553770252 -0.0055236515962937428 0 0.00079602752061766783 -0.006268596498233062 0 0.0016279620191932164 -0.0067993324698808416 0 0.00079602752061766783 -0.006268596498233062 0 0.0012796042734274829 -0.0062872225263575299 0 0.00049978707553770252 -0.0055236515962937428 0 0.00079602752061766783 -0.006268596498233062 0 0.0012796042734274829 -0.0062872225263575299 0 0.00014224432323707117 -0.0049700048582707202 0 0.00095776311446734634 -0.0055330162433199111 0 0.00050759420247166161 -0.0044904553217764509 0 0.00014224432323707117 -0.0049700048582707202 0 0.00049978707553770252 -0.0055236515962937428 0 0.00095776311446734634 -0.0055330162433199111 0 0.00049978707553770252 -0.0055236515962937428 0 0.0012796042734274829 -0.0062872225263575299 0 0.00095776311446734634 -0.0055330162433199111 0 0.00095776311446734634 -0.0055330162433199111 0 0.0020111265456500362 -0.0067932904423265794 0 0.0019998827193949127 -0.005183183513706233 0 0.0021145110041399665 -0.0068904585063523493 0 0.0022120096836865887 -0.0069060545412007943 0 0.0012796042734274829 -0.0062872225263575299 0 0.00095776311446734634 -0.0055330162433199111 0 0.0020111265456500362 -0.0067932904423265794 0 0.0020111265456500362 -0.0067932904423265794 0 0.0015384172231957466 -0.0086406044280367186 0 0.002603441439783243 -0.0088525378013112974 0 0.0016279620191932164 -0.0067993324698808416 0 0.0012796042734274829 -0.0062872225263575299 0 0.0020111265456500362 -0.0067932904423265794 0 0.0016279620191932164 -0.0067993324698808416 0 0.0020111265456500362 -0.0067932904423265794 0 0.0015856181211167306 -0.0070222520207780994 0 0.0020111265456500362 -0.0067932904423265794 0 0.0015856181211167306 -0.0070222520207780994 0 0.0012735240067520879 -0.0078571144413135396 0 0.00060379287257945565 -0.007854953328038634 0 0.0015856181211167306 -0.0070222520207780994 0 0.0012735240067520879 -0.0078571144413135396 0 0.0013702822117434988 -0.0066955432940593602 0 0.00060379287257945565 -0.007854953328038634 0 0.0015856181211167306 -0.0070222520207780994 0 0.0020111265456500362 -0.0067932904423265794 0 0.0012735240067520879 -0.0078571144413135396 0 0.0015384172231957466 -0.0086406044280367186 0 0.00083096343616497175 -0.0088388586617391372 0 0.0012735240067520879 -0.0078571144413135396 0 0.0015384172231957466 -0.0086406044280367186 0 0.00083096343616497175 -0.0088388586617391372 0 0.0015384172231957466 -0.0086406044280367186 0 0.0010392110955551373 -0.0096935272371776911 0 0.0015384172231957466 -0.0086406044280367186 0 0.0017692734091975682 -0.0096675239294391098 0 0.0010392110955551373 -0.0096935272371776911 0 0.0015384172231957466 -0.0086406044280367186 0 0.0017692734091975682 -0.0096675239294391098 0 0.002603441439783243 -0.0088525378013112974 0 0.0017692734091975682 -0.0096675239294391098 0 0.0017518694618555578 -0.010705121453309627 0 0.0026562326989851446 -0.010472892321169448 0 0.0017692734091975682 -0.0096675239294391098 0 0.001404011212365635 -0.010270449567887216 0 0.0017518694618555578 -0.010705121453309627 0 0.0017692734091975682 -0.0096675239294391098 0 0.001404011212365635 -0.010270449567887216 0 0.0010392110955551373 -0.0096935272371776911 0 0.001404011212365635 -0.010270449567887216 0 0.0010392110955551373 -0.0096935272371776911 0 0.0010314321519118831 -0.010645060598586225 0 0.0013405311514805586 -0.011140765876861872 0 0.0017518694618555578 -0.010705121453309627 0 0.0016444640786820626 -0.01221326375070898 0 0.001404011212365635 -0.010270449567887216 0 0.0010314321519118831 -0.010645060598586225 0 0.0013405311514805586 -0.011140765876861872 0 0.0010314321519118831 -0.010645060598586225 0 0.0013405311514805586 -0.011140765876861872 0 0.0009651700979652608 -0.011574010879805766 0 0.001404011212365635 -0.010270449567887216 0 0.0013405311514805586 -0.011140765876861872 0 0.0017518694618555578 -0.010705121453309627 0 0.0017518694618555578 -0.010705121453309627 0 0.0021523767901685496 -0.010601055132790445 0 0.0016444640786820626 -0.01221326375070898 0 -0.00066657532704209716 -0.0072623297774286784 0 -0.00011182543691721399 -0.0076344485705379956 0 -0.00065969040098130957 -0.0082570341149285787 0 0.0012045673609909857 -0.0082044197708951196 0 0.00041903993766737973 -0.010344978687826611 0 0.0016510940096702913 -0.0093838868689413955 0 0.0012045673609909857 -0.0082044197708951196 0 0.0019291024256534114 -0.0042124223399344161 0 0.0019998827193949127 -0.005183183513706233 0 0.00050759420247166161 -0.0044904553217764509 0 0.0017692734091975682 -0.0096675239294391098 0 0.0026562326989851446 -0.010472892321169448 0 0.002603441439783243 -0.0088525378013112974 0 0.0012045673609909857 -0.0082044197708951196 0 0.0022120096836865887 -0.0069060545412007943 0 0.0012045673609909857 -0.0082044197708951196 0 0.0003058078972372081 -0.0055445036348648578 0 0.00095776311446734634 -0.0055330162433199111 0 0.0019998827193949127 -0.005183183513706233 0 0.00050759420247166161 -0.0044904553217764509 0 0.00019461326827724485 -0.0070708463777158287 0 -0.00011182543691721399 -0.0076344485705379956 0 0.00043736564248220258 -0.0077584863212761205 0 -0.00066657532704209716 -0.0072623297774286784 0 0.00019461326827724485 -0.0070708463777158287 0 -0.00011182543691721399 -0.0076344485705379956 0 0.00087120994523677705 -0.0074389771948801331 0 0.00019461326827724485 -0.0070708463777158287 0 0.00043736564248220258 -0.0077584863212761205 0 0.00087120994523677705 -0.0074389771948801331 0 0.00077716227057990535 -0.00793129555597296 0 0.00043736564248220258 -0.0077584863212761205 0 0.00088649668690305621 -0.0068988986987347746 0 0.00087120994523677705 -0.0074389771948801331 0 0.00019461326827724485 -0.0070708463777158287 0 -0.00015645801392506173 -0.0047699267651348035 0 0.00014224432323707117 -0.0049700048582707202 0 0.00050759420247166161 -0.0044904553217764509 0 0.00038846180225222081 -0.0058437833285525584 0 0.0003058078972372081 -0.0055445036348648578 0 0.00093047201260122443 -0.0087479739726780137 0 0.00052686203831234896 -0.0088820070388979638 0 0.00069741068434350383 -0.0085979067733308878 0 0.00052686203831234896 -0.0088820070388979638 0 0.00069741068434350383 -0.0085979067733308878 0 0.00053393145735976483 -0.0083550095789685554 0 0.00052686203831234896 -0.0088820070388979638 0 0.00053393145735976483 -0.0083550095789685554 0 0.00010917029245348333 -0.0088126917277597892 0 0.00093047201260122443 -0.0087479739726780137 0 0.00069741068434350383 -0.0085979067733308878 0 0.00082433087938939568 -0.0082897966915687332 0 0.00069741068434350383 -0.0085979067733308878 0 0.00082433087938939568 -0.0082897966915687332 0 0.00053393145735976483 -0.0083550095789685554 0 0.00082433087938939568 -0.0082897966915687332 0 0.00077716227057990535 -0.00793129555597296 0 0.00053393145735976483 -0.0083550095789685554 0 0.00077716227057990535 -0.00793129555597296 0 0.00043736564248220258 -0.0077584863212761205 0 0.00053393145735976483 -0.0083550095789685554 0 0.00043736564248220258 -0.0077584863212761205 0 0.00053393145735976483 -0.0083550095789685554 0 7.4918981926731538e-05 -0.0081506035426039125 0 -0.00011182543691721399 -0.0076344485705379956 0 7.4918981926731538e-05 -0.0081506035426039125 0 -0.00065969040098130957 -0.0082570341149285787 0 7.4918981926731538e-05 -0.0081506035426039125 0 0.00010917029245348333 -0.0088126917277597892 0 -0.00065969040098130957 -0.0082570341149285787 0 -0.00011182543691721399 -0.0076344485705379956 0 0.00043736564248220258 -0.0077584863212761205 0 7.4918981926731538e-05 -0.0081506035426039125 0 0.00053393145735976483 -0.0083550095789685554 0 7.4918981926731538e-05 -0.0081506035426039125 0 0.00010917029245348333 -0.0088126917277597892 0 0.00010917029245348333 -0.0088126917277597892 0 -0.00065969040098130957 -0.0082570341149285787 0 -0.00054855993406649549 -0.0095443324805345887 0 0.0016444640786820626 -0.01221326375070898 0 0.00077643086478061728 -0.012932509844187192 0 0.00060563938422389461 -0.012958759087848949 0 0.00041903993766737973 -0.010344978687826611 0 7.5540441041122675e-05 -0.01113005224164368 0 0.0013405311514805586 -0.011140765876861872 0 0.0016444640786820626 -0.01221326375070898 0 0.0009651700979652608 -0.011574010879805766 0 0.0016444640786820626 -0.01221326375070898 0 0.0009651700979652608 -0.011574010879805766 0 0.00066011273212590767 -0.012538194976083402 0 0.0016444640786820626 -0.01221326375070898 0 0.00077643086478061728 -0.012932509844187192 0 0.00066011273212590767 -0.012538194976083402 0 0.00077643086478061728 -0.012932509844187192 0 0.00051918173994415994 -0.012868921329093235 0 0.00060563938422389461 -0.012958759087848949 0 0.00077643086478061728 -0.012932509844187192 0 0.00051918173994415994 -0.012868921329093235 0 0.00040261028902193819 -0.013522366442765804 0 0.00051918173994415994 -0.012868921329093235 0 -7.6053591659288981e-08 -0.011293699960715992 0 1.0587017413807972e-06 -0.013341075126116302 0 -2.9279080707544474e-06 -0.011284646709905009 0 -0.00054855993406649549 -0.0095443324805345887 0 2.5844789991180329e-06 -0.01083973311591388 0 0.00051918173994415994 -0.012868921329093235 0 -7.6053591659288981e-08 -0.011293699960715992 0 0.00060563938422389461 -0.012958759087848949 0 -2.0088315736738936e-08 -0.011290332351879716 0 7.5540441041122675e-05 -0.01113005224164368 0 0.00010917029245348333 -0.0088126917277597892 0 -0.00054855993406649549 -0.0095443324805345887 0 0.00049883383042681646 -0.0097971741792910773 0 0.00052686203831234896 -0.0088820070388979638 0 0.00010917029245348333 -0.0088126917277597892 0 0.00049883383042681646 -0.0097971741792910773 0 4.6765903145794827e-08 -0.010833705647676292 0 0.00027016854139124173 -0.0092987341042687771 0 -1.0835829302830299e-06 -0.010831947711435756 0 5.0209364004265302e-07 -0.0093452185250849328 0 -8.7770557120332094e-05 -0.0087488296018568036 0 -0.00054855993406649549 -0.0095443324805345887 0 2.5844789991180329e-06 -0.01083973311591388 0 0.00049883383042681646 -0.0097971741792910773 0 0.00026793910744167396 -0.0083499864352603557 0 5.0209364004265302e-07 -0.0093452185250849328 0 -8.7770557120332094e-05 -0.0087488296018568036 0 0.00060169730197591161 -0.0085116025429322791 0 0.00027016854139124173 -0.0092987341042687771 0 0.00093047201260122443 -0.0087479739726780137 0 0.00052686203831234896 -0.0088820070388979638 0 0.00049883383042681646 -0.0097971741792910773 0 0.00032001330604883343 -0.0083286166861713321 0 0.00026793910744167396 -0.0083499864352603557 0 -8.7770557120332094e-05 -0.0087488296018568036 0 0.00032001330604883343 -0.0083286166861713321 0 0.00029591976220269111 -0.0082291573312848407 0 -8.7770557120332094e-05 -0.0087488296018568036 0 -0.00079973990864536787 -0.013173564230958452 0 -0.00037002092108173962 -0.012442851125218767 0 0.00010513227077049863 -0.013048367847666515 0 -0.00079973990864536787 -0.013173564230958452 0 0.00010513227077049863 -0.013048367847666515 0 -0.00013982019568377135 -0.014547998495589064 0 -0.00079973990864536787 -0.013173564230958452 0 -0.0017464140484468743 -0.012370014089568193 0 -0.002031126203150743 -0.014403928322375451 0 -0.00079973990864536787 -0.013173564230958452 0 -0.0017464140484468743 -0.012370014089568193 0 -0.00097027234051934546 -0.012016404922514623 0 -0.0016561884689340269 -0.01134328330177994 0 -0.0017464140484468743 -0.012370014089568193 0 -0.0024085598822426693 -0.011545189001089489 0 -0.0016561884689340269 -0.01134328330177994 0 -0.0017464140484468743 -0.012370014089568193 0 -0.00097027234051934546 -0.012016404922514623 0 -0.00079973990864536787 -0.013173564230958452 0 -0.00097027234051934546 -0.012016404922514623 0 -0.00037002092108173962 -0.012442851125218767 0 -0.00097027234051934546 -0.012016404922514623 0 -0.00037002092108173962 -0.012442851125218767 0 -0.00039470473624481366 -0.011706451058484812 0 -0.00085834032033177399 -0.010987826639126081 0 -0.00097027234051934546 -0.012016404922514623 0 -0.00039470473624481366 -0.011706451058484812 0 -0.00037002092108173962 -0.012442851125218767 0 0.00019442767129772056 -0.011928119222665734 0 0.00010513227077049863 -0.013048367847666515 0 -0.0001879317684791598 -0.010984495679549816 0 -0.00039470473624481366 -0.011706451058484812 0 0.00019442767129772056 -0.011928119222665734 0 -0.00037002092108173962 -0.012442851125218767 0 -0.00039470473624481366 -0.011706451058484812 0 0.00019442767129772056 -0.011928119222665734 0 0.0009651700979652608 -0.011574010879805766 0 0.00019442767129772056 -0.011928119222665734 0 0.00066011273212590767 -0.012538194976083402 0 0.00077643086478061728 -0.012932509844187192 0 0.00066011273212590767 -0.012538194976083402 0 0.00040261028902193819 -0.013522366442765804 0 0.00019442767129772056 -0.011928119222665734 0 0.00066011273212590767 -0.012538194976083402 0 0.00010513227077049863 -0.013048367847666515 0 0.00066011273212590767 -0.012538194976083402 0 0.00010513227077049863 -0.013048367847666515 0 0.00040261028902193819 -0.013522366442765804 0 0.00010513227077049863 -0.013048367847666515 0 0.00040261028902193819 -0.013522366442765804 0 -0.00013982019568377135 -0.014547998495589064 0 0.00051918173994415994 -0.012868921329093235 0 0.00040261028902193819 -0.013522366442765804 0 1.0587017413807972e-06 -0.013341075126116302 0 0.00040261028902193819 -0.013522366442765804 0 1.0587017413807972e-06 -0.013341075126116302 0 1.2550567442240077e-06 -0.015393278069393963 0 0.00040261028902193819 -0.013522366442765804 0 1.2550567442240077e-06 -0.015393278069393963 0 -0.00013982019568377135 -0.014547998495589064 0 1.2550567442240077e-06 -0.015393278069393963 0 -0.00013982019568377135 -0.014547998495589064 0 -4.7731488041779537e-06 -0.017440172409515349 0 -0.00079973990864536787 -0.013173564230958452 0 -0.00013982019568377135 -0.014547998495589064 0 -0.002031126203150743 -0.014403928322375451 0 -0.00013982019568377135 -0.014547998495589064 0 -4.7731488041779537e-06 -0.017440172409515349 0 -0.002031126203150743 -0.014403928322375451 0 -1.9986621473357961e-06 -0.017447560482628553 0 -0.00012464894549780306 -0.018507714709870442 0 5.7806589812423187e-07 -0.019019163546814218 0 -1.9986621473357961e-06 -0.017447560482628553 0 -0.00012464894549780306 -0.018507714709870442 0 -0.00067361615947764185 -0.019952772020335758 0 -4.3942215989118131e-07 -0.017444741472262215 0 -0.0013372627957307216 -0.016894379634671192 0 -0.00012464894549780306 -0.018507714709870442 0 1.8886822810697304e-05 -0.019837809175125093 0 -0.00017596338406589482 -0.019737328980713086 0 -0.00012464894549780306 -0.018507714709870442 0 5.7806589812423187e-07 -0.019019163546814218 0 1.8886822810697304e-05 -0.019837809175125093 0 5.7806589812423187e-07 -0.019019163546814218 0 1.8886822810697304e-05 -0.019837809175125093 0 0.00010226558845533874 -0.020200273568822601 0 1.8886822810697304e-05 -0.019837809175125093 0 0.0001350922076670076 -0.020657464148334369 0 0.00010226558845533874 -0.020200273568822601 0 1.8886822810697304e-05 -0.019837809175125093 0 -0.00015220655842042635 -0.020182714062970099 0 -0.00017596338406589482 -0.019737328980713086 0 1.8886822810697304e-05 -0.019837809175125093 0 -0.00015220655842042635 -0.020182714062970099 0 1.1477864564978564e-05 -0.020500883435473433 0 -0.00015220655842042635 -0.020182714062970099 0 1.1477864564978564e-05 -0.020500883435473433 0 -0.00018328660151779145 -0.020694119038599915 0 1.8886822810697304e-05 -0.019837809175125093 0 1.1477864564978564e-05 -0.020500883435473433 0 0.0001350922076670076 -0.020657464148334369 0 -0.00029884134712869303 -0.018417730554985849 0 -0.00034280194303309898 -0.020967605710929389 0 -0.00012464894549780306 -0.018507714709870442 0 -0.00067361615947764185 -0.019952772020335758 0 -0.00049506210712034688 -0.020226551430751111 0 -0.00012464894549780306 -0.018507714709870442 0 -0.00017596338406589482 -0.019737328980713086 0 -0.00059088168789200261 -0.020488777068310364 0 -0.00015220655842042635 -0.020182714062970099 0 -0.00017596338406589482 -0.019737328980713086 0 -0.00059088168789200261 -0.020488777068310364 0 -0.00015220655842042635 -0.020182714062970099 0 -0.00059088168789200261 -0.020488777068310364 0 -0.00018328660151779145 -0.020694119038599915 0 -0.00059088168789200261 -0.020488777068310364 0 -0.00018328660151779145 -0.020694119038599915 0 -0.0003789517615008231 -0.021077016533722726 0 -0.0017464140484468743 -0.012370014089568193 0 -0.002031126203150743 -0.014403928322375451 0 -0.0029763992504790696 -0.012340782848086533 0 -0.0013372627957307216 -0.016894379634671192 0 -0.0013633106278336026 -0.018078178258783262 0 -0.00034280194303309898 -0.020967605710929389 0 -0.0013633106278336026 -0.018078178258783262 0 -0.00067361615947764185 -0.019952772020335758 0 -0.00049506210712034688 -0.020226551430751111 0 -0.00042133026349476337 -0.021448429463020134 0 1.1477864564978564e-05 -0.020500883435473433 0 0.00010815888520300873 -0.020954275842706392 0 0.0001350922076670076 -0.020657464148334369 0 1.1477864564978564e-05 -0.020500883435473433 0 -0.00018328660151779145 -0.020694119038599915 0 0.00010815888520300873 -0.020954275842706392 0 -0.00018328660151779145 -0.020694119038599915 0 -0.0003789517615008231 -0.021077016533722726 0 0.00010815888520300873 -0.020954275842706392 0 0.00034597685302399829 -0.021998537895205297 0 -0.0015797825579680674 -0.018062318949810426 0 0.00010815888520300873 -0.020954275842706392 0 0.00012229330452619762 -0.020877542210260676 0 8.533203097978539e-05 -0.020909142675004586 0 -0.0003789517615008231 -0.021077016533722726 0 0.00010815888520300873 -0.020954275842706392 0 -0.00030656955837734612 -0.02140463445536232 0 -0.0013633106278336026 -0.018078178258783262 0 -0.0018704806997954339 -0.013711766202799994 0 -0.0017464140484468743 -0.012370014089568193 0 -0.0029763992504790696 -0.012340782848086533 0 -0.0024085598822426693 -0.011545189001089489 0 -0.0029763992504790696 -0.012340782848086533 0 -0.0032165404221366082 -0.010941601325976703 0 -0.0024085598822426693 -0.011545189001089489 0 -0.0013633106278336026 -0.018078178258783262 0 -0.0015797825579680674 -0.018062318949810426 0 3.5034556959146118e-05 -0.020990870249566754 0 -5.4367427039443706e-05 -0.020983131426025252 0 -1.2620697626987384e-05 -0.020917149269578807 0 3.5034556959146118e-05 -0.020990870249566754 0 5.4710802638287292e-05 -0.02093529272936805 0 -1.2620697626987384e-05 -0.020917149269578807 0 5.4710802638287292e-05 -0.02093529272936805 0 0.00010815888520300873 -0.020954275842706392 0 8.533203097978539e-05 -0.020909142675004586 0 3.5034556959146118e-05 -0.020990870249566754 0 5.4710802638287292e-05 -0.02093529272936805 0 0.00010815888520300873 -0.020954275842706392 0 0.00010815888520300873 -0.020954275842706392 0 0.00011236724043795471 -0.021126751668519208 0 0.0001350922076670076 -0.020657464148334369 0 3.5034556959146118e-05 -0.020990870249566754 0 0.00010815888520300873 -0.020954275842706392 0 0.00011236724043795471 -0.021126751668519208 0 0.0001237807269808379 -0.021249013111833418 0 2.9649246880439022e-05 -0.021567026460619049 0 3.5034556959146118e-05 -0.020990870249566754 0 0.00011236724043795471 -0.021126751668519208 0 -8.4325715051175758e-05 -0.021087672832244237 0 0.00011236724043795471 -0.021126751668519208 0 0.00011699865949972636 -0.021316640447622992 0 4.9125228720359636e-05 -0.022051909354234258 0 0.00011236724043795471 -0.021126751668519208 0 0.00011699865949972636 -0.021316640447622992 0 0.0001350922076670076 -0.020657464148334369 0 0.00011699865949972636 -0.021316640447622992 0 0.0001350922076670076 -0.020657464148334369 0 0.00010226558845533874 -0.020200273568822601 0 0.00011699865949972636 -0.021316640447622992 0 3.1782188088694192e-07 -0.020595795923780774 0 0.00010226558845533874 -0.020200273568822601 0 5.7806589812423187e-07 -0.019019163546814218 0 3.1782188088694192e-07 -0.020595795923780774 0 0.00010226558845533874 -0.020200273568822601 0 0.00011699865949972636 -0.021316640447622992 0 3.1782188088694192e-07 -0.020595795923780774 0 6.7952073564397917e-08 -0.022167087955542706 0 0.00011699865949972636 -0.021316640447622992 0 6.7952073564397917e-08 -0.022167087955542706 0 2.1811415368634431e-05 -0.021955738731648484 0 2.4652521625993136e-07 -0.02217042706696019 0 0.00013165198154178344 -0.02311995967661782 0 6.7952073564397917e-08 -0.022167087955542706 0 2.1811415368634431e-05 -0.021955738731648484 0 0.00010708936838523576 -0.022058323313934314 0 -3.295420264470441e-07 -0.02217081759276043 0 -5.07483545079985e-08 -0.024048723565858136 0 -5.5684374754428286e-05 -0.024101953707313589 0 2.1811415368634431e-05 -0.021955738731648484 0 0.00010708936838523576 -0.022058323313934314 0 0.00012577654274803046 -0.022221043475513888 0 2.1811415368634431e-05 -0.021955738731648484 0 0.00012577654274803046 -0.022221043475513888 0 7.81370002692037e-05 -0.021998656541796474 0 0.00012577654274803046 -0.022221043475513888 0 0.00022198747137012906 -0.022473962099548939 0 7.81370002692037e-05 -0.021998656541796474 0 0.00011699865949972636 -0.021316640447622992 0 2.1811415368634431e-05 -0.021955738731648484 0 7.81370002692037e-05 -0.021998656541796474 0 0.00011699865949972636 -0.021316640447622992 0 7.81370002692037e-05 -0.021998656541796474 0 4.9125228720359636e-05 -0.022051909354234258 0 1.7024383202586859e-06 -0.025926498940214933 0 0.0001509181241854934 -0.025441202343259764 0 0.00035537629742602697 -0.02524452820249503 0 -5.07483545079985e-08 -0.024048723565858136 0 -5.5684374754428286e-05 -0.024101953707313589 0 0.00035537629742602697 -0.02524452820249503 0 0.00010708936838523576 -0.022058323313934314 0 0.00012577654274803046 -0.022221043475513888 0 0.00043646060154840658 -0.022917694567205372 0 -5.07483545079985e-08 -0.024048723565858136 0 1.7024383202586859e-06 -0.025926498940214933 0 0.00035537629742602697 -0.02524452820249503 0 0.00013165198154178344 -0.02311995967661782 0 0.00030914458083998296 -0.024023665865678036 0 0.00012577654274803046 -0.022221043475513888 0 0.00022198747137012906 -0.022473962099548939 0 0.00043646060154840658 -0.022917694567205372 0 0.00022198747137012906 -0.022473962099548939 0 0.00043646060154840658 -0.022917694567205372 0 0.00040338515996111329 -0.023016439444113034 0 0.00030914458083998296 -0.024023665865678036 0 -2.2691378611806295e-05 -0.024343152011285729 0 0.00043646060154840658 -0.022917694567205372 0 0.00027464643368106429 -0.023661417139416066 0 3.9941532123113838e-05 -0.0244818030787455 0 0.0001509181241854934 -0.025441202343259764 0 0.00035537629742602697 -0.02524452820249503 0 3.9941532123113838e-05 -0.0244818030787455 0 0.00043646060154840658 -0.022917694567205372 0 0.00027464643368106429 -0.023661417139416066 0 0.00040338515996111329 -0.023016439444113034 0 0.00024887239687837177 -0.023109492560089821 0 0.00040338515996111329 -0.023016439444113034 0 0.00035195860328142284 -0.022937441524424868 0 0.00024887239687837177 -0.023109492560089821 0 0.00027464643368106429 -0.023661417139416066 0 0.00040338515996111329 -0.023016439444113034 0 0.00022198747137012906 -0.022473962099548939 0 0.00040338515996111329 -0.023016439444113034 0 0.000281847459950334 -0.02275882450390079 0 -0.00024859733800485016 -0.021008627893265883 0 -0.00033223165226609655 -0.021044873555016642 0 -0.00020739876185023329 -0.02106609346722358 0 -0.00048476524477695371 -0.022990074054705156 0 0.00010774701082681129 -0.021824967762328586 0 0.00040338515996111329 -0.023016439444113034 0 0.00035195860328142284 -0.022937441524424868 0 0.000281847459950334 -0.02275882450390079 0 -0.0013501044261246668 -0.024099340450055962 0 -0.00098364141085427437 -0.024822117319271267 0 -0.00037390204545869184 -0.024495980866542064 0 -0.00035118110440112636 -0.024146098138371413 0 -0.00060410824282332092 -0.024340777128570874 0 -0.00028076703906240621 -0.024250591577018202 0 -0.00048476524477695371 -0.022990074054705156 0 -0.00044065321198496278 -0.024424444830418966 0 -0.00060410824282332092 -0.024340777128570874 0 -0.00037390204545869184 -0.024495980866542064 0 -0.00028076703906240621 -0.024250591577018202 0 -7.527739804832121e-05 -0.023715184286241323 0 -0.00048476524477695371 -0.022990074054705156 0 0.00022198747137012906 -0.022473962099548939 0 4.9125228720359636e-05 -0.022051909354234258 0 0.000281847459950334 -0.02275882450390079 0 2.9649246880439022e-05 -0.021567026460619049 0 0.00010774701082681129 -0.021824967762328586 0 0.00022198747137012906 -0.022473962099548939 0 7.81370002692037e-05 -0.021998656541796474 0 4.9125228720359636e-05 -0.022051909354234258 0 -0.00024859733800485016 -0.021008627893265883 0 -0.00020739876185023329 -0.02106609346722358 0 -0.00017634730055857167 -0.020974615986215573 0 -0.00020739876185023329 -0.02106609346722358 0 -0.00012110939691277598 -0.021011943605292904 0 -0.00017634730055857167 -0.020974615986215573 0 -8.4325715051175758e-05 -0.021087672832244237 0 -0.00020739876185023329 -0.02106609346722358 0 -0.00012110939691277598 -0.021011943605292904 0 -8.4325715051175758e-05 -0.021087672832244237 0 -0.00012110939691277598 -0.021011943605292904 0 -5.4367427039443706e-05 -0.020983131426025252 0 -0.00012110939691277598 -0.021011943605292904 0 -5.4367427039443706e-05 -0.020983131426025252 0 -9.6171886825801187e-05 -0.020933233662159996 0 3.5034556959146118e-05 -0.020990870249566754 0 -8.4325715051175758e-05 -0.021087672832244237 0 -5.4367427039443706e-05 -0.020983131426025252 0 -5.4367427039443706e-05 -0.020983131426025252 0 -9.6171886825801187e-05 -0.020933233662159996 0 -1.2620697626987384e-05 -0.020917149269578807 0 -9.6171886825801187e-05 -0.020933233662159996 0 -6.5204023485026743e-05 -0.020877198580339471 0 -0.0001079448407202833 -0.020878194583940454 0 -9.6171886825801187e-05 -0.020933233662159996 0 -6.5204023485026743e-05 -0.020877198580339471 0 -1.2620697626987384e-05 -0.020917149269578807 0 -9.6171886825801187e-05 -0.020933233662159996 0 -0.00014758805930060613 -0.020898268813242301 0 -0.0001079448407202833 -0.020878194583940454 0 -0.00012110939691277598 -0.021011943605292904 0 -9.6171886825801187e-05 -0.020933233662159996 0 -0.00017634730055857167 -0.020974615986215573 0 -0.00017634730055857167 -0.020974615986215573 0 -0.00014758805930060613 -0.020898268813242301 0 -0.00023803059826764598 -0.020929958595613987 0 -0.00024859733800485016 -0.021008627893265883 0 -0.00017634730055857167 -0.020974615986215573 0 -0.00023803059826764598 -0.020929958595613987 0 -9.6171886825801187e-05 -0.020933233662159996 0 -0.00017634730055857167 -0.020974615986215573 0 -0.00014758805930060613 -0.020898268813242301 0 -0.0038069735645308912 -0.027072279172699262 0 -0.0026099657145010149 -0.025559452957869998 0 -0.0026849896817322276 -0.026751751754918486 0 -0.00014758805930060613 -0.020898268813242301 0 -0.00014663658100626191 -0.020840791580979814 0 -0.00023803059826764598 -0.020929958595613987 0 -0.00083154885700262705 -0.024059115171648344 0 -0.0016141634154016786 -0.023238052337881041 0 -0.00014758805930060613 -0.020898268813242301 0 -0.00014663658100626191 -0.020840791580979814 0 -0.00012262431047036412 -0.020845185343046194 0 -0.00083154885700262705 -0.024059115171648344 0 -0.00085979006436826661 -0.02333707605666626 0 -0.00014289332622385268 -0.02084607055103601 0 -0.00012262431047036412 -0.020845185343046194 0 -9.7995109608147197e-05 -0.02083135339596117 0 -0.00012262431047036412 -0.020845185343046194 0 -9.1073344936989237e-05 -0.020853026886082589 0 -0.0001079448407202833 -0.020878194583940454 0 -0.00012262431047036412 -0.020845185343046194 0 -9.1073344936989237e-05 -0.020853026886082589 0 -9.7995109608147197e-05 -0.02083135339596117 0 -9.1073344936989237e-05 -0.020853026886082589 0 -6.5204023485026743e-05 -0.020877198580339471 0 -6.0679377149514323e-05 -0.02083570557887432 0 -9.1073344936989237e-05 -0.020853026886082589 0 -9.7995109608147197e-05 -0.02083135339596117 0 -6.0679377149514323e-05 -0.02083570557887432 0 -9.1073344936989237e-05 -0.020853026886082589 0 -6.5204023485026743e-05 -0.020877198580339471 0 -0.0001079448407202833 -0.020878194583940454 0 -0.00014758805930060613 -0.020898268813242301 0 -0.00012262431047036412 -0.020845185343046194 0 -0.0001079448407202833 -0.020878194583940454 0 -0.0013501044261246668 -0.024099340450055962 0 -0.00098364141085427437 -0.024822117319271267 0 -0.0015215412865627986 -0.025345609668044437 0 -0.00066649770914907621 -0.0254599990028135 0 -0.00098364141085427437 -0.024822117319271267 0 -0.00037390204545869184 -0.024495980866542064 0 -0.00066649770914907621 -0.0254599990028135 0 -0.00098364141085427437 -0.024822117319271267 0 -0.0015215412865627986 -0.025345609668044437 0 -0.00048476524477695371 -0.022990074054705156 0 -0.0016141634154016786 -0.023238052337881041 0 -0.00024859733800485016 -0.021008627893265883 0 -0.00033223165226609655 -0.021044873555016642 0 -0.00023803059826764598 -0.020929958595613987 0 -0.0013501044261246668 -0.024099340450055962 0 -0.0015215412865627986 -0.025345609668044437 0 -0.0026099657145010149 -0.025559452957869998 0 -0.0015215412865627986 -0.025345609668044437 0 -0.0026099657145010149 -0.025559452957869998 0 -0.0017725789915068004 -0.02681338916434009 0 -0.0026099657145010149 -0.025559452957869998 0 -0.0026849896817322276 -0.026751751754918486 0 -0.0017725789915068004 -0.02681338916434009 0 -0.0026849896817322276 -0.026751751754918486 0 -0.0017725789915068004 -0.02681338916434009 0 -0.0025679438264796426 -0.027526125802864284 0 -0.00066649770914907621 -0.0254599990028135 0 -0.0015215412865627986 -0.025345609668044437 0 -0.0017725789915068004 -0.02681338916434009 0 -0.00094072349782040759 -0.026293642371086647 0 -0.0017725789915068004 -0.02681338916434009 0 -0.00093408783650326369 -0.027147089839073182 0 -0.00090151798312252827 -0.025946516402209931 0 -0.0016817590535094693 -0.026730522884783444 0 -0.00089117978963852132 -0.027796753257683698 0 -0.0014369982573652258 -0.027892501753924607 0 -0.00035864099329005147 -0.028328731098011647 0 -0.0017725789915068004 -0.02681338916434009 0 -0.00093408783650326369 -0.027147089839073182 0 -0.0014758039666204932 -0.027908203786126906 0 -0.00093408783650326369 -0.027147089839073182 0 -0.00089117978963852132 -0.027796753257683698 0 -0.0014758039666204932 -0.027908203786126906 0 -0.0010362042128845364 -0.028361541298087857 0 -0.00049096621329339717 -0.029296753428961413 0 -0.00048402764802014844 -0.027420785204812396 0 -0.00029941881533250211 -0.027461210768499875 0 -0.00019088270553342351 -0.027335348102712969 0 -0.00049096621329339717 -0.029296753428961413 0 0.00066775830790539266 -0.031510936332774533 0 -0.00049096621329339717 -0.029296753428961413 0 -0.0015867695454194262 -0.027431647571427298 0 -0.0017725789915068004 -0.02681338916434009 0 -0.0014758039666204932 -0.027908203786126906 0 -0.0025679438264796426 -0.027526125802864284 0 0.00057596864083860565 -0.034401961631539982 0 0.0012685751291278734 -0.034263574356451484 0 0.00091512762954881115 -0.033871752648270553 0 -0.00049096621329339717 -0.029296753428961413 0 -0.00012156476528686464 -0.031407265823857528 0 0.00057596864083860565 -0.034401961631539982 0 5.7387798678668507e-05 -0.034253070485683837 0 0.00028560791813752305 -0.033845213856273988 0 0.00057596864083860565 -0.034401961631539982 0 0.00028560791813752305 -0.033845213856273988 0 0.00091512762954881115 -0.033871752648270553 0 -0.00014289332622385268 -0.02084607055103601 0 -9.7995109608147197e-05 -0.02083135339596117 0 -6.7649816449536358e-05 -0.020795645143911731 0 -0.00010953319664367602 -0.027512264501611504 0 -0.00019088270553342351 -0.027335348102712969 0 0.00011833238842628467 -0.027257765882104486 0 -0.00083154885700262705 -0.024059115171648344 0 0.00045145274546583362 -0.025776703236883542 0 -0.00014289332622385268 -0.02084607055103601 0 -6.7027061003663757e-05 -0.020749665800812004 0 -6.7649816449536358e-05 -0.020795645143911731 0 -9.7995109608147197e-05 -0.02083135339596117 0 -6.7649816449536358e-05 -0.020795645143911731 0 -6.0679377149514323e-05 -0.02083570557887432 0 -0.00010953319664367602 -0.027512264501611504 0 -0.00029941881533250211 -0.027461210768499875 0 -0.00019088270553342351 -0.027335348102712969 0 -0.00083154885700262705 -0.024059115171648344 0 -0.0015867695454194262 -0.027431647571427298 0 -0.0038069735645308912 -0.027072279172699262 0 -0.0026849896817322276 -0.026751751754918486 0 -0.0025679438264796426 -0.027526125802864284 0 0.0012685751291278734 -0.034263574356451484 0 0.0015345974375118125 -0.033688726919844772 0 0.00091512762954881115 -0.033871752648270553 0 0.0012685751291278734 -0.034263574356451484 0 0.0020003658799007109 -0.034083267830379647 0 0.0015345974375118125 -0.033688726919844772 0 0.00066775830790539266 -0.031510936332774533 0 0.00045145274546583362 -0.025776703236883542 0 5.5153763530666473e-05 -0.021859575501524276 0 -0.00070758613193068573 -0.021938050230959218 0 -0.00048246093700919846 -0.022455479211967048 0 0.00045145274546583362 -0.025776703236883542 0 -0.00028496115698254954 -0.021310516668715796 0 0.00045145274546583362 -0.025776703236883542 0 0.00083698834927128116 -0.028340366175074069 0 -6.7027061003663757e-05 -0.020749665800812004 0 8.421441670738673e-06 -0.020761088507594474 0 3.0840785674589548e-06 -0.020705748584112518 0 -6.7649816449536358e-05 -0.020795645143911731 0 -2.0169276329033571e-05 -0.02081184163219044 0 8.421441670738673e-06 -0.020761088507594474 0 -6.7027061003663757e-05 -0.020749665800812004 0 -6.7649816449536358e-05 -0.020795645143911731 0 8.421441670738673e-06 -0.020761088507594474 0 -6.7649816449536358e-05 -0.020795645143911731 0 -2.0169276329033571e-05 -0.02081184163219044 0 -6.0679377149514323e-05 -0.02083570557887432 0 8.421441670738673e-06 -0.020761088507594474 0 0.00010269314900827007 -0.020778638203665521 0 3.4584137624827238e-05 -0.020824248026271586 0 -2.0169276329033571e-05 -0.02081184163219044 0 8.421441670738673e-06 -0.020761088507594474 0 3.4584137624827238e-05 -0.020824248026271586 0 -0.00028496115698254954 -0.021310516668715796 0 -0.0016564225020345425 -0.016613895120575633 0 8.421441670738673e-06 -0.020761088507594474 0 3.0840785674589548e-06 -0.020705748584112518 0 6.6498301587086955e-05 -0.020661534513699301 0 -0.00070758613193068573 -0.021938050230959218 0 -0.0011476134315675283 -0.022096693688151526 0 -0.0015169801986209769 -0.021989484127228159 0 -0.00084172301438187769 -0.022250684849950651 0 -0.00070758613193068573 -0.021938050230959218 0 -0.00048246093700919846 -0.022455479211967048 0 -0.00084172301438187769 -0.022250684849950651 0 -0.00070758613193068573 -0.021938050230959218 0 -0.0011476134315675283 -0.022096693688151526 0 -0.0011476134315675283 -0.022096693688151526 0 -0.0015169801986209769 -0.021989484127228159 0 -0.0014959543362960386 -0.022084162265712966 0 -0.0016828879595633503 -0.013782225148755645 0 -0.0024904719138429082 -0.013832673516994149 0 -0.0015713234632178958 -0.014279472741067398 0 -0.0011476134315675283 -0.022096693688151526 0 -0.0015186311089380358 -0.022101676211808148 0 -0.0014671743919740955 -0.0223360899319309 0 -0.004189002747906732 -0.0078936367385287042 0 -0.0036327581292922243 -0.0083872849947506291 0 -0.0038679035765615643 -0.0089511816443252606 0 -0.0016564225020345425 -0.016613895120575633 0 -0.0030733118198336346 -0.011547731851112622 0 -0.0015023993999707373 -0.018739073717740636 0 -0.0015696099672106386 -0.016328227560706329 0 -0.0015696099672106386 -0.016328227560706329 0 -0.0014686308025183327 -0.017897418708426021 0 -0.004189002747906732 -0.0078936367385287042 0 -0.0042134466808968754 -0.0077753427422283172 0 -0.0037579198991762484 -0.0077165971613748401 0 -0.0016564225020345425 -0.016613895120575633 0 -0.0015696099672106386 -0.016328227560706329 0 -0.004189002747906732 -0.0078936367385287042 0 -0.0036767171030233931 -0.0078042028160601445 0 -0.0035215494887806745 -0.0080696835860937927 0 -0.004189002747906732 -0.0078936367385287042 0 -0.0037579198991762484 -0.0077165971613748401 0 -0.0036767171030233931 -0.0078042028160601445 0 -0.0015696099672106386 -0.016328227560706329 0 -0.0026310240606811563 -0.010690977182615696 0 -0.0026310240606811563 -0.010690977182615696 0 -0.0028926501516474789 -0.010312227889238617 0 -0.004189002747906732 -0.0078936367385287042 0 -0.0036327581292922243 -0.0083872849947506291 0 -0.0035215494887806745 -0.0080696835860937927 0 -0.0019601470977514976 -0.0074108372899713889 0 -0.0037643356028952512 -0.007708588055971256 0 -0.0031547016279608467 -0.0079299504142975492 0 -0.001191977644388038 -0.0072418914697786026 0 -0.0026310240606811563 -0.010690977182615696 0 -0.0019601470977514976 -0.0074108372899713889 0 -0.0031547016279608467 -0.0079299504142975492 0 -0.0026668973422156899 -0.0083069359956565517 0 -0.0036767171030233931 -0.0078042028160601445 0 -0.0031547016279608467 -0.0079299504142975492 0 -0.0035215494887806745 -0.0080696835860937927 0 -0.0037643356028952512 -0.007708588055971256 0 -0.0036767171030233931 -0.0078042028160601445 0 -0.0031547016279608467 -0.0079299504142975492 0 -0.0031547016279608467 -0.0079299504142975492 0 -0.003329322491474915 -0.0082822530319041007 0 -0.0035215494887806745 -0.0080696835860937927 0 -0.0036327581292922243 -0.0083872849947506291 0 -0.003329322491474915 -0.0082822530319041007 0 -0.0035215494887806745 -0.0080696835860937927 0 -0.0036327581292922243 -0.0083872849947506291 0 -0.0033952883446129989 -0.0084963087099816492 0 -0.0034883350437438288 -0.0087221806619436661 0 -0.0036327581292922243 -0.0083872849947506291 0 -0.003329322491474915 -0.0082822530319041007 0 -0.0033952883446129989 -0.0084963087099816492 0 -0.003329322491474915 -0.0082822530319041007 0 -0.0033952883446129989 -0.0084963087099816492 0 -0.0031311934295099259 -0.008593227431298426 0 -0.003329322491474915 -0.0082822530319041007 0 -0.0026668973422156899 -0.0083069359956565517 0 -0.0031311934295099259 -0.008593227431298426 0 -0.0031547016279608467 -0.0079299504142975492 0 -0.003329322491474915 -0.0082822530319041007 0 -0.0026668973422156899 -0.0083069359956565517 0 -0.003330946095414808 -0.009411821492629693 0 -0.0035912138071238758 -0.0090049699588434038 0 -0.0035122940916472887 -0.010125706367003662 0 -0.003622817654444865 -0.0086916921215984891 0 -0.0029900658746632486 -0.01168193182519804 0 -0.0026668973422156899 -0.0083069359956565517 0 -0.0026387130143832494 -0.0089250815905914209 0 -0.0031311934295099259 -0.008593227431298426 0 -0.0026387130143832494 -0.0089250815905914209 0 -0.0032067618360962363 -0.0089888701430855134 0 -0.0031311934295099259 -0.008593227431298426 0 -0.0032067618360962363 -0.0089888701430855134 0 -0.0031311934295099259 -0.008593227431298426 0 -0.0034883350437438288 -0.0087221806619436661 0 -0.0033952883446129989 -0.0084963087099816492 0 -0.0031311934295099259 -0.008593227431298426 0 -0.0034883350437438288 -0.0087221806619436661 0 -0.0032067618360962363 -0.0089888701430855134 0 -0.0034883350437438288 -0.0087221806619436661 0 -0.0035912138071238758 -0.0090049699588434038 0 -0.0032067618360962363 -0.0089888701430855134 0 -0.003330946095414808 -0.009411821492629693 0 -0.0035912138071238758 -0.0090049699588434038 0 -0.003330946095414808 -0.009411821492629693 0 -0.0030008997476204695 -0.0093630267522761459 0 -0.0031376471933607887 -0.0098797068625615901 0 -0.0032067618360962363 -0.0089888701430855134 0 -0.003330946095414808 -0.009411821492629693 0 -0.0030008997476204695 -0.0093630267522761459 0 -0.0026387130143832494 -0.0089250815905914209 0 -0.0032067618360962363 -0.0089888701430855134 0 -0.0030008997476204695 -0.0093630267522761459 0 -0.0024755700569109819 -0.0099331617384817855 0 -0.0026387130143832494 -0.0089250815905914209 0 -0.0030008997476204695 -0.0093630267522761459 0 -0.0018309867647818257 -0.015276682340442776 0 -0.0018216036027742057 -0.015347624625184965 0 -0.0018916503230621095 -0.015209554355005268 0 -0.0017345406991423574 -0.015495110659214327 0 -0.0018309867647818257 -0.015276682340442776 0 -0.0018216036027742057 -0.015347624625184965 0 -0.0035912138071238758 -0.0090049699588434038 0 -0.0038679035765615643 -0.0089511816443252606 0 -0.003465273155241826 -0.010376884728363716 0 -0.0016564225020345425 -0.016613895120575633 0 -0.00065363602166979993 -0.01834785576135024 0 -0.0030733118198336346 -0.011547731851112622 0 -0.0029900658746632486 -0.01168193182519804 0 8.421441670738673e-06 -0.020761088507594474 0 6.6498301587086955e-05 -0.020661534513699301 0 0.00010269314900827007 -0.020778638203665521 0 -0.0036327581292922243 -0.0083872849947506291 0 -0.0034883350437438288 -0.0087221806619436661 0 -0.0038679035765615643 -0.0089511816443252606 0 -0.0034883350437438288 -0.0087221806619436661 0 -0.0035912138071238758 -0.0090049699588434038 0 -0.0038679035765615643 -0.0089511816443252606 0 -0.0018309867647818257 -0.015276682340442776 0 -0.0018916503230621095 -0.015209554355005268 0 -0.0019117177779345608 -0.015088301925007801 0 -0.00065363602166979993 -0.01834785576135024 0 -0.0015797825579680674 -0.018062318949810426 0 0.00010269314900827007 -0.020778638203665521 0 7.699038664213528e-05 -0.020856570854073359 0 3.4584137624827238e-05 -0.020824248026271586 0 0.00010269314900827007 -0.020778638203665521 0 7.699038664213528e-05 -0.020856570854073359 0 0.00012229330452619762 -0.020877542210260676 0 -0.0024755700569109819 -0.0099331617384817855 0 -0.0033633647747131966 -0.010596805062605828 0 -0.0033866405586570822 -0.01122668383788219 0 -0.0024681092985272394 -0.0094787081209838364 0 -0.0018704806997954339 -0.013711766202799994 0 -0.0024755700569109819 -0.0099331617384817855 0 -0.0030008997476204695 -0.0093630267522761459 0 -0.0031376471933607887 -0.0098797068625615901 0 -0.0024755700569109819 -0.0099331617384817855 0 -0.0031376471933607887 -0.0098797068625615901 0 -0.0033633647747131966 -0.010596805062605828 0 -0.003330946095414808 -0.009411821492629693 0 -0.0031376471933607887 -0.0098797068625615901 0 -0.0035122940916472887 -0.010125706367003662 0 -0.0035136486960183426 -0.010137300658576957 0 -0.0033633647747131966 -0.010596805062605828 0 -0.0033866405586570822 -0.01122668383788219 0 -0.0031376471933607887 -0.0098797068625615901 0 -0.0035122940916472887 -0.010125706367003662 0 -0.0033633647747131966 -0.010596805062605828 0 -0.0029900658746632486 -0.01168193182519804 0 -0.0018704806997954339 -0.013711766202799994 0 -0.0029900658746632486 -0.01168193182519804 0 -0.0033246199655845732 -0.010663559059042959 0 -0.0022711096365686172 -0.010780004465968447 0 -0.0024376864859584888 -0.0096811525289154429 0 -0.0032165404221366082 -0.010941601325976703 0 -0.0015807278325098843 -0.01800816601305984 0 -0.001766073536985412 -0.016039243226971492 0 -0.0019438947358018284 -0.016274333527174948 0 -0.0018916503230621095 -0.015209554355005268 0 -0.0019222046044079363 -0.015102809846503803 0 -0.0019117177779345608 -0.015088301925007801 0 -0.0018704806997954339 -0.013711766202799994 0 -0.0015797825579680674 -0.018062318949810426 0 -0.0022711096365686172 -0.010780004465968447 0 -0.0032165404221366082 -0.010941601325976703 0 -0.0024085598822426693 -0.011545189001089489 0 7.699038664213528e-05 -0.020856570854073359 0 0.00012229330452619762 -0.020877542210260676 0 8.533203097978539e-05 -0.020909142675004586 0 7.699038664213528e-05 -0.020856570854073359 0 8.533203097978539e-05 -0.020909142675004586 0 3.4841600368144658e-05 -0.020881387975356568 0 5.4710802638287292e-05 -0.02093529272936805 0 8.533203097978539e-05 -0.020909142675004586 0 3.4841600368144658e-05 -0.020881387975356568 0 5.4710802638287292e-05 -0.02093529272936805 0 3.4841600368144658e-05 -0.020881387975356568 0 -1.2620697626987384e-05 -0.020917149269578807 0 -6.5204023485026743e-05 -0.020877198580339471 0 -1.2620697626987384e-05 -0.020917149269578807 0 -1.4049935112695457e-05 -0.020857483240196321 0 3.4841600368144658e-05 -0.020881387975356568 0 -1.2620697626987384e-05 -0.020917149269578807 0 -1.4049935112695457e-05 -0.020857483240196321 0 -6.5204023485026743e-05 -0.020877198580339471 0 -1.4049935112695457e-05 -0.020857483240196321 0 -6.0679377149514323e-05 -0.02083570557887432 0 -2.0169276329033571e-05 -0.02081184163219044 0 -1.4049935112695457e-05 -0.020857483240196321 0 -6.0679377149514323e-05 -0.02083570557887432 0 -2.0169276329033571e-05 -0.02081184163219044 0 -1.4049935112695457e-05 -0.020857483240196321 0 3.4584137624827238e-05 -0.020824248026271586 0 7.699038664213528e-05 -0.020856570854073359 0 3.4841600368144658e-05 -0.020881387975356568 0 3.4584137624827238e-05 -0.020824248026271586 0 3.4841600368144658e-05 -0.020881387975356568 0 -1.4049935112695457e-05 -0.020857483240196321 0 3.4584137624827238e-05 -0.020824248026271586 0 1.4231594297449137e-06 -0.03499601930932459 0 0.00018404011565219741 -0.034201098129303317 0 9.4657286305311638e-05 -0.034771269893042765 0 1.4231594297449137e-06 -0.03499601930932459 0 -4.308420452359024e-07 -0.035000579853160595 0 9.4657286305311638e-05 -0.034771269893042765 0 0.00018404011565219741 -0.034201098129303317 0 -1.2485463254948292e-05 -0.034528785614451989 0 9.4657286305311638e-05 -0.034771269893042765 0 -9.9293423157772589e-05 -0.034442191583183922 0 1.7812374812705712e-05 -0.034748293077483762 0 1.4231594297449137e-06 -0.03499601930932459 0 0.00018404011565219741 -0.034201098129303317 0 -2.0967613895970773e-06 -0.03125680629741133 0 0.00018404011565219741 -0.034201098129303317 0 -0.00024907578303313017 -0.033309066593186838 0 -0.00035082095996336976 -0.034043740162647974 0 0.00018404011565219741 -0.034201098129303317 0 -2.0967613895970773e-06 -0.03125680629741133 0 -0.00024907578303313017 -0.033309066593186838 0 -1.3553134707035441e-07 -0.03124937089400524 0 -0.00040810340982517525 -0.031276583329518687 0 -2.0967613895970773e-06 -0.03125680629741133 0 -0.00024907578303313017 -0.033309066593186838 0 -0.0011144102564231487 -0.03341122196312829 0 -0.00024907578303313017 -0.033309066593186838 0 -0.00035082095996336976 -0.034043740162647974 0 -0.0011144102564231487 -0.03341122196312829 0 -0.00035082095996336976 -0.034043740162647974 0 -0.00046911159222681991 -0.034378744387235032 0 -0.00077368005304246279 -0.034112953907875179 0 -0.00034225643251653846 -0.034091841319139983 0 -9.9293423157772589e-05 -0.034442191583183922 0 0.00018404011565219741 -0.034201098129303317 0 -0.00035082095996336976 -0.034043740162647974 0 -1.2485463254948292e-05 -0.034528785614451989 0 -0.00016565421897128286 -0.034379974717248532 0 -0.00046911159222681991 -0.034378744387235032 0 -0.00022570399505180241 -0.034651099320885025 0 -0.00035082095996336976 -0.034043740162647974 0 -0.00016565421897128286 -0.034379974717248532 0 -0.00046911159222681991 -0.034378744387235032 0 -0.00046911159222681991 -0.034378744387235032 0 -0.00086016990927134716 -0.03426271211913165 0 -0.00077368005304246279 -0.034112953907875179 0 -0.00046911159222681991 -0.034378744387235032 0 -0.00086016990927134716 -0.03426271211913165 0 -0.00050783296245490413 -0.034679333842803042 0 -0.00086016990927134716 -0.03426271211913165 0 -0.00098882914798508284 -0.034129019464069349 0 -0.00077368005304246279 -0.034112953907875179 0 -0.0006746764378082607 -0.032231891254701467 0 -4.3963845748205823e-05 -0.029159417999704482 0 -0.00086016990927134716 -0.03426271211913165 0 -0.00098882914798508284 -0.034129019464069349 0 -0.00082907084278862784 -0.03424047351517287 0 1.6541447983798227e-05 -0.029367328480931102 0 2.0569398696457433e-05 -0.029362079231114866 0 3.1829744918740532e-05 -0.029383554006255211 0 1.6541447983798227e-05 -0.029367328480931102 0 2.0569398696457433e-05 -0.029362079231114866 0 2.6544236471596535e-05 -0.029352704975001361 0 -0.00035082095996336976 -0.034043740162647974 0 -0.00077368005304246279 -0.034112953907875179 0 -0.0011144102564231487 -0.03341122196312829 0 -0.00098882914798508284 -0.034129019464069349 0 -0.00077368005304246279 -0.034112953907875179 0 -0.0011144102564231487 -0.03341122196312829 0 -0.0006746764378082607 -0.032231891254701467 0 -0.00040810340982517525 -0.031276583329518687 0 -1.1136719323035388e-06 -0.031246916375736646 0 3.1829744918740532e-05 -0.029383554006255211 0 1.0705135019221736e-06 -0.029527203250782619 0 1.0705135019221736e-06 -0.029527203250782619 0 0.00011595054711857332 -0.029098713245646009 0 -1.0628392846061207e-06 -0.027807292201742856 0 3.1829744918740532e-05 -0.029383554006255211 0 1.0705135019221736e-06 -0.029527203250782619 0 0.00011595054711857332 -0.029098713245646009 0 2.0569398696457433e-05 -0.029362079231114866 0 3.1829744918740532e-05 -0.029383554006255211 0 0.00011595054711857332 -0.029098713245646009 0 2.0569398696457433e-05 -0.029362079231114866 0 0.00011595054711857332 -0.029098713245646009 0 -0.00023482162719835463 -0.029211553691504782 0 -0.00094750734820051854 -0.024839608039275346 0 -6.6971919202413953e-05 -0.025159020474458848 0 -0.00035975779492713393 -0.024316400144759845 0 -0.00094750734820051854 -0.024839608039275346 0 -2.917939075464457e-06 -0.027801582110686757 0 9.7017017463924206e-07 -0.026071418175175887 0 0.00011595054711857332 -0.029098713245646009 0 -0.00023482162719835463 -0.029211553691504782 0 -1.0628392846061207e-06 -0.027807292201742856 0 -0.00052607907588065413 -0.027028921220460057 0 -2.7599094151409479e-07 -0.027804579690149909 0 1.7024383202586859e-06 -0.025926498940214933 0 -2.917939075464457e-06 -0.027801582110686757 0 9.7017017463924206e-07 -0.026071418175175887 0 1.7024383202586859e-06 -0.025926498940214933 0 0.0001509181241854934 -0.025441202343259764 0 9.7017017463924206e-07 -0.026071418175175887 0 0.0001509181241854934 -0.025441202343259764 0 -6.6971919202413953e-05 -0.025159020474458848 0 3.9941532123113838e-05 -0.0244818030787455 0 0.0001509181241854934 -0.025441202343259764 0 9.7017017463924206e-07 -0.026071418175175887 0 -6.6971919202413953e-05 -0.025159020474458848 0 -0.00094750734820051854 -0.024839608039275346 0 9.7017017463924206e-07 -0.026071418175175887 0 -6.6971919202413953e-05 -0.025159020474458848 0 -6.6971919202413953e-05 -0.025159020474458848 0 3.9941532123113838e-05 -0.0244818030787455 0 -0.00035975779492713393 -0.024316400144759845 0 -0.00013335572298024339 -0.024218669067835805 0 3.9941532123113838e-05 -0.0244818030787455 0 -0.00035975779492713393 -0.024316400144759845 0 0.00027464643368106429 -0.023661417139416066 0 -0.00013335572298024339 -0.024218669067835805 0 3.9941532123113838e-05 -0.0244818030787455 0 0.00024887239687837177 -0.023109492560089821 0 0.00027464643368106429 -0.023661417139416066 0 -0.00013335572298024339 -0.024218669067835805 0 -7.527739804832121e-05 -0.023715184286241323 0 -0.00014765107646680053 -0.024063774090035517 0 -0.00035118110440112636 -0.024146098138371413 0 -0.00026259319485563145 -0.024151851230713998 0 -0.00028076703906240621 -0.024250591577018202 0 -0.00035118110440112636 -0.024146098138371413 0 -0.00013335572298024339 -0.024218669067835805 0 -0.00026259319485563145 -0.024151851230713998 0 -0.00013335572298024339 -0.024218669067835805 0 -0.00026259319485563145 -0.024151851230713998 0 -0.00035975779492713393 -0.024316400144759845 0 2.0569398696457433e-05 -0.029362079231114866 0 -0.00023482162719835463 -0.029211553691504782 0 -0.00015300301499272757 -0.029506804852057141 0 -0.00052607907588065413 -0.027028921220460057 0 1.315099645523042e-05 -0.026823037951105876 0 -0.00094750734820051854 -0.024839608039275346 0 -0.00035975779492713393 -0.024316400144759845 0 -0.00043875181394251335 -0.024054568295548411 0 -0.00046857919503989846 -0.029716774627349785 0 1.315099645523042e-05 -0.026823037951105876 0 -0.00026259319485563145 -0.024151851230713998 0 -0.00035975779492713393 -0.024316400144759845 0 -0.00043875181394251335 -0.024054568295548411 0 1.6541447983798227e-05 -0.029367328480931102 0 2.6544236471596535e-05 -0.029352704975001361 0 2.6245690121685351e-05 -0.029342149438889513 0 1.315099645523042e-05 -0.026823037951105876 0 -4.3963845748205823e-05 -0.029159417999704482 0 0.00033883436152115659 -0.025194141277161936 0 -0.00025175354686952684 -0.025738987519528547 0 0.00038953516761032914 -0.025899279463969672 0 1.315099645523042e-05 -0.026823037951105876 0 -7.7370514955685203e-05 -0.024820116860712647 0 -0.00026259319485563145 -0.024151851230713998 0 -0.00011990764507743247 -0.024352452228177252 0 -0.00028076703906240621 -0.024250591577018202 0 -0.00026259319485563145 -0.024151851230713998 0 -0.00043875181394251335 -0.024054568295548411 0 -0.00011990764507743247 -0.024352452228177252 0 -0.00011990764507743247 -0.024352452228177252 0 -0.00037390204545869184 -0.024495980866542064 0 -0.00028076703906240621 -0.024250591577018202 0 -0.00026470108320270286 -0.026218748348099827 0 0.00038953516761032914 -0.025899279463969672 0 -0.00028956398366581 -0.026959908881991766 0 -0.00094072349782040759 -0.026293642371086647 0 -0.00025175354686952684 -0.025738987519528547 0 -0.00026470108320270286 -0.026218748348099827 0 -0.00066649770914907621 -0.0254599990028135 0 -0.00011990764507743247 -0.024352452228177252 0 -0.00037390204545869184 -0.024495980866542064 0 -0.00090151798312252827 -0.025946516402209931 0 -7.7370514955685203e-05 -0.024820116860712647 0 -0.00025175354686952684 -0.025738987519528547 0 -0.00026470108320270286 -0.026218748348099827 0 0.00038953516761032914 -0.025899279463969672 0 -4.3963845748205823e-05 -0.029159417999704482 0 0.00014908066096347097 -0.025653640231802635 0 -4.3963845748205823e-05 -0.029159417999704482 0 -8.3559028512484993e-05 -0.030843091677268675 0 0.00050437469873960755 -0.025949613283055149 0 0.00061388641383659218 -0.027259835265328287 0 -0.00028956398366581 -0.026959908881991766 0 -0.00094072349782040759 -0.026293642371086647 0 -0.00026470108320270286 -0.026218748348099827 0 -0.00028956398366581 -0.026959908881991766 0 -0.00094072349782040759 -0.026293642371086647 0 -0.00093408783650326369 -0.027147089839073182 0 -0.00028956398366581 -0.026959908881991766 0 -0.00093408783650326369 -0.027147089839073182 0 -0.00089117978963852132 -0.027796753257683698 0 -0.00024259678046545074 -0.027643417881974035 0 0.00061388641383659218 -0.027259835265328287 0 -0.00028956398366581 -0.026959908881991766 0 -0.00024259678046545074 -0.027643417881974035 0 -0.00093408783650326369 -0.027147089839073182 0 -0.00028956398366581 -0.026959908881991766 0 -0.00024259678046545074 -0.027643417881974035 0 -0.00089117978963852132 -0.027796753257683698 0 -0.00024259678046545074 -0.027643417881974035 0 -0.00035864099329005147 -0.028328731098011647 0 -0.00024259678046545074 -0.027643417881974035 0 -0.00035864099329005147 -0.028328731098011647 0 0.00072825048456938738 -0.028780240172868315 0 -0.00012156476528686464 -0.031407265823857528 0 0.00032649033297991396 -0.032079312780160948 0 5.7387798678668507e-05 -0.034253070485683837 0 -0.00039544379724846325 -0.03417540089202032 0 -0.00023196290836079058 -0.033951649345329502 0 0.00032649033297991396 -0.032079312780160948 0 0.00016277340890324564 -0.032472172234405676 0 -0.00038923107915358969 -0.034220958566628587 0 -0.00039558329870281994 -0.034129813189247904 0 -0.00051821702209358441 -0.034194523419151038 0 0.00032649033297991396 -0.032079312780160948 0 0.00028829139271296532 -0.032656732992656388 0 0.00061388641383659218 -0.027259835265328287 0 -0.00024259678046545074 -0.027643417881974035 0 0.00072825048456938738 -0.028780240172868315 0 -8.3559028512484993e-05 -0.030843091677268675 0 0.00032649033297991396 -0.032079312780160948 0 -0.00069555903146450776 -0.034289034597091282 0 -0.00061936209097442139 -0.034289263852573838 0 -0.00068757292376362387 -0.034331684306326368 0 -0.00069555903146450776 -0.034289034597091282 0 -0.00051563287584009828 -0.03421278216142417 0 -0.00061936209097442139 -0.034289263852573838 0 -0.00061936209097442139 -0.034289263852573838 0 -0.00064653946091805189 -0.034238945040567202 0 -0.00058057713791409484 -0.034179271430828488 0 -0.00061936209097442139 -0.034289263852573838 0 -0.00051821702209358441 -0.034194523419151038 0 -0.00058057713791409484 -0.034179271430828488 0 -0.00051563287584009828 -0.03421278216142417 0 -0.00061936209097442139 -0.034289263852573838 0 -0.00051821702209358441 -0.034194523419151038 0 -0.00061936209097442139 -0.034289263852573838 0 -0.00064042342320669288 -0.034392798505264235 0 -0.00064653946091805189 -0.034238945040567202 0 -0.00061936209097442139 -0.034289263852573838 0 -0.00068757292376362387 -0.034331684306326368 0 -0.00064042342320669288 -0.034392798505264235 0 -0.00068757292376362387 -0.034331684306326368 0 -0.000764914979396558 -0.03427632875698175 0 -0.00065778543807816774 -0.034254785994004694 0 -0.00082907084278862784 -0.03424047351517287 0 -0.00069555903146450776 -0.034289034597091282 0 -0.000764914979396558 -0.03427632875698175 0 -0.00069555903146450776 -0.034289034597091282 0 -0.00068757292376362387 -0.034331684306326368 0 -0.000764914979396558 -0.03427632875698175 0 -0.00086016990927134716 -0.03426271211913165 0 -0.00082907084278862784 -0.03424047351517287 0 -0.000764914979396558 -0.03427632875698175 0 -0.00083424137531072455 -0.034282192404607871 0 -0.00057945719472803233 -0.034463864692675872 0 -0.00086016990927134716 -0.03426271211913165 0 -0.000764914979396558 -0.03427632875698175 0 -0.00065778543807816774 -0.034254785994004694 0 -0.00046911159222681991 -0.034378744387235032 0 -0.00050783296245490413 -0.034679333842803042 0 -0.00022570399505180241 -0.034651099320885025 0 -0.00050783296245490413 -0.034679333842803042 0 -0.00022570399505180241 -0.034651099320885025 0 -0.00017556224217701893 -0.034880835776512485 0 -0.00057945719472803233 -0.034463864692675872 0 -0.0003249686496856336 -0.034619312485461066 0 -0.00065778543807816774 -0.034254785994004694 0 -0.00045747013502487233 -0.034343968478207698 0 -0.0006077125809629744 -0.034369872886035394 0 -0.00068757292376362387 -0.034331684306326368 0 -0.00065778543807816774 -0.034254785994004694 0 -0.0006077125809629744 -0.034369872886035394 0 -0.00068757292376362387 -0.034331684306326368 0 -0.0006077125809629744 -0.034369872886035394 0 -0.00064042342320669288 -0.034392798505264235 0 -0.0006077125809629744 -0.034369872886035394 0 -0.00064042342320669288 -0.034392798505264235 0 -0.00049490713915367973 -0.034553990289275645 0 -0.00064042342320669288 -0.034392798505264235 0 -0.00059509706048033054 -0.034459111289720762 0 -0.00064653946091805189 -0.034238945040567202 0 -0.00064042342320669288 -0.034392798505264235 0 -0.00049490713915367973 -0.034553990289275645 0 -0.00059509706048033054 -0.034459111289720762 0 -0.00049490713915367973 -0.034553990289275645 0 -0.00035863854349642846 -0.034751205296147669 0 -0.00059509706048033054 -0.034459111289720762 0 -0.00045747013502487233 -0.034343968478207698 0 -0.0006077125809629744 -0.034369872886035394 0 -0.00049490713915367973 -0.034553990289275645 0 -0.0003249686496856336 -0.034619312485461066 0 -0.00014421517873754877 -0.034799264655128871 0 -0.00045747013502487233 -0.034343968478207698 0 -0.00049490713915367973 -0.034553990289275645 0 -0.00012848755586929514 -0.034826175205351063 0 -0.00049490713915367973 -0.034553990289275645 0 -0.00012848755586929514 -0.034826175205351063 0 -0.00035863854349642846 -0.034751205296147669 0 -1.4057274398303146e-07 -0.034999811844315824 0 -0.00012848755586929514 -0.034826175205351063 0 -0.00035863854349642846 -0.034751205296147669 0 -1.4057274398303146e-07 -0.034999811844315824 0 -1.136479557415969e-07 -0.03499979155132734 0 -0.00012848755586929514 -0.034826175205351063 0 -1.136479557415969e-07 -0.03499979155132734 0 -0.00012848755586929514 -0.034826175205351063 0 5.2741836194391227e-08 -0.034999552051215709 0 -0.00017556224217701893 -0.034880835776512485 0 5.2741836194391227e-08 -0.034999552051215709 0 -4.706528319783054e-05 -0.0347158323202807 0 -0.00017556224217701893 -0.034880835776512485 0 -0.00012848755586929514 -0.034826175205351063 0 5.2741836194391227e-08 -0.034999552051215709 0 -0.00022570399505180241 -0.034651099320885025 0 -0.00017556224217701893 -0.034880835776512485 0 -4.706528319783054e-05 -0.0347158323202807 0 -0.00016565421897128286 -0.034379974717248532 0 -0.00022570399505180241 -0.034651099320885025 0 -4.706528319783054e-05 -0.0347158323202807 0 4.7178022728683149e-08 -0.034999917928835236 0 1.7812374812705712e-05 -0.034748293077483762 0 -1.7119013454804971e-08 -0.03499991262316024 0 -4.029434949883288e-05 -0.034910930077495003 0 -2.6654123961785047e-05 -0.034940011127048157 0 -4.029434949883288e-05 -0.034910930077495003 0 -6.3362130092791676e-05 -0.034868551807517467 0 -2.6654123961785047e-05 -0.034940011127048157 0 -1.7119013454804971e-08 -0.03499991262316024 0 -4.029434949883288e-05 -0.034910930077495003 0 -2.8824947413391563e-08 -0.034999901378046511 0 -4.0883313133853172e-09 -0.034999945052900321 0 -2.8824947413391563e-08 -0.034999901378046511 0 -3.6278432961771247e-05 -0.034921652931599427 0 -1.2883970924188411e-08 -0.034999920736963085 0 -0.0001828095316374121 -0.034824947819290769 0 -4.029434949883288e-05 -0.034910930077495003 0 -2.8824947413391563e-08 -0.034999901378046511 0 -3.6278432961771247e-05 -0.034921652931599427 0 -4.029434949883288e-05 -0.034910930077495003 0 -3.6278432961771247e-05 -0.034921652931599427 0 -8.5957271894040408e-05 -0.034824233461191012 0 -0.0001828095316374121 -0.034824947819290769 0 -0.000349479218043328 -0.034582709240094565 0 -0.00035863854349642846 -0.034751205296147669 0 -0.00059509706048033054 -0.034459111289720762 0 -0.0006484984180503907 -0.034357535824596282 0 -0.00059509706048033054 -0.034459111289720762 0 -0.0006484984180503907 -0.034357535824596282 0 -0.00064653946091805189 -0.034238945040567202 0 -8.5957271894040408e-05 -0.034824233461191012 0 -9.0786344622252035e-05 -0.03482004979341588 0 -0.00015985088395416012 -0.034719982547067596 0 -4.029434949883288e-05 -0.034910930077495003 0 -8.5957271894040408e-05 -0.034824233461191012 0 -9.0786344622252035e-05 -0.03482004979341588 0 -4.029434949883288e-05 -0.034910930077495003 0 -9.0786344622252035e-05 -0.03482004979341588 0 -6.3362130092791676e-05 -0.034868551807517467 0 -9.0786344622252035e-05 -0.03482004979341588 0 -6.3362130092791676e-05 -0.034868551807517467 0 -0.0001290459289664302 -0.034763264819210181 0 -6.3362130092791676e-05 -0.034868551807517467 0 -0.0001290459289664302 -0.034763264819210181 0 -9.4327085773084077e-05 -0.034828269937909703 0 -0.0001290459289664302 -0.034763264819210181 0 -0.00021848922887542928 -0.034648560266092983 0 -0.00016890491234664595 -0.034728817680407142 0 -0.00021848922887542928 -0.034648560266092983 0 -0.00015985088395416012 -0.034719982547067596 0 -0.00023781408439679403 -0.034633485561374765 0 -0.00038739774600132505 -0.034269501152799919 0 -0.00024438112051473627 -0.033917177517951633 0 -9.0786344622252035e-05 -0.03482004979341588 0 -0.0001290459289664302 -0.034763264819210181 0 -0.00015985088395416012 -0.034719982547067596 0 -0.0001290459289664302 -0.034763264819210181 0 -0.00021848922887542928 -0.034648560266092983 0 -0.00015985088395416012 -0.034719982547067596 0 -0.0006484984180503907 -0.034357535824596282 0 -0.00065034520103320005 -0.033827971862647979 0 -0.00064653946091805189 -0.034238945040567202 0 -0.000349479218043328 -0.034582709240094565 0 -0.00038739774600132505 -0.034269501152799919 0 -0.00064653946091805189 -0.034238945040567202 0 -0.00058057713791409484 -0.034179271430828488 0 -0.0005022545831065067 -0.033958154118410737 0 -0.00048008412106091312 -0.034076505447400186 0 -0.00058057713791409484 -0.034179271430828488 0 -0.0005022545831065067 -0.033958154118410737 0 -0.00051821702209358441 -0.034194523419151038 0 -0.00048008412106091312 -0.034076505447400186 0 -0.00058057713791409484 -0.034179271430828488 0 -0.00039558329870281994 -0.034129813189247904 0 -0.00051821702209358441 -0.034194523419151038 0 -0.00048008412106091312 -0.034076505447400186 0 -0.00048008412106091312 -0.034076505447400186 0 -0.0005022545831065067 -0.033958154118410737 0 -0.00040247202751078837 -0.034028452893802817 0 -0.00065034520103320005 -0.033827971862647979 0 -0.0005022545831065067 -0.033958154118410737 0 -0.00032603102938143718 -0.033654366180456849 0 -0.00065034520103320005 -0.033827971862647979 0 -0.00064653946091805189 -0.034238945040567202 0 -0.0005022545831065067 -0.033958154118410737 0 -0.00065034520103320005 -0.033827971862647979 0 -0.00032603102938143718 -0.033654366180456849 0 -0.00029427005081085901 -0.033210152129009053 0 -0.00032603102938143718 -0.033654366180456849 0 -6.7734202156513669e-05 -0.033576296070239972 0 -0.00029427005081085901 -0.033210152129009053 0 -0.00032603102938143718 -0.033654366180456849 0 -0.00023196290836079058 -0.033951649345329502 0 -6.7734202156513669e-05 -0.033576296070239972 0 -0.0005022545831065067 -0.033958154118410737 0 -0.00023196290836079058 -0.033951649345329502 0 -0.00040247202751078837 -0.034028452893802817 0 -0.0005022545831065067 -0.033958154118410737 0 -0.00032603102938143718 -0.033654366180456849 0 -0.00023196290836079058 -0.033951649345329502 0 -0.00039558329870281994 -0.034129813189247904 0 -0.00023196290836079058 -0.033951649345329502 0 -0.00040247202751078837 -0.034028452893802817 0 -0.00039544379724846325 -0.03417540089202032 0 -0.00039558329870281994 -0.034129813189247904 0 -0.00023196290836079058 -0.033951649345329502 0 -0.00039558329870281994 -0.034129813189247904 0 -0.00048008412106091312 -0.034076505447400186 0 -0.00040247202751078837 -0.034028452893802817 0 5.7387798678668507e-05 -0.034253070485683837 0 -0.00023196290836079058 -0.033951649345329502 0 0.00028560791813752305 -0.033845213856273988 0 -0.00023196290836079058 -0.033951649345329502 0 -6.7734202156513669e-05 -0.033576296070239972 0 0.00028560791813752305 -0.033845213856273988 0 -6.7734202156513669e-05 -0.033576296070239972 0 -0.00029427005081085901 -0.033210152129009053 0 0.00028923219818256411 -0.033225571075832135 0 -6.7734202156513669e-05 -0.033576296070239972 0 0.00028560791813752305 -0.033845213856273988 0 0.00028923219818256411 -0.033225571075832135 0 -0.00024438112051473627 -0.033917177517951633 0 4.8860842305389279e-05 -0.033612448108020158 0 -0.00029427005081085901 -0.033210152129009053 0 0.00028923219818256411 -0.033225571075832135 0 0.00029353087878736961 -0.032636019663970617 0 -0.00021848922887542928 -0.034648560266092983 0 -0.00023781408439679403 -0.034633485561374765 0 -0.00030486641905993605 -0.034495371524140818 0 -0.00023781408439679403 -0.034633485561374765 0 -0.00030486641905993605 -0.034495371524140818 0 -0.00018586864760487357 -0.034536898364164292 0 -0.00030486641905993605 -0.034495371524140818 0 -0.00018586864760487357 -0.034536898364164292 0 -0.00015631357099915927 -0.034290124052693563 0 -0.00030486641905993605 -0.034495371524140818 0 -0.0002391239257620678 -0.033934626158162853 0 -0.00015631357099915927 -0.034290124052693563 0 -0.00021848922887542928 -0.034648560266092983 0 -0.00030486641905993605 -0.034495371524140818 0 -0.00016890491234664595 -0.034728817680407142 0 -0.00030486641905993605 -0.034495371524140818 0 -0.00025607271585756006 -0.034693100398956025 0 -0.00016890491234664595 -0.034728817680407142 0 -0.00025607271585756006 -0.034693100398956025 0 -0.00025067815618424251 -0.034782032871492854 0 -0.00020019470045026601 -0.034765064466547681 0 -0.00025607271585756006 -0.034693100398956025 0 -0.00037449254322191448 -0.034694816209848177 0 -0.00030397976781863643 -0.03474834315916385 0 -0.00030486641905993605 -0.034495371524140818 0 -0.00025607271585756006 -0.034693100398956025 0 -0.00037449254322191448 -0.034694816209848177 0 -0.00022657094267889859 -0.034334752098933101 0 -0.00048226352210888144 -0.034624990177434797 0 -0.00037449254322191448 -0.034694816209848177 0 -0.00034151399784889915 -0.034762412035298687 0 -0.00030397976781863643 -0.03474834315916385 0 -0.00034151399784889915 -0.034762412035298687 0 -0.00030397976781863643 -0.03474834315916385 0 -0.00029398539827735584 -0.034793414365802751 0 -0.00034151399784889915 -0.034762412035298687 0 -0.00029398539827735584 -0.034793414365802751 0 -0.00032372070825298973 -0.034805177488548777 0 -0.00029398539827735584 -0.034793414365802751 0 -0.00032372070825298973 -0.034805177488548777 0 -0.00027682923344035779 -0.03484097388121879 0 -0.00032372070825298973 -0.034805177488548777 0 -0.00027682923344035779 -0.03484097388121879 0 -0.0003134244582600597 -0.034853643827736383 0 -0.00024523171643667859 -0.034866967435439995 0 -0.00024539477306154188 -0.034828217707931056 0 -0.00019857211928704579 -0.03486825698914367 0 -0.00027682923344035779 -0.03484097388121879 0 -0.00024523171643667859 -0.034866967435439995 0 -0.00025045513427943313 -0.034874176408173113 0 -0.00027682923344035779 -0.03484097388121879 0 -0.00024523171643667859 -0.034866967435439995 0 -0.00024539477306154188 -0.034828217707931056 0 -0.00029398539827735584 -0.034793414365802751 0 -0.00027682923344035779 -0.03484097388121879 0 -0.00024539477306154188 -0.034828217707931056 0 -0.00024539477306154188 -0.034828217707931056 0 -0.00025067815618424251 -0.034782032871492854 0 -0.00020541746704229091 -0.03481729846657311 0 -0.00029398539827735584 -0.034793414365802751 0 -0.00024539477306154188 -0.034828217707931056 0 -0.00025067815618424251 -0.034782032871492854 0 -0.00025607271585756006 -0.034693100398956025 0 -0.00030397976781863643 -0.03474834315916385 0 -0.00025067815618424251 -0.034782032871492854 0 -0.00030397976781863643 -0.03474834315916385 0 -0.00029398539827735584 -0.034793414365802751 0 -0.00025067815618424251 -0.034782032871492854 0 -0.00025067815618424251 -0.034782032871492854 0 -0.00020541746704229091 -0.03481729846657311 0 -0.00020019470045026601 -0.034765064466547681 0 -0.00020541746704229091 -0.03481729846657311 0 -0.00019857211928704579 -0.03486825698914367 0 -0.00015077509220351177 -0.034833602673470881 0 -0.00020541746704229091 -0.03481729846657311 0 -0.00015077509220351177 -0.034833602673470881 0 -0.00020019470045026601 -0.034765064466547681 0 -0.00024539477306154188 -0.034828217707931056 0 -0.00020541746704229091 -0.03481729846657311 0 -0.00019857211928704579 -0.03486825698914367 0 -0.00024523171643667859 -0.034866967435439995 0 -0.00019857211928704579 -0.03486825698914367 0 -0.00022161736244836257 -0.034886595448420654 0 -0.00019857211928704579 -0.03486825698914367 0 -0.00013348423232034407 -0.034897832260523405 0 -0.00017788200119854696 -0.034905563141350175 0 -0.00019857211928704579 -0.03486825698914367 0 -0.00013348423232034407 -0.034897832260523405 0 -0.00015077509220351177 -0.034833602673470881 0 -0.00013348423232034407 -0.034897832260523405 0 -0.00015077509220351177 -0.034833602673470881 0 -8.6339678662472223e-05 -0.034895783793949489 0 -0.00015077509220351177 -0.034833602673470881 0 -0.00016890491234664595 -0.034728817680407142 0 -0.00010050809156997336 -0.034847851454421382 0 -0.00016890491234664595 -0.034728817680407142 0 -9.4327085773084077e-05 -0.034828269937909703 0 -0.00010050809156997336 -0.034847851454421382 0 -0.00025607271585756006 -0.034693100398956025 0 -0.00020019470045026601 -0.034765064466547681 0 -0.00016890491234664595 -0.034728817680407142 0 -0.00015077509220351177 -0.034833602673470881 0 -0.00020019470045026601 -0.034765064466547681 0 -0.00016890491234664595 -0.034728817680407142 0 -0.0001290459289664302 -0.034763264819210181 0 -0.00016890491234664595 -0.034728817680407142 0 -9.4327085773084077e-05 -0.034828269937909703 0 -6.3362130092791676e-05 -0.034868551807517467 0 -9.4327085773084077e-05 -0.034828269937909703 0 -4.7565621796795262e-05 -0.034907501447304756 0 -9.4327085773084077e-05 -0.034828269937909703 0 -4.7565621796795262e-05 -0.034907501447304756 0 -0.00010050809156997336 -0.034847851454421382 0 -0.00015077509220351177 -0.034833602673470881 0 -0.00010050809156997336 -0.034847851454421382 0 -8.6339678662472223e-05 -0.034895783793949489 0 -4.7565621796795262e-05 -0.034907501447304756 0 -0.00010050809156997336 -0.034847851454421382 0 -8.6339678662472223e-05 -0.034895783793949489 0 -0.00013348423232034407 -0.034897832260523405 0 -8.6339678662472223e-05 -0.034895783793949489 0 -7.8600615319846954e-05 -0.03494813343924133 0 -8.6339678662472223e-05 -0.034895783793949489 0 -4.1656038616575414e-05 -0.034946633788198893 0 -7.8600615319846954e-05 -0.03494813343924133 0 -4.7565621796795262e-05 -0.034907501447304756 0 -8.6339678662472223e-05 -0.034895783793949489 0 -4.1656038616575414e-05 -0.034946633788198893 0 -4.7565621796795262e-05 -0.034907501447304756 0 -4.1656038616575414e-05 -0.034946633788198893 0 -2.0514357927930174e-05 -0.034959267758174484 0 -4.1656038616575414e-05 -0.034946633788198893 0 -2.0514357927930174e-05 -0.034959267758174484 0 -1.1672943994442271e-05 -0.034979896796492389 0 -4.1656038616575414e-05 -0.034946633788198893 0 -1.1672943994442271e-05 -0.034979896796492389 0 -2.4563898530765161e-05 -0.034981837063439346 0 -1.1672943994442271e-05 -0.034979896796492389 0 -1.073543795036633e-08 -0.03499995044170337 0 -3.5687546541905879e-09 -0.034999980989249148 0 -2.0514357927930174e-05 -0.034959267758174484 0 -1.1672943994442271e-05 -0.034979896796492389 0 -1.073543795036633e-08 -0.03499995044170337 0 -2.0514357927930174e-05 -0.034959267758174484 0 -1.073543795036633e-08 -0.03499995044170337 0 -1.0278706477626301e-08 -0.034999922457193584 0 -4.7565621796795262e-05 -0.034907501447304756 0 -2.0514357927930174e-05 -0.034959267758174484 0 -1.0278706477626301e-08 -0.034999922457193584 0 -4.7565621796795262e-05 -0.034907501447304756 0 -1.0278706477626301e-08 -0.034999922457193584 0 -2.6654123961785047e-05 -0.034940011127048157 0 -6.3362130092791676e-05 -0.034868551807517467 0 -4.7565621796795262e-05 -0.034907501447304756 0 -2.6654123961785047e-05 -0.034940011127048157 0 -1.7119013454804971e-08 -0.03499991262316024 0 -1.0278706477626301e-08 -0.034999922457193584 0 -2.6654123961785047e-05 -0.034940011127048157 0 -0.0010202020050873871 -0.02937584971191172 0 0.00071152517994614258 -0.029448382571902153 0 -0.0014190123326075564 -0.02677528089549544 0 -0.0010202020050873871 -0.02937584971191172 0 -0.0014131157835491994 -0.030337256837153818 0 -0.0024060278363139962 -0.026219913375989362 0 -0.0010358718724327953 -0.022780616524602622 0 -0.00020703736343918983 -0.018706934435838957 0 -0.0010358718724327953 -0.022780616524602622 0 -0.0014892354365629655 -0.027685235254185866 0 -0.0010202020050873871 -0.02937584971191172 0 -0.0014131157835491994 -0.030337256837153818 0 -8.4855056626611061e-05 -0.029677678582142125 0 -0.00090854747056861381 -0.030001437318473316 0 -8.4855056626611061e-05 -0.029677678582142125 0 -4.3819839083958465e-05 -0.030543752245151167 0 0.0022448227039244136 -0.032650102835141054 0 0.0022694110784433927 -0.033025660222601422 0 0.0018845687978529051 -0.0329708970510098 0 0.00071152517994614258 -0.029448382571902153 0 -8.4855056626611061e-05 -0.029677678582142125 0 0.00061949406547552805 -0.030482944433428482 0 -0.0010202020050873871 -0.02937584971191172 0 0.00071152517994614258 -0.029448382571902153 0 -8.4855056626611061e-05 -0.029677678582142125 0 -4.3819839083958465e-05 -0.030543752245151167 0 0.00061949406547552805 -0.030482944433428482 0 0.00067042675606632251 -0.031084914703888963 0 0.00061949406547552805 -0.030482944433428482 0 0.00067042675606632251 -0.031084914703888963 0 0.0016525338464954769 -0.03181886697757972 0 0.00071152517994614258 -0.029448382571902153 0 0.00061949406547552805 -0.030482944433428482 0 0.0016525338464954769 -0.03181886697757972 0 -8.4855056626611061e-05 -0.029677678582142125 0 -4.3819839083958465e-05 -0.030543752245151167 0 0.00061949406547552805 -0.030482944433428482 0 0.00067042675606632251 -0.031084914703888963 0 -0.00050102915398739884 -0.031391261102131793 0 0.00060132075707488414 -0.031708058630220269 0 -4.3819839083958465e-05 -0.030543752245151167 0 0.00067042675606632251 -0.031084914703888963 0 -0.00050102915398739884 -0.031391261102131793 0 -0.0010287218873634859 -0.014552721420717361 0 -0.00077246951423889508 -0.014034683261169511 0 -0.0011496093356918174 -0.013925876342034271 0 -0.00090854747056861381 -0.030001437318473316 0 -4.3819839083958465e-05 -0.030543752245151167 0 -0.00050102915398739884 -0.031391261102131793 0 -0.0010358718724327953 -0.022780616524602622 0 -0.00091861109700935872 -0.022237841426757405 0 -0.0010358718724327953 -0.022780616524602622 0 0.00034702029484048229 -0.014176726668017866 0 -0.0010287218873634859 -0.014552721420717361 0 -0.00077246951423889508 -0.014034683261169511 0 -0.00037973221347397854 -0.014218985964498564 0 -0.00077246951423889508 -0.014034683261169511 0 -0.00037973221347397854 -0.014218985964498564 0 -0.00053968685122041419 -0.01367959634126862 0 -0.00037973221347397854 -0.014218985964498564 0 -0.00017138557923715135 -0.013721873066863894 0 -0.00053968685122041419 -0.01367959634126862 0 0.00034702029484048229 -0.014176726668017866 0 0.0010305645279652725 -0.01079377400047229 0 -0.00037973221347397854 -0.014218985964498564 0 0.00021380663689240847 -0.013867517802009077 0 -0.00017138557923715135 -0.013721873066863894 0 0.00058667508912078447 -0.01463358191986293 0 0.0028870874442925164 -0.013757301435893722 0 0.00091411735757781804 -0.016101560429427435 0 0.0010305645279652725 -0.01079377400047229 0 0.00024790075509611265 -0.010938268307419853 0 -0.00065352789540590892 -0.007497275055281959 0 -0.00084511308462139061 -0.0075221663024105821 0 -0.00072831110900950318 -0.0076677679210120494 0 -0.00065352789540590892 -0.007497275055281959 0 -0.00067986520701690837 -0.0073256508531930678 0 -0.00084511308462139061 -0.0075221663024105821 0 -0.0017141225207287763 -0.015509792086662486 0 0.00058667508912078447 -0.01463358191986293 0 0.00091411735757781804 -0.016101560429427435 0 0.00024790075509611265 -0.010938268307419853 0 -0.00020703736343918983 -0.018706934435838957 0 -0.0017141225207287763 -0.015509792086662486 0 0.00091411735757781804 -0.016101560429427435 0 -0.0010618678400438912 -0.018416390032432298 0 -0.00084511308462139061 -0.0075221663024105821 0 -0.00087935116067626462 -0.007713459948570478 0 -0.0010137475806547896 -0.007763400734363937 0 -0.00087935116067626462 -0.007713459948570478 0 -0.00098343722238834492 -0.007869820419663786 0 -0.0010137475806547896 -0.007763400734363937 0 -0.002231878791206396 -0.015071240803265355 0 -0.00020703736343918983 -0.018706934435838957 0 -0.00084511308462139061 -0.0075221663024105821 0 -0.00087935116067626462 -0.007713459948570478 0 -0.00072831110900950318 -0.0076677679210120494 0 -0.00087935116067626462 -0.007713459948570478 0 -0.00072831110900950318 -0.0076677679210120494 0 -0.00085870991811791224 -0.007826669841468176 0 -0.00060837835170527983 -0.0078429932734958956 0 -0.00088750984109114213 -0.0079548791650695654 0 -0.00074071950810203075 -0.0077987994475193232 0 -0.00062042149474395567 -0.0077091049706895032 0 -0.00072831110900950318 -0.0076677679210120494 0 -0.00074071950810203075 -0.0077987994475193232 0 -0.00072831110900950318 -0.0076677679210120494 0 -0.00074071950810203075 -0.0077987994475193232 0 -0.00085870991811791224 -0.007826669841468176 0 -0.00088750984109114213 -0.0079548791650695654 0 -0.00074071950810203075 -0.0077987994475193232 0 -0.00085870991811791224 -0.007826669841468176 0 -0.0019911313982275748 -0.016829694639706495 0 -0.0014997108363880636 -0.017405498457401823 0 -0.00089249484008306992 -0.02166048377299868 0 -0.0018410216496750934 -0.016969567480850354 0 -0.0019670415025013726 -0.016810925665545533 0 -0.0016847277704165288 -0.017829716023768701 0 -0.002231878791206396 -0.015071240803265355 0 -0.0013618881875192162 -0.018824148029018547 0 -0.00087935116067626462 -0.007713459948570478 0 -0.00098343722238834492 -0.007869820419663786 0 -0.00085870991811791224 -0.007826669841468176 0 -0.00088750984109114213 -0.0079548791650695654 0 -0.00098343722238834492 -0.007869820419663786 0 -0.00085870991811791224 -0.007826669841468176 0 -0.002231878791206396 -0.015071240803265355 0 -0.0014686308025183327 -0.017897418708426021 0 -0.0024904719138429082 -0.013832673516994149 0 -0.0013770001912870725 -0.015150069563599532 0 -0.0015713234632178958 -0.014279472741067398 0 -0.0026310240606811563 -0.010690977182615696 0 -0.002231878791206396 -0.015071240803265355 0 -0.0013618881875192162 -0.018824148029018547 0 -0.0014686308025183327 -0.017897418708426021 0 -0.0011476134315675283 -0.022096693688151526 0 -0.0014671743919740955 -0.0223360899319309 0 -0.0010410741547348021 -0.022516452954479533 0 0.0026930994123641134 -0.033226342872142177 0 0.0022275385560497794 -0.033253316044432026 0 0.0023633134812263298 -0.033653492544470004 0 -0.0013159420371840506 -0.022807752015665744 0 -0.0014671743919740955 -0.0223360899319309 0 -0.0010410741547348021 -0.022516452954479533 0 -0.00084172301438187769 -0.022250684849950651 0 -0.0011476134315675283 -0.022096693688151526 0 -0.0010410741547348021 -0.022516452954479533 0 -0.00084172301438187769 -0.022250684849950651 0 -0.0010410741547348021 -0.022516452954479533 0 -0.00048246093700919846 -0.022455479211967048 0 -0.0010410741547348021 -0.022516452954479533 0 -0.0010487026258273256 -0.02312733131517327 0 -0.00048246093700919846 -0.022455479211967048 0 -0.0001796166908994417 -0.026947046485829188 0 0.00083698834927128116 -0.028340366175074069 0 -0.0013159420371840506 -0.022807752015665744 0 -0.0010410741547348021 -0.022516452954479533 0 -0.0010487026258273256 -0.02312733131517327 0 -0.0013618881875192162 -0.018824148029018547 0 -0.0001796166908994417 -0.026947046485829188 0 -0.0013618881875192162 -0.018824148029018547 0 -0.00091372624063495642 -0.02330446650485948 0 -0.00095293932485911116 -0.030156891402780543 0 -0.00091372624063495642 -0.02330446650485948 0 -0.0010202020050873871 -0.02937584971191172 0 -0.0021364217249525371 -0.025906565138926797 0 -0.0024060278363139962 -0.026219913375989362 0 -0.0014997108363880636 -0.017405498457401823 0 -0.00032876848143667141 -0.021008244453697051 0 -0.00089249484008306992 -0.02166048377299868 0 0.0017322996938158367 -0.031690139715315618 0 -0.0001796166908994417 -0.026947046485829188 0 -0.0021250980783051173 -0.020772858580040555 0 -0.0007034797774819701 -0.025216763269963777 0 0.00048076508351542669 -0.023850902939728108 0 -0.0010202020050873871 -0.02937584971191172 0 -0.0017174515190088401 -0.0271161426062849 0 -0.0014190123326075564 -0.02677528089549544 0 -0.00091372624063495642 -0.02330446650485948 0 -0.0001796166908994417 -0.026947046485829188 0 -0.00091372624063495642 -0.02330446650485948 0 -0.00020703736343918983 -0.018706934435838957 0 0.0022275385560497794 -0.033253316044432026 0 0.001936599076027064 -0.03349318718134113 0 0.0018845687978529051 -0.0329708970510098 0 0.0026930994123641134 -0.033226342872142177 0 0.0022694110784433927 -0.033025660222601422 0 0.0022275385560497794 -0.033253316044432026 0 0.0022448227039244136 -0.032650102835141054 0 0.0026930994123641134 -0.033226342872142177 0 0.0022694110784433927 -0.033025660222601422 0 0.0022694110784433927 -0.033025660222601422 0 0.0022275385560497794 -0.033253316044432026 0 0.0018845687978529051 -0.0329708970510098 0 0.0020003658799007109 -0.034083267830379647 0 0.0023633134812263298 -0.033653492544470004 0 0.001936599076027064 -0.03349318718134113 0 0.0022275385560497794 -0.033253316044432026 0 0.0023633134812263298 -0.033653492544470004 0 0.001936599076027064 -0.03349318718134113 0 0.0020003658799007109 -0.034083267830379647 0 0.001936599076027064 -0.03349318718134113 0 0.0015345974375118125 -0.033688726919844772 0 0.001936599076027064 -0.03349318718134113 0 0.0015345974375118125 -0.033688726919844772 0 0.0016058046203806186 -0.033286271116045027 0 0.0015345974375118125 -0.033688726919844772 0 0.001151973998205513 -0.033365268961339477 0 0.0016058046203806186 -0.033286271116045027 0 0.0015345974375118125 -0.033688726919844772 0 0.001151973998205513 -0.033365268961339477 0 0.00091512762954881115 -0.033871752648270553 0 0.001151973998205513 -0.033365268961339477 0 0.00088207733876313743 -0.032880026768916271 0 0.0014153648935932852 -0.03286249687868132 0 0.001151973998205513 -0.033365268961339477 0 0.0016058046203806186 -0.033286271116045027 0 0.0014153648935932852 -0.03286249687868132 0 0.0018845687978529051 -0.0329708970510098 0 0.0016058046203806186 -0.033286271116045027 0 0.0014153648935932852 -0.03286249687868132 0 0.001936599076027064 -0.03349318718134113 0 0.0018845687978529051 -0.0329708970510098 0 0.0016058046203806186 -0.033286271116045027 0 0.00028560791813752305 -0.033845213856273988 0 0.00091512762954881115 -0.033871752648270553 0 0.00068268124344454597 -0.033476699402050385 0 0.001151973998205513 -0.033365268961339477 0 0.00091512762954881115 -0.033871752648270553 0 0.00068268124344454597 -0.033476699402050385 0 0.001151973998205513 -0.033365268961339477 0 0.00068268124344454597 -0.033476699402050385 0 0.00088207733876313743 -0.032880026768916271 0 0.00068268124344454597 -0.033476699402050385 0 0.00028923219818256411 -0.033225571075832135 0 0.00088207733876313743 -0.032880026768916271 0 0.00028560791813752305 -0.033845213856273988 0 0.00068268124344454597 -0.033476699402050385 0 0.00028923219818256411 -0.033225571075832135 0 0.00028923219818256411 -0.033225571075832135 0 0.00088207733876313743 -0.032880026768916271 0 0.00029353087878736961 -0.032636019663970617 0 0.00023170672286199301 -0.034410725001533846 0 -0.00018586864760487357 -0.034536898364164292 0 -6.9452172726785928e-06 -0.034258472152668445 0 0.00073649443681944051 -0.03307290345084242 0 4.8860842305389279e-05 -0.033612448108020158 0 0.00088207733876313743 -0.032880026768916271 0 0.001048975685105607 -0.03207354830750507 0 0.00029353087878736961 -0.032636019663970617 0 -0.00018586864760487357 -0.034536898364164292 0 -0.00015631357099915927 -0.034290124052693563 0 -6.9452172726785928e-06 -0.034258472152668445 0 0.0018845687978529051 -0.0329708970510098 0 0.0017032445684499642 -0.032523659083797722 0 0.0014153648935932852 -0.03286249687868132 0 0.0022448227039244136 -0.032650102835141054 0 0.0018845687978529051 -0.0329708970510098 0 0.0017032445684499642 -0.032523659083797722 0 0.00088207733876313743 -0.032880026768916271 0 0.0014153648935932852 -0.03286249687868132 0 0.0013382610903774112 -0.032403274949653407 0 0.0017032445684499642 -0.032523659083797722 0 0.0014153648935932852 -0.03286249687868132 0 0.0013382610903774112 -0.032403274949653407 0 0.001048975685105607 -0.03207354830750507 0 0.0013382610903774112 -0.032403274949653407 0 0.0016525338464954769 -0.03181886697757972 0 0.00088207733876313743 -0.032880026768916271 0 0.001048975685105607 -0.03207354830750507 0 0.0013382610903774112 -0.032403274949653407 0 0.0017032445684499642 -0.032523659083797722 0 0.0013382610903774112 -0.032403274949653407 0 0.0016525338464954769 -0.03181886697757972 0 0.0017322996938158367 -0.031690139715315618 0 0.0015007849010865266 -0.031461175696549222 0 0.00067042675606632251 -0.031084914703888963 0 0.0016525338464954769 -0.03181886697757972 0 0.0011735833540394355 -0.031612354767670332 0 0.0022448227039244136 -0.032650102835141054 0 0.0017032445684499642 -0.032523659083797722 0 0.0016525338464954769 -0.03181886697757972 0 0.0016525338464954769 -0.03181886697757972 0 0.0016409970786044337 -0.031824852086697927 0 0.0011735833540394355 -0.031612354767670332 0 0.0016409970786044337 -0.031824852086697927 0 0.0011735833540394355 -0.031612354767670332 0 0.00060132075707488414 -0.031708058630220269 0 0.00023170672286199301 -0.034410725001533846 0 0.0011918809837880232 -0.033994412940068011 0 0.00020815827959441821 -0.034067901419544945 0 0.0011918809837880232 -0.033994412940068011 0 0.0011743795840870313 -0.033650272216207797 0 0.00020815827959441821 -0.034067901419544945 0 0.001048975685105607 -0.03207354830750507 0 0.0016525338464954769 -0.03181886697757972 0 0.0016409970786044337 -0.031824852086697927 0 0.0027932576925439726 -0.034449408408702385 0 0.00016066384610961948 -0.033811893951002953 0 0.00073649443681944051 -0.03307290345084242 0 0.0011923200925836011 -0.03406825877760758 0 0.003448734356522347 -0.033353420313218057 0 0.0017974431672768323 -0.032943582572481242 0 0.00020815827959441821 -0.034067901419544945 0 0.0017974431672768323 -0.032943582572481242 0 0.00075843779665658558 -0.033195130767549395 0 0.00020815827959441821 -0.034067901419544945 0 0.0017974431672768323 -0.032943582572481242 0 0.00075843779665658558 -0.033195130767549395 0 0.00060089806111991403 -0.032168319987671966 0 0.00075843779665658558 -0.033195130767549395 0 0.00060089806111991403 -0.032168319987671966 0 0.00017938164210635661 -0.033659673584123265 0 0.0017974431672768323 -0.032943582572481242 0 0.00060089806111991403 -0.032168319987671966 0 0.0013771222989832734 -0.030905401085293015 0 0.0017974431672768323 -0.032943582572481242 0 0.0029532931893976309 -0.031953280318226786 0 0.0013771222989832734 -0.030905401085293015 0 0.0029532931893976309 -0.031953280318226786 0 0.0040742242478487125 -0.032284165681632164 0 0.0047294987898673429 -0.03100334446819893 0 0.003448734356522347 -0.033353420313218057 0 0.0040742242478487125 -0.032284165681632164 0 0.0030641205463717291 -0.032634053981777274 0 0.0017974431672768323 -0.032943582572481242 0 0.0029532931893976309 -0.031953280318226786 0 0.0030641205463717291 -0.032634053981777274 0 0.003448734356522347 -0.033353420313218057 0 0.0017974431672768323 -0.032943582572481242 0 0.0030641205463717291 -0.032634053981777274 0 0.0029532931893976309 -0.031953280318226786 0 0.0040742242478487125 -0.032284165681632164 0 0.0030641205463717291 -0.032634053981777274 0 -0.00015631357099915927 -0.034290124052693563 0 -2.2509349316580335e-05 -0.034063811757641137 0 -6.9452172726785928e-06 -0.034258472152668445 0 -0.00015631357099915927 -0.034290124052693563 0 -2.2509349316580335e-05 -0.034063811757641137 0 -9.0189854748517272e-05 -0.034022115754350102 0 5.0102325087856979e-05 -0.033980875799137979 0 -6.9452172726785928e-06 -0.034258472152668445 0 0.00020815827959441821 -0.034067901419544945 0 5.0102325087856979e-05 -0.033980875799137979 0 0.00017938164210635661 -0.033659673584123265 0 4.4554173230544812e-05 -0.033857182442101029 0 -2.2509349316580335e-05 -0.034063811757641137 0 5.0102325087856979e-05 -0.033980875799137979 0 -6.9452172726785928e-06 -0.034258472152668445 0 -2.2509349316580335e-05 -0.034063811757641137 0 5.0102325087856979e-05 -0.033980875799137979 0 4.4554173230544812e-05 -0.033857182442101029 0 0.00023170672286199301 -0.034410725001533846 0 -6.9452172726785928e-06 -0.034258472152668445 0 0.00020815827959441821 -0.034067901419544945 0 5.0102325087856979e-05 -0.033980875799137979 0 0.00020815827959441821 -0.034067901419544945 0 0.00017938164210635661 -0.033659673584123265 0 0.00075843779665658558 -0.033195130767549395 0 0.00020815827959441821 -0.034067901419544945 0 0.00017938164210635661 -0.033659673584123265 0 0.00017938164210635661 -0.033659673584123265 0 4.4554173230544812e-05 -0.033857182442101029 0 3.8171481057781316e-06 -0.033887677562800811 0 0.00060089806111991403 -0.032168319987671966 0 0.00017938164210635661 -0.033659673584123265 0 -0.0014272112819799468 -0.031154214010282271 0 0.00060089806111991403 -0.032168319987671966 0 -0.0014272112819799468 -0.031154214010282271 0 0.0013771222989832734 -0.030905401085293015 0 -2.6029816962753704e-05 -0.033542530744827277 0 0.0001147783514712144 -0.032332234436769962 0 4.4554173230544812e-05 -0.033857182442101029 0 1.7339580327111894e-05 -0.033875022151763495 0 3.8171481057781316e-06 -0.033887677562800811 0 -0.00028160307452926515 -0.033374913379758279 0 0.0001147783514712144 -0.032332234436769962 0 -0.0002391239257620678 -0.033934626158162853 0 -0.00015631357099915927 -0.034290124052693563 0 -9.0189854748517272e-05 -0.034022115754350102 0 -0.0002391239257620678 -0.033934626158162853 0 1.7339580327111894e-05 -0.033875022151763495 0 -2.3207286227566469e-05 -0.033581346715656046 0 -1.2673576447484331e-05 -0.033936612783364961 0 1.7339580327111894e-05 -0.033875022151763495 0 -9.0189854748517272e-05 -0.034022115754350102 0 -2.2509349316580335e-05 -0.034063811757641137 0 -1.2673576447484331e-05 -0.033936612783364961 0 -9.0189854748517272e-05 -0.034022115754350102 0 -2.2509349316580335e-05 -0.034063811757641137 0 4.4554173230544812e-05 -0.033857182442101029 0 -1.2673576447484331e-05 -0.033936612783364961 0 4.4554173230544812e-05 -0.033857182442101029 0 -1.2673576447484331e-05 -0.033936612783364961 0 1.7339580327111894e-05 -0.033875022151763495 0 -0.0002391239257620678 -0.033934626158162853 0 1.7339580327111894e-05 -0.033875022151763495 0 -9.0189854748517272e-05 -0.034022115754350102 0 -0.00048226352210888144 -0.034624990177434797 0 0.00049694311487994 -0.032547715274872269 0 -0.00037449254322191448 -0.034694816209848177 0 -0.00034151399784889915 -0.034762412035298687 0 -0.00039270711333238678 -0.034769853044285613 0 1.7339580327111894e-05 -0.033875022151763495 0 -2.3207286227566469e-05 -0.033581346715656046 0 9.2407777201636434e-05 -0.033773379978147666 0 -0.00034151399784889915 -0.034762412035298687 0 -0.00032372070825298973 -0.034805177488548777 0 -0.00039270711333238678 -0.034769853044285613 0 0.00049694311487994 -0.032547715274872269 0 0.0001147783514712144 -0.032332234436769962 0 0.0001147783514712144 -0.032332234436769962 0 0.0010956672187984236 -0.029139482271845752 0 0.00080966382305351029 -0.030993591407916941 0 0.00099374588650462566 -0.0313039780362208 0 0.0014214015472312144 -0.030708622373540696 0 -0.0014272112819799468 -0.031154214010282271 0 0.0013771222989832734 -0.030905401085293015 0 0.00064086037868119343 -0.028283055141661378 0 0.00049694311487994 -0.032547715274872269 0 0.0015119283074632281 -0.030006956019737706 0 0.00080966382305351029 -0.030993591407916941 0 0.0012258259053627646 -0.030456493114977948 0 0.0014214015472312144 -0.030708622373540696 0 0.0012650373613132101 -0.030496930580070844 0 0.0014261149807191702 -0.030267493325810454 0 0.0012822807345717535 -0.030199963904054727 0 -0.00032372070825298973 -0.034805177488548777 0 -0.00039270711333238678 -0.034769853044285613 0 -0.0003134244582600597 -0.034853643827736383 0 0.0012650373613132101 -0.030496930580070844 0 0.0012822807345717535 -0.030199963904054727 0 0.0011420621688158729 -0.030229029103687875 0 0.00049694311487994 -0.032547715274872269 0 0.00041475916653993723 -0.032554469309171503 0 0.0029532931893976309 -0.031953280318226786 0 0.0034353008928059399 -0.028968301761588208 0 0.0013771222989832734 -0.030905401085293015 0 0.0029532931893976309 -0.031953280318226786 0 0.0034353008928059399 -0.028968301761588208 0 0.0047294987898673429 -0.03100334446819893 0 0.0034353008928059399 -0.028968301761588208 0 0.0013771222989832734 -0.030905401085293015 0 0.00064086037868119343 -0.028283055141661378 0 0.0010956672187984236 -0.029139482271845752 0 0.0021272611091675058 -0.028818610600246222 0 0.0034353008928059399 -0.028968301761588208 0 0.00064086037868119343 -0.028283055141661378 0 0.0026575785840079937 -0.025420674021159415 0 0.0012258259053627646 -0.030456493114977948 0 0.0014214015472312144 -0.030708622373540696 0 0.001765662062948258 -0.030204735535917255 0 0.0034353008928059399 -0.028968301761588208 0 0.0054825799995916729 -0.025908529387592121 0 0.0026575785840079937 -0.025420674021159415 0 0.0031533077228269521 -0.020756184313998241 0 0.0026524659581153307 -0.01873344743007763 0 -0.00010985835180426773 -0.012542525009224955 0 -0.00020487953223571911 -0.012728227812699281 0 -0.0001366659941987594 -0.012523919306704446 0 0.0034353008928059399 -0.028968301761588208 0 0.0061997964119036436 -0.029251339237459647 0 0.0054825799995916729 -0.025908529387592121 0 -0.00010985835180426773 -0.012542525009224955 0 -7.9235520192235447e-05 -0.012648700205294705 0 -0.00020487953223571911 -0.012728227812699281 0 -0.00010985835180426773 -0.012542525009224955 0 -7.9235520192235447e-05 -0.012648700205294705 0 -3.8182375120856884e-05 -0.012473929901789485 0 -7.9235520192235447e-05 -0.012648700205294705 0 -9.732547038783374e-05 -0.012808429530350085 0 -0.00020487953223571911 -0.012728227812699281 0 -9.732547038783374e-05 -0.012808429530350085 0 -0.00020487953223571911 -0.012728227812699281 0 -0.00018641180810528271 -0.013029932802075395 0 -7.9235520192235447e-05 -0.012648700205294705 0 -9.732547038783374e-05 -0.012808429530350085 0 -2.2309384382174001e-05 -0.012726157038024785 0 0.0034353008928059399 -0.028968301761588208 0 0.0061997964119036436 -0.029251339237459647 0 0.0047294987898673429 -0.03100334446819893 0 0.0061997964119036436 -0.029251339237459647 0 0.0047294987898673429 -0.03100334446819893 0 0.0068841795467068801 -0.032528814730766721 0 0.0031533077228269521 -0.020756184313998241 0 0.0016792193592350183 -0.024618140392205699 0 0.0027932576925439726 -0.034449408408702385 0 0.0016792193592350183 -0.024618140392205699 0 0.0040742242478487125 -0.032284165681632164 0 0.0047294987898673429 -0.03100334446819893 0 0.0068841795467068801 -0.032528814730766721 0 0.003448734356522347 -0.033353420313218057 0 0.0040742242478487125 -0.032284165681632164 0 0.0068841795467068801 -0.032528814730766721 0 0.0011743795840870313 -0.033650272216207797 0 0.0024248914000104759 -0.033173719215006621 0 0.0024524159437823976 -0.033304336081053709 0 -9.732547038783374e-05 -0.012808429530350085 0 -7.718423718748482e-05 -0.012948583109019068 0 -0.00018641180810528271 -0.013029932802075395 0 -9.732547038783374e-05 -0.012808429530350085 0 -7.718423718748482e-05 -0.012948583109019068 0 -2.1921114530753234e-05 -0.012898337970029402 0 0.00068711211456923098 -0.017075772916897419 0 0.00076147835879696556 -0.024751469779118306 0 -0.00087431020652200262 -0.013140383734126185 0 -0.0012618267768380004 -0.013363745598120225 0 -0.0008771258019275339 -0.013586666997061606 0 0.0017558770831003793 -0.020856291484243211 0 0.00015181971594898557 -0.021229276624044065 0 0.00022753389136876125 -0.021572856927586394 0 0.00068711211456923098 -0.017075772916897419 0 0.0016792193592350183 -0.024618140392205699 0 0.0016792193592350183 -0.024618140392205699 0 0.00076147835879696556 -0.024751469779118306 0 0.00076147835879696556 -0.024751469779118306 0 -0.00091861109700935872 -0.022237841426757405 0 -0.0012618267768380004 -0.013363745598120225 0 -0.0008771258019275339 -0.013586666997061606 0 -0.0011496093356918174 -0.013925876342034271 0 -0.00014266566160282769 -0.032591336156783994 0 -0.00050102915398739884 -0.031391261102131793 0 0.00060132075707488414 -0.031708058630220269 0 -0.00077246951423889508 -0.014034683261169511 0 -0.0008771258019275339 -0.013586666997061606 0 -0.0011496093356918174 -0.013925876342034271 0 0.0016409970786044337 -0.031824852086697927 0 -0.00014266566160282769 -0.032591336156783994 0 0.00060132075707488414 -0.031708058630220269 0 0.0011918809837880232 -0.033994412940068011 0 0.0011743795840870313 -0.033650272216207797 0 0.0024524159437823976 -0.033304336081053709 0 0.0011923200925836011 -0.03406825877760758 0 0.00076147835879696556 -0.024751469779118306 0 0.00067042675606632251 -0.031084914703888963 0 0.0011735833540394355 -0.031612354767670332 0 0.00060132075707488414 -0.031708058630220269 0 -0.00026269028986213223 -0.013337107176069027 0 0.00010361584491760528 -0.013377818478799559 0 -0.00017138557923715135 -0.013721873066863894 0 0.00021380663689240847 -0.013867517802009077 0 0.00010361584491760528 -0.013377818478799559 0 -0.00017138557923715135 -0.013721873066863894 0 -0.00026269028986213223 -0.013337107176069027 0 -0.00017138557923715135 -0.013721873066863894 0 -0.00053968685122041419 -0.01367959634126862 0 -0.00077246951423889508 -0.014034683261169511 0 -0.0008771258019275339 -0.013586666997061606 0 -0.00053968685122041419 -0.01367959634126862 0 -0.00087431020652200262 -0.013140383734126185 0 -0.0008771258019275339 -0.013586666997061606 0 -0.00062930046784718272 -0.013361176553347858 0 -0.0008771258019275339 -0.013586666997061606 0 -0.00053968685122041419 -0.01367959634126862 0 -0.00062930046784718272 -0.013361176553347858 0 -0.00026269028986213223 -0.013337107176069027 0 -0.00053968685122041419 -0.01367959634126862 0 -0.00062930046784718272 -0.013361176553347858 0 -0.00026269028986213223 -0.013337107176069027 0 -0.00062930046784718272 -0.013361176553347858 0 -0.00059644115873231827 -0.013047354647869382 0 0.00068711211456923098 -0.017075772916897419 0 -7.4784433590424477e-05 -0.014054427538588099 0 -0.00087431020652200262 -0.013140383734126185 0 -0.00062930046784718272 -0.013361176553347858 0 -0.00059644115873231827 -0.013047354647869382 0 -7.4784433590424477e-05 -0.014054427538588099 0 3.8340912070656775e-05 -0.012758958299525848 0 -0.00026269028986213223 -0.013337107176069027 0 -0.00059644115873231827 -0.013047354647869382 0 9.5587279770376033e-05 -0.012852796075797542 0 -0.00026269028986213223 -0.013337107176069027 0 0.00010361584491760528 -0.013377818478799559 0 9.5587279770376033e-05 -0.012852796075797542 0 -2.1921114530753234e-05 -0.012898337970029402 0 9.5587279770376033e-05 -0.012852796075797542 0 6.0035381443435882e-05 -0.01268408228347904 0 9.5587279770376033e-05 -0.012852796075797542 0 6.0035381443435882e-05 -0.01268408228347904 0 0.00017996428847378846 -0.01254591570028123 0 6.0035381443435882e-05 -0.01268408228347904 0 0.00017996428847378846 -0.01254591570028123 0 3.2438397749531489e-05 -0.012573812820683211 0 -7.9235520192235447e-05 -0.012648700205294705 0 -2.2309384382174001e-05 -0.012726157038024785 0 3.2438397749531489e-05 -0.012573812820683211 0 -2.1921114530753234e-05 -0.012898337970029402 0 6.0035381443435882e-05 -0.01268408228347904 0 -2.2309384382174001e-05 -0.012726157038024785 0 -9.732547038783374e-05 -0.012808429530350085 0 -2.1921114530753234e-05 -0.012898337970029402 0 -2.2309384382174001e-05 -0.012726157038024785 0 6.0035381443435882e-05 -0.01268408228347904 0 -2.2309384382174001e-05 -0.012726157038024785 0 3.2438397749531489e-05 -0.012573812820683211 0 -7.9235520192235447e-05 -0.012648700205294705 0 3.2438397749531489e-05 -0.012573812820683211 0 -3.8182375120856884e-05 -0.012473929901789485 0 3.2438397749531489e-05 -0.012573812820683211 0 -3.8182375120856884e-05 -0.012473929901789485 0 0.00011111622150870996 -0.012332687001423391 0 0.00029763551682602195 -0.012265820573163983 0 0.00017996428847378846 -0.01254591570028123 0 0.00011111622150870996 -0.012332687001423391 0 0.00017996428847378846 -0.01254591570028123 0 3.2438397749531489e-05 -0.012573812820683211 0 0.00011111622150870996 -0.012332687001423391 0 0.00029763551682602195 -0.012265820573163983 0 0.00011111622150870996 -0.012332687001423391 0 0.00021868928007884734 -0.012121576694393307 0 0.00011111622150870996 -0.012332687001423391 0 9.7519867638628762e-05 -0.012141987275243356 0 0.00021868928007884734 -0.012121576694393307 0 0.00011111622150870996 -0.012332687001423391 0 -1.5832332938863291e-05 -0.012307013062612115 0 9.7519867638628762e-05 -0.012141987275243356 0 -3.8182375120856884e-05 -0.012473929901789485 0 0.00011111622150870996 -0.012332687001423391 0 -1.5832332938863291e-05 -0.012307013062612115 0 -3.8182375120856884e-05 -0.012473929901789485 0 -1.5832332938863291e-05 -0.012307013062612115 0 -0.00010272748174572547 -0.012450135124748437 0 -7.2787158299507606e-06 -0.012188124365955131 0 8.4048480347091441e-05 -0.012050787096242058 0 -4.905813863859052e-05 -0.012204685601188439 0 -1.5832332938863291e-05 -0.012307013062612115 0 -7.2787158299507606e-06 -0.012188124365955131 0 9.7519867638628762e-05 -0.012141987275243356 0 -7.2787158299507606e-06 -0.012188124365955131 0 9.7519867638628762e-05 -0.012141987275243356 0 8.4048480347091441e-05 -0.012050787096242058 0 9.7519867638628762e-05 -0.012141987275243356 0 0.0001926706216564466 -0.012048673061025368 0 0.00021868928007884734 -0.012121576694393307 0 9.7519867638628762e-05 -0.012141987275243356 0 0.0001926706216564466 -0.012048673061025368 0 8.4048480347091441e-05 -0.012050787096242058 0 0.00076013799980288385 -0.012371907786206804 0 0.0011417755679558189 -0.012160407940402846 0 0.0010976243470282884 -0.012874435943539946 0 0.0006444560537777757 -0.012131558940456347 0 0.00027949356534589175 -0.011983674802508067 0 0.0001926706216564466 -0.012048673061025368 0 8.4048480347091441e-05 -0.012050787096242058 0 0.00027909856013199453 -0.01194760276026338 0 0.00076013799980288385 -0.012371907786206804 0 0.0011417755679558189 -0.012160407940402846 0 0.00043294173566927246 -0.012049104977004423 0 0.0011417755679558189 -0.012160407940402846 0 0.00043294173566927246 -0.012049104977004423 0 0.00027909856013199453 -0.01194760276026338 0 0.00076013799980288385 -0.012371907786206804 0 0.0010976243470282884 -0.012874435943539946 0 0.00021946517486969 -0.012330770509488637 0 0.00092200904995401369 -0.013951307690573478 0 0.00038902569387800804 -0.012753380920910657 0 0.0006444560537777757 -0.012131558940456347 0 0.00079359151845115393 -0.011772318000730605 0 0.0011417755679558189 -0.012160407940402846 0 0.001775399215516361 -0.012522854014036707 0 0.0020186911894316097 -0.012241117266659262 0 0.0011417755679558189 -0.012160407940402846 0 0.001775399215516361 -0.012522854014036707 0 0.0016467975052372589 -0.012814730655653923 0 0.0011417755679558189 -0.012160407940402846 0 0.0016467975052372589 -0.012814730655653923 0 0.0010976243470282884 -0.012874435943539946 0 0.00092200904995401369 -0.013951307690573478 0 0.0018371303674106852 -0.017421710067782495 0 0.00096507202381579686 -0.01544619974774623 0 0.0012933578586841387 -0.015621343210168399 0 0.0010069835562330233 -0.015667532313939216 0 0.0016467975052372589 -0.012814730655653923 0 0.0010976243470282884 -0.012874435943539946 0 0.001915591492728721 -0.013351449324735925 0 0.00096507202381579686 -0.01544619974774623 0 0.00065444070077775305 -0.015287328283073696 0 0.0007606921574499824 -0.015531134899524238 0 0.00096507202381579686 -0.01544619974774623 0 0.00087561028324515322 -0.015620685565579398 0 0.0010069835562330233 -0.015667532313939216 0 0.00096507202381579686 -0.01544619974774623 0 0.00087561028324515322 -0.015620685565579398 0 0.0007606921574499824 -0.015531134899524238 0 0.00087561028324515322 -0.015620685565579398 0 0.0007606921574499824 -0.015531134899524238 0 0.00076313995352863553 -0.015662318814491732 0 0.0044138373856499585 -0.022473422876056921 0 0.0053002493580502708 -0.022931772005848065 0 0.004736238519041586 -0.023201785903935467 0 0.0044138373856499585 -0.022473422876056921 0 0.004736238519041586 -0.023201785903935467 0 0.0042016012058262615 -0.023260030261765464 0 0.0044138373856499585 -0.022473422876056921 0 0.0053002493580502708 -0.022931772005848065 0 0.0053090659572542758 -0.021997249069956388 0 0.0053002493580502708 -0.022931772005848065 0 0.0053090659572542758 -0.021997249069956388 0 0.0059342648161394996 -0.022464104056469061 0 0.0053002493580502708 -0.022931772005848065 0 0.0051691670085860248 -0.023621967061830028 0 0.0062206817562473716 -0.023817400052626614 0 0.0053002493580502708 -0.022931772005848065 0 0.0051691670085860248 -0.023621967061830028 0 0.004736238519041586 -0.023201785903935467 0 0.0051691670085860248 -0.023621967061830028 0 0.004736238519041586 -0.023201785903935467 0 0.0046164526727290366 -0.02380624832066025 0 0.004736238519041586 -0.023201785903935467 0 0.0042558883768457206 -0.023521528335967042 0 0.0042016012058262615 -0.023260030261765464 0 0.0046164526727290366 -0.02380624832066025 0 0.0042558883768457206 -0.023521528335967042 0 0.0041534508229595177 -0.023869244218597849 0 0.004736238519041586 -0.023201785903935467 0 0.0046164526727290366 -0.02380624832066025 0 0.0042558883768457206 -0.023521528335967042 0 0.0037699412795107121 -0.01711754205786483 0 0.003462982962296969 -0.020924771855085577 0 0.0044138373856499585 -0.022473422876056921 0 0.0042016012058262615 -0.023260030261765464 0 0.003395038217929643 -0.023842914763138601 0 0.0042558883768457206 -0.023521528335967042 0 0.0042016012058262615 -0.023260030261765464 0 0.003395038217929643 -0.023842914763138601 0 0.0042558883768457206 -0.023521528335967042 0 0.003395038217929643 -0.023842914763138601 0 0.0041534508229595177 -0.023869244218597849 0 0.0018371303674106852 -0.017421710067782495 0 0.0030143141636226468 -0.013037953185762549 0 0.001915591492728721 -0.013351449324735925 0 0.0019205622767935224 -0.012999139642594665 0 0.0021836333792038783 -0.013009939142727529 0 0.0018914805367809639 -0.013479398644272859 0 0.0021836333792038783 -0.013009939142727529 0 0.001996914032606678 -0.013525788072605226 0 0.0018371303674106852 -0.017421710067782495 0 0.003462982962296969 -0.020924771855085577 0 0.0016467975052372589 -0.012814730655653923 0 0.001915591492728721 -0.013351449324735925 0 0.0019205622767935224 -0.012999139642594665 0 0.0019360234638263639 -0.012819026927884222 0 0.0021836333792038783 -0.013009939142727529 0 0.0021181255145936097 -0.012650945753724187 0 0.0019205622767935224 -0.012999139642594665 0 0.0019360234638263639 -0.012819026927884222 0 0.0021836333792038783 -0.013009939142727529 0 0.0016467975052372589 -0.012814730655653923 0 0.0019205622767935224 -0.012999139642594665 0 0.0019360234638263639 -0.012819026927884222 0 0.0024493483482441042 -0.012795007387151936 0 0.0021836333792038783 -0.013009939142727529 0 0.001996914032606678 -0.013525788072605226 0 0.0024493483482441042 -0.012795007387151936 0 0.0021836333792038783 -0.013009939142727529 0 0.0021181255145936097 -0.012650945753724187 0 0.0024493483482441042 -0.012795007387151936 0 0.0021181255145936097 -0.012650945753724187 0 0.0022831188799071768 -0.01254648814289904 0 0.0021181255145936097 -0.012650945753724187 0 0.0022831188799071768 -0.01254648814289904 0 0.0020186911894316097 -0.012241117266659262 0 0.0024493483482441042 -0.012795007387151936 0 0.0022831188799071768 -0.01254648814289904 0 0.0024369048850836333 -0.012437639410320419 0 0.001775399215516361 -0.012522854014036707 0 0.0021181255145936097 -0.012650945753724187 0 0.0020186911894316097 -0.012241117266659262 0 0.001775399215516361 -0.012522854014036707 0 0.0019360234638263639 -0.012819026927884222 0 0.0021181255145936097 -0.012650945753724187 0 0.001775399215516361 -0.012522854014036707 0 0.0016467975052372589 -0.012814730655653923 0 0.0019360234638263639 -0.012819026927884222 0 0.0022831188799071768 -0.01254648814289904 0 0.0020186911894316097 -0.012241117266659262 0 0.0024369048850836333 -0.012437639410320419 0 0.00079359151845115393 -0.011772318000730605 0 0.002586749576125032 -0.018272320179176828 0 0.0020186911894316097 -0.012241117266659262 0 0.0024369048850836333 -0.012437639410320419 0 0.0028374981816634212 -0.012290535198222033 0 0.0024493483482441042 -0.012795007387151936 0 0.0024369048850836333 -0.012437639410320419 0 0.0028374981816634212 -0.012290535198222033 0 0.0037699412795107121 -0.01711754205786483 0 0.002586749576125032 -0.018272320179176828 0 0.0053090659572542758 -0.021997249069956388 0 0.0056223600702489272 -0.021101716339483396 0 0.0059342648161394996 -0.022464104056469061 0 0.0044138373856499585 -0.022473422876056921 0 0.0053090659572542758 -0.021997249069956388 0 0.0054016549047111668 -0.021110699332916483 0 0.0053090659572542758 -0.021997249069956388 0 0.0054016549047111668 -0.021110699332916483 0 0.0056223600702489272 -0.021101716339483396 0 0.002586749576125032 -0.018272320179176828 0 0.0025609001416439822 -0.021478936655960824 0 0.0015043996454381849 -0.019408610012413445 0 0.00098348378816447276 -0.019433822077070291 0 0.0010992839851178919 -0.019941469049051738 0 0.0018544172451881941 -0.020281617052309381 0 0.0026524659581153307 -0.01873344743007763 0 6.9239631532346633e-05 -0.012323877255575565 0 8.421586956555474e-05 -0.012313624800970825 0 -4.371965855478783e-05 -0.01220851322698828 0 0.0018544172451881941 -0.020281617052309381 0 -0.0008340717652998281 -0.011712005109039768 0 -5.1466485930005772e-05 -0.012626471802634142 0 -0.00012416937638329173 -0.012502128923106006 0 -0.0001366659941987594 -0.012523919306704446 0 0.0025609001416439822 -0.021478936655960824 0 0.0018544172451881941 -0.020281617052309381 0 0.002586749576125032 -0.018272320179176828 0 0.0018544172451881941 -0.020281617052309381 0 0.00030611823770182261 -0.012500275414600028 0 -0.0008340717652998281 -0.011712005109039768 0 -7.2787158299507606e-06 -0.012188124365955131 0 -4.905813863859052e-05 -0.012204685601188439 0 -4.371965855478783e-05 -0.01220851322698828 0 -1.5832332938863291e-05 -0.012307013062612115 0 -7.2787158299507606e-06 -0.012188124365955131 0 -4.371965855478783e-05 -0.01220851322698828 0 -4.905813863859052e-05 -0.012204685601188439 0 6.9239631532346633e-05 -0.012323877255575565 0 -4.371965855478783e-05 -0.01220851322698828 0 -1.5832332938863291e-05 -0.012307013062612115 0 -0.00012416937638329173 -0.012502128923106006 0 -0.00010272748174572547 -0.012450135124748437 0 -0.00010985835180426773 -0.012542525009224955 0 -0.00010272748174572547 -0.012450135124748437 0 -0.0001366659941987594 -0.012523919306704446 0 -0.00012416937638329173 -0.012502128923106006 0 -0.00010272748174572547 -0.012450135124748437 0 -0.0001366659941987594 -0.012523919306704446 0 -0.00010985835180426773 -0.012542525009224955 0 -3.8182375120856884e-05 -0.012473929901789485 0 -0.00010272748174572547 -0.012450135124748437 0 0.0047237795767997139 -0.022531434901214235 0 0.0054825799995916729 -0.025908529387592121 0 0.0026575785840079937 -0.025420674021159415 0 0.0015119283074632281 -0.030006956019737706 0 0.0014760661396207202 -0.030190955720447169 0 0.0012258259053627646 -0.030456493114977948 0 0.001765662062948258 -0.030204735535917255 0 0.0015816069243684457 -0.030031576158413974 0 0.001765662062948258 -0.030204735535917255 0 0.0015816069243684457 -0.030031576158413974 0 0.0017757418775936292 -0.029891789863766585 0 0.0015816069243684457 -0.030031576158413974 0 0.0014810305036329306 -0.029922211151052744 0 0.0014336758490532942 -0.030012016193160719 0 0.0015816069243684457 -0.030031576158413974 0 0.0014810305036329306 -0.029922211151052744 0 0.00158616757396926 -0.029872123735242045 0 0.0014810305036329306 -0.029922211151052744 0 0.00158616757396926 -0.029872123735242045 0 0.0014414825142778144 -0.02984398672034165 0 0.00158616757396926 -0.029872123735242045 0 0.0017757418775936292 -0.029891789863766585 0 0.0017727283805536772 -0.029781043824798948 0 0.0015816069243684457 -0.030031576158413974 0 0.00158616757396926 -0.029872123735242045 0 0.0017757418775936292 -0.029891789863766585 0 0.0020418116634485194 -0.029755031409270171 0 0.001765662062948258 -0.030204735535917255 0 0.0017757418775936292 -0.029891789863766585 0 0.0018544172451881941 -0.020281617052309381 0 0.0021272611091675058 -0.028818610600246222 0 0.0017757418775936292 -0.029891789863766585 0 0.001946519586382766 -0.029728254756136569 0 0.0017727283805536772 -0.029781043824798948 0 0.0020418116634485194 -0.029755031409270171 0 0.0017757418775936292 -0.029891789863766585 0 0.001946519586382766 -0.029728254756136569 0 0.0018544172451881941 -0.020281617052309381 0 0.0025678034281296728 -0.024635269730393775 0 0.0012100720124899966 -0.030144901187762526 0 0.0012822807345717535 -0.030199963904054727 0 0.0011420621688158729 -0.030229029103687875 0 0.0012100720124899966 -0.030144901187762526 0 0.0012822807345717535 -0.030199963904054727 0 0.0013201305442579973 -0.030064749383512151 0 0.0014261149807191702 -0.030267493325810454 0 0.0015816069243684457 -0.030031576158413974 0 0.0014044582214893934 -0.030114677428719198 0 0.0012822807345717535 -0.030199963904054727 0 0.0014044582214893934 -0.030114677428719198 0 0.0013201305442579973 -0.030064749383512151 0 0.0014261149807191702 -0.030267493325810454 0 0.0012822807345717535 -0.030199963904054727 0 0.0014044582214893934 -0.030114677428719198 0 0.0015816069243684457 -0.030031576158413974 0 0.0014044582214893934 -0.030114677428719198 0 0.0014336758490532942 -0.030012016193160719 0 0.0014810305036329306 -0.029922211151052744 0 0.0013820659683635654 -0.02993807362206892 0 0.0014414825142778144 -0.02984398672034165 0 0.0014810305036329306 -0.029922211151052744 0 0.0014336758490532942 -0.030012016193160719 0 0.0013820659683635654 -0.02993807362206892 0 0.0013820659683635654 -0.02993807362206892 0 0.0012925846166414933 -0.029996986015403931 0 0.0013149751018901406 -0.029924258012623429 0 0.0013820659683635654 -0.02993807362206892 0 0.0013201305442579973 -0.030064749383512151 0 0.0012925846166414933 -0.029996986015403931 0 0.0014336758490532942 -0.030012016193160719 0 0.0013820659683635654 -0.02993807362206892 0 0.0013201305442579973 -0.030064749383512151 0 0.0014044582214893934 -0.030114677428719198 0 0.0014336758490532942 -0.030012016193160719 0 0.0013201305442579973 -0.030064749383512151 0 0.0013201305442579973 -0.030064749383512151 0 0.0012925846166414933 -0.029996986015403931 0 0.001229051586756538 -0.030052596616222414 0 0.0012925846166414933 -0.029996986015403931 0 0.001229051586756538 -0.030052596616222414 0 0.0012335730029196155 -0.029953391816930106 0 0.001229051586756538 -0.030052596616222414 0 0.0012335730029196155 -0.029953391816930106 0 0.0011679183991218757 -0.030020196838711634 0 0.0012100720124899966 -0.030144901187762526 0 0.001229051586756538 -0.030052596616222414 0 0.0011898366602282877 -0.030100666937006221 0 0.0012100720124899966 -0.030144901187762526 0 0.0013201305442579973 -0.030064749383512151 0 0.001229051586756538 -0.030052596616222414 0 0.0012335730029196155 -0.029953391816930106 0 0.0012779547337123814 -0.029867406121528134 0 0.0012018960856511301 -0.029877021559378186 0 0.0012925846166414933 -0.029996986015403931 0 0.0012335730029196155 -0.029953391816930106 0 0.0013149751018901406 -0.029924258012623429 0 0.0013149751018901406 -0.029924258012623429 0 0.0012779547337123814 -0.029867406121528134 0 0.0013783208927004337 -0.029859625616055194 0 0.0012335730029196155 -0.029953391816930106 0 0.0013149751018901406 -0.029924258012623429 0 0.0012779547337123814 -0.029867406121528134 0 0.0010928918879447927 -0.029802472561872132 0 0.0014722012105067488 -0.028803779487418642 0 0.0013783208927004337 -0.029859625616055194 0 0.0013429960408776747 -0.029806690735300723 0 0.0014748464822167966 -0.029816013967219918 0 0.0012779547337123814 -0.029867406121528134 0 0.0013783208927004337 -0.029859625616055194 0 0.0013429960408776747 -0.029806690735300723 0 0.0013820659683635654 -0.02993807362206892 0 0.0013149751018901406 -0.029924258012623429 0 0.0013783208927004337 -0.029859625616055194 0 0.0013783208927004337 -0.029859625616055194 0 0.0014414825142778144 -0.02984398672034165 0 0.0014748464822167966 -0.029816013967219918 0 0.0013820659683635654 -0.02993807362206892 0 0.0013783208927004337 -0.029859625616055194 0 0.0014414825142778144 -0.02984398672034165 0 0.00078211745220165268 -0.029707182300424059 0 0.00086514202060393008 -0.029695898401172552 0 0.00073985237812754798 -0.029626371432510394 0 0.00078211745220165268 -0.029707182300424059 0 0.00082630244963289798 -0.029779955638702307 0 0.00072656726810126592 -0.029765489479001806 0 0.00078211745220165268 -0.029707182300424059 0 0.00082630244963289798 -0.029779955638702307 0 0.00086514202060393008 -0.029695898401172552 0 0.0012779547337123814 -0.029867406121528134 0 0.0012018960856511301 -0.029877021559378186 0 0.0011942852213867711 -0.029804902636668001 0 0.00082630244963289798 -0.029779955638702307 0 0.00086514202060393008 -0.029695898401172552 0 0.00099756331337929986 -0.029767918046279873 0 0.0010928918879447927 -0.029802472561872132 0 0.0011005968984512718 -0.02978627760736257 0 0.0012779547337123814 -0.029867406121528134 0 0.0013429960408776747 -0.029806690735300723 0 0.0011942852213867711 -0.029804902636668001 0 0.0025678034281296728 -0.024635269730393775 0 0.0014722012105067488 -0.028803779487418642 0 0.0021038883292374549 -0.025638650763218886 0 0.0027565979372932933 -0.025970086230448199 0 0.0020743968610674999 -0.026096930840742896 0 0.0019145304305257362 -0.029739736164573295 0 0.0017727283805536772 -0.029781043824798948 0 0.0015500268831665561 -0.029687447260255104 0 0.0025609001416439822 -0.021478936655960824 0 0.0038789346865113435 -0.024389980095094362 0 0.0019764440157224012 -0.025638094342526507 0 0.0021038883292374549 -0.025638650763218886 0 0.0020743968610674999 -0.026096930840742896 0 0.0025609001416439822 -0.021478936655960824 0 0.0025678034281296728 -0.024635269730393775 0 0.0022488593101521875 -0.022840756575492491 0 0.002218389850883077 -0.022708693704091822 0 0.0024811612510676371 -0.022836806689189432 0 0.0025678034281296728 -0.024635269730393775 0 0.0017012485072023565 -0.027313486376961873 0 0.00158616757396926 -0.029872123735242045 0 0.0017727283805536772 -0.029781043824798948 0 0.0015500268831665561 -0.029687447260255104 0 0.00158616757396926 -0.029872123735242045 0 0.0014414825142778144 -0.02984398672034165 0 0.0015500268831665561 -0.029687447260255104 0 0.0012201596866833989 -0.029623986205238626 0 0.0014722012105067488 -0.028803779487418642 0 0.00078211745220165268 -0.029707182300424059 0 0.00073985237812754798 -0.029626371432510394 0 0.00072656726810126592 -0.029765489479001806 0 0.0014722012105067488 -0.028803779487418642 0 0.0022768700324867623 -0.027202138924073787 0 0.00073985237812754798 -0.029626371432510394 0 0.00072656726810126592 -0.029765489479001806 0 0.00060307940282917254 -0.029758080811240244 0 0.0027565979372932933 -0.025970086230448199 0 0.0020743968610674999 -0.026096930840742896 0 0.0021708677619958301 -0.026544683443261562 0 0.0038789346865113435 -0.024389980095094362 0 0.0022768700324867623 -0.027202138924073787 0 0.0053002493580502708 -0.022931772005848065 0 0.0059342648161394996 -0.022464104056469061 0 0.0062206817562473716 -0.023817400052626614 0 0.00060307940282917254 -0.029758080811240244 0 0.00067439430800700004 -0.02983125693142161 0 0.00062445004201291791 -0.0299080778327529 0 0.00061191339621760447 -0.029681969668723208 0 0.0005535374377325401 -0.029861921435352008 0 0.00062445004201291791 -0.0299080778327529 0 0.0022768700324867623 -0.027202138924073787 0 0.00056852138864613166 -0.030715174754021742 0 0.00072656726810126592 -0.029765489479001806 0 0.00060307940282917254 -0.029758080811240244 0 0.00067439430800700004 -0.02983125693142161 0 0.00074456853800261634 -0.029893081708374646 0 0.00067439430800700004 -0.02983125693142161 0 0.00062445004201291791 -0.0299080778327529 0 0.00082630244963289798 -0.029779955638702307 0 0.00072656726810126592 -0.029765489479001806 0 0.00074456853800261634 -0.029893081708374646 0 0.00072656726810126592 -0.029765489479001806 0 0.00074456853800261634 -0.029893081708374646 0 0.00067439430800700004 -0.02983125693142161 0 0.00074456853800261634 -0.029893081708374646 0 0.00075265509089834806 -0.030033363928911885 0 0.00064372315911590059 -0.030012013682179112 0 0.00074456853800261634 -0.029893081708374646 0 0.00062445004201291791 -0.0299080778327529 0 0.00064372315911590059 -0.030012013682179112 0 0.00062445004201291791 -0.0299080778327529 0 0.00064372315911590059 -0.030012013682179112 0 0.0005343578248047287 -0.02996744670503319 0 0.0005535374377325401 -0.029861921435352008 0 0.00062445004201291791 -0.0299080778327529 0 0.0005343578248047287 -0.02996744670503319 0 0.00082630244963289798 -0.029779955638702307 0 0.00086710111482998255 -0.029869778033939812 0 0.00099756331337929986 -0.029767918046279873 0 0.00086710111482998255 -0.029869778033939812 0 0.00094518257404040378 -0.029925808773551464 0 0.00099756331337929986 -0.029767918046279873 0 0.00094518257404040378 -0.029925808773551464 0 0.00099756331337929986 -0.029767918046279873 0 0.0010287331693797856 -0.029905019246861054 0 0.00082630244963289798 -0.029779955638702307 0 0.00074456853800261634 -0.029893081708374646 0 0.00086710111482998255 -0.029869778033939812 0 0.00074456853800261634 -0.029893081708374646 0 0.00086710111482998255 -0.029869778033939812 0 0.0008423397640867161 -0.029978058277744381 0 0.00074456853800261634 -0.029893081708374646 0 0.0008423397640867161 -0.029978058277744381 0 0.00075265509089834806 -0.030033363928911885 0 0.00086710111482998255 -0.029869778033939812 0 0.0008423397640867161 -0.029978058277744381 0 0.00094518257404040378 -0.029925808773551464 0 0.0008423397640867161 -0.029978058277744381 0 0.00094001042048565012 -0.030036582220249939 0 0.00094518257404040378 -0.029925808773551464 0 0.00094001042048565012 -0.030036582220249939 0 0.00094518257404040378 -0.029925808773551464 0 0.0010099209636793558 -0.029992306180806321 0 0.00093801022495173646 -0.030135628624052738 0 0.00084516634124715017 -0.030145237593006198 0 0.0009785537479592057 -0.030230876199653558 0 0.0008423397640867161 -0.029978058277744381 0 0.00094001042048565012 -0.030036582220249939 0 0.00084516634124715017 -0.030145237593006198 0 0.00093801022495173646 -0.030135628624052738 0 0.0009785537479592057 -0.030230876199653558 0 0.0010389402910446072 -0.030110958027159039 0 0.00094001042048565012 -0.030036582220249939 0 0.00093801022495173646 -0.030135628624052738 0 0.0010389402910446072 -0.030110958027159039 0 0.00094001042048565012 -0.030036582220249939 0 0.00093801022495173646 -0.030135628624052738 0 0.00084516634124715017 -0.030145237593006198 0 0.00075265509089834806 -0.030033363928911885 0 0.00084516634124715017 -0.030145237593006198 0 0.00069579924427060232 -0.030127235837210824 0 0.0008423397640867161 -0.029978058277744381 0 0.00075265509089834806 -0.030033363928911885 0 0.00084516634124715017 -0.030145237593006198 0 0.0007677891350274783 -0.030204417600467378 0 0.00089868163119699281 -0.030286207359068808 0 0.00079927050159029202 -0.030309789610383404 0 0.00084516634124715017 -0.030145237593006198 0 0.0007677891350274783 -0.030204417600467378 0 0.00069579924427060232 -0.030127235837210824 0 0.00084516634124715017 -0.030145237593006198 0 0.0007677891350274783 -0.030204417600467378 0 0.00089868163119699281 -0.030286207359068808 0 0.0007677891350274783 -0.030204417600467378 0 0.00067214464044083682 -0.030221506868652825 0 0.00079927050159029202 -0.030309789610383404 0 0.00084516634124715017 -0.030145237593006198 0 0.00089868163119699281 -0.030286207359068808 0 0.0009785537479592057 -0.030230876199653558 0 0.00089868163119699281 -0.030286207359068808 0 0.0009785537479592057 -0.030230876199653558 0 0.0010663900731560033 -0.030323697840311553 0 0.00054143785214109692 -0.030063637533902482 0 0.00064372315911590059 -0.030012013682179112 0 0.0005343578248047287 -0.02996744670503319 0 0.00059919232121892767 -0.030099367298923395 0 0.00054143785214109692 -0.030063637533902482 0 0.0005248714889971892 -0.030136368023703255 0 0.00059919232121892767 -0.030099367298923395 0 0.00054143785214109692 -0.030063637533902482 0 0.00064372315911590059 -0.030012013682179112 0 0.00075265509089834806 -0.030033363928911885 0 0.00064372315911590059 -0.030012013682179112 0 0.00069579924427060232 -0.030127235837210824 0 0.00059919232121892767 -0.030099367298923395 0 0.00064372315911590059 -0.030012013682179112 0 0.00069579924427060232 -0.030127235837210824 0 0.00059919232121892767 -0.030099367298923395 0 0.00069579924427060232 -0.030127235837210824 0 0.00059643467025147408 -0.030189662697634054 0 0.00069579924427060232 -0.030127235837210824 0 0.00067214464044083682 -0.030221506868652825 0 0.00059643467025147408 -0.030189662697634054 0 0.0007677891350274783 -0.030204417600467378 0 0.00069579924427060232 -0.030127235837210824 0 0.00067214464044083682 -0.030221506868652825 0 0.00067214464044083682 -0.030221506868652825 0 0.00059643467025147408 -0.030189662697634054 0 0.00062560797947443703 -0.03024749838388489 0 0.00059919232121892767 -0.030099367298923395 0 0.00059643467025147408 -0.030189662697634054 0 0.0005248714889971892 -0.030136368023703255 0 0.00059643467025147408 -0.030189662697634054 0 0.00050770623412442213 -0.030213869468093242 0 0.00056926826433157459 -0.030257267727259961 0 0.00059643467025147408 -0.030189662697634054 0 0.0005248714889971892 -0.030136368023703255 0 0.00050770623412442213 -0.030213869468093242 0 0.00050770623412442213 -0.030213869468093242 0 0.00043533346885652976 -0.03017150529340178 0 0.00042506105748702698 -0.0302511946545213 0 0.00043533346885652976 -0.03017150529340178 0 0.00037547388199440137 -0.030230112319771379 0 0.00042506105748702698 -0.0302511946545213 0 0.0005248714889971892 -0.030136368023703255 0 0.00050770623412442213 -0.030213869468093242 0 0.00043533346885652976 -0.03017150529340178 0 0.0005248714889971892 -0.030136368023703255 0 0.00043533346885652976 -0.03017150529340178 0 0.0004720279791990346 -0.030071576404864728 0 0.00054143785214109692 -0.030063637533902482 0 0.0005248714889971892 -0.030136368023703255 0 0.0004720279791990346 -0.030071576404864728 0 0.0004720279791990346 -0.030071576404864728 0 0.0004341188968302644 -0.030012599970128995 0 0.00040444257329241877 -0.030101540920378828 0 0.00043533346885652976 -0.03017150529340178 0 0.0004720279791990346 -0.030071576404864728 0 0.00040444257329241877 -0.030101540920378828 0 0.0004720279791990346 -0.030071576404864728 0 0.0004341188968302644 -0.030012599970128995 0 0.0005343578248047287 -0.02996744670503319 0 0.00054143785214109692 -0.030063637533902482 0 0.0004720279791990346 -0.030071576404864728 0 0.0005343578248047287 -0.02996744670503319 0 0.0004341188968302644 -0.030012599970128995 0 0.00032174375544001554 -0.030033404350281425 0 0.00040444257329241877 -0.030101540920378828 0 0.00032174375544001554 -0.030033404350281425 0 0.00040444257329241877 -0.030101540920378828 0 0.00034958331419915551 -0.030156248395641301 0 0.00043533346885652976 -0.03017150529340178 0 0.00040444257329241877 -0.030101540920378828 0 0.00034958331419915551 -0.030156248395641301 0 0.00043533346885652976 -0.03017150529340178 0 0.00034958331419915551 -0.030156248395641301 0 0.00037547388199440137 -0.030230112319771379 0 0.00034958331419915551 -0.030156248395641301 0 0.00032454422988842011 -0.030242775074239 0 0.00037547388199440137 -0.030230112319771379 0 0.00032174375544001554 -0.030033404350281425 0 0.00034958331419915551 -0.030156248395641301 0 0.00027348270323753431 -0.030209254795625334 0 0.0007879171906158836 -0.029634236419644275 0 0.00052318286505003287 -0.030094500867020167 0 0.00044172337829091816 -0.029995166273635267 0 0.00034958331419915551 -0.030156248395641301 0 0.00027348270323753431 -0.030209254795625334 0 0.00032454422988842011 -0.030242775074239 0 0.00052318286505003287 -0.030094500867020167 0 0.00044172337829091816 -0.029995166273635267 0 0.00029126320760254013 -0.030241613597955408 0 0.0024795550559503477 -0.02762239978526311 0 0.0016831151342137252 -0.028007465351751849 0 0.0014419585181379576 -0.028903896282548486 0 0.0015181721312744248 -0.02876238529023142 0 0.00084356236148954366 -0.029585795827234387 0 0.0024795550559503477 -0.02762239978526311 0 0.0016831151342137252 -0.028007465351751849 0 0.0019889277865081669 -0.027157715291678659 0 0.0016831151342137252 -0.028007465351751849 0 0.0013366130646671232 -0.027138365717304928 0 0.0019889277865081669 -0.027157715291678659 0 0.0010635737477462939 -0.021690973185443628 0 0.0017730350722484651 -0.021062154815273595 0 0.0013366130646671232 -0.027138365717304928 0 0.0021991181996312984 -0.026518907511842132 0 0.0024628173793587093 -0.025462989741809633 0 0.0007547253194951424 -0.016248399104794992 0 0.00101358997262146 -0.015963856897239549 0 0.00078005440953576367 -0.016014577885370737 0 0.0013366130646671232 -0.027138365717304928 0 0.0019889277865081669 -0.027157715291678659 0 0.0021991181996312984 -0.026518907511842132 0 0.0024795550559503477 -0.02762239978526311 0 0.0019889277865081669 -0.027157715291678659 0 0.0021991181996312984 -0.026518907511842132 0 0.0034969842843526619 -0.026423365021724845 0 0.0024795550559503477 -0.02762239978526311 0 0.0021991181996312984 -0.026518907511842132 0 0.0034969842843526619 -0.026423365021724845 0 0.0021991181996312984 -0.026518907511842132 0 0.002645331435429259 -0.026035987106372081 0 0.001858401999896054 -0.028291243049624177 0 0.00017651375361540505 -0.030506135639438856 0 0.001858401999896054 -0.028291243049624177 0 0.0015181721312744248 -0.02876238529023142 0 0.0034969842843526619 -0.026423365021724845 0 0.0029915424061197861 -0.025713135959033125 0 0.0035127895421861277 -0.025450897128168129 0 0.0034969842843526619 -0.026423365021724845 0 0.0029915424061197861 -0.025713135959033125 0 0.002645331435429259 -0.026035987106372081 0 0.0029915424061197861 -0.025713135959033125 0 0.002645331435429259 -0.026035987106372081 0 0.0024628173793587093 -0.025462989741809633 0 0.0021991181996312984 -0.026518907511842132 0 0.002645331435429259 -0.026035987106372081 0 0.0024628173793587093 -0.025462989741809633 0 0.0029915424061197861 -0.025713135959033125 0 0.0024628173793587093 -0.025462989741809633 0 0.0029208862543151329 -0.025161814523613567 0 0.0029915424061197861 -0.025713135959033125 0 0.0029208862543151329 -0.025161814523613567 0 0.0035127895421861277 -0.025450897128168129 0 0.0029208862543151329 -0.025161814523613567 0 0.0033983051293959179 -0.025090850801452767 0 0.0035127895421861277 -0.025450897128168129 0 0.00101358997262146 -0.015963856897239549 0 0.00078005440953576367 -0.016014577885370737 0 0.00089093172382737128 -0.015885374873619306 0 0.00101358997262146 -0.015963856897239549 0 0.00089093172382737128 -0.015885374873619306 0 0.001010041388897 -0.015796807474605309 0 0.00078005440953576367 -0.016014577885370737 0 0.00089093172382737128 -0.015885374873619306 0 0.00077765415777273608 -0.015874723598766283 0 0.00086900114221012616 -0.015779193251526907 0 0.00070700496413778362 -0.015775113044077922 0 0.00076313995352863553 -0.015662318814491732 0 0.00077765415777273608 -0.015874723598766283 0 0.00086900114221012616 -0.015779193251526907 0 0.00070700496413778362 -0.015775113044077922 0 0.00089093172382737128 -0.015885374873619306 0 0.00077765415777273608 -0.015874723598766283 0 0.00086900114221012616 -0.015779193251526907 0 0.00089093172382737128 -0.015885374873619306 0 0.00086900114221012616 -0.015779193251526907 0 0.001010041388897 -0.015796807474605309 0 0.00086900114221012616 -0.015779193251526907 0 0.001010041388897 -0.015796807474605309 0 0.0010069835562330233 -0.015667532313939216 0 0.00086900114221012616 -0.015779193251526907 0 0.00087561028324515322 -0.015620685565579398 0 0.0010069835562330233 -0.015667532313939216 0 0.00086900114221012616 -0.015779193251526907 0 0.00087561028324515322 -0.015620685565579398 0 0.00076313995352863553 -0.015662318814491732 0 0.0012933578586841387 -0.015621343210168399 0 0.001010041388897 -0.015796807474605309 0 0.0010069835562330233 -0.015667532313939216 0 0.0018371303674106852 -0.017421710067782495 0 0.0017730350722484651 -0.021062154815273595 0 0.0012933578586841387 -0.015621343210168399 0 0.00101358997262146 -0.015963856897239549 0 0.001010041388897 -0.015796807474605309 0 0.0029208862543151329 -0.025161814523613567 0 0.0037101245368924432 -0.024083418958356497 0 0.0035029103388804256 -0.0247724088275262 0 0.0037864286278903249 -0.023409165634838278 0 0.0024628173793587093 -0.025462989741809633 0 0.0029208862543151329 -0.025161814523613567 0 0.0027390018165452958 -0.02593004742797107 0 0.003462982962296969 -0.020924771855085577 0 0.0029208862543151329 -0.025161814523613567 0 0.0033983051293959179 -0.025090850801452767 0 0.0035029103388804256 -0.0247724088275262 0 0.0037101245368924432 -0.024083418958356497 0 0.0037979478292360707 -0.024486769587798548 0 0.0035029103388804256 -0.0247724088275262 0 0.0037864286278903249 -0.023409165634838278 0 0.0029208862543151329 -0.025161814523613567 0 0.0039800660471882654 -0.023497389129622938 0 0.0037101245368924432 -0.024083418958356497 0 0.0037979478292360707 -0.024486769587798548 0 0.0039667020703561548 -0.024333318314218335 0 0.0036557856520577684 -0.024982792516067723 0 0.0041833527333031617 -0.02461128364470256 0 0.0035127895421861277 -0.025450897128168129 0 0.0037979478292360707 -0.024486769587798548 0 0.0035029103388804256 -0.0247724088275262 0 0.003809113972728412 -0.024735509123663128 0 0.0035029103388804256 -0.0247724088275262 0 0.003809113972728412 -0.024735509123663128 0 0.0036557856520577684 -0.024982792516067723 0 0.0033983051293959179 -0.025090850801452767 0 0.0035029103388804256 -0.0247724088275262 0 0.0036557856520577684 -0.024982792516067723 0 0.003809113972728412 -0.024735509123663128 0 0.0036557856520577684 -0.024982792516067723 0 0.0041833527333031617 -0.02461128364470256 0 0.003809113972728412 -0.024735509123663128 0 0.0039493723537958481 -0.024585023128025959 0 0.0041833527333031617 -0.02461128364470256 0 0.0037979478292360707 -0.024486769587798548 0 0.003809113972728412 -0.024735509123663128 0 0.0039493723537958481 -0.024585023128025959 0 0.0039493723537958481 -0.024585023128025959 0 0.0041833527333031617 -0.02461128364470256 0 0.0040279621878082147 -0.024449507847732855 0 0.003395038217929643 -0.023842914763138601 0 0.0041534508229595177 -0.023869244218597849 0 0.0043429557766419625 -0.024305756018502666 0 0.0037101245368924432 -0.024083418958356497 0 0.0039667020703561548 -0.024333318314218335 0 0.0043429557766419625 -0.024305756018502666 0 0.0040279621878082147 -0.024449507847732855 0 0.0039667020703561548 -0.024333318314218335 0 0.0043429557766419625 -0.024305756018502666 0 0.0041833527333031617 -0.02461128364470256 0 0.0040279621878082147 -0.024449507847732855 0 0.0043429557766419625 -0.024305756018502666 0 0.003462982962296969 -0.020924771855085577 0 0.0047211946710821306 -0.023550862907864713 0 0.0037979478292360707 -0.024486769587798548 0 0.0040279621878082147 -0.024449507847732855 0 0.0039667020703561548 -0.024333318314218335 0 0.0037979478292360707 -0.024486769587798548 0 0.0039493723537958481 -0.024585023128025959 0 0.0040279621878082147 -0.024449507847732855 0 0.0062206817562473716 -0.023817400052626614 0 0.0050165990810649101 -0.024340542384613879 0 0.0046367901448735507 -0.02547549224244719 0 0.0046164526727290366 -0.02380624832066025 0 0.0041534508229595177 -0.023869244218597849 0 0.0043429557766419625 -0.024305756018502666 0 0.0051691670085860248 -0.023621967061830028 0 0.0046164526727290366 -0.02380624832066025 0 0.0050165990810649101 -0.024340542384613879 0 0.00061191339621760447 -0.029681969668723208 0 0.0005535374377325401 -0.029861921435352008 0 0.00044459434132491736 -0.029876122201025299 0 0.0046164526727290366 -0.02380624832066025 0 0.0050165990810649101 -0.024340542384613879 0 0.0043429557766419625 -0.024305756018502666 0 0.0022768700324867623 -0.027202138924073787 0 0.0026717717849805561 -0.027625383646236679 0 0.0041833527333031617 -0.02461128364470256 0 0.0043429557766419625 -0.024305756018502666 0 0.0045397517503624144 -0.024674013454303308 0 0.0050165990810649101 -0.024340542384613879 0 0.0043429557766419625 -0.024305756018502666 0 0.0045397517503624144 -0.024674013454303308 0 0.0051691670085860248 -0.023621967061830028 0 0.0062206817562473716 -0.023817400052626614 0 0.0050165990810649101 -0.024340542384613879 0 0.0050165990810649101 -0.024340542384613879 0 0.0045397517503624144 -0.024674013454303308 0 0.0046367901448735507 -0.02547549224244719 0 0.0041833527333031617 -0.02461128364470256 0 0.0045397517503624144 -0.024674013454303308 0 0.0046367901448735507 -0.02547549224244719 0 0.0005535374377325401 -0.029861921435352008 0 0.00044459434132491736 -0.029876122201025299 0 0.0005343578248047287 -0.02996744670503319 0 0.0004341188968302644 -0.030012599970128995 0 0.00044459434132491736 -0.029876122201025299 0 0.0005343578248047287 -0.02996744670503319 0 0.0027616840201153108 -0.027318893253715188 0 0.0041833527333031617 -0.02461128364470256 0 0.0046367901448735507 -0.02547549224244719 0 0.001858401999896054 -0.028291243049624177 0 0.0026717717849805561 -0.027625383646236679 0 0.0004341188968302644 -0.030012599970128995 0 0.00032174375544001554 -0.030033404350281425 0 0.00044459434132491736 -0.029876122201025299 0 0.001858401999896054 -0.028291243049624177 0 0.0046283800288831412 -0.024058666380772396 0 0.0034969842843526619 -0.026423365021724845 0 0.0041833527333031617 -0.02461128364470256 0 0.0035127895421861277 -0.025450897128168129 0 0.0033983051293959179 -0.025090850801452767 0 0.0036557856520577684 -0.024982792516067723 0 0.0035127895421861277 -0.025450897128168129 0 -1.8116271131875858e-09 -0.035000010119141334 0 -1.1985620159417207e-06 -0.034998725808544233 0 -1.9348258356344505e-10 -0.034999989958716372 0 4.8289983074709155e-08 -0.034996700392395587 0 -1.1985620159417207e-06 -0.034998725808544233 0 -1.9348258356344505e-10 -0.034999989958716372 0 4.8289983074709155e-08 -0.034996700392395587 0 3.2132145521398636e-06 -0.034995891027108809 0 1.1586346274159273e-05 -0.034987677672667424 0 4.8289983074709155e-08 -0.034996700392395587 0 3.2132145521398636e-06 -0.034995891027108809 0 -1.1985620159417207e-06 -0.034998725808544233 0 -2.3505699634247599e-06 -0.035001125283714553 0 -1.1985620159417207e-06 -0.034998725808544233 0 -4.3872695449983714e-06 -0.035001951655200272 0 3.2132145521398636e-06 -0.034995891027108809 0 -2.3505699634247599e-06 -0.035001125283714553 0 -1.1985620159417207e-06 -0.034998725808544233 0 -1.8116271131875858e-09 -0.035000010119141334 0 -1.1985620159417207e-06 -0.034998725808544233 0 -4.3872695449983714e-06 -0.035001951655200272 0 -1.8116271131875858e-09 -0.035000010119141334 0 -6.2610563436597461e-06 -0.034994539852960159 0 -3.5687546541905879e-09 -0.034999980989249148 0 -1.8116271131875858e-09 -0.035000010119141334 0 -6.2610563436597461e-06 -0.034994539852960159 0 -4.3872695449983714e-06 -0.035001951655200272 0 -1.1672943994442271e-05 -0.034979896796492389 0 -6.2610563436597461e-06 -0.034994539852960159 0 -3.5687546541905879e-09 -0.034999980989249148 0 -1.1672943994442271e-05 -0.034979896796492389 0 -6.2610563436597461e-06 -0.034994539852960159 0 -2.4563898530765161e-05 -0.034981837063439346 0 -2.4563898530765161e-05 -0.034981837063439346 0 -4.3872695449983714e-06 -0.035001951655200272 0 -5.2326563088142804e-05 -0.035001848726950453 0 -2.3505699634247599e-06 -0.035001125283714553 0 -4.3872695449983714e-06 -0.035001951655200272 0 -9.2530863740951263e-06 -0.03499271640069504 0 -6.2610563436597461e-06 -0.034994539852960159 0 -2.4563898530765161e-05 -0.034981837063439346 0 -4.3872695449983714e-06 -0.035001951655200272 0 -5.4787639219464321e-06 -0.035001685891505638 0 -3.4449123249445577e-05 -0.034995659969210766 0 -2.3505699634247599e-06 -0.035001125283714553 0 -9.2530863740951263e-06 -0.03499271640069504 0 -2.1027997131161992e-05 -0.034994252981528542 0 -4.1656038616575414e-05 -0.034946633788198893 0 -2.4563898530765161e-05 -0.034981837063439346 0 -4.9695221773320063e-05 -0.034969150464406761 0 -5.2326563088142804e-05 -0.035001848726950453 0 -4.9695221773320063e-05 -0.034969150464406761 0 -7.8600615319846954e-05 -0.03494813343924133 0 -4.1656038616575414e-05 -0.034946633788198893 0 -4.9695221773320063e-05 -0.034969150464406761 0 -7.8600615319846954e-05 -0.03494813343924133 0 -2.4563898530765161e-05 -0.034981837063439346 0 -5.2326563088142804e-05 -0.035001848726950453 0 -4.9695221773320063e-05 -0.034969150464406761 0 -7.8600615319846954e-05 -0.03494813343924133 0 -0.00012001278792814397 -0.034982548123490248 0 -0.00013427818193269145 -0.034933523173160896 0 -0.00013348423232034407 -0.034897832260523405 0 -7.8600615319846954e-05 -0.03494813343924133 0 -0.00013427818193269145 -0.034933523173160896 0 -3.4449123249445577e-05 -0.034995659969210766 0 -6.0718408847217078e-05 -0.034989785349158448 0 -2.1027997131161992e-05 -0.034994252981528542 0 -3.4939483972938344e-05 -0.034995489009461901 0 -3.1013309114466923e-05 -0.0349838624398865 0 -9.2530863740951263e-06 -0.03499271640069504 0 -2.1027997131161992e-05 -0.034994252981528542 0 -3.1013309114466923e-05 -0.0349838624398865 0 -5.2326563088142804e-05 -0.035001848726950453 0 -7.8600615319846954e-05 -0.03494813343924133 0 -0.00012001278792814397 -0.034982548123490248 0 -2.3913465799850435e-05 -0.035002781419848583 0 -2.1027997131161992e-05 -0.034994252981528542 0 -3.4939483972938344e-05 -0.034995489009461901 0 -1.0824170135671311e-06 -0.034977252051731682 0 1.7631268937921576e-05 -0.035079638015765073 0 -2.3505699634247599e-06 -0.035001125283714553 0 -2.3913465799850435e-05 -0.035002781419848583 0 -2.1027997131161992e-05 -0.034994252981528542 0 3.2132145521398636e-06 -0.034995891027108809 0 -2.3505699634247599e-06 -0.035001125283714553 0 3.2461400791510941e-05 -0.034999374483328974 0 3.2132145521398636e-06 -0.034995891027108809 0 3.2461400791510941e-05 -0.034999374483328974 0 1.1586346274159273e-05 -0.034987677672667424 0 3.2461400791510941e-05 -0.034999374483328974 0 5.8924363923224936e-05 -0.03496907388339919 0 4.1922167253378786e-05 -0.034972876491007263 0 3.2461400791510941e-05 -0.034999374483328974 0 2.8015278620908736e-05 -0.034979530104354735 0 4.1922167253378786e-05 -0.034972876491007263 0 3.2461400791510941e-05 -0.034999374483328974 0 1.1586346274159273e-05 -0.034987677672667424 0 2.8015278620908736e-05 -0.034979530104354735 0 -2.3913465799850435e-05 -0.035002781419848583 0 -4.4747860615830137e-05 -0.035004734406575005 0 -3.7806400595325944e-05 -0.034999477879474508 0 1.7631268937921576e-05 -0.035079638015765073 0 -0.00013362812805119519 -0.034472017094511413 0 3.2461400791510941e-05 -0.034999374483328974 0 7.6395608541337685e-05 -0.034977110308230412 0 5.8924363923224936e-05 -0.03496907388339919 0 -4.4747860615830137e-05 -0.035004734406575005 0 -4.7067563308835397e-05 -0.034995086308993097 0 -3.7806400595325944e-05 -0.034999477879474508 0 0.00025451919712968072 -0.032909663973448619 0 0.00053197775585231975 -0.032544266833412758 0 -0.00013362812805119519 -0.034472017094511413 0 -0.00022014056671933253 -0.034886426896739264 0 -0.00043176786831698272 -0.034443695641499489 0 -0.00036840022721406214 -0.034410898462478016 0 -0.00039644725682859623 -0.03468460812426008 0 -0.00036840022721406214 -0.034410898462478016 0 -0.00039644725682859623 -0.03468460812426008 0 -0.00023847549661627472 -0.034666170493609663 0 -0.00013362812805119519 -0.034472017094511413 0 0.00025451919712968072 -0.032909663973448619 0 -0.00039644725682859623 -0.03468460812426008 0 -0.00028293913658115964 -0.034791720892131422 0 -0.00023847549661627472 -0.034666170493609663 0 -4.7067563308835397e-05 -0.034995086308993097 0 -3.7806400595325944e-05 -0.034999477879474508 0 -3.4939483972938344e-05 -0.034995489009461901 0 -4.7067563308835397e-05 -0.034995086308993097 0 -3.4939483972938344e-05 -0.034995489009461901 0 -4.1225777012365961e-05 -0.034989365679887155 0 -2.3913465799850435e-05 -0.035002781419848583 0 -3.7806400595325944e-05 -0.034999477879474508 0 -3.4939483972938344e-05 -0.034995489009461901 0 -3.4939483972938344e-05 -0.034995489009461901 0 -4.1225777012365961e-05 -0.034989365679887155 0 -3.1013309114466923e-05 -0.0349838624398865 0 -0.00012001278792814397 -0.034982548123490248 0 -0.0001692259231853702 -0.034938764304525215 0 -0.00022113907162000149 -0.034949208282906673 0 -6.0718408847217078e-05 -0.034989785349158448 0 -0.0001995677728525562 -0.034902523515567947 0 -4.1225777012365961e-05 -0.034989365679887155 0 -3.1013309114466923e-05 -0.0349838624398865 0 -5.12402698567586e-05 -0.034979894994108619 0 -0.00012001278792814397 -0.034982548123490248 0 -0.00013427818193269145 -0.034933523173160896 0 -0.0001692259231853702 -0.034938764304525215 0 -0.00013427818193269145 -0.034933523173160896 0 -0.0001692259231853702 -0.034938764304525215 0 -0.00017788200119854696 -0.034905563141350175 0 -0.00013348423232034407 -0.034897832260523405 0 -0.00013427818193269145 -0.034933523173160896 0 -0.00017788200119854696 -0.034905563141350175 0 -0.00019857211928704579 -0.03486825698914367 0 -0.00017788200119854696 -0.034905563141350175 0 -0.00022161736244836257 -0.034886595448420654 0 -0.00017788200119854696 -0.034905563141350175 0 -0.00022161736244836257 -0.034886595448420654 0 -0.00022846982662066804 -0.034908348895139808 0 -0.0001692259231853702 -0.034938764304525215 0 -0.00022846982662066804 -0.034908348895139808 0 -0.00022113907162000149 -0.034949208282906673 0 -0.0001692259231853702 -0.034938764304525215 0 -0.00017788200119854696 -0.034905563141350175 0 -0.00022846982662066804 -0.034908348895139808 0 -0.00022161736244836257 -0.034886595448420654 0 -0.00022846982662066804 -0.034908348895139808 0 -0.00024662145623041638 -0.034883893145075728 0 -0.00022014056671933253 -0.034886426896739264 0 -0.0001995677728525562 -0.034902523515567947 0 -0.00022846982662066804 -0.034908348895139808 0 -0.00023256264862679888 -0.034908181566782513 0 -0.0002616069124113869 -0.034881254900562778 0 -0.00035276367152318582 -0.034877771169953484 0 -0.00028293913658115964 -0.034791720892131422 0 -0.0002616069124113869 -0.034881254900562778 0 -0.0001995677728525562 -0.034902523515567947 0 -0.00027178659587525429 -0.03488969713548068 0 -0.00039644725682859623 -0.03468460812426008 0 -0.00035276367152318582 -0.034877771169953484 0 -0.00028293913658115964 -0.034791720892131422 0 -4.7067563308835397e-05 -0.034995086308993097 0 -4.1225777012365961e-05 -0.034989365679887155 0 -5.12402698567586e-05 -0.034979894994108619 0 -0.00020754843183410466 -0.0349090837118127 0 -0.0001995677728525562 -0.034902523515567947 0 -0.00028293913658115964 -0.034791720892131422 0 -0.00021865947650609745 -0.034862415006884355 0 -0.00023847549661627472 -0.034666170493609663 0 -0.00028293913658115964 -0.034791720892131422 0 -0.0002616069124113869 -0.034881254900562778 0 -0.00021865947650609745 -0.034862415006884355 0 0.00046383963755826304 -0.032539011336115288 0 0.00053197775585231975 -0.032544266833412758 0 -0.0002616069124113869 -0.034881254900562778 0 -0.00025045513427943313 -0.034874176408173113 0 -0.00024662145623041638 -0.034883893145075728 0 -0.00022846982662066804 -0.034908348895139808 0 -0.0002616069124113869 -0.034881254900562778 0 -0.00024662145623041638 -0.034883893145075728 0 -0.0002616069124113869 -0.034881254900562778 0 -0.00025045513427943313 -0.034874176408173113 0 -0.00021865947650609745 -0.034862415006884355 0 -0.00024523171643667859 -0.034866967435439995 0 -0.00022161736244836257 -0.034886595448420654 0 -0.00024662145623041638 -0.034883893145075728 0 -0.00024523171643667859 -0.034866967435439995 0 -0.00025045513427943313 -0.034874176408173113 0 -0.00024662145623041638 -0.034883893145075728 0 0.00041475916653993723 -0.032554469309171503 0 0.00046383963755826304 -0.032539011336115288 0 -0.00025045513427943313 -0.034874176408173113 0 -0.0003134244582600597 -0.034853643827736383 0 -0.00021865947650609745 -0.034862415006884355 0 0.0011420621688158729 -0.030229029103687875 0 0.0011438950336384907 -0.03017394488483131 0 0.0011618073707359081 -0.03021648377225495 0 -0.00027682923344035779 -0.03484097388121879 0 -0.00025045513427943313 -0.034874176408173113 0 -0.0003134244582600597 -0.034853643827736383 0 0.0012100720124899966 -0.030144901187762526 0 0.0011420621688158729 -0.030229029103687875 0 0.0011438950336384907 -0.03017394488483131 0 0.0011438950336384907 -0.03017394488483131 0 0.0011898366602282877 -0.030100666937006221 0 0.0011679183991218757 -0.030020196838711634 0 0.0011438950336384907 -0.03017394488483131 0 0.0011679183991218757 -0.030020196838711634 0 0.0010942385622188246 -0.029892567862823918 0 0.0011438950336384907 -0.03017394488483131 0 0.0011618073707359081 -0.03021648377225495 0 0.001152900624249648 -0.030472434065766951 0 0.0012100720124899966 -0.030144901187762526 0 0.0011438950336384907 -0.03017394488483131 0 0.0011898366602282877 -0.030100666937006221 0 0.00114641646723123 -0.030282880208133963 0 0.001181873352513277 -0.029931763016733979 0 0.001229051586756538 -0.030052596616222414 0 0.0011898366602282877 -0.030100666937006221 0 0.0011679183991218757 -0.030020196838711634 0 0.0012335730029196155 -0.029953391816930106 0 0.0011679183991218757 -0.030020196838711634 0 0.0011661026449660081 -0.02991758158082064 0 0.0012335730029196155 -0.029953391816930106 0 0.0011661026449660081 -0.02991758158082064 0 0.0012018960856511301 -0.029877021559378186 0 0.0011661026449660081 -0.02991758158082064 0 0.0012018960856511301 -0.029877021559378186 0 0.0011400378091891985 -0.029866327813091158 0 0.0011661026449660081 -0.02991758158082064 0 0.0010942385622188246 -0.029892567862823918 0 0.0011400378091891985 -0.029866327813091158 0 0.0011679183991218757 -0.030020196838711634 0 0.0011661026449660081 -0.02991758158082064 0 0.0010942385622188246 -0.029892567862823918 0 0.0011618073707359081 -0.03021648377225495 0 0.0012649442613706454 -0.030494126103408931 0 0.001152900624249648 -0.030472434065766951 0 0.001181873352513277 -0.029931763016733979 0 0.00052518318100939489 -0.031733841575099071 0 0.0010942385622188246 -0.029892567862823918 0 0.0011091245342435537 -0.029858228966430096 0 0.0011400378091891985 -0.029866327813091158 0 0.0014570332549306163 -0.030884413248676305 0 0.001152900624249648 -0.030472434065766951 0 0.001319967511479175 -0.030953353080574907 0 0.0011091245342435537 -0.029858228966430096 0 0.0011444065090316668 -0.029840791622186037 0 0.0011400378091891985 -0.029866327813091158 0 0.0010942385622188246 -0.029892567862823918 0 0.0011091245342435537 -0.029858228966430096 0 0.0011104792873111453 -0.029845761244920384 0 0.0014570332549306163 -0.030884413248676305 0 0.0012649442613706454 -0.030494126103408931 0 0.001152900624249648 -0.030472434065766951 0 0.0011091245342435537 -0.029858228966430096 0 0.0011285871537671755 -0.029844784192378508 0 0.0011444065090316668 -0.029840791622186037 0 0.0011091245342435537 -0.029858228966430096 0 0.0011285871537671755 -0.029844784192378508 0 0.0011262548072663936 -0.029844476192546716 0 0.0011285871537671755 -0.029844784192378508 0 0.0011444065090316668 -0.029840791622186037 0 0.001128517728810705 -0.029840660462276639 0 0.0011444065090316668 -0.029840791622186037 0 0.0011942852213867711 -0.029804902636668001 0 0.001128517728810705 -0.029840660462276639 0 0.0012018960856511301 -0.029877021559378186 0 0.0011942852213867711 -0.029804902636668001 0 0.0011400378091891985 -0.029866327813091158 0 0.0011444065090316668 -0.029840791622186037 0 0.0011942852213867711 -0.029804902636668001 0 0.0011400378091891985 -0.029866327813091158 0 0.00099756331337929986 -0.029767918046279873 0 0.001077872185367437 -0.02987094110026452 0 0.0010287331693797856 -0.029905019246861054 0 0.0011005968984512718 -0.02978627760736257 0 0.0011306155286073026 -0.029831331021000607 0 0.00099756331337929986 -0.029767918046279873 0 0.001077872185367437 -0.02987094110026452 0 0.001128517728810705 -0.029840660462276639 0 0.001077872185367437 -0.02987094110026452 0 0.0011373505513030632 -0.029864014849990801 0 0.0010992009165110409 -0.029987450370221793 0 0.001077872185367437 -0.02987094110026452 0 0.0010287331693797856 -0.029905019246861054 0 0.0010992009165110409 -0.029987450370221793 0 0.001077872185367437 -0.02987094110026452 0 0.001128517728810705 -0.029840660462276639 0 0.0011373505513030632 -0.029864014849990801 0 0.001190611407842705 -0.029841415778874048 0 0.0011373505513030632 -0.029864014849990801 0 0.0012348698486275502 -0.03005915089032107 0 0.0011285871537671755 -0.029844784192378508 0 0.001128517728810705 -0.029840660462276639 0 0.0011262548072663936 -0.029844476192546716 0 0.001128517728810705 -0.029840660462276639 0 0.0011262548072663936 -0.029844476192546716 0 0.0011373505513030632 -0.029864014849990801 0 0.00061453850165616602 -0.03123612240113427 0 0.0012698611352662812 -0.030502655115397511 0 0.00084464840505119824 -0.029736189986018815 0 0.00061453850165616602 -0.03123612240113427 0 0.0011091245342435537 -0.029858228966430096 0 0.0011104792873111453 -0.029845761244920384 0 0.0011121627357326257 -0.029848073156343816 0 0.00052518318100939489 -0.031733841575099071 0 0.00061453850165616602 -0.03123612240113427 0 0.0011373505513030632 -0.029864014849990801 0 0.0012348698486275502 -0.03005915089032107 0 0.0010992009165110409 -0.029987450370221793 0 0.00061453850165616602 -0.03123612240113427 0 0.00036913132912926673 -0.032428443641622749 0 0.0012348698486275502 -0.03005915089032107 0 0.0010992009165110409 -0.029987450370221793 0 0.0011506273385263565 -0.030148650905287469 0 0.0010287331693797856 -0.029905019246861054 0 0.0010992009165110409 -0.029987450370221793 0 0.0010099209636793558 -0.029992306180806321 0 0.00094518257404040378 -0.029925808773551464 0 0.0010287331693797856 -0.029905019246861054 0 0.0010099209636793558 -0.029992306180806321 0 0.00094001042048565012 -0.030036582220249939 0 0.0010099209636793558 -0.029992306180806321 0 0.0010389402910446072 -0.030110958027159039 0 0.0010992009165110409 -0.029987450370221793 0 0.0010099209636793558 -0.029992306180806321 0 0.0010389402910446072 -0.030110958027159039 0 0.0010992009165110409 -0.029987450370221793 0 0.0010389402910446072 -0.030110958027159039 0 0.0011506273385263565 -0.030148650905287469 0 0.0010389402910446072 -0.030110958027159039 0 0.0010726150239228831 -0.030223536397941207 0 0.0011506273385263565 -0.030148650905287469 0 0.0009785537479592057 -0.030230876199653558 0 0.0010389402910446072 -0.030110958027159039 0 0.0010726150239228831 -0.030223536397941207 0 0.0009785537479592057 -0.030230876199653558 0 0.0010726150239228831 -0.030223536397941207 0 0.0010663900731560033 -0.030323697840311553 0 0.0010726150239228831 -0.030223536397941207 0 0.0010663900731560033 -0.030323697840311553 0 0.0011620325938954043 -0.030253341449219193 0 0.0011719920712878068 -0.030333281631523368 0 0.0011620325938954043 -0.030253341449219193 0 0.0012589534269727826 -0.030282637957247595 0 0.0011719920712878068 -0.030333281631523368 0 0.0012589534269727826 -0.030282637957247595 0 0.0012679097681876448 -0.030355453362378 0 0.0010663900731560033 -0.030323697840311553 0 0.0011719920712878068 -0.030333281631523368 0 0.0011620325938954043 -0.030253341449219193 0 0.0010726150239228831 -0.030223536397941207 0 0.0011620325938954043 -0.030253341449219193 0 0.0011506273385263565 -0.030148650905287469 0 0.0011620325938954043 -0.030253341449219193 0 0.0011506273385263565 -0.030148650905287469 0 0.0012693016691618644 -0.030280716010745314 0 0.0011388856567912053 -0.030734407485389002 0 0.00085358047559531026 -0.032183475273860625 0 0.0012348698486275502 -0.03005915089032107 0 0.0011506273385263565 -0.030148650905287469 0 0.0012693016691618644 -0.030280716010745314 0 0.00036913132912926673 -0.032428443641622749 0 0.00085358047559531026 -0.032183475273860625 0 -0.00040173739178861858 -0.034450650438128221 0 -0.0001502949217287262 -0.034555960942111351 0 -0.00014247384670716697 -0.034755207085356718 0 -0.00040173739178861858 -0.034450650438128221 0 -0.00014247384670716697 -0.034755207085356718 0 -0.00024122156829454306 -0.034957806085377394 0 -0.0001502949217287262 -0.034555960942111351 0 -3.7943172229577604e-05 -0.034650072711497663 0 -0.00014247384670716697 -0.034755207085356718 0 -3.7943172229577604e-05 -0.034650072711497663 0 0.00011266246868173063 -0.034399733631722079 0 -2.4644478550335423e-05 -0.034500069615399462 0 -0.0001502949217287262 -0.034555960942111351 0 -3.7943172229577604e-05 -0.034650072711497663 0 -2.4644478550335423e-05 -0.034500069615399462 0 -3.7943172229577604e-05 -0.034650072711497663 0 -0.00014247384670716697 -0.034755207085356718 0 4.3818744485226159e-05 -0.034865457455369959 0 -0.00014247384670716697 -0.034755207085356718 0 -0.00024122156829454306 -0.034957806085377394 0 -3.1521787103323691e-06 -0.03494372272288232 0 -0.00014247384670716697 -0.034755207085356718 0 -3.1521787103323691e-06 -0.03494372272288232 0 4.3818744485226159e-05 -0.034865457455369959 0 0.00085358047559531026 -0.032183475273860625 0 7.0064286009649204e-05 -0.034304184245516151 0 0.00024413496079384484 -0.034599637089692534 0 0.00036201977436466169 -0.034528539071478515 0 0.00029308385368644133 -0.03445856115370962 0 7.0064286009649204e-05 -0.034304184245516151 0 0.0010117788261314788 -0.032565359789449508 0 0.00091801770656140078 -0.033279130159342668 0 0.00028971930385571985 -0.033193133746289828 0 0.00085452814847984996 -0.032821142980666365 0 0.00085358047559531026 -0.032183475273860625 0 0.0010117788261314788 -0.032565359789449508 0 -3.1521787103323691e-06 -0.03494372272288232 0 4.3818744485226159e-05 -0.034865457455369959 0 5.7061495536515923e-05 -0.034901421889939874 0 7.0064286009649204e-05 -0.034304184245516151 0 5.8680772834129917e-05 -0.034814904724663219 0 0.00024413496079384484 -0.034599637089692534 0 2.412666910522886e-05 -0.034593031961158087 0 0.0001149752853630496 -0.034470605551993834 0 7.0064286009649204e-05 -0.034304184245516151 0 -2.0494597191156563e-05 -0.035080008318228641 0 4.1207865448412405e-05 -0.034904466136774517 0 5.7061495536515923e-05 -0.034901421889939874 0 4.8122111817752937e-05 -0.034916496020547853 0 -3.7943172229577604e-05 -0.034650072711497663 0 4.3818744485226159e-05 -0.034865457455369959 0 0.00011266246868173063 -0.034399733631722079 0 6.718028362689636e-05 -0.03482963133750485 0 8.1113182900427572e-05 -0.034650669103623521 0 4.3818744485226159e-05 -0.034865457455369959 0 5.3175620667953622e-05 -0.034907786985494474 0 5.7061495536515923e-05 -0.034901421889939874 0 4.3818744485226159e-05 -0.034865457455369959 0 5.3175620667953622e-05 -0.034907786985494474 0 7.5151054577261275e-05 -0.034921867663864584 0 5.3175620667953622e-05 -0.034907786985494474 0 5.8396255648125134e-05 -0.034925589229210713 0 4.2386690090340161e-05 -0.034942094259734713 0 7.1469270521856045e-05 -0.034944820023169954 0 7.5151054577261275e-05 -0.034921867663864584 0 7.576568952407353e-05 -0.034953089188499903 0 5.3175620667953622e-05 -0.034907786985494474 0 5.8396255648125134e-05 -0.034925589229210713 0 7.5151054577261275e-05 -0.034921867663864584 0 8.1113182900427572e-05 -0.034650669103623521 0 0.0001349207910762614 -0.0344236737655167 0 6.0500363843086092e-05 -0.034937207188850281 0 5.499598656918292e-05 -0.034954396561893468 0 4.2386690090340161e-05 -0.034942094259734713 0 5.8396255648125134e-05 -0.034925589229210713 0 6.0500363843086092e-05 -0.034937207188850281 0 4.2386690090340161e-05 -0.034942094259734713 0 6.0500363843086092e-05 -0.034937207188850281 0 7.1469270521856045e-05 -0.034944820023169954 0 5.499598656918292e-05 -0.034954396561893468 0 6.0500363843086092e-05 -0.034937207188850281 0 7.1469270521856045e-05 -0.034944820023169954 0 7.5151054577261275e-05 -0.034921867663864584 0 5.8396255648125134e-05 -0.034925589229210713 0 6.0500363843086092e-05 -0.034937207188850281 0 7.5151054577261275e-05 -0.034921867663864584 0 -2.4644478550335423e-05 -0.034500069615399462 0 -0.00017924531929885306 -0.034327160756128496 0 -0.00015921843013283178 -0.034049649708387766 0 -0.00053261592238820429 -0.03363327865577876 0 -0.00040173739178861858 -0.034450650438128221 0 -0.00015921843013283178 -0.034049649708387766 0 0.00011266246868173063 -0.034399733631722079 0 -2.4644478550335423e-05 -0.034500069615399462 0 -0.00024882451723755083 -0.034038707511656392 0 -6.5428927450310315e-05 -0.034374445094060971 0 -7.117053322147946e-05 -0.034194159503529768 0 0.00011266246868173063 -0.034399733631722079 0 -0.00024882451723755083 -0.034038707511656392 0 4.976470620032022e-05 -0.033846722113138203 0 -0.0001502949217287262 -0.034555960942111351 0 -2.4644478550335423e-05 -0.034500069615399462 0 -0.00017924531929885306 -0.034327160756128496 0 -0.00040173739178861858 -0.034450650438128221 0 -0.0001502949217287262 -0.034555960942111351 0 -0.00017924531929885306 -0.034327160756128496 0 -0.00040173739178861858 -0.034450650438128221 0 -0.00017924531929885306 -0.034327160756128496 0 -0.00015921843013283178 -0.034049649708387766 0 -0.00024882451723755083 -0.034038707511656392 0 4.976470620032022e-05 -0.033846722113138203 0 -0.0002222745978522977 -0.033706790935817098 0 0.00052518318100939489 -0.031733841575099071 0 -7.117053322147946e-05 -0.034194159503529768 0 -0.00037800932042423695 -0.033553023129000159 0 -0.00053261592238820429 -0.03363327865577876 0 -0.00015921843013283178 -0.034049649708387766 0 -0.00048443713943776038 -0.033539156835976254 0 -0.00024882451723755083 -0.034038707511656392 0 -0.0002222745978522977 -0.033706790935817098 0 0.00025451919712968072 -0.032909663973448619 0 0.00052518318100939489 -0.031733841575099071 0 -0.0002069853545526692 -0.033401370761463288 0 -0.00048443713943776038 -0.033539156835976254 0 -0.0002222745978522977 -0.033706790935817098 0 0.00025451919712968072 -0.032909663973448619 0 0.0001349207910762614 -0.0344236737655167 0 -0.00013362812805119519 -0.034472017094511413 0 0.0001349207910762614 -0.0344236737655167 0 -0.0002069853545526692 -0.033401370761463288 0 4.976470620032022e-05 -0.033846722113138203 0 -0.0002222745978522977 -0.033706790935817098 0 0.00017224323928398367 -0.033611574041201048 0 -4.7399468182536296e-05 -0.033721341140941857 0 0.00027387285014234409 -0.034245311114684443 0 7.6395608541337685e-05 -0.034977110308230412 0 7.4735214463413142e-05 -0.034952793260990364 0 5.8924363923224936e-05 -0.03496907388339919 0 5.8924363923224936e-05 -0.03496907388339919 0 5.499598656918292e-05 -0.034954396561893468 0 4.1922167253378786e-05 -0.034972876491007263 0 5.8924363923224936e-05 -0.03496907388339919 0 5.499598656918292e-05 -0.034954396561893468 0 6.4864386071336434e-05 -0.034955033888403833 0 7.1469270521856045e-05 -0.034944820023169954 0 5.499598656918292e-05 -0.034954396561893468 0 6.4864386071336434e-05 -0.034955033888403833 0 7.4735214463413142e-05 -0.034952793260990364 0 5.8924363923224936e-05 -0.03496907388339919 0 6.4864386071336434e-05 -0.034955033888403833 0 7.1469270521856045e-05 -0.034944820023169954 0 7.4735214463413142e-05 -0.034952793260990364 0 6.4864386071336434e-05 -0.034955033888403833 0 0.00020927063514328427 -0.03469927789454428 0 0.0001349207910762614 -0.0344236737655167 0 3.6458617787184232e-05 -0.034963135359515812 0 1.9022923429758737e-05 -0.034965609166451327 0 4.2386690090340161e-05 -0.034942094259734713 0 5.499598656918292e-05 -0.034954396561893468 0 3.6458617787184232e-05 -0.034963135359515812 0 4.1922167253378786e-05 -0.034972876491007263 0 5.499598656918292e-05 -0.034954396561893468 0 3.6458617787184232e-05 -0.034963135359515812 0 4.2386690090340161e-05 -0.034942094259734713 0 2.8015278620908736e-05 -0.034979530104354735 0 3.6458617787184232e-05 -0.034963135359515812 0 4.1922167253378786e-05 -0.034972876491007263 0 2.8015278620908736e-05 -0.034979530104354735 0 3.6458617787184232e-05 -0.034963135359515812 0 1.9022923429758737e-05 -0.034965609166451327 0 1.1586346274159273e-05 -0.034987677672667424 0 2.8015278620908736e-05 -0.034979530104354735 0 1.9022923429758737e-05 -0.034965609166451327 0 1.1586346274159273e-05 -0.034987677672667424 0 1.9022923429758737e-05 -0.034965609166451327 0 5.2096019426022901e-06 -0.034977143425134243 0 1.9022923429758737e-05 -0.034965609166451327 0 3.4409581206907054e-05 -0.034937673257117739 0 1.675810908045934e-05 -0.034958630257720863 0 1.9022923429758737e-05 -0.034965609166451327 0 4.2386690090340161e-05 -0.034942094259734713 0 3.4409581206907054e-05 -0.034937673257117739 0 5.3175620667953622e-05 -0.034907786985494474 0 4.2386690090340161e-05 -0.034942094259734713 0 3.4409581206907054e-05 -0.034937673257117739 0 5.3175620667953622e-05 -0.034907786985494474 0 3.4409581206907054e-05 -0.034937673257117739 0 5.7061495536515923e-05 -0.034901421889939874 0 3.4409581206907054e-05 -0.034937673257117739 0 5.7061495536515923e-05 -0.034901421889939874 0 3.3609141161939352e-05 -0.034932936687458047 0 5.7061495536515923e-05 -0.034901421889939874 0 4.8122111817752937e-05 -0.034916496020547853 0 3.3609141161939352e-05 -0.034932936687458047 0 5.8680772834129917e-05 -0.034814904724663219 0 -4.8455455082227967e-05 -0.034813509937252726 0 4.8122111817752937e-05 -0.034916496020547853 0 3.3609141161939352e-05 -0.034932936687458047 0 1.4316882738124886e-05 -0.034953866172258999 0 1.675810908045934e-05 -0.034958630257720863 0 3.3609141161939352e-05 -0.034932936687458047 0 1.4316882738124886e-05 -0.034953866172258999 0 3.4409581206907054e-05 -0.034937673257117739 0 1.675810908045934e-05 -0.034958630257720863 0 3.3609141161939352e-05 -0.034932936687458047 0 1.675810908045934e-05 -0.034958630257720863 0 6.6426749979866729e-06 -0.034979745299654176 0 1.4316882738124886e-05 -0.034953866172258999 0 -7.3205574182516482e-10 -0.034999982072601472 0 6.6426749979866729e-06 -0.034979745299654176 0 1.4316882738124886e-05 -0.034953866172258999 0 -7.3205574182516482e-10 -0.034999982072601472 0 6.4794032664632922e-09 -0.034999955763826737 0 1.4316882738124886e-05 -0.034953866172258999 0 -7.3205574182516482e-10 -0.034999982072601472 0 6.6426749979866729e-06 -0.034979745299654176 0 1.0442648412612417e-08 -0.034999942848424351 0 -1.2025160498266497e-09 -0.034999992213619845 0 2.6800787762813077e-06 -0.034987402033099219 0 6.6426749979866729e-06 -0.034979745299654176 0 1.0442648412612417e-08 -0.034999942848424351 0 5.2096019426022901e-06 -0.034977143425134243 0 1.9022923429758737e-05 -0.034965609166451327 0 1.675810908045934e-05 -0.034958630257720863 0 5.2096019426022901e-06 -0.034977143425134243 0 1.675810908045934e-05 -0.034958630257720863 0 6.6426749979866729e-06 -0.034979745299654176 0 5.2096019426022901e-06 -0.034977143425134243 0 1.1517510245924366e-05 -0.034988863024102049 0 2.6800787762813077e-06 -0.034987402033099219 0 4.8289983074709155e-08 -0.034996700392395587 0 1.1586346274159273e-05 -0.034987677672667424 0 5.0441958955782965e-07 -0.034996557109825729 0 3.147330490062433e-10 -0.035000001714989043 0 5.0441958955782965e-07 -0.034996557109825729 0 -1.9348258356344505e-10 -0.034999989958716372 0 4.8289983074709155e-08 -0.034996700392395587 0 5.0441958955782965e-07 -0.034996557109825729 0 -1.9348258356344505e-10 -0.034999989958716372 0 4.3995242603127225e-05 -0.034955696749983077 0 2.4094197440022248e-08 -0.034999893782679849 0 2.8769267461148866e-05 -0.034995026142362558 0 4.3995242603127225e-05 -0.034955696749983077 0 9.3322892810212993e-05 -0.034980520078757224 0 2.8769267461148866e-05 -0.034995026142362558 0 4.3995242603127225e-05 -0.034955696749983077 0 3.5377984295020358e-05 -0.034944733867620793 0 6.8817326652140926e-05 -0.034901102389500206 0 4.3995242603127225e-05 -0.034955696749983077 0 2.4094197440022248e-08 -0.034999893782679849 0 3.5377984295020358e-05 -0.034944733867620793 0 0.00019370494826350412 -0.034913923014856262 0 9.3322892810212993e-05 -0.034980520078757224 0 0.00030776461840329101 -0.035039172829174757 0 0.00045488820520595534 -0.034706829978096369 0 7.6091773484270083e-05 -0.034811273351319651 0 9.142192870831902e-05 -0.034844726027690447 0 4.3995242603127225e-05 -0.034955696749983077 0 6.8817326652140926e-05 -0.034901102389500206 0 9.5049885824554853e-05 -0.034917754801148289 0 6.8817326652140926e-05 -0.034901102389500206 0 0.00010188294773083273 -0.03487939592274554 0 9.142192870831902e-05 -0.034844726027690447 0 6.8817326652140926e-05 -0.034901102389500206 0 0.00010188294773083273 -0.03487939592274554 0 9.5049885824554853e-05 -0.034917754801148289 0 0.00010188294773083273 -0.03487939592274554 0 0.00016920369511314902 -0.034860846135998554 0 9.142192870831902e-05 -0.034844726027690447 0 0.00010188294773083273 -0.03487939592274554 0 0.00016920369511314902 -0.034860846135998554 0 9.5049885824554853e-05 -0.034917754801148289 0 0.00016920369511314902 -0.034860846135998554 0 0.00019370494826350412 -0.034913923014856262 0 9.5049885824554853e-05 -0.034917754801148289 0 0.00019370494826350412 -0.034913923014856262 0 9.5049885824554853e-05 -0.034917754801148289 0 9.3322892810212993e-05 -0.034980520078757224 0 4.3995242603127225e-05 -0.034955696749983077 0 9.5049885824554853e-05 -0.034917754801148289 0 9.3322892810212993e-05 -0.034980520078757224 0 -2.7435968477074593e-06 -0.034798371850270404 0 0.00011620457335056218 -0.034619548157570554 0 -0.00012663986826860153 -0.034563127049866631 0 -7.2197048675686759e-05 -0.034422385613152223 0 -9.2554036522886436e-05 -0.034225160737085779 0 9.3322892810212993e-05 -0.034980520078757224 0 2.8769267461148866e-05 -0.034995026142362558 0 5.4740592518623617e-05 -0.035054592418300411 0 9.3322892810212993e-05 -0.034980520078757224 0 5.4740592518623617e-05 -0.035054592418300411 0 0.00030776461840329101 -0.035039172829174757 0 2.0536510664091658e-08 -0.035000053821135392 0 2.8769267461148866e-05 -0.034995026142362558 0 5.4740592518623617e-05 -0.035054592418300411 0 2.4094197440022248e-08 -0.034999893782679849 0 2.0536510664091658e-08 -0.035000053821135392 0 2.8769267461148866e-05 -0.034995026142362558 0 -1.8072451845589391e-07 -0.034999657734302442 0 -7.0326542867445255e-05 -0.034768281334056496 0 -0.00012663986826860153 -0.034563127049866631 0 2.0536510664091658e-08 -0.035000053821135392 0 2.8194279183210817e-09 -0.035000039290416195 0 5.4740592518623617e-05 -0.035054592418300411 0 2.7612141717614192e-08 -0.034999881528390023 0 -2.7435968477074593e-06 -0.034798371850270404 0 -1.8072451845589391e-07 -0.034999657734302442 0 -3.0012115385623171e-09 -0.034999833753041554 0 -7.0326542867445255e-05 -0.034768281334056496 0 -3.0012115385623171e-09 -0.034999833753041554 0 -7.0326542867445255e-05 -0.034768281334056496 0 -8.2512682008795696e-05 -0.034671518757996497 0 -4.4373816104055005e-08 -0.034999924073931654 0 -4.8455455082227967e-05 -0.034813509937252726 0 -7.0326542867445255e-05 -0.034768281334056496 0 -8.2512682008795696e-05 -0.034671518757996497 0 -5.472436087430332e-05 -0.034547007387062817 0 -0.00012663986826860153 -0.034563127049866631 0 -7.2197048675686759e-05 -0.034422385613152223 0 -5.472436087430332e-05 -0.034547007387062817 0 -7.0326542867445255e-05 -0.034768281334056496 0 -0.00012663986826860153 -0.034563127049866631 0 -5.472436087430332e-05 -0.034547007387062817 0 -7.2197048675686759e-05 -0.034422385613152223 0 -5.472436087430332e-05 -0.034547007387062817 0 6.4898583774414444e-06 -0.034340548491120712 0 2.412666910522886e-05 -0.034593031961158087 0 -8.2512682008795696e-05 -0.034671518757996497 0 -5.472436087430332e-05 -0.034547007387062817 0 2.412666910522886e-05 -0.034593031961158087 0 5.5633692102580718e-05 -0.034425060972985651 0 0.0001149752853630496 -0.034470605551993834 0 2.412666910522886e-05 -0.034593031961158087 0 -5.472436087430332e-05 -0.034547007387062817 0 5.5633692102580718e-05 -0.034425060972985651 0 -5.472436087430332e-05 -0.034547007387062817 0 5.5633692102580718e-05 -0.034425060972985651 0 6.4898583774414444e-06 -0.034340548491120712 0 5.5633692102580718e-05 -0.034425060972985651 0 8.7421152182155592e-05 -0.034238275809407567 0 0.0001338096437778446 -0.034278654222485251 0 5.5633692102580718e-05 -0.034425060972985651 0 6.4898583774414444e-06 -0.034340548491120712 0 8.7421152182155592e-05 -0.034238275809407567 0 6.4898583774414444e-06 -0.034340548491120712 0 8.7421152182155592e-05 -0.034238275809407567 0 3.379002248511996e-05 -0.034161156435702555 0 6.4898583774414444e-06 -0.034340548491120712 0 3.379002248511996e-05 -0.034161156435702555 0 -9.2554036522886436e-05 -0.034225160737085779 0 8.7421152182155592e-05 -0.034238275809407567 0 3.379002248511996e-05 -0.034161156435702555 0 0.00012231284699450168 -0.034055025306978175 0 -7.2197048675686759e-05 -0.034422385613152223 0 6.4898583774414444e-06 -0.034340548491120712 0 -9.2554036522886436e-05 -0.034225160737085779 0 0.00045488820520595534 -0.034706829978096369 0 0.00088256856888620813 -0.034642710286788163 0 0.00039960615780277285 -0.034353150017487163 0 0.00042103949241740249 -0.034693287048300346 0 2.933245771907602e-05 -0.034740230784469167 0 0.00016920369511314902 -0.034860846135998554 0 0.00045488820520595534 -0.034706829978096369 0 9.142192870831902e-05 -0.034844726027690447 0 0.00030776461840329101 -0.035039172829174757 0 0.00045488820520595534 -0.034706829978096369 0 0.00088256856888620813 -0.034642710286788163 0 0.00019370494826350412 -0.034913923014856262 0 0.00030776461840329101 -0.035039172829174757 0 0.00045488820520595534 -0.034706829978096369 0 0.00016920369511314902 -0.034860846135998554 0 0.00019370494826350412 -0.034913923014856262 0 0.00045488820520595534 -0.034706829978096369 0 0.00011620457335056218 -0.034619548157570554 0 0.00051086366565993079 -0.034294621905728011 0 3.379002248511996e-05 -0.034161156435702555 0 -9.2554036522886436e-05 -0.034225160737085779 0 4.1366380230118099e-05 -0.033937312237073962 0 3.379002248511996e-05 -0.034161156435702555 0 4.1366380230118099e-05 -0.033937312237073962 0 0.00012231284699450168 -0.034055025306978175 0 0.00016071971016460901 -0.033898244789821085 0 0.00021347566912535877 -0.033949593960599815 0 0.00012231284699450168 -0.034055025306978175 0 4.1366380230118099e-05 -0.033937312237073962 0 0.00016071971016460901 -0.033898244789821085 0 0.00012231284699450168 -0.034055025306978175 0 0.00021347566912535877 -0.033949593960599815 0 0.00029450569391750833 -0.033832079080736301 0 0.00022848777584553965 -0.033816286239563488 0 0.00016071971016460901 -0.033898244789821085 0 0.00021347566912535877 -0.033949593960599815 0 0.00022848777584553965 -0.033816286239563488 0 0.00021347566912535877 -0.033949593960599815 0 0.00027915028818640495 -0.034041006233903957 0 0.00029450569391750833 -0.033832079080736301 0 0.00021347566912535877 -0.033949593960599815 0 0.00027915028818640495 -0.034041006233903957 0 0.00018636204766124724 -0.034131956883681876 0 0.00027915028818640495 -0.034041006233903957 0 0.00024659063953703464 -0.034146010137185545 0 0.00029468252974893775 -0.034180062189304611 0 0.00027915028818640495 -0.034041006233903957 0 0.00018636204766124724 -0.034131956883681876 0 0.00024659063953703464 -0.034146010137185545 0 0.00018636204766124724 -0.034131956883681876 0 0.00019531745071123434 -0.034228438351808693 0 0.00024659063953703464 -0.034146010137185545 0 0.00021347566912535877 -0.033949593960599815 0 0.00018636204766124724 -0.034131956883681876 0 0.00012231284699450168 -0.034055025306978175 0 8.7421152182155592e-05 -0.034238275809407567 0 0.00018636204766124724 -0.034131956883681876 0 0.00012231284699450168 -0.034055025306978175 0 8.7421152182155592e-05 -0.034238275809407567 0 0.00018636204766124724 -0.034131956883681876 0 0.0001338096437778446 -0.034278654222485251 0 0.0001338096437778446 -0.034278654222485251 0 0.00019531745071123434 -0.034228438351808693 0 0.00015106905382718109 -0.034356384067432716 0 0.00018636204766124724 -0.034131956883681876 0 0.0001338096437778446 -0.034278654222485251 0 0.00019531745071123434 -0.034228438351808693 0 0.00015106905382718109 -0.034356384067432716 0 0.00019265707890556242 -0.034401073196875402 0 0.00023086209567878941 -0.034296230863837297 0 0.00019531745071123434 -0.034228438351808693 0 0.00015106905382718109 -0.034356384067432716 0 0.00023086209567878941 -0.034296230863837297 0 5.5633692102580718e-05 -0.034425060972985651 0 0.0001338096437778446 -0.034278654222485251 0 0.00015106905382718109 -0.034356384067432716 0 0.00015106905382718109 -0.034356384067432716 0 0.0001149752853630496 -0.034470605551993834 0 0.00019265707890556242 -0.034401073196875402 0 0.00024413496079384484 -0.034599637089692534 0 0.0001149752853630496 -0.034470605551993834 0 0.00022134359872025316 -0.034473239525211981 0 5.5633692102580718e-05 -0.034425060972985651 0 0.00015106905382718109 -0.034356384067432716 0 0.0001149752853630496 -0.034470605551993834 0 0.0001149752853630496 -0.034470605551993834 0 0.00019265707890556242 -0.034401073196875402 0 0.00022134359872025316 -0.034473239525211981 0 0.00019265707890556242 -0.034401073196875402 0 0.00022134359872025316 -0.034473239525211981 0 0.0002560766796297128 -0.034398514240202224 0 0.00036201977436466169 -0.034528539071478515 0 0.00029308385368644133 -0.03445856115370962 0 0.00034770890558790199 -0.034362062278046314 0 0.0010117788261314788 -0.032565359789449508 0 0.00058724580148729073 -0.034014252012692606 0 0.00024413496079384484 -0.034599637089692534 0 0.00022134359872025316 -0.034473239525211981 0 0.00029308385368644133 -0.03445856115370962 0 0.00029308385368644133 -0.03445856115370962 0 0.0002560766796297128 -0.034398514240202224 0 0.00034770890558790199 -0.034362062278046314 0 0.00022134359872025316 -0.034473239525211981 0 0.00029308385368644133 -0.03445856115370962 0 0.0002560766796297128 -0.034398514240202224 0 0.00019265707890556242 -0.034401073196875402 0 0.0002560766796297128 -0.034398514240202224 0 0.00023086209567878941 -0.034296230863837297 0 0.0002560766796297128 -0.034398514240202224 0 0.00034770890558790199 -0.034362062278046314 0 0.00027801222131634725 -0.034312633922727667 0 0.00034770890558790199 -0.034362062278046314 0 0.00027801222131634725 -0.034312633922727667 0 0.00029468252974893775 -0.034180062189304611 0 0.00058724580148729073 -0.034014252012692606 0 0.0004277164907604205 -0.034212441659927803 0 0.00029259061485724006 -0.034185434108748455 0 0.00029468252974893775 -0.034180062189304611 0 0.00033441032022754684 -0.034153042263004994 0 0.0002560766796297128 -0.034398514240202224 0 0.00027801222131634725 -0.034312633922727667 0 0.00023086209567878941 -0.034296230863837297 0 0.00027801222131634725 -0.034312633922727667 0 0.00023086209567878941 -0.034296230863837297 0 0.00029468252974893775 -0.034180062189304611 0 0.00023086209567878941 -0.034296230863837297 0 0.00024659063953703464 -0.034146010137185545 0 0.00029468252974893775 -0.034180062189304611 0 0.00019531745071123434 -0.034228438351808693 0 0.00023086209567878941 -0.034296230863837297 0 0.00024659063953703464 -0.034146010137185545 0 0.00027915028818640495 -0.034041006233903957 0 0.00029468252974893775 -0.034180062189304611 0 0.00035413346450046063 -0.034077465491735494 0 0.00035413346450046063 -0.034077465491735494 0 0.00033441032022754684 -0.034153042263004994 0 0.0004279699360514545 -0.034191707630218192 0 0.00029468252974893775 -0.034180062189304611 0 0.00035413346450046063 -0.034077465491735494 0 0.00033441032022754684 -0.034153042263004994 0 0.00029259061485724006 -0.034185434108748455 0 0.00033441032022754684 -0.034153042263004994 0 0.0004279699360514545 -0.034191707630218192 0 0.0010117788261314788 -0.032565359789449508 0 0.00077298117215134369 -0.032943376531426982 0 0.00058724580148729073 -0.034014252012692606 0 0.00077298117215134369 -0.032943376531426982 0 0.00086147462171030063 -0.033060188848735662 0 0.00088271101185500634 -0.033222466028630937 0 0.00064933016262671759 -0.033199195946166299 0 0.0011719920712878068 -0.030333281631523368 0 0.0012679097681876448 -0.030355453362378 0 0.0011024849532389183 -0.030454931347490711 0 0.0010663900731560033 -0.030323697840311553 0 0.0011024849532389183 -0.030454931347490711 0 0.00090171551182034455 -0.03041566762288276 0 0.00077298117215134369 -0.032943376531426982 0 0.00086660104649182118 -0.032251483441984898 0 0.0010663900731560033 -0.030323697840311553 0 0.0011719920712878068 -0.030333281631523368 0 0.0011024849532389183 -0.030454931347490711 0 0.00077298117215134369 -0.032943376531426982 0 0.00045413722189402797 -0.034391057305313166 0 0.0004279699360514545 -0.034191707630218192 0 0.00046515126775718358 -0.033972670992918362 0 0.0006621678360954925 -0.033996220486986417 0 0.00035413346450046063 -0.034077465491735494 0 0.0004279699360514545 -0.034191707630218192 0 0.00046515126775718358 -0.033972670992918362 0 0.00046515126775718358 -0.033972670992918362 0 0.00035569664324691869 -0.03394339432478527 0 0.00040692058640685755 -0.033793969817038458 0 0.00046515126775718358 -0.033972670992918362 0 0.00040692058640685755 -0.033793969817038458 0 0.00055414401476123923 -0.033787360113949283 0 0.00035413346450046063 -0.034077465491735494 0 0.00046515126775718358 -0.033972670992918362 0 0.00035569664324691869 -0.03394339432478527 0 0.00027915028818640495 -0.034041006233903957 0 0.00035569664324691869 -0.03394339432478527 0 0.00029450569391750833 -0.033832079080736301 0 0.00027915028818640495 -0.034041006233903957 0 0.00035413346450046063 -0.034077465491735494 0 0.00035569664324691869 -0.03394339432478527 0 0.00029450569391750833 -0.033832079080736301 0 0.00040692058640685755 -0.033793969817038458 0 0.00034327943797025489 -0.033604503197704583 0 0.00035569664324691869 -0.03394339432478527 0 0.00029450569391750833 -0.033832079080736301 0 0.00040692058640685755 -0.033793969817038458 0 0.00040692058640685755 -0.033793969817038458 0 0.00047500324262102759 -0.033564741686814233 0 0.00034327943797025489 -0.033604503197704583 0 0.00040692058640685755 -0.033793969817038458 0 0.00047500324262102759 -0.033564741686814233 0 0.00055414401476123923 -0.033787360113949283 0 0.00047500324262102759 -0.033564741686814233 0 0.00034771565254200059 -0.033319999625762861 0 0.00047492736419815226 -0.033163820730342145 0 0.00047500324262102759 -0.033564741686814233 0 0.00034327943797025489 -0.033604503197704583 0 0.00034771565254200059 -0.033319999625762861 0 0.00034327943797025489 -0.033604503197704583 0 0.00024907155281596397 -0.03340337771552427 0 0.00016712811917522381 -0.033481183115065344 0 0.00029450569391750833 -0.033832079080736301 0 0.00034327943797025489 -0.033604503197704583 0 0.00028389436100138404 -0.033733740090131054 0 0.00036517976120270729 -0.033620245342524537 0 0.00017670879299280332 -0.033593110501800062 0 0.00024907155281596397 -0.03340337771552427 0 0.00018296575974782595 -0.033387915984145179 0 0.00016712811917522381 -0.033481183115065344 0 0.00034327943797025489 -0.033604503197704583 0 0.00024907155281596397 -0.03340337771552427 0 0.00034771565254200059 -0.033319999625762861 0 0.00024907155281596397 -0.03340337771552427 0 0.00025088121728904526 -0.033267610485067253 0 0.00034771565254200059 -0.033319999625762861 0 0.00024907155281596397 -0.03340337771552427 0 0.00025088121728904526 -0.033267610485067253 0 0.00018296575974782595 -0.033387915984145179 0 0.00025088121728904526 -0.033267610485067253 0 0.00034771565254200059 -0.033319999625762861 0 0.00033778728736373712 -0.033119578277665256 0 0.00034771565254200059 -0.033319999625762861 0 0.00033778728736373712 -0.033119578277665256 0 0.00047492736419815226 -0.033163820730342145 0 0.00033778728736373712 -0.033119578277665256 0 0.0002929510265355162 -0.033185245776041178 0 0.00046878122622186214 -0.032824765036791811 0 0.00034886197191348373 -0.033067862081870431 0 0.0002929510265355162 -0.033185245776041178 0 0.00046878122622186214 -0.032824765036791811 0 0.00025088121728904526 -0.033267610485067253 0 0.0002929510265355162 -0.033185245776041178 0 0.00015791988339766531 -0.03335922439281986 0 0.00025088121728904526 -0.033267610485067253 0 0.00033778728736373712 -0.033119578277665256 0 0.0002929510265355162 -0.033185245776041178 0 0.0002929510265355162 -0.033185245776041178 0 0.00015791988339766531 -0.03335922439281986 0 0.00013503122690232647 -0.033314598603384392 0 0.00024133754185997589 -0.033424455538594931 0 0.0002929510265355162 -0.033185245776041178 0 0.00015322555672485138 -0.033627086754003561 0 0.00027274961015720056 -0.033231759326977778 0 0.00013719355355201006 -0.0334586780229627 0 0.00013719355355201006 -0.0334586780229627 0 5.2448240345074846e-05 -0.033646552467715481 0 0.00015791988339766531 -0.03335922439281986 0 0.00013503122690232647 -0.033314598603384392 0 8.4075295336088834e-05 -0.033457084811839746 0 0.00013503122690232647 -0.033314598603384392 0 8.4075295336088834e-05 -0.033457084811839746 0 4.9869760942159401e-05 -0.033494865960505951 0 0.00015791988339766531 -0.03335922439281986 0 8.4075295336088834e-05 -0.033457084811839746 0 0.00010739362747863404 -0.033452774554576438 0 0.00010739362747863404 -0.033452774554576438 0 0.00012182190466807235 -0.033459045075853081 0 6.6193662538720509e-05 -0.033529226851272215 0 0.00010739362747863404 -0.033452774554576438 0 0.00013272079519667269 -0.033441041008561857 0 0.00012182190466807235 -0.033459045075853081 0 0.00025088121728904526 -0.033267610485067253 0 0.00015791988339766531 -0.03335922439281986 0 0.00018296575974782595 -0.033387915984145179 0 0.00015791988339766531 -0.03335922439281986 0 0.00010739362747863404 -0.033452774554576438 0 0.00013272079519667269 -0.033441041008561857 0 0.00015791988339766531 -0.03335922439281986 0 0.00018296575974782595 -0.033387915984145179 0 0.00013272079519667269 -0.033441041008561857 0 0.00017670879299280332 -0.033593110501800062 0 0.00049288410544265652 -0.03380409381835766 0 0.00013272079519667269 -0.033441041008561857 0 0.00016712811917522381 -0.033481183115065344 0 0.00011704960890139764 -0.03345455965903063 0 0.00028389436100138404 -0.033733740090131054 0 0.00022848777584553965 -0.033816286239563488 0 0.00018757156708824456 -0.033746354689840372 0 0.00035813668948456764 -0.033710774289903371 0 0.00049288410544265652 -0.03380409381835766 0 0.00018296575974782595 -0.033387915984145179 0 0.00013272079519667269 -0.033441041008561857 0 0.00016712811917522381 -0.033481183115065344 0 0.00029450569391750833 -0.033832079080736301 0 0.00028389436100138404 -0.033733740090131054 0 0.00022848777584553965 -0.033816286239563488 0 0.00049288410544265652 -0.03380409381835766 0 0.00042255204230107961 -0.033764431077798994 0 0.00051086366565993079 -0.034294621905728011 0 0.00049288410544265652 -0.03380409381835766 0 4.1366380230118099e-05 -0.033937312237073962 0 0.00016071971016460901 -0.033898244789821085 0 0.00018757156708824456 -0.033746354689840372 0 0.00016071971016460901 -0.033898244789821085 0 0.00022848777584553965 -0.033816286239563488 0 0.00018757156708824456 -0.033746354689840372 0 0.00088256856888620813 -0.034642710286788163 0 0.0014325190972663041 -0.03418280475626425 0 0.00066914176935125962 -0.03398852753667566 0 0.00088256856888620813 -0.034642710286788163 0 0.00039960615780277285 -0.034353150017487163 0 0.00066914176935125962 -0.03398852753667566 0 0.00039960615780277285 -0.034353150017487163 0 0.00024899232267515923 -0.03405626213143538 0 0.00066914176935125962 -0.03398852753667566 0 0.00045488820520595534 -0.034706829978096369 0 0.00039960615780277285 -0.034353150017487163 0 -4.9770488812109109e-05 -0.034358248173097988 0 0.00039960615780277285 -0.034353150017487163 0 0.00024899232267515923 -0.03405626213143538 0 0.00012859081802924922 -0.034188556702571087 0 0.00042255204230107961 -0.033764431077798994 0 -5.2768295093292259e-06 -0.033689407830294768 0 0.00024899232267515923 -0.03405626213143538 0 0.00066914176935125962 -0.03398852753667566 0 2.0663687382047758e-05 -0.033697033951052231 0 6.6193662538720509e-05 -0.033529226851272215 0 5.5071736748549092e-05 -0.033559112023433459 0 2.0663687382047758e-05 -0.033697033951052231 0 8.4075295336088834e-05 -0.033457084811839746 0 0.00010739362747863404 -0.033452774554576438 0 6.6193662538720509e-05 -0.033529226851272215 0 8.4075295336088834e-05 -0.033457084811839746 0 6.6193662538720509e-05 -0.033529226851272215 0 5.5071736748549092e-05 -0.033559112023433459 0 8.4075295336088834e-05 -0.033457084811839746 0 4.9869760942159401e-05 -0.033494865960505951 0 5.5071736748549092e-05 -0.033559112023433459 0 5.1129388781934921e-05 -0.033852594255028061 0 0.00015322555672485138 -0.033627086754003561 0 3.2719011134871789e-05 -0.033812077951656937 0 3.2719011134871789e-05 -0.033812077951656937 0 9.0823731426217385e-05 -0.033708025882943943 0 7.1450122970558881e-05 -0.033813783622910515 0 3.8920756201607057e-05 -0.033917599961144046 0 3.2719011134871789e-05 -0.033812077951656937 0 7.1450122970558881e-05 -0.033813783622910515 0 5.1129388781934921e-05 -0.033852594255028061 0 3.8920756201607057e-05 -0.033917599961144046 0 3.2719011134871789e-05 -0.033812077951656937 0 5.2448240345074846e-05 -0.033646552467715481 0 0.00010258711571457217 -0.03369968062020183 0 4.9869760942159401e-05 -0.033494865960505951 0 5.5071736748549092e-05 -0.033559112023433459 0 4.6131366423699965e-05 -0.033640462869045963 0 4.9869760942159401e-05 -0.033494865960505951 0 4.6131366423699965e-05 -0.033640462869045963 0 9.0823731426217385e-05 -0.033708025882943943 0 9.0823731426217385e-05 -0.033708025882943943 0 0.00016477076367319186 -0.033740575894945689 0 -3.1566641277880863e-05 -0.033646731759433564 0 8.5318163484237241e-05 -0.034381456029044466 0 -1.6623393317135761e-05 -0.034329565089658565 0 4.6131366423699965e-05 -0.033640462869045963 0 9.0823731426217385e-05 -0.033708025882943943 0 -3.1566641277880863e-05 -0.033646731759433564 0 9.0823731426217385e-05 -0.033708025882943943 0 7.1450122970558881e-05 -0.033813783622910515 0 0.00016477076367319186 -0.033740575894945689 0 0.00013230429454843333 -0.033925213322163729 0 7.1450122970558881e-05 -0.033813783622910515 0 0.00016477076367319186 -0.033740575894945689 0 3.8920756201607057e-05 -0.033917599961144046 0 0.00013230429454843333 -0.033925213322163729 0 7.1450122970558881e-05 -0.033813783622910515 0 0.00030505668937833252 -0.034083268365630484 0 0.00013230429454843333 -0.033925213322163729 0 0.00016477076367319186 -0.033740575894945689 0 0.00014315504980813833 -0.034541960594638974 0 8.5318163484237241e-05 -0.034381456029044466 0 -5.0267375859401287e-10 -0.035000081476896365 0 7.0775639650945698e-06 -0.03500006009828547 0 7.3503111364523445e-09 -0.034999980527278936 0 7.3503111364523445e-09 -0.034999980527278936 0 2.1244804080218592e-06 -0.034999033530807348 0 3.9504455114213849e-10 -0.034999994714541238 0 7.0775639650945698e-06 -0.03500006009828547 0 2.1244804080218592e-06 -0.034999033530807348 0 -1.174359809386337e-06 -0.034996007371620369 0 7.0775639650945698e-06 -0.03500006009828547 0 7.3503111364523445e-09 -0.034999980527278936 0 2.1244804080218592e-06 -0.034999033530807348 0 2.1244804080218592e-06 -0.034999033530807348 0 -1.174359809386337e-06 -0.034996007371620369 0 3.9504455114213849e-10 -0.034999994714541238 0 5.5071736748549092e-05 -0.033559112023433459 0 4.6131366423699965e-05 -0.033640462869045963 0 2.0663687382047758e-05 -0.033697033951052231 0 4.6131366423699965e-05 -0.033640462869045963 0 2.0663687382047758e-05 -0.033697033951052231 0 -3.1566641277880863e-05 -0.033646731759433564 0 0.00024899232267515923 -0.03405626213143538 0 2.0663687382047758e-05 -0.033697033951052231 0 5.2124288767904334e-05 -0.033981549572739446 0 -3.1566641277880863e-05 -0.033646731759433564 0 5.2124288767904334e-05 -0.033981549572739446 0 1.4069451441806492e-05 -0.034086678068184356 0 2.0663687382047758e-05 -0.033697033951052231 0 -3.1566641277880863e-05 -0.033646731759433564 0 5.2124288767904334e-05 -0.033981549572739446 0 0.00039960615780277285 -0.034353150017487163 0 0.00012859081802924922 -0.034188556702571087 0 -4.9770488812109109e-05 -0.034358248173097988 0 -3.1566641277880863e-05 -0.033646731759433564 0 1.4069451441806492e-05 -0.034086678068184356 0 -4.9770488812109109e-05 -0.034358248173097988 0 -1.6623393317135761e-05 -0.034329565089658565 0 2.933245771907602e-05 -0.034740230784469167 0 0.00024899232267515923 -0.03405626213143538 0 5.2124288767904334e-05 -0.033981549572739446 0 0.00012859081802924922 -0.034188556702571087 0 1.4069451441806492e-05 -0.034086678068184356 0 0.00012859081802924922 -0.034188556702571087 0 -4.9770488812109109e-05 -0.034358248173097988 0 5.2124288767904334e-05 -0.033981549572739446 0 1.4069451441806492e-05 -0.034086678068184356 0 0.00012859081802924922 -0.034188556702571087 0 2.933245771907602e-05 -0.034740230784469167 0 4.0355597697233648e-05 -0.034777443108970171 0 3.5377984295020358e-05 -0.034944733867620793 0 6.8817326652140926e-05 -0.034901102389500206 0 8.34750119374512e-05 -0.034868802962316474 0 6.8817326652140926e-05 -0.034901102389500206 0 8.34750119374512e-05 -0.034868802962316474 0 9.142192870831902e-05 -0.034844726027690447 0 2.4094197440022248e-08 -0.034999893782679849 0 3.5377984295020358e-05 -0.034944733867620793 0 1.0361365492807473e-08 -0.03499990737096307 0 2.933245771907602e-05 -0.034740230784469167 0 1.3852224658713859e-07 -0.035000118945592192 0 -1.174359809386337e-06 -0.034996007371620369 0 -3.0681807020573617e-06 -0.03499079003845619 0 3.9504455114213849e-10 -0.034999994714541238 0 3.5377984295020358e-05 -0.034944733867620793 0 8.34750119374512e-05 -0.034868802962316474 0 1.0361365492807473e-08 -0.03499990737096307 0 0.00033368146352748902 -0.030406981383726613 0 0.00032761124136918566 -0.030567583559736308 0 0.00023932006054398254 -0.030482971557880566 0 0.00033368146352748902 -0.030406981383726613 0 0.00025755770626958709 -0.030394912441394882 0 0.00031443824346031229 -0.030340054290826549 0 0.00033368146352748902 -0.030406981383726613 0 0.00023932006054398254 -0.030482971557880566 0 0.00025755770626958709 -0.030394912441394882 0 0.00033368146352748902 -0.030406981383726613 0 0.00044420963564674264 -0.030441892060073594 0 0.00032761124136918566 -0.030567583559736308 0 0.00033368146352748902 -0.030406981383726613 0 0.00044420963564674264 -0.030441892060073594 0 0.00046112234057600675 -0.030352496897951071 0 0.00032761124136918566 -0.030567583559736308 0 0.00023932006054398254 -0.030482971557880566 0 0.00016835701699397369 -0.030597207857980313 0 0.00023932006054398254 -0.030482971557880566 0 0.00015395906056309467 -0.03047480432989846 0 0.00016835701699397369 -0.030597207857980313 0 0.00015395906056309467 -0.03047480432989846 0 0.00021744462976084987 -0.030440516253887606 0 0.00023770151620200911 -0.03040836883034774 0 0.00023932006054398254 -0.030482971557880566 0 0.00015395906056309467 -0.03047480432989846 0 0.00021744462976084987 -0.030440516253887606 0 0.00015395906056309467 -0.03047480432989846 0 0.00021450231670401145 -0.030410355155043579 0 0.00023770151620200911 -0.03040836883034774 0 0.00021450231670401145 -0.030410355155043579 0 0.00022113655343994351 -0.030373025363091843 0 0.00027772475207874127 -0.030369647910723989 0 0.00015395906056309467 -0.03047480432989846 0 0.00021450231670401145 -0.030410355155043579 0 0.00016617534974649361 -0.030426175180479798 0 0.00021450231670401145 -0.030410355155043579 0 0.00022113655343994351 -0.030373025363091843 0 0.00016617534974649361 -0.030426175180479798 0 0.00021450231670401145 -0.030410355155043579 0 0.00027678213274654639 -0.030395130848626335 0 0.00023770151620200911 -0.03040836883034774 0 0.00021450231670401145 -0.030410355155043579 0 0.00027678213274654639 -0.030395130848626335 0 0.00027772475207874127 -0.030369647910723989 0 0.00027678213274654639 -0.030395130848626335 0 0.00023770151620200911 -0.03040836883034774 0 0.00030313279234088633 -0.030373284002793793 0 0.00023770151620200911 -0.03040836883034774 0 0.00030313279234088633 -0.030373284002793793 0 0.0002904511766443503 -0.030353874375717869 0 0.00023932006054398254 -0.030482971557880566 0 0.00021744462976084987 -0.030440516253887606 0 0.00025755770626958709 -0.030394912441394882 0 0.00021744462976084987 -0.030440516253887606 0 0.00023770151620200911 -0.03040836883034774 0 0.00025755770626958709 -0.030394912441394882 0 0.00023770151620200911 -0.03040836883034774 0 0.00025755770626958709 -0.030394912441394882 0 0.0002904511766443503 -0.030353874375717869 0 0.00025755770626958709 -0.030394912441394882 0 0.0002931490625287016 -0.030334957678568992 0 0.00031443824346031229 -0.030340054290826549 0 0.00025755770626958709 -0.030394912441394882 0 0.0002931490625287016 -0.030334957678568992 0 0.0002904511766443503 -0.030353874375717869 0 0.0002931490625287016 -0.030334957678568992 0 0.00032573300124107184 -0.030298781406523118 0 0.00030588836582376438 -0.030292744723831148 0 0.0002931490625287016 -0.030334957678568992 0 0.00030588836582376438 -0.030292744723831148 0 0.00031443824346031229 -0.030340054290826549 0 0.00030313279234088633 -0.030373284002793793 0 0.00032793904146479928 -0.030319892424465564 0 0.0002904511766443503 -0.030353874375717869 0 0.0002931490625287016 -0.030334957678568992 0 0.0002904511766443503 -0.030353874375717869 0 0.00032573300124107184 -0.030298781406523118 0 0.00032793904146479928 -0.030319892424465564 0 0.0002904511766443503 -0.030353874375717869 0 0.00032573300124107184 -0.030298781406523118 0 0.00032793904146479928 -0.030319892424465564 0 0.00032573300124107184 -0.030298781406523118 0 0.00033582262330036054 -0.030245066701428822 0 0.00052318286505003287 -0.030094500867020167 0 0.00032573300124107184 -0.030298781406523118 0 0.00029126320760254013 -0.030241613597955408 0 0.00032573300124107184 -0.030298781406523118 0 0.00029126320760254013 -0.030241613597955408 0 0.00033582262330036054 -0.030245066701428822 0 0.00017651375361540505 -0.030506135639438856 0 0.00041663692132954246 -0.030130967483900144 0 0.00027348270323753431 -0.030209254795625334 0 0.00032573300124107184 -0.030298781406523118 0 0.0003016965147416741 -0.030263591979984805 0 0.00032573300124107184 -0.030298781406523118 0 0.00030588836582376438 -0.030292744723831148 0 0.0003016965147416741 -0.030263591979984805 0 0.00030588836582376438 -0.030292744723831148 0 0.0003016965147416741 -0.030263591979984805 0 0.00032454422988842011 -0.030242775074239 0 0.00027348270323753431 -0.030209254795625334 0 0.0003016965147416741 -0.030263591979984805 0 0.00032454422988842011 -0.030242775074239 0 0.00032454422988842011 -0.030242775074239 0 0.00037547388199440137 -0.030230112319771379 0 0.00035108832022707554 -0.030283729065530968 0 0.00037547388199440137 -0.030230112319771379 0 0.00035108832022707554 -0.030283729065530968 0 0.00042506105748702698 -0.0302511946545213 0 0.00035108832022707554 -0.030283729065530968 0 0.0003910534849353153 -0.030321282160789095 0 0.00042506105748702698 -0.0302511946545213 0 0.00030588836582376438 -0.030292744723831148 0 0.00032454422988842011 -0.030242775074239 0 0.00035108832022707554 -0.030283729065530968 0 0.00030588836582376438 -0.030292744723831148 0 0.00035108832022707554 -0.030283729065530968 0 0.00031443824346031229 -0.030340054290826549 0 0.00033368146352748902 -0.030406981383726613 0 0.00031443824346031229 -0.030340054290826549 0 0.0003910534849353153 -0.030321282160789095 0 0.00035108832022707554 -0.030283729065530968 0 0.00031443824346031229 -0.030340054290826549 0 0.0003910534849353153 -0.030321282160789095 0 0.00033368146352748902 -0.030406981383726613 0 0.00046112234057600675 -0.030352496897951071 0 0.0003910534849353153 -0.030321282160789095 0 0.00046112234057600675 -0.030352496897951071 0 0.0003910534849353153 -0.030321282160789095 0 0.00048171063543234281 -0.030284275118584617 0 0.0003910534849353153 -0.030321282160789095 0 0.00048171063543234281 -0.030284275118584617 0 0.00042506105748702698 -0.0302511946545213 0 0.00050770623412442213 -0.030213869468093242 0 0.00048171063543234281 -0.030284275118584617 0 0.00042506105748702698 -0.0302511946545213 0 0.00050770623412442213 -0.030213869468093242 0 0.00048171063543234281 -0.030284275118584617 0 0.00056926826433157459 -0.030257267727259961 0 0.00048171063543234281 -0.030284275118584617 0 0.00056926826433157459 -0.030257267727259961 0 0.00053693242251454814 -0.030311687365226665 0 0.00056926826433157459 -0.030257267727259961 0 0.00061133265895449147 -0.030307206882033685 0 0.00053693242251454814 -0.030311687365226665 0 0.00056926826433157459 -0.030257267727259961 0 0.00061316637496980819 -0.030271913864304729 0 0.00061133265895449147 -0.030307206882033685 0 0.00056926826433157459 -0.030257267727259961 0 0.00062560797947443703 -0.03024749838388489 0 0.00061316637496980819 -0.030271913864304729 0 0.00059643467025147408 -0.030189662697634054 0 0.00056926826433157459 -0.030257267727259961 0 0.00062560797947443703 -0.03024749838388489 0 0.00067214464044083682 -0.030221506868652825 0 0.00062560797947443703 -0.03024749838388489 0 0.0006520616685736345 -0.030278370551078928 0 0.00062560797947443703 -0.03024749838388489 0 0.0006520616685736345 -0.030278370551078928 0 0.00064228582568495241 -0.030276248493890379 0 0.00062560797947443703 -0.03024749838388489 0 0.00061316637496980819 -0.030271913864304729 0 0.00064228582568495241 -0.030276248493890379 0 0.00062203290954223451 -0.029901948268182071 0 0.00050763596178998954 -0.031561056236320217 0 0.00067214464044083682 -0.030221506868652825 0 0.00067392019567895844 -0.030385385651296865 0 0.00079927050159029202 -0.030309789610383404 0 0.00050763596178998954 -0.031561056236320217 0 0.00051925556885892073 -0.031492103964903616 0 0.00061316637496980819 -0.030271913864304729 0 0.00064228582568495241 -0.030276248493890379 0 0.00061133265895449147 -0.030307206882033685 0 0.00065464734814900817 -0.030276982272702875 0 0.00064228582568495241 -0.030276248493890379 0 0.00061133265895449147 -0.030307206882033685 0 0.00050763596178998954 -0.031561056236320217 0 0.00083398702129095328 -0.032300522708087517 0 0.00065464734814900817 -0.030276982272702875 0 0.00061133265895449147 -0.030307206882033685 0 0.00069283606730226354 -0.030406210971682942 0 0.00061133265895449147 -0.030307206882033685 0 0.00056675839649554418 -0.030378911388814028 0 0.00069283606730226354 -0.030406210971682942 0 0.00088577576343339874 -0.03409738342413661 0 0.00078783184418718057 -0.034013644726585045 0 0.000908988661134232 -0.033927092848081916 0 0.00044420963564674264 -0.030441892060073594 0 0.00046112234057600675 -0.030352496897951071 0 0.00056675839649554418 -0.030378911388814028 0 0.00046112234057600675 -0.030352496897951071 0 0.00048171063543234281 -0.030284275118584617 0 0.00053693242251454814 -0.030311687365226665 0 0.00046112234057600675 -0.030352496897951071 0 0.00056675839649554418 -0.030378911388814028 0 0.00053693242251454814 -0.030311687365226665 0 0.00061133265895449147 -0.030307206882033685 0 0.00056675839649554418 -0.030378911388814028 0 0.00053693242251454814 -0.030311687365226665 0 0.00089868163119699281 -0.030286207359068808 0 0.0010663900731560033 -0.030323697840311553 0 0.00090171551182034455 -0.03041566762288276 0 0.00067392019567895844 -0.030385385651296865 0 0.00090171551182034455 -0.03041566762288276 0 0.00079927050159029202 -0.030309789610383404 0 0.00050763596178998954 -0.031561056236320217 0 0.00086660104649182118 -0.032251483441984898 0 0.00088577576343339874 -0.03409738342413661 0 0.0006885160947361534 -0.03408411931218313 0 0.00078783184418718057 -0.034013644726585045 0 0.00089868163119699281 -0.030286207359068808 0 0.00090171551182034455 -0.03041566762288276 0 0.00079927050159029202 -0.030309789610383404 0 0.0005631607399079286 -0.034054930392144404 0 0.0006885160947361534 -0.03408411931218313 0 0.0006621678360954925 -0.033996220486986417 0 0.0006885160947361534 -0.03408411931218313 0 0.00078783184418718057 -0.034013644726585045 0 0.0006621678360954925 -0.033996220486986417 0 0.00046515126775718358 -0.033972670992918362 0 0.0006621678360954925 -0.033996220486986417 0 0.00055414401476123923 -0.033787360113949283 0 0.0006621678360954925 -0.033996220486986417 0 0.00076216210345168411 -0.033840466856657592 0 0.00055414401476123923 -0.033787360113949283 0 0.00078783184418718057 -0.034013644726585045 0 0.0006621678360954925 -0.033996220486986417 0 0.00076216210345168411 -0.033840466856657592 0 0.00076216210345168411 -0.033840466856657592 0 0.000908988661134232 -0.033927092848081916 0 0.00096527823710302935 -0.033656433604372454 0 0.00078783184418718057 -0.034013644726585045 0 0.00076216210345168411 -0.033840466856657592 0 0.000908988661134232 -0.033927092848081916 0 0.00076216210345168411 -0.033840466856657592 0 0.00096527823710302935 -0.033656433604372454 0 0.00066839841209809638 -0.033490228487588106 0 0.00076216210345168411 -0.033840466856657592 0 0.00055414401476123923 -0.033787360113949283 0 0.00066839841209809638 -0.033490228487588106 0 0.00047500324262102759 -0.033564741686814233 0 0.00055414401476123923 -0.033787360113949283 0 0.00066839841209809638 -0.033490228487588106 0 0.00044420963564674264 -0.030441892060073594 0 0.00056675839649554418 -0.030378911388814028 0 0.00056184720256425972 -0.03051576090348904 0 0.00069283606730226354 -0.030406210971682942 0 0.00079424990321715365 -0.030630107746165109 0 0.00056184720256425972 -0.03051576090348904 0 0.00083398702129095328 -0.032300522708087517 0 0.00088011763694842275 -0.03211765356745739 0 0.00056675839649554418 -0.030378911388814028 0 0.00069283606730226354 -0.030406210971682942 0 0.00056184720256425972 -0.03051576090348904 0 0.00079424990321715365 -0.030630107746165109 0 0.00056184720256425972 -0.03051576090348904 0 0.00051113722534919389 -0.030852640848064279 0 0.00032761124136918566 -0.030567583559736308 0 0.00056184720256425972 -0.03051576090348904 0 0.00051113722534919389 -0.030852640848064279 0 0.00044420963564674264 -0.030441892060073594 0 0.00032761124136918566 -0.030567583559736308 0 0.00056184720256425972 -0.03051576090348904 0 0.00088011763694842275 -0.03211765356745739 0 0.00094142666354583718 -0.032175166020200201 0 0.00079424990321715365 -0.030630107746165109 0 0.00051113722534919389 -0.030852640848064279 0 0.00094401381733344588 -0.031102426776913404 0 0.00051113722534919389 -0.030852640848064279 0 0.00058820330680681046 -0.031462579212671975 0 0.00094401381733344588 -0.031102426776913404 0 0.00058820330680681046 -0.031462579212671975 0 0.00094401381733344588 -0.031102426776913404 0 0.00080991402463943352 -0.032299091303270452 0 0.00094142666354583718 -0.032175166020200201 0 0.00085061111791101074 -0.032279374935844561 0 0.00051113722534919389 -0.030852640848064279 0 0.00058820330680681046 -0.031462579212671975 0 0.00037562830999141402 -0.031233360111112281 0 0.00051113722534919389 -0.030852640848064279 0 0.00037562830999141402 -0.031233360111112281 0 0.00024963121969714253 -0.030830583874227224 0 0.00047500324262102759 -0.033564741686814233 0 0.00066839841209809638 -0.033490228487588106 0 0.00047492736419815226 -0.033163820730342145 0 0.00096527823710302935 -0.033656433604372454 0 0.0010006501136335302 -0.033219940826614294 0 0.00066839841209809638 -0.033490228487588106 0 0.0010006501136335302 -0.033219940826614294 0 0.00064777584547763859 -0.03292621606526612 0 0.00080991402463943352 -0.032299091303270452 0 0.0010006501136335302 -0.033219940826614294 0 0.00066839841209809638 -0.033490228487588106 0 0.00064777584547763859 -0.03292621606526612 0 0.00066839841209809638 -0.033490228487588106 0 0.00064777584547763859 -0.03292621606526612 0 0.00047492736419815226 -0.033163820730342145 0 0.00033778728736373712 -0.033119578277665256 0 0.00047492736419815226 -0.033163820730342145 0 0.00046878122622186214 -0.032824765036791811 0 0.00064777584547763859 -0.03292621606526612 0 0.00047492736419815226 -0.033163820730342145 0 0.00046878122622186214 -0.032824765036791811 0 0.00064777584547763859 -0.03292621606526612 0 0.00046878122622186214 -0.032824765036791811 0 0.00080991402463943352 -0.032299091303270452 0 0.00048185087164324318 -0.032707839700736686 0 0.00046878122622186214 -0.032824765036791811 0 0.00080991402463943352 -0.032299091303270452 0 0.00049671450038920781 -0.032385604093439935 0 0.00048185087164324318 -0.032707839700736686 0 0.00080991402463943352 -0.032299091303270452 0 0.00048185087164324318 -0.032707839700736686 0 0.00034886197191348373 -0.033067862081870431 0 0.00046878122622186214 -0.032824765036791811 0 0.00037562830999141402 -0.031233360111112281 0 0.00048352025579437291 -0.031833457658041207 0 0.00020125948506685519 -0.031160724739275628 0 0.00058820330680681046 -0.031462579212671975 0 0.00037562830999141402 -0.031233360111112281 0 0.00048352025579437291 -0.031833457658041207 0 0.00048352025579437291 -0.031833457658041207 0 0.00032896931615443269 -0.031744967868765142 0 0.00020125948506685519 -0.031160724739275628 0 0.00058820330680681046 -0.031462579212671975 0 0.00048352025579437291 -0.031833457658041207 0 0.00080991402463943352 -0.032299091303270452 0 0.00049671450038920781 -0.032385604093439935 0 0.00048352025579437291 -0.031833457658041207 0 0.00080991402463943352 -0.032299091303270452 0 0.00049671450038920781 -0.032385604093439935 0 0.00048352025579437291 -0.031833457658041207 0 0.00032896931615443269 -0.031744967868765142 0 0.00033049744191535405 -0.032148428113668935 0 0.00032896931615443269 -0.031744967868765142 0 0.00019833434167414844 -0.031706263702975856 0 0.00032896931615443269 -0.031744967868765142 0 0.00019833434167414844 -0.031706263702975856 0 7.9495900546848393e-05 -0.031164028987772024 0 0.00019833434167414844 -0.031706263702975856 0 -1.7776550829680778e-05 -0.031260917582519226 0 7.9495900546848393e-05 -0.031164028987772024 0 6.49415944645788e-05 -0.031887082944796391 0 0.00019833434167414844 -0.031706263702975856 0 -1.7776550829680778e-05 -0.031260917582519226 0 -1.7776550829680778e-05 -0.031260917582519226 0 7.9495900546848393e-05 -0.031164028987772024 0 -0.00012814429829086489 -0.030790926781202422 0 7.9495900546848393e-05 -0.031164028987772024 0 1.0639960950087743e-05 -0.030838717868991741 0 0.00020125948506685519 -0.031160724739275628 0 7.9495900546848393e-05 -0.031164028987772024 0 1.0639960950087743e-05 -0.030838717868991741 0 -0.00012814429829086489 -0.030790926781202422 0 0.00032896931615443269 -0.031744967868765142 0 7.9495900546848393e-05 -0.031164028987772024 0 0.00020125948506685519 -0.031160724739275628 0 0.00037562830999141402 -0.031233360111112281 0 0.00020125948506685519 -0.031160724739275628 0 0.00024963121969714253 -0.030830583874227224 0 0.00020125948506685519 -0.031160724739275628 0 8.9578870097403959e-05 -0.030738891707965971 0 0.00024963121969714253 -0.030830583874227224 0 1.0639960950087743e-05 -0.030838717868991741 0 0.00020125948506685519 -0.031160724739275628 0 8.9578870097403959e-05 -0.030738891707965971 0 1.0639960950087743e-05 -0.030838717868991741 0 8.9578870097403959e-05 -0.030738891707965971 0 1.537951314127507e-05 -0.030648296769919748 0 8.9578870097403959e-05 -0.030738891707965971 0 9.1505924214726735e-05 -0.030563982165635814 0 1.537951314127507e-05 -0.030648296769919748 0 8.9578870097403959e-05 -0.030738891707965971 0 0.00016835701699397369 -0.030597207857980313 0 9.1505924214726735e-05 -0.030563982165635814 0 8.9578870097403959e-05 -0.030738891707965971 0 0.00016835701699397369 -0.030597207857980313 0 0.00024963121969714253 -0.030830583874227224 0 0.00032761124136918566 -0.030567583559736308 0 0.00016835701699397369 -0.030597207857980313 0 0.00024963121969714253 -0.030830583874227224 0 0.00032761124136918566 -0.030567583559736308 0 0.00051113722534919389 -0.030852640848064279 0 0.00024963121969714253 -0.030830583874227224 0 0.0001619175764272022 -0.030391138774524408 0 9.520669797727645e-05 -0.030419329018069916 0 0.00017881651848576351 -0.03032252656514825 0 0.0001619175764272022 -0.030391138774524408 0 0.00010994058739439557 -0.030471658890211261 0 9.520669797727645e-05 -0.030419329018069916 0 0.0001619175764272022 -0.030391138774524408 0 0.00017881651848576351 -0.03032252656514825 0 0.00024929094398516238 -0.030299851762074299 0 0.0001619175764272022 -0.030391138774524408 0 0.00022113655343994351 -0.030373025363091843 0 0.00024929094398516238 -0.030299851762074299 0 0.0001619175764272022 -0.030391138774524408 0 0.00016617534974649361 -0.030426175180479798 0 0.00010994058739439557 -0.030471658890211261 0 0.0001619175764272022 -0.030391138774524408 0 0.00022113655343994351 -0.030373025363091843 0 0.00016617534974649361 -0.030426175180479798 0 0.00015395906056309467 -0.03047480432989846 0 0.00016617534974649361 -0.030426175180479798 0 0.00010994058739439557 -0.030471658890211261 0 0.00015395906056309467 -0.03047480432989846 0 0.00016835701699397369 -0.030597207857980313 0 9.1505924214726735e-05 -0.030563982165635814 0 0.00015395906056309467 -0.03047480432989846 0 9.1505924214726735e-05 -0.030563982165635814 0 0.00010994058739439557 -0.030471658890211261 0 0.00010994058739439557 -0.030471658890211261 0 4.8296958184303744e-05 -0.030531171038154718 0 9.520669797727645e-05 -0.030419329018069916 0 9.1505924214726735e-05 -0.030563982165635814 0 0.00010994058739439557 -0.030471658890211261 0 4.8296958184303744e-05 -0.030531171038154718 0 4.8296958184303744e-05 -0.030531171038154718 0 2.86925485799033e-06 -0.030440024883429177 0 9.520669797727645e-05 -0.030419329018069916 0 9.1505924214726735e-05 -0.030563982165635814 0 4.8296958184303744e-05 -0.030531171038154718 0 1.537951314127507e-05 -0.030648296769919748 0 4.8296958184303744e-05 -0.030531171038154718 0 1.537951314127507e-05 -0.030648296769919748 0 -6.1701831147773731e-05 -0.030612316829536159 0 1.0639960950087743e-05 -0.030838717868991741 0 1.537951314127507e-05 -0.030648296769919748 0 -6.1701831147773731e-05 -0.030612316829536159 0 4.8296958184303744e-05 -0.030531171038154718 0 2.86925485799033e-06 -0.030440024883429177 0 -6.1701831147773731e-05 -0.030612316829536159 0 0.00010321612723814984 -0.03034945219038266 0 2.86925485799033e-06 -0.030440024883429177 0 9.520669797727645e-05 -0.030419329018069916 0 0.00010321612723814984 -0.03034945219038266 0 2.86925485799033e-06 -0.030440024883429177 0 0.00017759909012455224 -0.030201672067250381 0 0.00010321612723814984 -0.03034945219038266 0 9.520669797727645e-05 -0.030419329018069916 0 0.00017881651848576351 -0.03032252656514825 0 0.00017881651848576351 -0.03032252656514825 0 0.00017759909012455224 -0.030201672067250381 0 0.00029722726332435717 -0.030183222290736073 0 0.00010321612723814984 -0.03034945219038266 0 0.00017881651848576351 -0.03032252656514825 0 0.00017759909012455224 -0.030201672067250381 0 2.86925485799033e-06 -0.030440024883429177 0 -3.5038370596329976e-06 -0.030317488283414729 0 -0.0001665802240131656 -0.030560644382818608 0 2.86925485799033e-06 -0.030440024883429177 0 0.00017759909012455224 -0.030201672067250381 0 -3.5038370596329976e-06 -0.030317488283414729 0 0.00017759909012455224 -0.030201672067250381 0 -3.5038370596329976e-06 -0.030317488283414729 0 0.00015776995169779391 -0.030021628355422412 0 1.0639960950087743e-05 -0.030838717868991741 0 -6.1701831147773731e-05 -0.030612316829536159 0 -0.00012814429829086489 -0.030790926781202422 0 2.86925485799033e-06 -0.030440024883429177 0 -6.1701831147773731e-05 -0.030612316829536159 0 -0.0001665802240131656 -0.030560644382818608 0 -0.0001665802240131656 -0.030560644382818608 0 -0.00012814429829086489 -0.030790926781202422 0 -0.00032754254983232453 -0.030670899881261704 0 -6.1701831147773731e-05 -0.030612316829536159 0 -0.0001665802240131656 -0.030560644382818608 0 -0.00012814429829086489 -0.030790926781202422 0 -0.00026514137367043345 -0.029463693758540927 0 -0.00032754254983232453 -0.030670899881261704 0 -0.00012256378737359234 -0.030111465418474689 0 -1.7776550829680778e-05 -0.031260917582519226 0 -0.00012814429829086489 -0.030790926781202422 0 -0.00032754254983232453 -0.030670899881261704 0 -0.0001665802240131656 -0.030560644382818608 0 -0.00032754254983232453 -0.030670899881261704 0 -0.00012256378737359234 -0.030111465418474689 0 -0.00023591161783925119 -0.031556981061806121 0 -1.7776550829680778e-05 -0.031260917582519226 0 -0.00032754254983232453 -0.030670899881261704 0 0.00015776995169779391 -0.030021628355422412 0 -0.00012256378737359234 -0.030111465418474689 0 0.00018830897338926189 -0.029723465295331583 0 -3.5038370596329976e-06 -0.030317488283414729 0 -0.0001665802240131656 -0.030560644382818608 0 -0.00012256378737359234 -0.030111465418474689 0 -3.5038370596329976e-06 -0.030317488283414729 0 0.00015776995169779391 -0.030021628355422412 0 -0.00012256378737359234 -0.030111465418474689 0 6.6931256100478809e-05 -0.029564984610997928 0 -0.00012256378737359234 -0.030111465418474689 0 0.00018830897338926189 -0.029723465295331583 0 6.6931256100478809e-05 -0.029564984610997928 0 0.00023479346098342251 -0.029366466606856528 0 0.00018830897338926189 -0.029723465295331583 0 0.00018830897338926189 -0.029723465295331583 0 0.00037791358938534919 -0.029473965664761043 0 0.00040550863655188478 -0.029681903850645647 0 0.00023479346098342251 -0.029366466606856528 0 0.00018830897338926189 -0.029723465295331583 0 0.00037791358938534919 -0.029473965664761043 0 0.00015776995169779391 -0.030021628355422412 0 0.00018830897338926189 -0.029723465295331583 0 0.00040550863655188478 -0.029681903850645647 0 0.00040550863655188478 -0.029681903850645647 0 0.00072729502963737327 -0.029406496850060287 0 0.00051813005152792613 -0.029742189302351243 0 0.00037791358938534919 -0.029473965664761043 0 0.00040550863655188478 -0.029681903850645647 0 0.00060263606713123507 -0.029295803601144435 0 0.00092356444193995261 -0.029048943058151065 0 0.00072729502963737327 -0.029406496850060287 0 0.0011422146701164572 -0.029127602739736511 0 0.00092356444193995261 -0.029048943058151065 0 0.00060263606713123507 -0.029295803601144435 0 0.00072729502963737327 -0.029406496850060287 0 0.00072729502963737327 -0.029406496850060287 0 0.00081790509612647251 -0.029515044444757006 0 0.0011422146701164572 -0.029127602739736511 0 0.00040550863655188478 -0.029681903850645647 0 0.00060263606713123507 -0.029295803601144435 0 0.00072729502963737327 -0.029406496850060287 0 0.00072729502963737327 -0.029406496850060287 0 0.00081790509612647251 -0.029515044444757006 0 0.00051813005152792613 -0.029742189302351243 0 0.00081790509612647251 -0.029515044444757006 0 0.00060892467277256493 -0.029773654261979556 0 0.00070829035623807895 -0.029784516035283138 0 0.00081790509612647251 -0.029515044444757006 0 0.00060892467277256493 -0.029773654261979556 0 0.00051813005152792613 -0.029742189302351243 0 0.00060892467277256493 -0.029773654261979556 0 0.00051813005152792613 -0.029742189302351243 0 0.00037865282117207217 -0.030013896279085725 0 0.0003158489849607824 -0.029949941178695951 0 0.00051813005152792613 -0.029742189302351243 0 0.00037865282117207217 -0.030013896279085725 0 0.00017759909012455224 -0.030201672067250381 0 0.0003158489849607824 -0.029949941178695951 0 0.00037865282117207217 -0.030013896279085725 0 0.00017759909012455224 -0.030201672067250381 0 0.00015776995169779391 -0.030021628355422412 0 0.0003158489849607824 -0.029949941178695951 0 0.00015776995169779391 -0.030021628355422412 0 0.00040550863655188478 -0.029681903850645647 0 0.0003158489849607824 -0.029949941178695951 0 0.00040550863655188478 -0.029681903850645647 0 0.0003158489849607824 -0.029949941178695951 0 0.00051813005152792613 -0.029742189302351243 0 0.0014822248031409826 -0.028788728420860017 0 0.0014782011941670303 -0.028963359361773154 0 0.0011422146701164572 -0.029127602739736511 0 0.0014782011941670303 -0.028963359361773154 0 0.0011422146701164572 -0.029127602739736511 0 0.0013233189631909417 -0.029098641483194743 0 0.00081790509612647251 -0.029515044444757006 0 0.0011422146701164572 -0.029127602739736511 0 0.001083106206212679 -0.029381154670994197 0 0.0011422146701164572 -0.029127602739736511 0 0.001083106206212679 -0.029381154670994197 0 0.0013233189631909417 -0.029098641483194743 0 0.00081790509612647251 -0.029515044444757006 0 0.001083106206212679 -0.029381154670994197 0 0.00070829035623807895 -0.029784516035283138 0 0.001083106206212679 -0.029381154670994197 0 0.0013233189631909417 -0.029098641483194743 0 0.0015152693691859644 -0.028976518690493374 0 0.0014782011941670303 -0.028963359361773154 0 0.0013233189631909417 -0.029098641483194743 0 0.0015152693691859644 -0.028976518690493374 0 0.0014782011941670303 -0.028963359361773154 0 0.0015152693691859644 -0.028976518690493374 0 0.0016582605938415677 -0.028897682013960754 0 0.0015152693691859644 -0.028976518690493374 0 0.0012772643612872481 -0.029457763266715929 0 0.0019905405033188305 -0.028532569384014876 0 0.001083106206212679 -0.029381154670994197 0 0.0015152693691859644 -0.028976518690493374 0 0.0012772643612872481 -0.029457763266715929 0 0.0012772643612872481 -0.029457763266715929 0 0.00087539500760817684 -0.029743858241769564 0 0.00094346027666857555 -0.029940607280345293 0 0.001083106206212679 -0.029381154670994197 0 0.0012772643612872481 -0.029457763266715929 0 0.00087539500760817684 -0.029743858241769564 0 0.001083106206212679 -0.029381154670994197 0 0.00087539500760817684 -0.029743858241769564 0 0.00070829035623807895 -0.029784516035283138 0 0.00087539500760817684 -0.029743858241769564 0 0.00094346027666857555 -0.029940607280345293 0 0.00071282492409033781 -0.03000004184438021 0 0.00072008043186902893 -0.030119050881043854 0 0.00094346027666857555 -0.029940607280345293 0 0.00071282492409033781 -0.03000004184438021 0 0.00072008043186902893 -0.030119050881043854 0 0.00094346027666857555 -0.029940607280345293 0 0.001001857805401831 -0.030142558358028277 0 0.00094346027666857555 -0.029940607280345293 0 0.0012667453987163907 -0.029873904590060271 0 0.001001857805401831 -0.030142558358028277 0 0.0012772643612872481 -0.029457763266715929 0 0.0012667453987163907 -0.029873904590060271 0 0.0018954570316310191 -0.029688276200911266 0 0.0012772643612872481 -0.029457763266715929 0 0.00094346027666857555 -0.029940607280345293 0 0.0012667453987163907 -0.029873904590060271 0 0.00045329137492523613 -0.03003262419757758 0 0.00029722726332435717 -0.030183222290736073 0 0.0003805221131486377 -0.030192268975081798 0 0.00045329137492523613 -0.03003262419757758 0 0.00055678102291293653 -0.030007255430106818 0 0.0003805221131486377 -0.030192268975081798 0 0.00017759909012455224 -0.030201672067250381 0 0.00029722726332435717 -0.030183222290736073 0 0.00037865282117207217 -0.030013896279085725 0 0.00045329137492523613 -0.03003262419757758 0 0.00029722726332435717 -0.030183222290736073 0 0.00037865282117207217 -0.030013896279085725 0 0.00060892467277256493 -0.029773654261979556 0 0.00045329137492523613 -0.03003262419757758 0 0.00037865282117207217 -0.030013896279085725 0 0.00060892467277256493 -0.029773654261979556 0 0.00045329137492523613 -0.03003262419757758 0 0.00070829035623807895 -0.029784516035283138 0 0.00087539500760817684 -0.029743858241769564 0 0.00070829035623807895 -0.029784516035283138 0 0.00055678102291293653 -0.030007255430106818 0 0.00045329137492523613 -0.03003262419757758 0 0.00070829035623807895 -0.029784516035283138 0 0.00055678102291293653 -0.030007255430106818 0 0.00055678102291293653 -0.030007255430106818 0 0.00051544061913346567 -0.030165699334899935 0 0.0003805221131486377 -0.030192268975081798 0 0.00055678102291293653 -0.030007255430106818 0 0.00071282492409033781 -0.03000004184438021 0 0.00051544061913346567 -0.030165699334899935 0 0.00087539500760817684 -0.029743858241769564 0 0.00055678102291293653 -0.030007255430106818 0 0.00071282492409033781 -0.03000004184438021 0 0.00072008043186902893 -0.030119050881043854 0 0.00051544061913346567 -0.030165699334899935 0 0.00057574182241161109 -0.030208078651634794 0 0.00072008043186902893 -0.030119050881043854 0 0.00071282492409033781 -0.03000004184438021 0 0.00051544061913346567 -0.030165699334899935 0 0.00051544061913346567 -0.030165699334899935 0 0.00039839812488275659 -0.030257502616219231 0 0.0003805221131486377 -0.030192268975081798 0 0.00039839812488275659 -0.030257502616219231 0 0.0003805221131486377 -0.030192268975081798 0 0.00030534014918466281 -0.030308126425952441 0 0.00017881651848576351 -0.03032252656514825 0 0.00029722726332435717 -0.030183222290736073 0 0.00024929094398516238 -0.030299851762074299 0 0.00029722726332435717 -0.030183222290736073 0 0.0003805221131486377 -0.030192268975081798 0 0.00024929094398516238 -0.030299851762074299 0 0.00022113655343994351 -0.030373025363091843 0 0.00024929094398516238 -0.030299851762074299 0 0.00030534014918466281 -0.030308126425952441 0 0.0003805221131486377 -0.030192268975081798 0 0.00024929094398516238 -0.030299851762074299 0 0.00030534014918466281 -0.030308126425952441 0 0.00022113655343994351 -0.030373025363091843 0 0.00030534014918466281 -0.030308126425952441 0 0.00027772475207874127 -0.030369647910723989 0 0.00030534014918466281 -0.030308126425952441 0 0.00027772475207874127 -0.030369647910723989 0 0.00036002451487944086 -0.03032730686835837 0 0.00039839812488275659 -0.030257502616219231 0 0.00030534014918466281 -0.030308126425952441 0 0.00036002451487944086 -0.03032730686835837 0 0.00039839812488275659 -0.030257502616219231 0 0.00036002451487944086 -0.03032730686835837 0 0.00046399740284794468 -0.030264643072202422 0 0.00036002451487944086 -0.03032730686835837 0 0.00032609527922374996 -0.030379594095434108 0 0.00042499197699226503 -0.030350672780593155 0 0.00027678213274654639 -0.030395130848626335 0 0.00027772475207874127 -0.030369647910723989 0 0.00032609527922374996 -0.030379594095434108 0 0.00027772475207874127 -0.030369647910723989 0 0.00036002451487944086 -0.03032730686835837 0 0.00032609527922374996 -0.030379594095434108 0 0.00027678213274654639 -0.030395130848626335 0 0.00030313279234088633 -0.030373284002793793 0 0.00032027544625609948 -0.030397017400558293 0 0.00027678213274654639 -0.030395130848626335 0 0.00032609527922374996 -0.030379594095434108 0 0.00032027544625609948 -0.030397017400558293 0 0.00032609527922374996 -0.030379594095434108 0 0.00032027544625609948 -0.030397017400558293 0 0.00035791209191328601 -0.030400167256028603 0 0.00032609527922374996 -0.030379594095434108 0 0.00035791209191328601 -0.030400167256028603 0 0.00042499197699226503 -0.030350672780593155 0 0.00032027544625609948 -0.030397017400558293 0 0.00033936295743407018 -0.030415095051134454 0 0.00033779958830780125 -0.030373357352052266 0 0.00032027544625609948 -0.030397017400558293 0 0.00035791209191328601 -0.030400167256028603 0 0.00033936295743407018 -0.030415095051134454 0 0.00035791209191328601 -0.030400167256028603 0 0.00033936295743407018 -0.030415095051134454 0 0.00034990905965348259 -0.030444853784756434 0 0.00033936295743407018 -0.030415095051134454 0 0.00034990905965348259 -0.030444853784756434 0 0.00033357125406510696 -0.030410828435688243 0 0.00033936295743407018 -0.030415095051134454 0 0.00033779958830780125 -0.030373357352052266 0 0.00033357125406510696 -0.030410828435688243 0 0.00030313279234088633 -0.030373284002793793 0 0.00032027544625609948 -0.030397017400558293 0 0.00033779958830780125 -0.030373357352052266 0 0.00048979750987631883 -0.030426908240727638 0 0.0004680070480168689 -0.030477358460445317 0 0.00034990905965348259 -0.030444853784756434 0 0.00048979750987631883 -0.030426908240727638 0 0.0004680070480168689 -0.030477358460445317 0 0.00061865788277659162 -0.03044023148275805 0 0.0004680070480168689 -0.030477358460445317 0 0.00061865788277659162 -0.03044023148275805 0 0.00060431511971985503 -0.03049913301951691 0 0.0004680070480168689 -0.030477358460445317 0 0.00060431511971985503 -0.03049913301951691 0 0.0005217566147688985 -0.030540986920019553 0 0.0004680070480168689 -0.030477358460445317 0 0.00034990905965348259 -0.030444853784756434 0 0.0002032350519139727 -0.030478274605662149 0 0.00048979750987631883 -0.030426908240727638 0 0.00034990905965348259 -0.030444853784756434 0 0.0004440711567189071 -0.030393579241541242 0 0.00035791209191328601 -0.030400167256028603 0 0.0004440711567189071 -0.030393579241541242 0 0.00042499197699226503 -0.030350672780593155 0 0.00035791209191328601 -0.030400167256028603 0 0.00034990905965348259 -0.030444853784756434 0 0.0004440711567189071 -0.030393579241541242 0 0.0004440711567189071 -0.030393579241541242 0 0.00052142998653536892 -0.030341589033383 0 0.00042499197699226503 -0.030350672780593155 0 0.0004440711567189071 -0.030393579241541242 0 0.00059950229354100218 -0.030370846267388545 0 0.00052142998653536892 -0.030341589033383 0 0.00048979750987631883 -0.030426908240727638 0 0.0004440711567189071 -0.030393579241541242 0 0.00059950229354100218 -0.030370846267388545 0 0.00048979750987631883 -0.030426908240727638 0 0.00059950229354100218 -0.030370846267388545 0 0.00061865788277659162 -0.03044023148275805 0 0.00059950229354100218 -0.030370846267388545 0 0.00052142998653536892 -0.030341589033383 0 0.00068382497024211807 -0.030273038134477612 0 0.00053699187662676002 -0.030286150199478317 0 0.00057574182241161109 -0.030208078651634794 0 0.00068382497024211807 -0.030273038134477612 0 0.00052142998653536892 -0.030341589033383 0 0.00053699187662676002 -0.030286150199478317 0 0.00068382497024211807 -0.030273038134477612 0 0.00036002451487944086 -0.03032730686835837 0 0.00042499197699226503 -0.030350672780593155 0 0.00046399740284794468 -0.030264643072202422 0 0.00053699187662676002 -0.030286150199478317 0 0.00042499197699226503 -0.030350672780593155 0 0.00046399740284794468 -0.030264643072202422 0 0.00052142998653536892 -0.030341589033383 0 0.00053699187662676002 -0.030286150199478317 0 0.00042499197699226503 -0.030350672780593155 0 0.00051544061913346567 -0.030165699334899935 0 0.00039839812488275659 -0.030257502616219231 0 0.00046399740284794468 -0.030264643072202422 0 0.00051544061913346567 -0.030165699334899935 0 0.00046399740284794468 -0.030264643072202422 0 0.00057574182241161109 -0.030208078651634794 0 0.00053699187662676002 -0.030286150199478317 0 0.00046399740284794468 -0.030264643072202422 0 0.00057574182241161109 -0.030208078651634794 0 0.00072008043186902893 -0.030119050881043854 0 0.00057574182241161109 -0.030208078651634794 0 0.00068382497024211807 -0.030273038134477612 0 0.00072008043186902893 -0.030119050881043854 0 0.001001857805401831 -0.030142558358028277 0 0.00068382497024211807 -0.030273038134477612 0 0.001001857805401831 -0.030142558358028277 0 0.00068382497024211807 -0.030273038134477612 0 0.00087996629294457695 -0.030331395537675949 0 0.001001857805401831 -0.030142558358028277 0 0.0012332863681778672 -0.03036321492143397 0 0.00087996629294457695 -0.030331395537675949 0 0.0012667453987163907 -0.029873904590060271 0 0.001001857805401831 -0.030142558358028277 0 0.0014096403932079523 -0.030071253568545921 0 0.001001857805401831 -0.030142558358028277 0 0.0014096403932079523 -0.030071253568545921 0 0.0012332863681778672 -0.03036321492143397 0 0.0012332863681778672 -0.03036321492143397 0 0.0012410198287581796 -0.030632787070213125 0 0.001720416782673381 -0.03054051178419917 0 0.0012332863681778672 -0.03036321492143397 0 0.00083534255200067931 -0.030482421814000071 0 0.0012410198287581796 -0.030632787070213125 0 0.00083534255200067931 -0.030482421814000071 0 0.00068543043983543262 -0.030668469830327699 0 0.0012410198287581796 -0.030632787070213125 0 0.00059950229354100218 -0.030370846267388545 0 0.00068382497024211807 -0.030273038134477612 0 0.0007254799041353199 -0.030389880073102449 0 0.0007254799041353199 -0.030389880073102449 0 0.00087996629294457695 -0.030331395537675949 0 0.00083534255200067931 -0.030482421814000071 0 0.00068382497024211807 -0.030273038134477612 0 0.0007254799041353199 -0.030389880073102449 0 0.00087996629294457695 -0.030331395537675949 0 0.00059950229354100218 -0.030370846267388545 0 0.0007254799041353199 -0.030389880073102449 0 0.00061865788277659162 -0.03044023148275805 0 0.0012332863681778672 -0.03036321492143397 0 0.00087996629294457695 -0.030331395537675949 0 0.00083534255200067931 -0.030482421814000071 0 0.0007254799041353199 -0.030389880073102449 0 0.00083534255200067931 -0.030482421814000071 0 0.00061865788277659162 -0.03044023148275805 0 0.00083534255200067931 -0.030482421814000071 0 0.00061865788277659162 -0.03044023148275805 0 0.00060431511971985503 -0.03049913301951691 0 0.00083534255200067931 -0.030482421814000071 0 0.00060431511971985503 -0.03049913301951691 0 0.00069570288091988909 -0.030545201916928864 0 0.00083534255200067931 -0.030482421814000071 0 0.00069570288091988909 -0.030545201916928864 0 0.00068543043983543262 -0.030668469830327699 0 0.00060431511971985503 -0.03049913301951691 0 0.00065179124740622851 -0.030585534025298573 0 0.0005217566147688985 -0.030540986920019553 0 0.00060431511971985503 -0.03049913301951691 0 0.00069570288091988909 -0.030545201916928864 0 0.00065179124740622851 -0.030585534025298573 0 0.00065179124740622851 -0.030585534025298573 0 0.00068543043983543262 -0.030668469830327699 0 0.0005217566147688985 -0.030540986920019553 0 0.00069570288091988909 -0.030545201916928864 0 0.00065179124740622851 -0.030585534025298573 0 0.00068543043983543262 -0.030668469830327699 0 0.0009839939430130258 -0.025837602020129906 0 0.00064666323959972625 -0.023801040370148512 0 0.00035765844547173991 -0.01681079893570421 0 0.00020944575290017859 -0.016655218406557128 0 8.9750017192985303e-05 -0.016826615582602809 0 0.00035765844547173991 -0.01681079893570421 0 0.00031322391973599375 -0.016629210687179263 0 0.00039139352658310934 -0.01655923530489296 0 0.00035765844547173991 -0.01681079893570421 0 0.00020944575290017859 -0.016655218406557128 0 0.00031322391973599375 -0.016629210687179263 0 8.9750017192985303e-05 -0.016826615582602809 0 4.0200581820180401e-05 -0.016496722019514156 0 -0.00015855701339967482 -0.016556673032094758 0 0.00020944575290017859 -0.016655218406557128 0 8.9750017192985303e-05 -0.016826615582602809 0 4.0200581820180401e-05 -0.016496722019514156 0 4.0200581820180401e-05 -0.016496722019514156 0 8.4481090780880622e-05 -0.016344311537218742 0 0.00024871669152521031 -0.016478086840757078 0 0.00020944575290017859 -0.016655218406557128 0 4.0200581820180401e-05 -0.016496722019514156 0 0.00024871669152521031 -0.016478086840757078 0 4.0200581820180401e-05 -0.016496722019514156 0 8.4481090780880622e-05 -0.016344311537218742 0 -0.00011420967295998719 -0.016267582945422795 0 0.00031322391973599375 -0.016629210687179263 0 0.00024871669152521031 -0.016478086840757078 0 0.00039139352658310934 -0.01655923530489296 0 0.00020944575290017859 -0.016655218406557128 0 0.00031322391973599375 -0.016629210687179263 0 0.00024871669152521031 -0.016478086840757078 0 0.00024871669152521031 -0.016478086840757078 0 0.00039139352658310934 -0.01655923530489296 0 0.00040454957467848176 -0.01636433741867856 0 0.00039139352658310934 -0.01655923530489296 0 0.00054453549862798706 -0.01650589554521683 0 0.00040454957467848176 -0.01636433741867856 0 0.00035765844547173991 -0.01681079893570421 0 0.00039139352658310934 -0.01655923530489296 0 0.00054453549862798706 -0.01650589554521683 0 0.0014419585181379576 -0.028903896282548486 0 0.00019262587465718962 -0.029071868773144584 0 0.00040226903051684282 -0.030122004007139436 0 0.0016831151342137252 -0.028007465351751849 0 0.0014419585181379576 -0.028903896282548486 0 0.00019262587465718962 -0.029071868773144584 0 0.00029126320760254013 -0.030241613597955408 0 0.00040226903051684282 -0.030122004007139436 0 0.00033582262330036054 -0.030245066701428822 0 0.00084356236148954366 -0.029585795827234387 0 0.00042852694346429848 -0.030075638576984823 0 0.00032793904146479928 -0.030319892424465564 0 0.00033582262330036054 -0.030245066701428822 0 0.0003657236508948765 -0.030280431505671411 0 0.00040226903051684282 -0.030122004007139436 0 0.00033582262330036054 -0.030245066701428822 0 0.0003657236508948765 -0.030280431505671411 0 0.00032793904146479928 -0.030319892424465564 0 0.0003657236508948765 -0.030280431505671411 0 0.00033779958830780125 -0.030373357352052266 0 0.00030313279234088633 -0.030373284002793793 0 0.00032793904146479928 -0.030319892424465564 0 0.00033779958830780125 -0.030373357352052266 0 0.00040226903051684282 -0.030122004007139436 0 0.0003657236508948765 -0.030280431505671411 0 0.00033357125406510696 -0.030410828435688243 0 0.0003657236508948765 -0.030280431505671411 0 0.00033779958830780125 -0.030373357352052266 0 0.00033357125406510696 -0.030410828435688243 0 0.00040226903051684282 -0.030122004007139436 0 0.00033357125406510696 -0.030410828435688243 0 0.0002032350519139727 -0.030478274605662149 0 0.00034990905965348259 -0.030444853784756434 0 0.00033357125406510696 -0.030410828435688243 0 0.0002032350519139727 -0.030478274605662149 0 0.0009839939430130258 -0.025837602020129906 0 0.00029053962029228626 -0.022416949988731904 0 -0.00056334573598041564 -0.030569107121722679 0 0.00019262587465718962 -0.029071868773144584 0 0.00040226903051684282 -0.030122004007139436 0 -0.00056334573598041564 -0.030569107121722679 0 0.00040226903051684282 -0.030122004007139436 0 0.0002032350519139727 -0.030478274605662149 0 0.0004680070480168689 -0.030477358460445317 0 0.0002032350519139727 -0.030478274605662149 0 0.0005217566147688985 -0.030540986920019553 0 0.00068543043983543262 -0.030668469830327699 0 0.0002032350519139727 -0.030478274605662149 0 0.0005217566147688985 -0.030540986920019553 0 0.0009839939430130258 -0.025837602020129906 0 -0.00020467731689492892 -0.029843482602576802 0 -0.0018780812555630898 -0.015556495405350019 0 -0.00078670403245487954 -0.016181103278765513 0 -0.0024262742174151345 -0.016611149274781894 0 -0.0018780812555630898 -0.015556495405350019 0 -0.00078670403245487954 -0.016181103278765513 0 -0.0011858046059167176 -0.014879573791867816 0 -0.00078670403245487954 -0.016181103278765513 0 -0.0024262742174151345 -0.016611149274781894 0 -0.000961540667025882 -0.017221451134391313 0 -0.0024262742174151345 -0.016611149274781894 0 -0.0035040649189245201 -0.016563941282472489 0 -0.0038910301471975885 -0.01806495224129738 0 -0.0035040649189245201 -0.016563941282472489 0 -0.0044447815637746954 -0.016548884682146825 0 -0.0038910301471975885 -0.01806495224129738 0 -0.0044447815637746954 -0.016548884682146825 0 -0.0032660170793189077 -0.015152220300480858 0 -0.0049790285801572199 -0.014759140142804966 0 -0.0035040649189245201 -0.016563941282472489 0 -0.0044447815637746954 -0.016548884682146825 0 -0.0032660170793189077 -0.015152220300480858 0 -0.0024262742174151345 -0.016611149274781894 0 -0.0035040649189245201 -0.016563941282472489 0 -0.0032660170793189077 -0.015152220300480858 0 -0.0018780812555630898 -0.015556495405350019 0 -0.0024262742174151345 -0.016611149274781894 0 -0.0032660170793189077 -0.015152220300480858 0 -0.0032660170793189077 -0.015152220300480858 0 -0.0018379404386360903 -0.014397533174113101 0 -0.0028503883048724352 -0.013029400603486606 0 -0.0032660170793189077 -0.015152220300480858 0 -0.0041216948520364305 -0.013722345155094991 0 -0.0028503883048724352 -0.013029400603486606 0 -0.0032660170793189077 -0.015152220300480858 0 -0.0041216948520364305 -0.013722345155094991 0 -0.0049790285801572199 -0.014759140142804966 0 -0.0013357938261466221 -0.013566851626293222 0 -0.0018379404386360903 -0.014397533174113101 0 -0.0028503883048724352 -0.013029400603486606 0 -0.0013357938261466221 -0.013566851626293222 0 -0.0018379404386360903 -0.014397533174113101 0 -0.0010410918998076319 -0.014076962655382349 0 -0.0018780812555630898 -0.015556495405350019 0 -0.0018379404386360903 -0.014397533174113101 0 -0.0011858046059167176 -0.014879573791867816 0 -0.0018780812555630898 -0.015556495405350019 0 -0.0032660170793189077 -0.015152220300480858 0 -0.0018379404386360903 -0.014397533174113101 0 -0.00078670403245487954 -0.016181103278765513 0 -0.0011858046059167176 -0.014879573791867816 0 -0.00056212419188713932 -0.014212706450524089 0 -0.0018379404386360903 -0.014397533174113101 0 -0.0011858046059167176 -0.014879573791867816 0 -0.0010410918998076319 -0.014076962655382349 0 -0.0011858046059167176 -0.014879573791867816 0 -0.00056212419188713932 -0.014212706450524089 0 -0.0010410918998076319 -0.014076962655382349 0 -0.00056212419188713932 -0.014212706450524089 0 -0.0010410918998076319 -0.014076962655382349 0 -0.00064733603136741115 -0.013362470038678596 0 -0.0013357938261466221 -0.013566851626293222 0 -0.0010410918998076319 -0.014076962655382349 0 -0.00064733603136741115 -0.013362470038678596 0 -0.0013357938261466221 -0.013566851626293222 0 -0.00064733603136741115 -0.013362470038678596 0 -0.0010715109148592575 -0.012679601942974471 0 -0.00078029528928391754 -0.016117802445095981 0 0.00020562224559641512 -0.014687881299355865 0 -0.00028340788726424044 -0.013436067532933407 0 -7.8654525532313853e-06 -0.013621934412618724 0 -6.8605774193784599e-05 -0.012788060241074402 0 -0.00078670403245487954 -0.016181103278765513 0 -0.00026303528045261876 -0.016174591598673359 0 -0.00028496394934218522 -0.016190626433997272 0 -0.00078670403245487954 -0.016181103278765513 0 -7.8654525532313853e-06 -0.013621934412618724 0 0.00080177172671227169 -0.013047530355010481 0 -0.00078670403245487954 -0.016181103278765513 0 -0.00056212419188713932 -0.014212706450524089 0 -7.8654525532313853e-06 -0.013621934412618724 0 -0.00056212419188713932 -0.014212706450524089 0 -0.00028340788726424044 -0.013436067532933407 0 -7.8654525532313853e-06 -0.013621934412618724 0 -0.00056212419188713932 -0.014212706450524089 0 -0.00064733603136741115 -0.013362470038678596 0 -0.00028340788726424044 -0.013436067532933407 0 -7.8654525532313853e-06 -0.013621934412618724 0 0.00080177172671227169 -0.013047530355010481 0 0.00034952256598014806 -0.012929930877613018 0 4.0200581820180401e-05 -0.016496722019514156 0 -0.00011420967295998719 -0.016267582945422795 0 -0.00014045211814620875 -0.016381470985681948 0 -0.00028496394934218522 -0.016190626433997272 0 -0.00011420967295998719 -0.016267582945422795 0 -0.00014045211814620875 -0.016381470985681948 0 -0.00026303528045261876 -0.016174591598673359 0 -0.00028496394934218522 -0.016190626433997272 0 -0.00011420967295998719 -0.016267582945422795 0 -0.00028496394934218522 -0.016190626433997272 0 -0.00014045211814620875 -0.016381470985681948 0 -0.00015855701339967482 -0.016556673032094758 0 4.0200581820180401e-05 -0.016496722019514156 0 -0.00014045211814620875 -0.016381470985681948 0 -0.00015855701339967482 -0.016556673032094758 0 8.9750017192985303e-05 -0.016826615582602809 0 -0.00015855701339967482 -0.016556673032094758 0 -0.00032030891979992687 -0.016903710808212798 0 -0.00042111688287609425 -0.014644178956925102 0 0.00023456471245860693 -0.020543409722425819 0 0.00064666323959972625 -0.023801040370148512 0 0.00023456471245860693 -0.020543409722425819 0 -0.00028496394934218522 -0.016190626433997272 0 -0.00015855701339967482 -0.016556673032094758 0 -0.00032030891979992687 -0.016903710808212798 0 -0.00078670403245487954 -0.016181103278765513 0 -2.3368478493796364e-05 -0.016744720254333191 0 -0.000961540667025882 -0.017221451134391313 0 -0.00078670403245487954 -0.016181103278765513 0 -0.00028496394934218522 -0.016190626433997272 0 -2.3368478493796364e-05 -0.016744720254333191 0 -9.822189607705424e-05 -0.020169382407315837 0 0.0024050807489918134 -0.017805655067031034 0 -0.00090225594365298326 -0.018074203580805682 0 -9.822189607705424e-05 -0.020169382407315837 0 0.0024050807489918134 -0.017805655067031034 0 0.0026807683211919242 -0.021161208948595665 0 0.00023456471245860693 -0.020543409722425819 0 -0.00081368887567600167 -0.017428217801870281 0 0.0012332863681778672 -0.03036321492143397 0 0.001720416782673381 -0.03054051178419917 0 0.0017369234012012183 -0.030163474073920189 0 0.00023456471245860693 -0.020543409722425819 0 0.0023579597172665237 -0.026397535687076177 0 0.0014096403932079523 -0.030071253568545921 0 0.0017369234012012183 -0.030163474073920189 0 0.0018954570316310191 -0.029688276200911266 0 0.0014096403932079523 -0.030071253568545921 0 0.0012332863681778672 -0.03036321492143397 0 0.0017369234012012183 -0.030163474073920189 0 -9.822189607705424e-05 -0.020169382407315837 0 0.0026807683211919242 -0.021161208948595665 0 0.00092874275939177926 -0.022581188877083595 0 0.0026807683211919242 -0.021161208948595665 0 0.00092874275939177926 -0.022581188877083595 0 0.0027606372956490645 -0.024781982440023703 0 -9.822189607705424e-05 -0.020169382407315837 0 0.00092874275939177926 -0.022581188877083595 0 -0.00075865744566334329 -0.022267769378347381 0 -0.00075865744566334329 -0.022267769378347381 0 -0.0024555889224816057 -0.021479034358743768 0 -0.0017636189796198455 -0.02053618629448677 0 -0.00075865744566334329 -0.022267769378347381 0 -0.0024555889224816057 -0.021479034358743768 0 -0.0014554637304201238 -0.023521996573455457 0 -0.0024555889224816057 -0.021479034358743768 0 -0.0017636189796198455 -0.02053618629448677 0 -0.0029447867288009185 -0.01971760119050113 0 -9.822189607705424e-05 -0.020169382407315837 0 -0.00075865744566334329 -0.022267769378347381 0 -0.0017636189796198455 -0.02053618629448677 0 -0.0024262742174151345 -0.016611149274781894 0 -0.000961540667025882 -0.017221451134391313 0 -0.0038910301471975885 -0.01806495224129738 0 -9.822189607705424e-05 -0.020169382407315837 0 -0.0019560904169862157 -0.019189336499602493 0 -0.00090225594365298326 -0.018074203580805682 0 -0.00081368887567600167 -0.017428217801870281 0 -0.003788317390169518 -0.018046267630676141 0 -9.822189607705424e-05 -0.020169382407315837 0 -0.0017636189796198455 -0.02053618629448677 0 -0.0019560904169862157 -0.019189336499602493 0 -0.0019560904169862157 -0.019189336499602493 0 -0.00090225594365298326 -0.018074203580805682 0 -0.0038910301471975885 -0.01806495224129738 0 -0.0017636189796198455 -0.02053618629448677 0 -0.0019560904169862157 -0.019189336499602493 0 -0.0029447867288009185 -0.01971760119050113 0 -0.0044447815637746954 -0.016548884682146825 0 -0.0038910301471975885 -0.01806495224129738 0 -0.0046813279626641228 -0.019218960970088027 0 -0.0019560904169862157 -0.019189336499602493 0 -0.0038910301471975885 -0.01806495224129738 0 -0.0029447867288009185 -0.01971760119050113 0 -0.0038910301471975885 -0.01806495224129738 0 -0.0029447867288009185 -0.01971760119050113 0 -0.0046813279626641228 -0.019218960970088027 0 0.0076750046771966564 0.0091009507108145548 0 0.00812329474967486 0.0076770096875221428 0 0.0088423488537501954 0.0069774719917118418 0 0.001571583346632078 -0.0053624272678193911 0 0.0029530199364539082 -0.0080732108595411283 0 -0.0024555889224816057 -0.021479034358743768 0 -0.0046813279626641228 -0.019218960970088027 0 -0.0029512736856932092 -0.02338315305666323 0 0.0076750046771966564 0.0091009507108145548 0 0.0076886141378936894 0.0079202585914164569 0 0.00812329474967486 0.0076770096875221428 0 -0.0024555889224816057 -0.021479034358743768 0 -0.0029447867288009185 -0.01971760119050113 0 -0.0046813279626641228 -0.019218960970088027 0 0.0076886141378936894 0.0079202585914164569 0 0.00812329474967486 0.0076770096875221428 0 0.0083376401560676609 0.0067580607528864196 0 0.0083376401560676609 0.0067580607528864196 0 0.0088423488537501954 0.0069774719917118418 0 0.0097546058578325111 0.0062666450768731619 0 0.0080173014354594091 0.0082264672200748658 0 0.0076289130341794121 0.0074705854641088495 0 0.0068251645923891975 0.0080514398344133393 0 0.00812329474967486 0.0076770096875221428 0 0.0083376401560676609 0.0067580607528864196 0 0.0088423488537501954 0.0069774719917118418 0 -0.0024555889224816057 -0.021479034358743768 0 -0.0029512736856932092 -0.02338315305666323 0 -0.0014554637304201238 -0.023521996573455457 0 -0.00075865744566334329 -0.022267769378347381 0 -0.0014554637304201238 -0.023521996573455457 0 7.2514943274462843e-05 -0.024557109766044465 0 -0.0012043168484883254 -0.025350124082538578 0 7.2514943274462843e-05 -0.024557109766044465 0 -0.00016359010605471492 -0.026067668721447893 0 -0.0014554637304201238 -0.023521996573455457 0 -0.0012043168484883254 -0.025350124082538578 0 7.2514943274462843e-05 -0.024557109766044465 0 -0.0029512736856932092 -0.02338315305666323 0 -0.0014554637304201238 -0.023521996573455457 0 -0.0012043168484883254 -0.025350124082538578 0 -0.0029512736856932092 -0.02338315305666323 0 -0.0012043168484883254 -0.025350124082538578 0 -0.00061711432588475179 -0.027521406791156174 0 0.0088423488537501954 0.0069774719917118418 0 0.0097546058578325111 0.0062666450768731619 0 0.0099286171772338481 0.0062310210354359699 0 0.0080173014354594091 0.0082264672200748658 0 0.0097546058578325111 0.0062666450768731619 0 0.0088209197804585519 0.0067311432608972805 0 0.008186234151692685 0.0074974356516863344 0 0.0096131592797239485 0.0063388665181064877 0 0.0029530199364539082 -0.0080732108595411283 0 0.0047285583644302593 -0.010974520000276527 0 -0.0012043168484883254 -0.025350124082538578 0 -0.00048457438174931444 -0.026492974579059476 0 -0.00061711432588475179 -0.027521406791156174 0 -0.0012043168484883254 -0.025350124082538578 0 -0.00048457438174931444 -0.026492974579059476 0 -0.00016359010605471492 -0.026067668721447893 0 -0.00048457438174931444 -0.026492974579059476 0 -0.00061711432588475179 -0.027521406791156174 0 5.7005309837928696e-06 -0.027009211271512991 0 0.0097546058578325111 0.0062666450768731619 0 0.0093111826515537358 0.0060881441777254379 0 0.0097324172100722584 0.0059199987216157291 0 0.0097546058578325111 0.0062666450768731619 0 0.0099286171772338481 0.0062310210354359699 0 0.0097324172100722584 0.0059199987216157291 0 0.0097546058578325111 0.0062666450768731619 0 0.0093111826515537358 0.0060881441777254379 0 0.0088209197804585519 0.0067311432608972805 0 0.0093111826515537358 0.0060881441777254379 0 0.0088209197804585519 0.0067311432608972805 0 0.0087273150610779407 0.0060732154436660508 0 0.0080173014354594091 0.0082264672200748658 0 0.0088209197804585519 0.0067311432608972805 0 0.0082542226686241095 0.0069890815092508683 0 0.0088209197804585519 0.0067311432608972805 0 0.0082542226686241095 0.0069890815092508683 0 0.0087273150610779407 0.0060732154436660508 0 0.0074837852423885699 0.0066308942062547989 0 0.0082542226686241095 0.0069890815092508683 0 0.0087273150610779407 0.0060732154436660508 0 0.0074837852423885699 0.0066308942062547989 0 0.0076289130341794121 0.0074705854641088495 0 0.0082542226686241095 0.0069890815092508683 0 0.0080173014354594091 0.0082264672200748658 0 0.0076289130341794121 0.0074705854641088495 0 0.0082542226686241095 0.0069890815092508683 0 0.0023579597172665237 -0.026397535687076177 0 0.0022459701352427596 -0.027043958325581798 0 0.0012667453987163907 -0.029873904590060271 0 0.0014096403932079523 -0.030071253568545921 0 0.0018954570316310191 -0.029688276200911266 0 0.00092874275939177926 -0.022581188877083595 0 0.0027606372956490645 -0.024781982440023703 0 7.2514943274462843e-05 -0.024557109766044465 0 0.0027606372956490645 -0.024781982440023703 0 7.2514943274462843e-05 -0.024557109766044465 0 0.0010432730594960684 -0.026617901573372977 0 0.00092874275939177926 -0.022581188877083595 0 -0.00075865744566334329 -0.022267769378347381 0 7.2514943274462843e-05 -0.024557109766044465 0 -0.00016359010605471492 -0.026067668721447893 0 5.7005309837928696e-06 -0.027009211271512991 0 0.0010432730594960684 -0.026617901573372977 0 7.2514943274462843e-05 -0.024557109766044465 0 -0.00016359010605471492 -0.026067668721447893 0 0.0010432730594960684 -0.026617901573372977 0 -0.00048457438174931444 -0.026492974579059476 0 -0.00016359010605471492 -0.026067668721447893 0 5.7005309837928696e-06 -0.027009211271512991 0 -0.00061711432588475179 -0.027521406791156174 0 7.5475808847918986e-05 -0.027507046515905301 0 0.00061423446087834001 -0.028084181016027839 0 5.7005309837928696e-06 -0.027009211271512991 0 0.00051554469404462152 -0.027473065849865169 0 0.0010432730594960684 -0.026617901573372977 0 -0.00061711432588475179 -0.027521406791156174 0 5.7005309837928696e-06 -0.027009211271512991 0 7.5475808847918986e-05 -0.027507046515905301 0 5.7005309837928696e-06 -0.027009211271512991 0 7.5475808847918986e-05 -0.027507046515905301 0 0.00051554469404462152 -0.027473065849865169 0 7.5475808847918986e-05 -0.027507046515905301 0 0.00051554469404462152 -0.027473065849865169 0 0.00061423446087834001 -0.028084181016027839 0 0.0012532215405437689 -0.027948874320370579 0 0.0010432730594960684 -0.026617901573372977 0 0.0019905405033188305 -0.028532569384014876 0 0.00051554469404462152 -0.027473065849865169 0 0.0012532215405437689 -0.027948874320370579 0 0.0010432730594960684 -0.026617901573372977 0 0.0027606372956490645 -0.024781982440023703 0 0.0010432730594960684 -0.026617901573372977 0 0.0019905405033188305 -0.028532569384014876 0 0.0012772643612872481 -0.029457763266715929 0 0.0018954570316310191 -0.029688276200911266 0 0.0019905405033188305 -0.028532569384014876 0 0.0022459701352427596 -0.027043958325581798 0 0.0020983747228263969 -0.028400547546951985 0 0.0015152693691859644 -0.028976518690493374 0 0.0016582605938415677 -0.028897682013960754 0 0.0019905405033188305 -0.028532569384014876 0 0.0012532215405437689 -0.027948874320370579 0 0.0019905405033188305 -0.028532569384014876 0 0.0015978874317462376 -0.028717123462154281 0 0.0016582605938415677 -0.028897682013960754 0 0.0015978874317462376 -0.028717123462154281 0 0.0015168580710394561 -0.029039768476939114 0 0.0016582605938415677 -0.028897682013960754 0 0.0019905405033188305 -0.028532569384014876 0 0.0015978874317462376 -0.028717123462154281 0 0.0099286171772338481 0.0062310210354359699 0 0.01128863906018345 0.0040686301150667323 0 0.010109897819650106 0.005278684349719568 0 -0.00061711432588475179 -0.027521406791156174 0 0.00061423446087834001 -0.028084181016027839 0 0.0013858593628010684 -0.029323968290133097 0 0.0012221127850271221 -0.028676546055356356 0 0.00061423446087834001 -0.028084181016027839 0 0.0013858593628010684 -0.029323968290133097 0 0.0047285583644302593 -0.010974520000276527 0 0.0063531235038528774 -0.010941335142540637 0 0.0015978874317462376 -0.028717123462154281 0 0.0012221127850271221 -0.028676546055356356 0 0.0015168580710394561 -0.029039768476939114 0 0.0015978874317462376 -0.028717123462154281 0 0.0012221127850271221 -0.028676546055356356 0 0.0011402314900332614 -0.028327149512907046 0 0.0012532215405437689 -0.027948874320370579 0 0.0015978874317462376 -0.028717123462154281 0 0.0011402314900332614 -0.028327149512907046 0 0.0012221127850271221 -0.028676546055356356 0 0.0011402314900332614 -0.028327149512907046 0 0.00061423446087834001 -0.028084181016027839 0 0.00051554469404462152 -0.027473065849865169 0 0.0012532215405437689 -0.027948874320370579 0 0.00061423446087834001 -0.028084181016027839 0 0.0012532215405437689 -0.027948874320370579 0 0.0011402314900332614 -0.028327149512907046 0 0.00061423446087834001 -0.028084181016027839 0 0.01128863906018345 0.0040686301150667323 0 0.010130913212939432 0.0047129973597527727 0 0.010109897819650106 0.005278684349719568 0 0.01128863906018345 0.0040686301150667323 0 0.010130913212939432 0.0047129973597527727 0 0.010126503507970262 0.0038393473127092907 0 0.0012221127850271221 -0.028676546055356356 0 0.0013858593628010684 -0.029323968290133097 0 0.0015168580710394561 -0.029039768476939114 0 0.0015966644702730748 -0.028957841315771782 0 0.0015168580710394561 -0.029039768476939114 0 0.0016181732082655462 -0.028863957990346072 0 0.0063531235038528774 -0.010941335142540637 0 0.0027585612180340245 -0.016588490666420572 0 0.0037213596396985563 -0.017349684591705748 0 0.0063531235038528774 -0.010941335142540637 0 0.0016941703795884868 -0.028654421259653715 0 0.0015966644702730748 -0.028957841315771782 0 0.0016181732082655462 -0.028863957990346072 0 0.0016582605938415677 -0.028897682013960754 0 0.0015168580710394561 -0.029039768476939114 0 0.0016181732082655462 -0.028863957990346072 0 0.0014822248031409826 -0.028788728420860017 0 0.0014782011941670303 -0.028963359361773154 0 0.0016181732082655462 -0.028863957990346072 0 0.0014782011941670303 -0.028963359361773154 0 0.0016582605938415677 -0.028897682013960754 0 0.0016181732082655462 -0.028863957990346072 0 0.00885601003689457 0.0052822347064105874 0 0.0079462608819030976 0.0051638775775180541 0 0.0093037686906033302 0.0044096183209082181 0 0.0074837852423885699 0.0066308942062547989 0 0.0079462608819030976 0.0051638775775180541 0 0.0087273150610779407 0.0060732154436660508 0 0.00885601003689457 0.0052822347064105874 0 0.0079462608819030976 0.0051638775775180541 0 0.0087273150610779407 0.0060732154436660508 0 0.0093111826515537358 0.0060881441777254379 0 0.0087273150610779407 0.0060732154436660508 0 0.0094863076086138028 0.0054570427598459176 0 0.00885601003689457 0.0052822347064105874 0 0.0087273150610779407 0.0060732154436660508 0 0.0094863076086138028 0.0054570427598459176 0 0.0093111826515537358 0.0060881441777254379 0 0.0094863076086138028 0.0054570427598459176 0 0.0097324172100722584 0.0059199987216157291 0 0.0099286171772338481 0.0062310210354359699 0 0.0097324172100722584 0.0059199987216157291 0 0.010109897819650106 0.005278684349719568 0 0.0094863076086138028 0.0054570427598459176 0 0.0097324172100722584 0.0059199987216157291 0 0.010109897819650106 0.005278684349719568 0 0.0094863076086138028 0.0054570427598459176 0 0.010130913212939432 0.0047129973597527727 0 0.0093037686906033302 0.0044096183209082181 0 0.0094863076086138028 0.0054570427598459176 0 0.010130913212939432 0.0047129973597527727 0 0.010109897819650106 0.005278684349719568 0 0.00885601003689457 0.0052822347064105874 0 0.0094863076086138028 0.0054570427598459176 0 0.0093037686906033302 0.0044096183209082181 0 0.0097774446686531968 0.0021481976283356584 0 0.0093037686906033302 0.0044096183209082181 0 0.010126503507970262 0.0038393473127092907 0 0.0097774446686531968 0.0021481976283356584 0 0.01128863906018345 0.0040686301150667323 0 0.010126503507970262 0.0038393473127092907 0 0.0097774446686531968 0.0021481976283356584 0 0.0093037686906033302 0.0044096183209082181 0 0.0081861347723819824 0.0035710644931144339 0 0.010130913212939432 0.0047129973597527727 0 0.0093037686906033302 0.0044096183209082181 0 0.010126503507970262 0.0038393473127092907 0 0.0079462608819030976 0.0051638775775180541 0 0.0093037686906033302 0.0044096183209082181 0 0.0081861347723819824 0.0035710644931144339 0 0.0079462608819030976 0.0051638775775180541 0 0.0081861347723819824 0.0035710644931144339 0 0.00656880951282654 0.0039527327752145649 0 0.0079462608819030976 0.0051638775775180541 0 0.00656880951282654 0.0039527327752145649 0 0.0059804072920374542 0.0058334649064512717 0 0.0074837852423885699 0.0066308942062547989 0 0.0079462608819030976 0.0051638775775180541 0 0.0059804072920374542 0.0058334649064512717 0 0.0059804072920374542 0.0058334649064512717 0 0.0046207044486062179 0.0050508053304581498 0 0.0038787492413674255 0.0067995105334172252 0 0.0051845992371501448 0.0035027583849573268 0 0.00656880951282654 0.0039527327752145649 0 0.0046207044486062179 0.0050508053304581498 0 0.00656880951282654 0.0039527327752145649 0 0.0059804072920374542 0.0058334649064512717 0 0.0046207044486062179 0.0050508053304581498 0 0.0046207044486062179 0.0050508053304581498 0 0.0034031087886347389 0.0041680772412183726 0 0.0028258468853576855 0.0061873910163610917 0 0.0051845992371501448 0.0035027583849573268 0 0.0046207044486062179 0.0050508053304581498 0 0.0034031087886347389 0.0041680772412183726 0 0.0034031087886347389 0.0041680772412183726 0 0.0017229967588453081 0.0043177707369661308 0 0.0028258468853576855 0.0061873910163610917 0 0.002458547260604326 0.003299367545000632 0 0.0034031087886347389 0.0041680772412183726 0 0.0017229967588453081 0.0043177707369661308 0 0.002193634075149485 0.0052442513293880387 0 0.0027212633474537418 0.0061064634824544665 0 0.0026208193708451566 0.0062266273309721266 0 0.0028258468853576855 0.0061873910163610917 0 0.0024777167717037136 0.0065240779753237494 0 0.0028258468853576855 0.0061873910163610917 0 0.0024777167717037136 0.0065240779753237494 0 0.0025305210587145176 0.0073360658927391041 0 0.0028258468853576855 0.0061873910163610917 0 0.0038787492413674255 0.0067995105334172252 0 0.0025305210587145176 0.0073360658927391041 0 0.0046207044486062179 0.0050508053304581498 0 0.0028258468853576855 0.0061873910163610917 0 0.0038787492413674255 0.0067995105334172252 0 0.0038787492413674255 0.0067995105334172252 0 0.0032810884229362777 0.0081388456286458355 0 0.0051036722048529845 0.0076124721865122331 0 0.0037370800759656264 0.0081463054479381306 0 0.005407728386949205 0.0075015908158383429 0 0.0038787492413674255 0.0067995105334172252 0 0.0032810884229362777 0.0081388456286458355 0 0.0025305210587145176 0.0073360658927391041 0 0.0041565269669452051 0.0081448673503488368 0 0.0028269784082405863 0.0087972993724830268 0 0.0037325263624487289 0.0094637881643327235 0 0.0041565269669452051 0.0081448673503488368 0 0.0056306744217470943 0.0074559120167194161 0 0.0050024780346930257 0.0092293369328015906 0 0.0059682641287918045 0.008564632875345873 0 0.0068251645923891975 0.0080514398344133393 0 0.0056306744217470943 0.0074559120167194161 0 0.0059682641287918045 0.008564632875345873 0 0.0056306744217470943 0.0074559120167194161 0 0.0050024780346930257 0.0092293369328015906 0 0.0080173014354594091 0.0082264672200748658 0 0.0068251645923891975 0.0080514398344133393 0 0.0064526153363997476 0.0094801339593526494 0 0.0059682641287918045 0.008564632875345873 0 0.0068251645923891975 0.0080514398344133393 0 0.0064526153363997476 0.0094801339593526494 0 0.0074837852423885699 0.0066308942062547989 0 0.0076289130341794121 0.0074705854641088495 0 0.0068251645923891975 0.0080514398344133393 0 0.0074837852423885699 0.0066308942062547989 0 0.0068251645923891975 0.0080514398344133393 0 0.0056306744217470943 0.0074559120167194161 0 0.0074837852423885699 0.0066308942062547989 0 0.0059804072920374542 0.0058334649064512717 0 0.0051036722048529845 0.0076124721865122331 0 0.0073661030958623143 0.0067147668994757609 0 0.005407728386949205 0.0075015908158383429 0 0.0059804072920374542 0.0058334649064512717 0 0.0038787492413674255 0.0067995105334172252 0 0.0051036722048529845 0.0076124721865122331 0 -5.233656185605771e-06 0.0080006949551990336 0 0.00059053764210362692 0.0068773831165596568 0 0.00081156105357025634 0.008256682044928132 0 0.00059525713880850361 0.006501725197758045 0 0.00020735305262623908 0.0065735177375806034 0 0.00059053764210362692 0.0068773831165596568 0 0.00059053764210362692 0.0068773831165596568 0 0.0013575308094285637 0.0072500920244980968 0 0.0016184756659597221 0.0061919560382302785 0 0.00064213362078155965 0.0067792643820389718 0 0.0013208864476640665 0.0065607194399175395 0 0.00059525713880850361 0.006501725197758045 0 0.00059053764210362692 0.0068773831165596568 0 0.0010339259522482366 0.0065352385281825321 0 0.00059053764210362692 0.0068773831165596568 0 0.0013575308094285637 0.0072500920244980968 0 0.00081156105357025634 0.008256682044928132 0 0.0013575308094285637 0.0072500920244980968 0 0.0020133436294070238 0.0069422056420761708 0 0.0017340265694882537 0.0080036104881044314 0 0.0013575308094285637 0.0072500920244980968 0 0.0020133436294070238 0.0069422056420761708 0 0.0016184756659597221 0.0061919560382302785 0 0.0020133436294070238 0.0069422056420761708 0 0.0016184756659597221 0.0061919560382302785 0 0.0022619469938026117 0.0063246837692656991 0 0.0024172898545175908 0.0057715168871087736 0 0.0026208193708451566 0.0062266273309721266 0 0.0022619469938026117 0.0063246837692656991 0 0.0026208193708451566 0.0062266273309721266 0 0.0022619469938026117 0.0063246837692656991 0 0.0024777167717037136 0.0065240779753237494 0 0.0020133436294070238 0.0069422056420761708 0 0.0024777167717037136 0.0065240779753237494 0 0.0025305210587145176 0.0073360658927391041 0 0.0020133436294070238 0.0069422056420761708 0 0.0022619469938026117 0.0063246837692656991 0 0.0024777167717037136 0.0065240779753237494 0 0.0025305210587145176 0.0073360658927391041 0 0.0022504310099478054 0.0086444004873997681 0 0.0017340265694882537 0.0080036104881044314 0 0.0037370800759656264 0.0081463054479381306 0 0.0025263544456619303 0.0087476264793573313 0 0.0032810884229362777 0.0081388456286458355 0 0.0025305210587145176 0.0073360658927391041 0 0.0022504310099478054 0.0086444004873997681 0 0.0025263544456619303 0.0087476264793573313 0 0.0015372202637515642 0.0093449035436953161 0 0.0022504310099478054 0.0086444004873997681 0 0.0017340265694882537 0.0080036104881044314 0 0.00151249249970888 0.0094260246810747659 0 0.0020133436294070238 0.0069422056420761708 0 0.0025305210587145176 0.0073360658927391041 0 0.0017340265694882537 0.0080036104881044314 0 0.0013575308094285637 0.0072500920244980968 0 0.0017340265694882537 0.0080036104881044314 0 0.00081156105357025634 0.008256682044928132 0 0.0017340265694882537 0.0080036104881044314 0 0.00081156105357025634 0.008256682044928132 0 0.00151249249970888 0.0094260246810747659 0 -6.5663389984275922e-05 0.0089802949884570781 0 0.00081156105357025634 0.008256682044928132 0 0.00052916879957945028 0.0097276542779567189 0 0.00081156105357025634 0.008256682044928132 0 0.00052916879957945028 0.0097276542779567189 0 0.00151249249970888 0.0094260246810747659 0 0.00098722380296051835 0.010819377985752172 0 0.00151249249970888 0.0094260246810747659 0 0.0018320671788006574 0.011225833998013914 0 0.00027573429556672986 0.010804781435408481 0 0.00098722380296051835 0.010819377985752172 0 0.00052916879957945028 0.0097276542779567189 0 0.00027573429556672986 0.010804781435408481 0 0.00056334176048630053 0.011650946895937981 0 0.00098722380296051835 0.010819377985752172 0 0.00098722380296051835 0.010819377985752172 0 0.00052916879957945028 0.0097276542779567189 0 0.00151249249970888 0.0094260246810747659 0 0.00151249249970888 0.0094260246810747659 0 0.0024875207448491307 0.01011469955338894 0 0.0018320671788006574 0.011225833998013914 0 0.0024875207448491307 0.01011469955338894 0 0.0025820537842385152 0.011086603206166525 0 0.0018320671788006574 0.011225833998013914 0 0.0028269784082405863 0.0087972993724830268 0 0.00151249249970888 0.0094260246810747659 0 0.0024875207448491307 0.01011469955338894 0 0.0028269784082405863 0.0087972993724830268 0 0.0024875207448491307 0.01011469955338894 0 0.0037325263624487289 0.0094637881643327235 0 0.0024875207448491307 0.01011469955338894 0 0.00332862351204583 0.01057808796185503 0 0.0037325263624487289 0.0094637881643327235 0 0.0024875207448491307 0.01011469955338894 0 0.00332862351204583 0.01057808796185503 0 0.0025820537842385152 0.011086603206166525 0 0.00332862351204583 0.01057808796185503 0 0.0031182330715084339 0.0114921200470219 0 0.0025820537842385152 0.011086603206166525 0 0.0031182330715084339 0.0114921200470219 0 0.0037534215440878523 0.011826482770146822 0 0.0029297091840479561 0.012302627799424851 0 0.0031182330715084339 0.0114921200470219 0 0.0022055594221723632 0.011919318368300126 0 0.0029297091840479561 0.012302627799424851 0 0.0022055594221723632 0.011919318368300126 0 0.0023233884705821523 0.012421811908896491 0 0.0029297091840479561 0.012302627799424851 0 0.0022055594221723632 0.011919318368300126 0 0.0015986382621829178 0.012517160408180392 0 0.0023233884705821523 0.012421811908896491 0 0.0031182330715084339 0.0114921200470219 0 0.0022055594221723632 0.011919318368300126 0 0.0025820537842385152 0.011086603206166525 0 0.0022055594221723632 0.011919318368300126 0 0.0025820537842385152 0.011086603206166525 0 0.0018320671788006574 0.011225833998013914 0 0.0022055594221723632 0.011919318368300126 0 0.0018320671788006574 0.011225833998013914 0 0.0012040851570627961 0.012103531837246252 0 0.00098722380296051835 0.010819377985752172 0 0.0018320671788006574 0.011225833998013914 0 0.0012040851570627961 0.012103531837246252 0 0.0022055594221723632 0.011919318368300126 0 0.0012040851570627961 0.012103531837246252 0 0.0015986382621829178 0.012517160408180392 0 0.00068032860465405882 0.012695271866727427 0 0.00089669684900121384 0.012804840433107209 0 0.0012040851570627961 0.012103531837246252 0 0.00056334176048630053 0.011650946895937981 0 0.00098722380296051835 0.010819377985752172 0 0.0012040851570627961 0.012103531837246252 0 0.00068032860465405882 0.012695271866727427 0 0.00056334176048630053 0.011650946895937981 0 0.0012040851570627961 0.012103531837246252 0 0.0052280582270890366 0.010362278730753868 0 0.006395733158039779 0.009768934673656823 0 0.0065226575891378031 0.0084146149471328816 0 0.0052280582270890366 0.010362278730753868 0 0.0064526153363997476 0.0094801339593526494 0 0.0050024780346930257 0.0092293369328015906 0 0.0053095054105562357 0.01025115962419291 0 0.0065088728041603075 0.0089616516207008876 0 0.0076750046771966564 0.0091009507108145548 0 0.006395733158039779 0.009768934673656823 0 0.006500427796779523 0.0101362534049584 0 0.0076750046771966564 0.0091009507108145548 0 0.0069691838554527819 0.0089556182967071123 0 0.0072719372181881837 0.0085296447521291414 0 0.0076750046771966564 0.0091009507108145548 0 0.006395733158039779 0.009768934673656823 0 0.0069691838554527819 0.0089556182967071123 0 0.006395733158039779 0.009768934673656823 0 0.0069691838554527819 0.0089556182967071123 0 0.0065226575891378031 0.0084146149471328816 0 0.0076886141378936894 0.0079202585914164569 0 0.0083376401560676609 0.0067580607528864196 0 0.0065226575891378031 0.0084146149471328816 0 0.008186234151692685 0.0074974356516863344 0 0.0065088728041603075 0.0089616516207008876 0 0.0076886141378936894 0.0079202585914164569 0 0.0065226575891378031 0.0084146149471328816 0 0.0072719372181881837 0.0085296447521291414 0 0.0069691838554527819 0.0089556182967071123 0 0.0065226575891378031 0.0084146149471328816 0 0.0072719372181881837 0.0085296447521291414 0 0.0076750046771966564 0.0091009507108145548 0 0.0076886141378936894 0.0079202585914164569 0 0.0072719372181881837 0.0085296447521291414 0 0.0059682641287918045 0.008564632875345873 0 0.0064526153363997476 0.0094801339593526494 0 0.0050024780346930257 0.0092293369328015906 0 0.0041565269669452051 0.0081448673503488368 0 0.0050024780346930257 0.0092293369328015906 0 0.0037325263624487289 0.0094637881643327235 0 0.0050024780346930257 0.0092293369328015906 0 0.0037325263624487289 0.0094637881643327235 0 0.0043565238740105828 0.010309440358003172 0 0.00332862351204583 0.01057808796185503 0 0.0037325263624487289 0.0094637881643327235 0 0.0043565238740105828 0.010309440358003172 0 0.0052280582270890366 0.010362278730753868 0 0.0050024780346930257 0.0092293369328015906 0 0.0043565238740105828 0.010309440358003172 0 0.0052280582270890366 0.010362278730753868 0 0.0043565238740105828 0.010309440358003172 0 0.0049800652177238933 0.011008941671901166 0 0.0043565238740105828 0.010309440358003172 0 0.0049800652177238933 0.011008941671901166 0 0.0040019446060832282 0.011186905166924468 0 0.0049800652177238933 0.011008941671901166 0 0.0040019446060832282 0.011186905166924468 0 0.0044466071827346581 0.011692763201581713 0 0.00332862351204583 0.01057808796185503 0 0.0043565238740105828 0.010309440358003172 0 0.0040019446060832282 0.011186905166924468 0 0.00332862351204583 0.01057808796185503 0 0.0031182330715084339 0.0114921200470219 0 0.0040019446060832282 0.011186905166924468 0 0.0037534215440878523 0.011826482770146822 0 0.0043383463095242004 0.012447455120975144 0 0.0029297091840479561 0.012302627799424851 0 0.0031182330715084339 0.0114921200470219 0 0.0040019446060832282 0.011186905166924468 0 0.0037534215440878523 0.011826482770146822 0 0.0040019446060832282 0.011186905166924468 0 0.0037534215440878523 0.011826482770146822 0 0.0044466071827346581 0.011692763201581713 0 0.0037534215440878523 0.011826482770146822 0 0.0044466071827346581 0.011692763201581713 0 0.0043383463095242004 0.012447455120975144 0 0.0049800652177238933 0.011008941671901166 0 0.0044466071827346581 0.011692763201581713 0 0.0051571121152938458 0.011865803148273927 0 0.0051509557465783508 0.011555876814308266 0 0.0037756737601556067 0.0073958676612443739 0 0.0044466071827346581 0.011692763201581713 0 0.0051571121152938458 0.011865803148273927 0 0.0043383463095242004 0.012447455120975144 0 -0.0062869475300765627 -0.015553131245304858 0 -0.0063778322644931209 -0.013623115901312649 0 -0.00801669425176991 -0.012284416423218977 0 -0.00015084187627682085 -0.0010951266884449381 0 -0.001871356119642936 -0.0067319189832438005 0 0.0049800652177238933 0.011008941671901166 0 0.0051571121152938458 0.011865803148273927 0 0.0060242965934580849 0.011091590559569136 0 0.0060242965934580849 0.011091590559569136 0 0.006258777061604678 0.011036231323042611 0 0.0056774176303859879 0.011193630568392265 0 0.0056502722460288817 0.011095357235430856 0 0.0060242965934580849 0.011091590559569136 0 0.0056774176303859879 0.011193630568392265 0 0.0051509557465783508 0.011555876814308266 0 0.005978190356520658 0.011106236506132964 0 0.0052280582270890366 0.010362278730753868 0 0.006395733158039779 0.009768934673656823 0 0.0058203424081959701 0.010616318787837187 0 0.0049800652177238933 0.011008941671901166 0 0.0060242965934580849 0.011091590559569136 0 0.0058203424081959701 0.010616318787837187 0 0.0060242965934580849 0.011091590559569136 0 0.0058203424081959701 0.010616318787837187 0 0.006258777061604678 0.011036231323042611 0 0.006395733158039779 0.009768934673656823 0 0.0058203424081959701 0.010616318787837187 0 0.006500427796779523 0.0101362534049584 0 0.0052280582270890366 0.010362278730753868 0 0.0049800652177238933 0.011008941671901166 0 0.0058203424081959701 0.010616318787837187 0 0.001571583346632078 -0.0053624272678193911 0 -0.00015084187627682085 -0.0010951266884449381 0 -0.0044447815637746954 -0.016548884682146825 0 -0.0046813279626641228 -0.019218960970088027 0 -0.0062869475300765627 -0.015553131245304858 0 0.0076750046771966564 0.0091009507108145548 0 0.006500427796779523 0.0101362534049584 0 0.006258777061604678 0.011036231323042611 0 0.0058203424081959701 0.010616318787837187 0 0.006500427796779523 0.0101362534049584 0 0.006258777061604678 0.011036231323042611 0 -0.0044447815637746954 -0.016548884682146825 0 -0.0062869475300765627 -0.015553131245304858 0 -0.0049790285801572199 -0.014759140142804966 0 -0.0062869475300765627 -0.015553131245304858 0 -0.0049790285801572199 -0.014759140142804966 0 -0.0063778322644931209 -0.013623115901312649 0 -0.0041216948520364305 -0.013722345155094991 0 -0.0049637013679892338 -0.013547478172194696 0 -0.0043736052579501595 -0.012081255287826094 0 -0.0063778322644931209 -0.013623115901312649 0 -0.0049637013679892338 -0.013547478172194696 0 -0.0043736052579501595 -0.012081255287826094 0 -0.0041216948520364305 -0.013722345155094991 0 -0.0049790285801572199 -0.014759140142804966 0 -0.0049637013679892338 -0.013547478172194696 0 -0.0049790285801572199 -0.014759140142804966 0 -0.0063778322644931209 -0.013623115901312649 0 -0.0049637013679892338 -0.013547478172194696 0 -0.0063778322644931209 -0.013623115901312649 0 -0.00801669425176991 -0.012284416423218977 0 -0.0043736052579501595 -0.012081255287826094 0 -0.001871356119642936 -0.0067319189832438005 0 -0.0030635262895117969 -0.012485037447000918 0 -0.00063285703987869162 -0.011128790230486761 0 -0.00060022917703763474 -0.011051728719920684 0 -0.00056546730039150307 -0.011427533879163681 0 -0.00060317728573554177 -0.011402135687300651 0 -0.00063285703987869162 -0.011128790230486761 0 -0.00056546730039150307 -0.011427533879163681 0 -0.00063285703987869162 -0.011128790230486761 0 -0.0006201017994764248 -0.01131202247954697 0 -0.00061914431442901133 -0.011242223035413768 0 -0.00060317728573554177 -0.011402135687300651 0 -0.0006201017994764248 -0.01131202247954697 0 -0.00058603233469941424 -0.011439260307907394 0 -0.00060317728573554177 -0.011402135687300651 0 -0.00063285703987869162 -0.011128790230486761 0 -0.0006201017994764248 -0.01131202247954697 0 -0.00063285703987869162 -0.011128790230486761 0 -0.00069319536549132109 -0.010493347897434571 0 -0.00056349075274759021 -0.011197703988093144 0 -0.00064337227649461086 -0.010509546469779737 0 -0.00047280828787613332 -0.010198180213132277 0 -0.00063285703987869162 -0.011128790230486761 0 -0.00060022917703763474 -0.011051728719920684 0 -0.00069319536549132109 -0.010493347897434571 0 -0.00060022917703763474 -0.011051728719920684 0 -0.00065215557323378874 -0.011420643174999089 0 -0.00056546730039150307 -0.011427533879163681 0 -0.00060022917703763474 -0.011051728719920684 0 -0.00065215557323378874 -0.011420643174999089 0 -0.00069319536549132109 -0.010493347897434571 0 -0.0011882666904228312 -0.0090256275420954792 0 -0.00085537927264630795 -0.0090520444634418946 0 -0.00084660371810969131 -0.0092581201761193204 0 0.0056502722460288817 0.011095357235430856 0 0.0056774176303859879 0.011193630568392265 0 0.0054770521590395485 0.011130735868866832 0 -0.001871356119642936 -0.0067319189832438005 0 0.0037756737601556067 0.0073958676612443739 0 0.0037756737601556067 0.0073958676612443739 0 0.0031932274545371096 0.013196100962183203 0 0.0037094662288010656 0.012273812815275375 0 0.0029297091840479561 0.012302627799424851 0 0.0028319004562094244 0.012880674292762163 0 -0.00085537927264630795 -0.0090520444634418946 0 -0.00084660371810969131 -0.0092581201761193204 0 -0.00091718006887570036 -0.0092047868341120012 0 0.0037756737601556067 0.0073958676612443739 0 0.00072549509383433846 0.00097662934117365608 0 -0.00084660371810969131 -0.0092581201761193204 0 -0.00089741945439288648 -0.009103783645958128 0 -0.00091718006887570036 -0.0092047868341120012 0 -0.00084660371810969131 -0.0092581201761193204 0 -0.00090998492449286753 -0.0095752294909611149 0 -0.00089741945439288648 -0.009103783645958128 0 -0.001871356119642936 -0.0067319189832438005 0 -0.00037578897204584475 -0.011099012592330114 0 -0.00065215557323378874 -0.011420643174999089 0 -0.00069319536549132109 -0.010493347897434571 0 -0.00090998492449286753 -0.0095752294909611149 0 -0.00069319536549132109 -0.010493347897434571 0 -0.00090998492449286753 -0.0095752294909611149 0 -0.00034576623629927996 -0.0092763277938048543 0 -0.0011882666904228312 -0.0090256275420954792 0 -0.00084660371810969131 -0.0092581201761193204 0 -0.00090998492449286753 -0.0095752294909611149 0 -0.00090998492449286753 -0.0095752294909611149 0 -0.00064739890008758225 -0.0091079863643373053 0 -0.00034576623629927996 -0.0092763277938048543 0 -0.00090998492449286753 -0.0095752294909611149 0 -0.00064739890008758225 -0.0091079863643373053 0 -0.00090966831257344725 -0.0091657408516105099 0 -0.00064739890008758225 -0.0091079863643373053 0 -0.00090966831257344725 -0.0091657408516105099 0 -0.0007540441520741104 -0.0089040382841288311 0 -0.00090998492449286753 -0.0095752294909611149 0 -0.00089741945439288648 -0.009103783645958128 0 -0.00090966831257344725 -0.0091657408516105099 0 -0.00090966831257344725 -0.0091657408516105099 0 -0.0009796784528476861 -0.0089581955748814623 0 -0.0007540441520741104 -0.0089040382841288311 0 -0.00089741945439288648 -0.009103783645958128 0 -0.00090966831257344725 -0.0091657408516105099 0 -0.0009796784528476861 -0.0089581955748814623 0 -0.00089741945439288648 -0.009103783645958128 0 -0.0009796784528476861 -0.0089581955748814623 0 -0.001051618147273733 -0.0086966914770021473 0 -0.00078272549727325823 -0.0088897382989039531 0 -0.00063422200514330032 -0.009048309220828072 0 -0.00084583588940729626 -0.0084650560106918488 0 -0.000883622103367188 -0.0082408491601428831 0 -0.00061057567657882901 -0.0082467016645240247 0 -0.000883622103367188 -0.0082408491601428831 0 -0.00061057567657882901 -0.0082467016645240247 0 -0.00082341452193188526 -0.0080317386433742775 0 -0.00078272549727325823 -0.0088897382989039531 0 -0.00052576367803355882 -0.0086709121759305213 0 -0.00084583588940729626 -0.0084650560106918488 0 -0.000883622103367188 -0.0082408491601428831 0 -0.0010300645154012525 -0.0084384352825013238 0 -0.00068778796549056806 -0.0093400760004223558 0 -0.00066909736599563376 -0.0092563967953085899 0 -0.00094680406700326468 -0.0093341391299292566 0 -0.00063422200514330032 -0.009048309220828072 0 -0.00071687883771510757 -0.010226765481954198 0 -0.00064739890008758225 -0.0091079863643373053 0 -0.0007540441520741104 -0.0089040382841288311 0 -0.0002793209464220069 -0.0087547381804314976 0 -0.00040889830502710399 -0.0091772395116871963 0 -0.00068778796549056806 -0.0093400760004223558 0 -0.00066909736599563376 -0.0092563967953085899 0 -0.00052576367803355882 -0.0086709121759305213 0 -0.00098048377569276359 -0.0099969459467361358 0 -0.00068778796549056806 -0.0093400760004223558 0 -0.00094680406700326468 -0.0093341391299292566 0 -0.00098732847728236813 -0.0095065427715669126 0 -0.0006129438699702096 -0.011274287590839895 0 -0.00059252151949697467 -0.011279428383950246 0 -0.00060980511295361385 -0.011261574002542482 0 -0.00071687883771510757 -0.010226765481954198 0 -0.00098048377569276359 -0.0099969459467361358 0 -0.0006129438699702096 -0.011274287590839895 0 -0.00055099894684460264 -0.011225162606524739 0 -0.00059252151949697467 -0.011279428383950246 0 -0.00088238766282118573 -0.011358081240577689 0 -0.00059287024854501921 -0.011307512199939487 0 -0.00085192648399096637 -0.011228235616914679 0 -0.00071687883771510757 -0.010226765481954198 0 -0.0005986824827351173 -0.011375010443653745 0 -0.00055099894684460264 -0.011225162606524739 0 -0.00059252151949697467 -0.011279428383950246 0 -0.0004851421053045197 -0.011335297271257384 0 -0.00059252151949697467 -0.011279428383950246 0 -0.00059793465189099512 -0.011322257918730816 0 -0.00060980511295361385 -0.011261574002542482 0 -0.00059793465189099512 -0.011322257918730816 0 -0.00061914431442901133 -0.011242223035413768 0 -0.00060980511295361385 -0.011261574002542482 0 -0.00059252151949697467 -0.011279428383950246 0 -0.00059793465189099512 -0.011322257918730816 0 -0.0004851421053045197 -0.011335297271257384 0 -0.0006201017994764248 -0.01131202247954697 0 -0.00059793465189099512 -0.011322257918730816 0 -0.00058603233469941424 -0.011439260307907394 0 -0.0006201017994764248 -0.01131202247954697 0 -0.00059793465189099512 -0.011322257918730816 0 -0.00061914431442901133 -0.011242223035413768 0 -0.00071687883771510757 -0.010226765481954198 0 -0.00047280828787613332 -0.010198180213132277 0 -0.00064739890008758225 -0.0091079863643373053 0 -0.0002793209464220069 -0.0087547381804314976 0 -0.00034576623629927996 -0.0092763277938048543 0 -0.00063285703987869162 -0.011128790230486761 0 -0.00061914431442901133 -0.011242223035413768 0 -0.00056349075274759021 -0.011197703988093144 0 -0.00061914431442901133 -0.011242223035413768 0 -0.00056349075274759021 -0.011197703988093144 0 -0.00060980511295361385 -0.011261574002542482 0 -0.0006129438699702096 -0.011274287590839895 0 -0.00056349075274759021 -0.011197703988093144 0 -0.00060980511295361385 -0.011261574002542482 0 0.00089669684900121384 0.012804840433107209 0 0.0010245012808078227 0.01308662133645771 0 0.0014183474038661132 0.01300361443619911 0 0.00089669684900121384 0.012804840433107209 0 0.0015986382621829178 0.012517160408180392 0 0.0014183474038661132 0.01300361443619911 0 0.00089669684900121384 0.012804840433107209 0 0.0012040851570627961 0.012103531837246252 0 0.0015986382621829178 0.012517160408180392 0 0.0015986382621829178 0.012517160408180392 0 0.0014183474038661132 0.01300361443619911 0 0.0020686794574220372 0.012821671298339153 0 0.0014183474038661132 0.01300361443619911 0 0.0020686794574220372 0.012821671298339153 0 0.0017967595232690062 0.01326380911791848 0 0.0020686794574220372 0.012821671298339153 0 0.0028319004562094244 0.012880674292762163 0 0.0017967595232690062 0.01326380911791848 0 -0.00091718006887570036 -0.0092047868341120012 0 -0.0010715913350086467 -0.0088669538241478284 0 -0.00189987834115512 -0.0085233791218700776 0 0.00072549509383433846 0.00097662934117365608 0 -4.0293625118826158e-05 0.0025130800126279733 0 0.0020686794574220372 0.012821671298339153 0 0.0023233884705821523 0.012421811908896491 0 0.0028319004562094244 0.012880674292762163 0 0.0015986382621829178 0.012517160408180392 0 0.0020686794574220372 0.012821671298339153 0 0.0023233884705821523 0.012421811908896491 0 0.0023233884705821523 0.012421811908896491 0 0.0029297091840479561 0.012302627799424851 0 0.0028319004562094244 0.012880674292762163 0 -0.00089741945439288648 -0.009103783645958128 0 -0.00091718006887570036 -0.0092047868341120012 0 -0.0010715913350086467 -0.0088669538241478284 0 -0.00089741945439288648 -0.009103783645958128 0 -0.0010715913350086467 -0.0088669538241478284 0 -0.001051618147273733 -0.0086966914770021473 0 -0.0010715913350086467 -0.0088669538241478284 0 -0.001051618147273733 -0.0086966914770021473 0 -0.0013055022083411022 -0.008575455140274902 0 -0.001051618147273733 -0.0086966914770021473 0 -0.0010300645154012525 -0.0084384352825013238 0 -0.0013055022083411022 -0.008575455140274902 0 -0.00078272549727325823 -0.0088897382989039531 0 -0.0010505285516590284 -0.0087692690172866232 0 -0.00084583588940729626 -0.0084650560106918488 0 -0.001051618147273733 -0.0086966914770021473 0 -0.0010300645154012525 -0.0084384352825013238 0 -0.0010300645154012525 -0.0084384352825013238 0 -0.0011911024907761264 -0.0082618684180096168 0 -0.0013055022083411022 -0.008575455140274902 0 -0.000883622103367188 -0.0082408491601428831 0 -0.0010300645154012525 -0.0084384352825013238 0 -0.0011911024907761264 -0.0082618684180096168 0 -0.000883622103367188 -0.0082408491601428831 0 -0.0011911024907761264 -0.0082618684180096168 0 -0.0010378664382507826 -0.00806750171688091 0 -0.0012879034123204041 -0.0084549958825288363 0 -0.0016859753695246083 -0.007139744846007684 0 -0.0011911024907761264 -0.0082618684180096168 0 -0.0013055022083411022 -0.008575455140274902 0 -0.0015782692730536296 -0.0081540008019283603 0 -0.0010715913350086467 -0.0088669538241478284 0 -0.00189987834115512 -0.0085233791218700776 0 -0.0013055022083411022 -0.008575455140274902 0 -0.00189987834115512 -0.0085233791218700776 0 -0.0013055022083411022 -0.008575455140274902 0 -0.001625402490151432 -0.0060638439659348236 0 -4.0293625118826158e-05 0.0025130800126279733 0 -0.0012421481096163312 0.0031647464807043188 0 0.0014183474038661132 0.01300361443619911 0 0.0017967595232690062 0.01326380911791848 0 0.0010794319278459373 0.013361410880546824 0 -0.00189987834115512 -0.0085233791218700776 0 -0.003752527576908137 -0.0068766858205449501 0 -0.001625402490151432 -0.0060638439659348236 0 0.00088847461716498285 0.013214545503117733 0 0.0010245012808078227 0.01308662133645771 0 0.0010794319278459373 0.013361410880546824 0 0.0010245012808078227 0.01308662133645771 0 0.0014183474038661132 0.01300361443619911 0 0.0010794319278459373 0.013361410880546824 0 -0.0041141620128850257 -0.0038272842583124311 0 -0.0032811885757457675 -0.0040554552342876478 0 -0.0035256512038602588 -0.0030848519856657083 0 -0.0032811885757457675 -0.0040554552342876478 0 -0.0030200263804139563 -0.0033940839767381287 0 -0.0035256512038602588 -0.0030848519856657083 0 -0.0041141620128850257 -0.0038272842583124311 0 -0.0032811885757457675 -0.0040554552342876478 0 -0.0035114992031184747 -0.0051096111242234666 0 -0.0045706970427852435 -0.004923044177851347 0 -0.0041141620128850257 -0.0038272842583124311 0 -0.0035114992031184747 -0.0051096111242234666 0 -0.0045706970427852435 -0.004923044177851347 0 -0.003752527576908137 -0.0068766858205449501 0 -0.0035114992031184747 -0.0051096111242234666 0 -0.003752527576908137 -0.0068766858205449501 0 -0.0035114992031184747 -0.0051096111242234666 0 -0.001625402490151432 -0.0060638439659348236 0 -0.0032811885757457675 -0.0040554552342876478 0 -0.0035114992031184747 -0.0051096111242234666 0 -0.001625402490151432 -0.0060638439659348236 0 -0.0017133627107705632 -0.0053425641297187342 0 -0.0016859753695246083 -0.007139744846007684 0 -0.0032811885757457675 -0.0040554552342876478 0 -0.0023227068739181673 -0.003715347662710396 0 -0.001625402490151432 -0.0060638439659348236 0 -0.0019981620196087321 -0.0073906988337359191 0 -0.0017372276787415886 -0.0075826209175412131 0 -0.0015782692730536296 -0.0081540008019283603 0 -0.0032811885757457675 -0.0040554552342876478 0 -0.0023227068739181673 -0.003715347662710396 0 -0.0030200263804139563 -0.0033940839767381287 0 -0.0019981620196087321 -0.0073906988337359191 0 -0.001896399021336383 -0.0073701575266412085 0 -0.0018476107609775182 -0.0074392959647700237 0 -0.0019981620196087321 -0.0073906988337359191 0 -0.001896399021336383 -0.0073701575266412085 0 -0.0018361600016128241 -0.0072277863546998493 0 -0.001896399021336383 -0.0073701575266412085 0 -0.001774103157372984 -0.0073956468852407033 0 -0.0018361600016128241 -0.0072277863546998493 0 -0.001896399021336383 -0.0073701575266412085 0 -0.001774103157372984 -0.0073956468852407033 0 -0.0018476107609775182 -0.0074392959647700237 0 -0.0019981620196087321 -0.0073906988337359191 0 -0.0018476107609775182 -0.0074392959647700237 0 -0.0017372276787415886 -0.0075826209175412131 0 -0.001774103157372984 -0.0073956468852407033 0 -0.0018476107609775182 -0.0074392959647700237 0 -0.0017372276787415886 -0.0075826209175412131 0 -0.0016368922195139938 -0.0074692186617388769 0 -0.0016430948957002506 -0.0073021366580161779 0 -0.0013701252603376046 -0.0073663696815555188 0 -0.001774103157372984 -0.0073956468852407033 0 -0.0016368922195139938 -0.0074692186617388769 0 -0.0017372276787415886 -0.0075826209175412131 0 -0.001774103157372984 -0.0073956468852407033 0 -0.0016368922195139938 -0.0074692186617388769 0 -0.0016430948957002506 -0.0073021366580161779 0 -0.001774103157372984 -0.0073956468852407033 0 -0.0016430948957002506 -0.0073021366580161779 0 -0.0018361600016128241 -0.0072277863546998493 0 -0.0013701252603376046 -0.0073663696815555188 0 -0.0014608158176579609 -0.0075966917330622333 0 -0.001194351794671381 -0.0076175816100407089 0 -0.0016368922195139938 -0.0074692186617388769 0 -0.0013701252603376046 -0.0073663696815555188 0 -0.0014608158176579609 -0.0075966917330622333 0 -0.0014608158176579609 -0.0075966917330622333 0 -0.0013475366125036536 -0.0079519904858131926 0 -0.001194351794671381 -0.0076175816100407089 0 -0.0016368922195139938 -0.0074692186617388769 0 -0.0014608158176579609 -0.0075966917330622333 0 -0.0017372276787415886 -0.0075826209175412131 0 -0.0014608158176579609 -0.0075966917330622333 0 -0.0017372276787415886 -0.0075826209175412131 0 -0.0013475366125036536 -0.0079519904858131926 0 -0.0011911024907761264 -0.0082618684180096168 0 -0.0015782692730536296 -0.0081540008019283603 0 -0.0013475366125036536 -0.0079519904858131926 0 -0.0017372276787415886 -0.0075826209175412131 0 -0.0015782692730536296 -0.0081540008019283603 0 -0.0013475366125036536 -0.0079519904858131926 0 -0.0013475366125036536 -0.0079519904858131926 0 -0.0010304628320133352 -0.0078441332578096309 0 -0.001194351794671381 -0.0076175816100407089 0 -0.0013475366125036536 -0.0079519904858131926 0 -0.0010378664382507826 -0.00806750171688091 0 -0.0010304628320133352 -0.0078441332578096309 0 -0.0011911024907761264 -0.0082618684180096168 0 -0.0013475366125036536 -0.0079519904858131926 0 -0.0010378664382507826 -0.00806750171688091 0 -0.0010378664382507826 -0.00806750171688091 0 -0.0010304628320133352 -0.0078441332578096309 0 -0.00082341452193188526 -0.0080317386433742775 0 -0.0010282968009177925 -0.0078257657040384319 0 -0.00089915963607918137 -0.0074270449305691424 0 -0.0010304628320133352 -0.0078441332578096309 0 -0.0010279429605251664 -0.0074515570089691199 0 -0.00089968700741374554 -0.0072024003261591677 0 -0.0010304628320133352 -0.0078441332578096309 0 -0.001194351794671381 -0.0076175816100407089 0 -0.0010279429605251664 -0.0074515570089691199 0 -0.0013701252603376046 -0.0073663696815555188 0 -0.001194351794671381 -0.0076175816100407089 0 -0.0010279429605251664 -0.0074515570089691199 0 -0.0010279429605251664 -0.0074515570089691199 0 -0.00102222643951068 -0.0070682141817450051 0 -0.00089968700741374554 -0.0072024003261591677 0 -0.0010279429605251664 -0.0074515570089691199 0 -0.0011993392564077069 -0.0070374163263959202 0 -0.00070235721695534326 -0.0066367262947178264 0 -0.0010094755408460525 -0.0074096898377649179 0 -0.00086183038335760863 -0.0068041175490453293 0 -0.0013701252603376046 -0.0073663696815555188 0 -0.0010279429605251664 -0.0074515570089691199 0 -0.0011993392564077069 -0.0070374163263959202 0 -0.0011993392564077069 -0.0070374163263959202 0 -0.00070235721695534326 -0.0066367262947178264 0 -0.0012831688579561531 -0.0066219794270009997 0 -0.0004736251463617538 -0.0057780005870703213 0 -0.00070235721695534326 -0.0066367262947178264 0 -0.0010177982227820629 -0.0061626379942075309 0 -0.00070235721695534326 -0.0066367262947178264 0 -0.0010177982227820629 -0.0061626379942075309 0 -0.0012831688579561531 -0.0066219794270009997 0 -0.0010177982227820629 -0.0061626379942075309 0 -0.0012831688579561531 -0.0066219794270009997 0 -0.0016476145530464423 -0.0062282645031816533 0 -0.0012831688579561531 -0.0066219794270009997 0 -0.0016476145530464423 -0.0062282645031816533 0 -0.0017241081042437937 -0.0067471704409040175 0 -0.0017241081042437937 -0.0067471704409040175 0 -0.0015516753353127986 -0.0070371524764220724 0 -0.0019073713271276879 -0.0070299231269303998 0 -0.0011993392564077069 -0.0070374163263959202 0 -0.0012831688579561531 -0.0066219794270009997 0 -0.0015516753353127986 -0.0070371524764220724 0 -0.0012831688579561531 -0.0066219794270009997 0 -0.0017241081042437937 -0.0067471704409040175 0 -0.0015516753353127986 -0.0070371524764220724 0 -0.0016430948957002506 -0.0073021366580161779 0 -0.0013701252603376046 -0.0073663696815555188 0 -0.0015516753353127986 -0.0070371524764220724 0 -0.0013701252603376046 -0.0073663696815555188 0 -0.0011993392564077069 -0.0070374163263959202 0 -0.0015516753353127986 -0.0070371524764220724 0 -0.0016430948957002506 -0.0073021366580161779 0 -0.0015516753353127986 -0.0070371524764220724 0 -0.0018361600016128241 -0.0072277863546998493 0 -0.0015516753353127986 -0.0070371524764220724 0 -0.0019073713271276879 -0.0070299231269303998 0 -0.0018361600016128241 -0.0072277863546998493 0 -0.00072888101282025041 -0.0046370754231600253 0 -0.0012358482221047232 -0.0031687247618427793 0 -0.001538218044088798 -0.0034450295516632607 0 -0.0017133627107705632 -0.0053425641297187342 0 -0.00026677926387154427 -0.0029218897624234577 0 -0.0019981620196087321 -0.0073906988337359191 0 -0.0019073713271276879 -0.0070299231269303998 0 -0.0022236794981643645 -0.0068100404406561277 0 -0.0019981620196087321 -0.0073906988337359191 0 -0.0019073713271276879 -0.0070299231269303998 0 -0.0018361600016128241 -0.0072277863546998493 0 -0.0017133627107705632 -0.0053425641297187342 0 -0.001303754464995507 -0.0027378511759754611 0 -0.0023227068739181673 -0.003715347662710396 0 -0.0030200263804139563 -0.0033940839767381287 0 -0.0030491565675052233 -0.0026493991379604601 0 -0.00026677926387154427 -0.0029218897624234577 0 -0.001303754464995507 -0.0027378511759754611 0 -0.0017241081042437937 -0.0067471704409040175 0 -0.0019073713271276879 -0.0070299231269303998 0 -0.0022236794981643645 -0.0068100404406561277 0 0.0018630033330543179 -0.00049916509439093895 0 0.0017124533164960753 -5.9875977728864862e-05 0 0.0016692609718613192 -0.00033799827761940636 0 0.0014003539298933321 -0.00026677508310314353 0 0.0017124533164960753 -5.9875977728864862e-05 0 0.0016692609718613192 -0.00033799827761940636 0 -0.0016476145530464423 -0.0062282645031816533 0 -0.0017241081042437937 -0.0067471704409040175 0 -0.0022236794981643645 -0.0068100404406561277 0 -0.00019983701320216402 -0.0033601961765755712 0 -0.00026677926387154427 -0.0029218897624234577 0 0.0018630033330543179 -0.00049916509439093895 0 0.0017939195076365066 -0.00046006014830664565 0 0.0018543943072184437 -0.00046672640177932313 0 0.0021592234090547107 0.00043554228016547114 0 -0.00026677926387154427 -0.0029218897624234577 0 -0.00090086828737259337 -0.0010855138085987957 0 -0.001303754464995507 -0.0027378511759754611 0 0.0019589135039322875 -0.00051929115045011673 0 0.0019053377347362434 -0.00051910225124283471 0 0.0018543943072184437 -0.00046672640177932313 0 -0.0009174676450334463 0.00095901065066134126 0 -0.00090086828737259337 -0.0010855138085987957 0 -0.0045469432908959006 -0.0024937582673894491 0 -0.0037374783213546645 -0.0015809459620847342 0 -0.0037299553034132165 -0.0023461518944353707 0 -0.0045469432908959006 -0.0024937582673894491 0 -0.0037299553034132165 -0.0023461518944353707 0 -0.0035256512038602588 -0.0030848519856657083 0 -0.0045469432908959006 -0.0024937582673894491 0 -0.0041141620128850257 -0.0038272842583124311 0 -0.0035256512038602588 -0.0030848519856657083 0 -0.0037299553034132165 -0.0023461518944353707 0 -0.0030237429934544804 -0.0026382088771806614 0 -0.0035256512038602588 -0.0030848519856657083 0 0.0017939195076365066 -0.00046006014830664565 0 0.0018543943072184437 -0.00046672640177932313 0 0.0017987144091635031 -0.00045478417104683258 0 -0.0037374783213546645 -0.0015809459620847342 0 -0.0037299553034132165 -0.0023461518944353707 0 -0.0030237429934544804 -0.0026382088771806614 0 -0.0030200263804139563 -0.0033940839767381287 0 -0.0030491565675052233 -0.0026493991379604601 0 -0.0035256512038602588 -0.0030848519856657083 0 -0.001303754464995507 -0.0027378511759754611 0 -0.0028495548635986841 -0.003384395554970953 0 -0.0005511401160397699 -0.008013435918014844 0 -0.00049410981507008744 -0.0079718142239148578 0 -0.00053636180032264654 -0.0079253043378296681 0 -0.0011861211117725975 -0.0094522865554238448 0 -0.00098048377569276359 -0.0099969459467361358 0 -0.0005511401160397699 -0.008013435918014844 0 -0.00063608389982649995 -0.0079779125822027203 0 -0.00053636180032264654 -0.0079253043378296681 0 -0.0005511401160397699 -0.008013435918014844 0 -0.00049410981507008744 -0.0079718142239148578 0 -0.00049701564235067348 -0.0081334202729576848 0 -0.0016776848651826758 -0.010659542537157857 0 -0.0010686251469273125 -0.010846195495060556 0 -0.0011989706040027158 -0.011358855933118927 0 -0.0016776848651826758 -0.010659542537157857 0 -0.0010686251469273125 -0.010846195495060556 0 -0.00096504748905210981 -0.01039846991262431 0 -0.00059287024854501921 -0.011307512199939487 0 -0.00061221813738752409 -0.011108925187872359 0 -0.00085192648399096637 -0.011228235616914679 0 -0.0016776848651826758 -0.010659542537157857 0 -0.0011989706040027158 -0.011358855933118927 0 -0.0018969550061871906 -0.011703512852705381 0 -0.0010515274978576568 -0.011368249144234894 0 -0.00098048377569276359 -0.0099969459467361358 0 -0.0005511401160397699 -0.008013435918014844 0 -0.00049701564235067348 -0.0081334202729576848 0 -0.00059974457055458137 -0.008085618463400536 0 -0.00061057567657882901 -0.0082467016645240247 0 -0.00049701564235067348 -0.0081334202729576848 0 -0.00059974457055458137 -0.008085618463400536 0 -0.00059974457055458137 -0.008085618463400536 0 -0.00082341452193188526 -0.0080317386433742775 0 -0.00063608389982649995 -0.0079779125822027203 0 -0.00061057567657882901 -0.0082467016645240247 0 -0.00059974457055458137 -0.008085618463400536 0 -0.00082341452193188526 -0.0080317386433742775 0 -0.0010304628320133352 -0.0078441332578096309 0 -0.00082341452193188526 -0.0080317386433742775 0 -0.00082022317025579159 -0.0077793143294701056 0 -0.000883622103367188 -0.0082408491601428831 0 -0.0010378664382507826 -0.00806750171688091 0 -0.00082341452193188526 -0.0080317386433742775 0 -0.00080745560911869732 -0.0080239518206162447 0 -0.00066056381269218511 -0.0079097379041655185 0 -0.0010304628320133352 -0.0078441332578096309 0 -0.00082022317025579159 -0.0077793143294701056 0 -0.00086924848724702526 -0.0076179485209166599 0 -0.00082341452193188526 -0.0080317386433742775 0 -0.00082022317025579159 -0.0077793143294701056 0 -0.00064708531585037845 -0.0077972919842965362 0 -0.0005511401160397699 -0.008013435918014844 0 -0.00059974457055458137 -0.008085618463400536 0 -0.00063608389982649995 -0.0079779125822027203 0 -0.00082022317025579159 -0.0077793143294701056 0 -0.00064708531585037845 -0.0077972919842965362 0 -0.0007244509034626148 -0.0076639837569973312 0 -0.00066056381269218511 -0.0079097379041655185 0 -0.00040889202289561352 -0.007703794280103371 0 -0.0007244509034626148 -0.0076639837569973312 0 -0.00067314917374787639 -0.0075186287421323723 0 -0.0004113133890492491 -0.0076377445644123685 0 -0.00064708531585037845 -0.0077972919842965362 0 -0.0007244509034626148 -0.0076639837569973312 0 -0.0004113133890492491 -0.0076377445644123685 0 -0.0007244509034626148 -0.0076639837569973312 0 -0.00086924848724702526 -0.0076179485209166599 0 -0.00067314917374787639 -0.0075186287421323723 0 -0.00082022317025579159 -0.0077793143294701056 0 -0.0007244509034626148 -0.0076639837569973312 0 -0.00086924848724702526 -0.0076179485209166599 0 -0.00096909681238583321 -0.0069311365988040628 0 -0.0011070658730714762 -0.0068625924676261859 0 -0.00102222643951068 -0.0070682141817450051 0 -0.00087133604271822089 -0.0070816632799127711 0 -0.00089915963607918137 -0.0074270449305691424 0 -0.00079690135817492454 -0.0072645141153603668 0 -0.00086924848724702526 -0.0076179485209166599 0 -0.00067314917374787639 -0.0075186287421323723 0 -0.00096909681238583321 -0.0069311365988040628 0 -0.00102222643951068 -0.0070682141817450051 0 -0.00089968700741374554 -0.0072024003261591677 0 -0.00083685057184431288 -0.006541068515794465 0 -0.00086183038335760863 -0.0068041175490453293 0 -0.00079690135817492454 -0.0072645141153603668 0 -0.00067314917374787639 -0.0075186287421323723 0 -0.00063869472207317521 -0.0073431717746669182 0 -0.00067314917374787639 -0.0075186287421323723 0 -0.00046370068482589971 -0.0073985503805781457 0 -0.0004113133890492491 -0.0076377445644123685 0 -0.00067314917374787639 -0.0075186287421323723 0 -0.00063869472207317521 -0.0073431717746669182 0 -0.00046370068482589971 -0.0073985503805781457 0 -0.00057574021684861441 -0.0072198483653545678 0 -0.00063869472207317521 -0.0073431717746669182 0 -0.00046370068482589971 -0.0073985503805781457 0 -0.00040889202289561352 -0.007703794280103371 0 -0.00052597935936506178 -0.0080180808499834139 0 -0.00046370068482589971 -0.0073985503805781457 0 -0.0004113133890492491 -0.0076377445644123685 0 -6.9527562354737416e-05 -0.0073944204267739778 0 -0.0003875546824049241 -0.0071296537768586942 0 -0.00046370068482589971 -0.0073985503805781457 0 -6.9527562354737416e-05 -0.0073944204267739778 0 -0.00049410981507008744 -0.0079718142239148578 0 -0.00053636180032264654 -0.0079253043378296681 0 -0.00047952926789092127 -0.0078710987246572457 0 -0.0016776848651826758 -0.010659542537157857 0 -0.0015022321444163567 -0.0095266669920874084 0 -0.00096504748905210981 -0.01039846991262431 0 -0.0011861211117725975 -0.0094522865554238448 0 -0.00052597935936506178 -0.0080180808499834139 0 -0.0015022321444163567 -0.0095266669920874084 0 -0.00050252365384159453 -0.0099387130511721239 0 -0.00031564943517745948 -0.0092464959329936515 0 -0.00050252365384159453 -0.0099387130511721239 0 -0.00031564943517745948 -0.0092464959329936515 0 0.00026481832632337652 -0.0099191817886859195 0 0.00057878012807068165 -0.0089530150933729413 0 -0.00031564943517745948 -0.0092464959329936515 0 0.00026481832632337652 -0.0099191817886859195 0 -0.00050252365384159453 -0.0099387130511721239 0 -0.00015521304754337228 -0.010574741388533929 0 0.00026481832632337652 -0.0099191817886859195 0 -0.0015022321444163567 -0.0095266669920874084 0 -0.00050252365384159453 -0.0099387130511721239 0 -0.00096504748905210981 -0.01039846991262431 0 -0.00050252365384159453 -0.0099387130511721239 0 -0.00015521304754337228 -0.010574741388533929 0 -0.00096504748905210981 -0.01039846991262431 0 -0.0010515274978576568 -0.011368249144234894 0 -0.00037656085827021723 -0.010961803140553155 0 -0.00015521304754337228 -0.010574741388533929 0 -0.00096504748905210981 -0.01039846991262431 0 -0.00039690614625721205 -0.01098087982158362 0 -0.0010686251469273125 -0.010846195495060556 0 -0.0011989706040027158 -0.011358855933118927 0 -0.00039690614625721205 -0.01098087982158362 0 -0.0010686251469273125 -0.010846195495060556 0 -0.00096504748905210981 -0.01039846991262431 0 -0.00039690614625721205 -0.01098087982158362 0 -0.00015521304754337228 -0.010574741388533929 0 -0.00039690614625721205 -0.01098087982158362 0 4.186893222043639e-05 -0.011054409412442604 0 -0.00039690614625721205 -0.01098087982158362 0 4.186893222043639e-05 -0.011054409412442604 0 -0.00020119764641409959 -0.011235802741217491 0 4.186893222043639e-05 -0.011054409412442604 0 -0.00020119764641409959 -0.011235802741217491 0 0.00019550078074024156 -0.011267126767574418 0 -0.00059287024854501921 -0.011307512199939487 0 -0.00020119764641409959 -0.011235802741217491 0 -0.00044635014363449615 -0.011149727214822111 0 -0.00061221813738752409 -0.011108925187872359 0 -0.00039690614625721205 -0.01098087982158362 0 -0.00044635014363449615 -0.011149727214822111 0 -0.00039690614625721205 -0.01098087982158362 0 -0.00020119764641409959 -0.011235802741217491 0 -0.00044635014363449615 -0.011149727214822111 0 -0.0005986824827351173 -0.011375010443653745 0 -0.00021678517619369819 -0.011208409445344023 0 -0.00059287024854501921 -0.011307512199939487 0 -0.00061221813738752409 -0.011108925187872359 0 -0.00044635014363449615 -0.011149727214822111 0 0.00049655742493227265 -0.011279451034543114 0 0.00019550078074024156 -0.011267126767574418 0 0.00032997166138603321 -0.011380241104488377 0 0.00049655742493227265 -0.011279451034543114 0 0.00019550078074024156 -0.011267126767574418 0 0.00059663183879306639 -0.010920698718108846 0 4.186893222043639e-05 -0.011054409412442604 0 0.00019550078074024156 -0.011267126767574418 0 0.00059663183879306639 -0.010920698718108846 0 -0.00015521304754337228 -0.010574741388533929 0 4.186893222043639e-05 -0.011054409412442604 0 0.00059663183879306639 -0.010920698718108846 0 0.00049655742493227265 -0.011279451034543114 0 0.00059663183879306639 -0.010920698718108846 0 0.00062638211070621891 -0.011253608932846625 0 0.00062846260309357919 -0.010951679750606885 0 0.0010724962029748689 -0.010658618859761021 0 0.00059663183879306639 -0.010920698718108846 0 0.00078258661887378061 -0.011623346120833636 0 0.00062638211070621891 -0.011253608932846625 0 0.00059663183879306639 -0.010920698718108846 0 0.00026481832632337652 -0.0099191817886859195 0 0.0014618579130494193 -0.0096455291863707018 0 -0.00015521304754337228 -0.010574741388533929 0 0.00059663183879306639 -0.010920698718108846 0 0.00026481832632337652 -0.0099191817886859195 0 0.00057878012807068165 -0.0089530150933729413 0 0.00026481832632337652 -0.0099191817886859195 0 0.0014618579130494193 -0.0096455291863707018 0 0.0013053281138188015 -0.010469120921638106 0 0.0010724962029748689 -0.010658618859761021 0 0.00076271894945939642 -0.012160436741299996 0 0.00078258661887378061 -0.011623346120833636 0 0.00057155324760687894 -0.011889041947153563 0 0.00057155324760687894 -0.011889041947153563 0 0.00061421815514522992 -0.011555009695105208 0 0.00046838978742296254 -0.011682440631025951 0 0.00078258661887378061 -0.011623346120833636 0 0.00061421815514522992 -0.011555009695105208 0 0.00062638211070621891 -0.011253608932846625 0 0.00078258661887378061 -0.011623346120833636 0 0.00057155324760687894 -0.011889041947153563 0 0.00061421815514522992 -0.011555009695105208 0 0.00029763551682602195 -0.012265820573163983 0 0.00036228209521844664 -0.011987799902889373 0 0.00021868928007884734 -0.012121576694393307 0 0.00053165316895270836 -0.01224838856884918 0 0.00057155324760687894 -0.011889041947153563 0 0.00043985336013255413 -0.012093372153030696 0 0.00029763551682602195 -0.012265820573163983 0 0.00043985336013255413 -0.012093372153030696 0 0.00036228209521844664 -0.011987799902889373 0 0.00057155324760687894 -0.011889041947153563 0 0.00043985336013255413 -0.012093372153030696 0 0.00036228209521844664 -0.011987799902889373 0 0.00057155324760687894 -0.011889041947153563 0 0.00036228209521844664 -0.011987799902889373 0 0.00046838978742296254 -0.011682440631025951 0 0.00036228209521844664 -0.011987799902889373 0 0.00032646244207697395 -0.011891608326224686 0 0.00046838978742296254 -0.011682440631025951 0 0.00036228209521844664 -0.011987799902889373 0 0.00027747711738323073 -0.01198798391450771 0 0.00021868928007884734 -0.012121576694393307 0 0.00032646244207697395 -0.011891608326224686 0 0.00027747711738323073 -0.01198798391450771 0 0.00027909856013199453 -0.01194760276026338 0 0.00036228209521844664 -0.011987799902889373 0 0.00032646244207697395 -0.011891608326224686 0 0.00027747711738323073 -0.01198798391450771 0 0.0001926706216564466 -0.012048673061025368 0 0.00027747711738323073 -0.01198798391450771 0 0.00027909856013199453 -0.01194760276026338 0 0.0001926706216564466 -0.012048673061025368 0 0.00027747711738323073 -0.01198798391450771 0 0.00021868928007884734 -0.012121576694393307 0 0.00076013799980288385 -0.012371907786206804 0 0.00021946517486969 -0.012330770509488637 0 0.00043294173566927246 -0.012049104977004423 0 0.00038902569387800804 -0.012753380920910657 0 0.00055672591568471067 -0.012303704701715193 0 0.0002752808672795059 -0.011967595418621208 0 0.00043294173566927246 -0.012049104977004423 0 0.00027909856013199453 -0.01194760276026338 0 0.00032646244207697395 -0.011891608326224686 0 0.0002752808672795059 -0.011967595418621208 0 0.00027909856013199453 -0.01194760276026338 0 0.00046838978742296254 -0.011682440631025951 0 0.0004692250933076152 -0.011503783584118648 0 0.00058682960469250579 -0.011425031907429736 0 0.00038902569387800804 -0.012753380920910657 0 0.00034202290465769965 -0.011532560977237065 0 0.00032646244207697395 -0.011891608326224686 0 0.0002752808672795059 -0.011967595418621208 0 0.00046838978742296254 -0.011682440631025951 0 0.00029803715573855142 -0.011562957731104136 0 0.00046838978742296254 -0.011682440631025951 0 0.0004692250933076152 -0.011503783584118648 0 0.00038902569387800804 -0.012753380920910657 0 0.00045899915814479004 -0.013630299053844044 0 0.00029803715573855142 -0.011562957731104136 0 0.0004692250933076152 -0.011503783584118648 0 0.00053689633501374692 -0.011396755551789163 0 0.0004692250933076152 -0.011503783584118648 0 0.00058682960469250579 -0.011425031907429736 0 0.00053689633501374692 -0.011396755551789163 0 0.00065444070077775305 -0.015287328283073696 0 0.0007606921574499824 -0.015531134899524238 0 0.00062323039056647739 -0.015616565317602122 0 0.00065444070077775305 -0.015287328283073696 0 0.00062323039056647739 -0.015616565317602122 0 0.00041561508720370296 -0.015605883237667118 0 0.0007606921574499824 -0.015531134899524238 0 0.00076313995352863553 -0.015662318814491732 0 0.00062323039056647739 -0.015616565317602122 0 0.00062638211070621891 -0.011253608932846625 0 0.00060817777313713201 -0.01141345843817459 0 0.00059526492493135424 -0.011356011540844717 0 0.00061421815514522992 -0.011555009695105208 0 0.00062638211070621891 -0.011253608932846625 0 0.00060817777313713201 -0.01141345843817459 0 0.00061421815514522992 -0.011555009695105208 0 0.00046838978742296254 -0.011682440631025951 0 0.00060817777313713201 -0.01141345843817459 0 0.00046838978742296254 -0.011682440631025951 0 0.00060817777313713201 -0.01141345843817459 0 0.00058682960469250579 -0.011425031907429736 0 0.00058682960469250579 -0.011425031907429736 0 0.00059526492493135424 -0.011356011540844717 0 0.00065790742784392045 -0.011424095123486975 0 0.00060817777313713201 -0.01141345843817459 0 0.00058682960469250579 -0.011425031907429736 0 0.00059526492493135424 -0.011356011540844717 0 0.00058682960469250579 -0.011425031907429736 0 0.00065790742784392045 -0.011424095123486975 0 0.00053689633501374692 -0.011396755551789163 0 0.00049655742493227265 -0.011279451034543114 0 0.00059526492493135424 -0.011356011540844717 0 0.00051001747329019716 -0.011381300998975417 0 0.00049655742493227265 -0.011279451034543114 0 0.00062638211070621891 -0.011253608932846625 0 0.00059526492493135424 -0.011356011540844717 0 0.00059526492493135424 -0.011356011540844717 0 0.00051001747329019716 -0.011381300998975417 0 0.00065790742784392045 -0.011424095123486975 0 0.00051001747329019716 -0.011381300998975417 0 0.00065790742784392045 -0.011424095123486975 0 0.00044070228356748412 -0.011512388596032101 0 0.00067304740893574157 -0.011427379535846801 0 0.00064855529022731255 -0.011514742857063158 0 0.00065790742784392045 -0.011424095123486975 0 0.00077528419713571801 -0.011488466445231989 0 0.00053689633501374692 -0.011396755551789163 0 0.00049391196020044604 -0.013674800544280889 0 0.00045899915814479004 -0.013630299053844044 0 0.00021112334968452899 -0.015878314559313371 0 0.00041561508720370296 -0.015605883237667118 0 0.00039299130759182818 -0.015846962851048325 0 0.00021112334968452899 -0.015878314559313371 0 0.00033791978333701678 -0.016004748132042654 0 0.00021341803029074506 -0.01607698773767444 0 0.00021112334968452899 -0.015878314559313371 0 0.00033791978333701678 -0.016004748132042654 0 0.00039299130759182818 -0.015846962851048325 0 0.00065790742784392045 -0.011424095123486975 0 0.00077528419713571801 -0.011488466445231989 0 0.00084014387431754025 -0.011548491712835814 0 0.00077528419713571801 -0.011488466445231989 0 0.00084014387431754025 -0.011548491712835814 0 0.00098047266294930442 -0.01185138719028268 0 0.00070700496413778362 -0.015775113044077922 0 0.00076313995352863553 -0.015662318814491732 0 0.00062323039056647739 -0.015616565317602122 0 0.00070700496413778362 -0.015775113044077922 0 0.0005290987131841827 -0.01578724498689919 0 0.00064596472282985149 -0.015914316176123128 0 0.00070700496413778362 -0.015775113044077922 0 0.00062323039056647739 -0.015616565317602122 0 0.0005290987131841827 -0.01578724498689919 0 0.0005290987131841827 -0.01578724498689919 0 0.00041561508720370296 -0.015605883237667118 0 0.00039299130759182818 -0.015846962851048325 0 0.00062323039056647739 -0.015616565317602122 0 0.0005290987131841827 -0.01578724498689919 0 0.00041561508720370296 -0.015605883237667118 0 0.00033791978333701678 -0.016004748132042654 0 0.00047721325587347186 -0.015947424833439978 0 0.00045868735455570331 -0.016093629518485322 0 0.00033791978333701678 -0.016004748132042654 0 0.00039299130759182818 -0.015846962851048325 0 0.00047721325587347186 -0.015947424833439978 0 0.0005290987131841827 -0.01578724498689919 0 0.00047721325587347186 -0.015947424833439978 0 0.00064596472282985149 -0.015914316176123128 0 0.0005290987131841827 -0.01578724498689919 0 0.00039299130759182818 -0.015846962851048325 0 0.00047721325587347186 -0.015947424833439978 0 0.00047721325587347186 -0.015947424833439978 0 0.00064596472282985149 -0.015914316176123128 0 0.00060473899593025565 -0.016091196694289316 0 0.00078005440953576367 -0.016014577885370737 0 0.00064596472282985149 -0.015914316176123128 0 0.00060473899593025565 -0.016091196694289316 0 0.00077765415777273608 -0.015874723598766283 0 0.00070700496413778362 -0.015775113044077922 0 0.00064596472282985149 -0.015914316176123128 0 0.00078005440953576367 -0.016014577885370737 0 0.00077765415777273608 -0.015874723598766283 0 0.00064596472282985149 -0.015914316176123128 0 0.0007547253194951424 -0.016248399104794992 0 0.00078005440953576367 -0.016014577885370737 0 0.00060473899593025565 -0.016091196694289316 0 0.0007547253194951424 -0.016248399104794992 0 0.00060473899593025565 -0.016091196694289316 0 0.00052111507419261912 -0.016246172724047558 0 0.00060473899593025565 -0.016091196694289316 0 0.00045868735455570331 -0.016093629518485322 0 0.00052111507419261912 -0.016246172724047558 0 0.00047721325587347186 -0.015947424833439978 0 0.00060473899593025565 -0.016091196694289316 0 0.00045868735455570331 -0.016093629518485322 0 0.00033791978333701678 -0.016004748132042654 0 0.00045868735455570331 -0.016093629518485322 0 0.00035813854405706782 -0.016176948638019512 0 0.00045868735455570331 -0.016093629518485322 0 0.00052111507419261912 -0.016246172724047558 0 0.00035813854405706782 -0.016176948638019512 0 0.00054453549862798706 -0.01650589554521683 0 0.00040454957467848176 -0.01636433741867856 0 0.00052111507419261912 -0.016246172724047558 0 0.00040454957467848176 -0.01636433741867856 0 0.00052111507419261912 -0.016246172724047558 0 0.00035813854405706782 -0.016176948638019512 0 0.0010635737477462939 -0.021690973185443628 0 0.00029053962029228626 -0.022416949988731904 0 0.0007547253194951424 -0.016248399104794992 0 0.00054453549862798706 -0.01650589554521683 0 0.00052111507419261912 -0.016246172724047558 0 0.0016831151342137252 -0.028007465351751849 0 0.0013366130646671232 -0.027138365717304928 0 0.00019262587465718962 -0.029071868773144584 0 0.00049391196020044604 -0.013674800544280889 0 0.00047798197162640953 -0.013995935563914484 0 0.00021112334968452899 -0.015878314559313371 0 4.6807051005987221e-06 -0.016089523288462925 0 0.00021341803029074506 -0.01607698773767444 0 4.6807051005987221e-06 -0.016089523288462925 0 0.00021341803029074506 -0.01607698773767444 0 0.00017361409864522287 -0.016234046792821269 0 0.00033791978333701678 -0.016004748132042654 0 0.00021341803029074506 -0.01607698773767444 0 0.00035813854405706782 -0.016176948638019512 0 0.00021341803029074506 -0.01607698773767444 0 0.00035813854405706782 -0.016176948638019512 0 0.00017361409864522287 -0.016234046792821269 0 0.00024871669152521031 -0.016478086840757078 0 0.00040454957467848176 -0.01636433741867856 0 0.00017361409864522287 -0.016234046792821269 0 0.00040454957467848176 -0.01636433741867856 0 0.00035813854405706782 -0.016176948638019512 0 0.00017361409864522287 -0.016234046792821269 0 4.6807051005987221e-06 -0.016089523288462925 0 0.00017361409864522287 -0.016234046792821269 0 -2.590090226705452e-05 -0.016210245262643114 0 8.4481090780880622e-05 -0.016344311537218742 0 0.00024871669152521031 -0.016478086840757078 0 0.00017361409864522287 -0.016234046792821269 0 8.4481090780880622e-05 -0.016344311537218742 0 0.00017361409864522287 -0.016234046792821269 0 -2.590090226705452e-05 -0.016210245262643114 0 8.4481090780880622e-05 -0.016344311537218742 0 -0.00011420967295998719 -0.016267582945422795 0 -2.590090226705452e-05 -0.016210245262643114 0 0.00020562224559641512 -0.014687881299355865 0 0.00047798197162640953 -0.013995935563914484 0 -0.00026303528045261876 -0.016174591598673359 0 -0.00011420967295998719 -0.016267582945422795 0 -2.590090226705452e-05 -0.016210245262643114 0 -0.00026303528045261876 -0.016174591598673359 0 4.6807051005987221e-06 -0.016089523288462925 0 -2.590090226705452e-05 -0.016210245262643114 0 0.00080177172671227169 -0.013047530355010481 0 0.00098047266294930442 -0.01185138719028268 0 0.00050276255990519395 -0.012416664984770297 0 0.00098047266294930442 -0.01185138719028268 0 0.00050542433271288305 -0.011839111319226681 0 0.00050276255990519395 -0.012416664984770297 0 0.00064855529022731255 -0.011514742857063158 0 0.00030464703259630257 -0.011766866273142803 0 0.00084014387431754025 -0.011548491712835814 0 0.00098047266294930442 -0.01185138719028268 0 0.00050542433271288305 -0.011839111319226681 0 0.00024578038601457064 -0.011648337965920165 0 -0.00075446164789667305 -0.012245762473856593 0 -0.0003670177623957671 -0.011651951144487652 0 0.00024578038601457064 -0.011648337965920165 0 -0.0003670177623957671 -0.011651951144487652 0 -9.8003037124826613e-05 -0.011470132922508281 0 0.00024578038601457064 -0.011648337965920165 0 -0.00075446164789667305 -0.012245762473856593 0 -0.0010715109148592575 -0.012679601942974471 0 0.00030464703259630257 -0.011766866273142803 0 -0.00096100466498583105 -0.01266142886421749 0 0.00050542433271288305 -0.011839111319226681 0 0.00050276255990519395 -0.012416664984770297 0 -6.8605774193784599e-05 -0.012788060241074402 0 0.00050542433271288305 -0.011839111319226681 0 -6.8605774193784599e-05 -0.012788060241074402 0 -0.0010715109148592575 -0.012679601942974471 0 0.00050276255990519395 -0.012416664984770297 0 0.00034952256598014806 -0.012929930877613018 0 -6.8605774193784599e-05 -0.012788060241074402 0 0.00080177172671227169 -0.013047530355010481 0 0.00050276255990519395 -0.012416664984770297 0 0.00034952256598014806 -0.012929930877613018 0 -7.8654525532313853e-06 -0.013621934412618724 0 0.00034952256598014806 -0.012929930877613018 0 -6.8605774193784599e-05 -0.012788060241074402 0 -0.00064733603136741115 -0.013362470038678596 0 -0.00028340788726424044 -0.013436067532933407 0 -6.8605774193784599e-05 -0.012788060241074402 0 -0.00075446164789667305 -0.012245762473856593 0 -0.0010715109148592575 -0.012679601942974471 0 -0.0028503883048724352 -0.013029400603486606 0 -0.00064733603136741115 -0.013362470038678596 0 -6.8605774193784599e-05 -0.012788060241074402 0 -0.0010715109148592575 -0.012679601942974471 0 -0.0013357938261466221 -0.013566851626293222 0 -0.0010715109148592575 -0.012679601942974471 0 -0.0028503883048724352 -0.013029400603486606 0 -0.00055683574981094509 -0.011957577833063745 0 -0.0030635262895117969 -0.012485037447000918 0 -0.00075446164789667305 -0.012245762473856593 0 -0.00056546730039150307 -0.011427533879163681 0 -0.00062783492400393952 -0.011668179945114267 0 -0.00075446164789667305 -0.012245762473856593 0 -0.0043736052579501595 -0.012081255287826094 0 -0.0028503883048724352 -0.013029400603486606 0 -0.0041216948520364305 -0.013722345155094991 0 -0.0043736052579501595 -0.012081255287826094 0 -0.0028503883048724352 -0.013029400603486606 0 -0.00062783492400393952 -0.011668179945114267 0 -0.00058603233469941424 -0.011439260307907394 0 -0.00041654783775346932 -0.011445522998518615 0 -0.00060317728573554177 -0.011402135687300651 0 -0.00056546730039150307 -0.011427533879163681 0 -0.00062783492400393952 -0.011668179945114267 0 -0.00060317728573554177 -0.011402135687300651 0 -0.00062783492400393952 -0.011668179945114267 0 -0.00058603233469941424 -0.011439260307907394 0 -0.00075446164789667305 -0.012245762473856593 0 -0.00062783492400393952 -0.011668179945114267 0 -0.0003670177623957671 -0.011651951144487652 0 -0.00062783492400393952 -0.011668179945114267 0 -0.0003670177623957671 -0.011651951144487652 0 -0.00041654783775346932 -0.011445522998518615 0 -0.00041654783775346932 -0.011445522998518615 0 -0.0004851421053045197 -0.011335297271257384 0 -0.00021059314131788274 -0.011349065154778945 0 -0.0003670177623957671 -0.011651951144487652 0 -0.00041654783775346932 -0.011445522998518615 0 -9.8003037124826613e-05 -0.011470132922508281 0 -0.00041654783775346932 -0.011445522998518615 0 -0.00021059314131788274 -0.011349065154778945 0 -9.8003037124826613e-05 -0.011470132922508281 0 -0.00059793465189099512 -0.011322257918730816 0 -0.00058603233469941424 -0.011439260307907394 0 -0.00052824063440508058 -0.011383814302507709 0 -0.00058603233469941424 -0.011439260307907394 0 -0.00041654783775346932 -0.011445522998518615 0 -0.00052824063440508058 -0.011383814302507709 0 -0.00041654783775346932 -0.011445522998518615 0 -0.00052824063440508058 -0.011383814302507709 0 -0.0004851421053045197 -0.011335297271257384 0 -0.00059793465189099512 -0.011322257918730816 0 -0.00052824063440508058 -0.011383814302507709 0 -0.0004851421053045197 -0.011335297271257384 0 -0.00055099894684460264 -0.011225162606524739 0 -0.00020119764641409959 -0.011235802741217491 0 -0.0004851421053045197 -0.011335297271257384 0 -0.00020119764641409959 -0.011235802741217491 0 -0.0004851421053045197 -0.011335297271257384 0 -0.00021059314131788274 -0.011349065154778945 0 -0.00020119764641409959 -0.011235802741217491 0 0.00019550078074024156 -0.011267126767574418 0 -0.00021059314131788274 -0.011349065154778945 0 0.00019550078074024156 -0.011267126767574418 0 8.0581480855879996e-05 -0.011381453276178543 0 0.00032997166138603321 -0.011380241104488377 0 0.00019550078074024156 -0.011267126767574418 0 -0.00021059314131788274 -0.011349065154778945 0 8.0581480855879996e-05 -0.011381453276178543 0 8.0581480855879996e-05 -0.011381453276178543 0 0.00032997166138603321 -0.011380241104488377 0 0.00021399231081998307 -0.011467608606693129 0 0.00051001747329019716 -0.011381300998975417 0 0.00044070228356748412 -0.011512388596032101 0 0.00032997166138603321 -0.011380241104488377 0 0.00049655742493227265 -0.011279451034543114 0 0.00051001747329019716 -0.011381300998975417 0 0.00032997166138603321 -0.011380241104488377 0 0.00044070228356748412 -0.011512388596032101 0 0.00024578038601457064 -0.011648337965920165 0 0.00021399231081998307 -0.011467608606693129 0 0.00044070228356748412 -0.011512388596032101 0 0.00032997166138603321 -0.011380241104488377 0 0.00021399231081998307 -0.011467608606693129 0 0.00024578038601457064 -0.011648337965920165 0 -9.8003037124826613e-05 -0.011470132922508281 0 0.00021399231081998307 -0.011467608606693129 0 8.0581480855879996e-05 -0.011381453276178543 0 -9.8003037124826613e-05 -0.011470132922508281 0 0.00021399231081998307 -0.011467608606693129 0 -0.00021059314131788274 -0.011349065154778945 0 8.0581480855879996e-05 -0.011381453276178543 0 -9.8003037124826613e-05 -0.011470132922508281 0 
</DataArray>
</PointData>
<CellData Scalars="region_id,cross_section_updated," Vectors="" Tensors="stress,">
<DataArray type="Float64" Name="region_id" format="ascii">
5 5 5 5 5 6 5 5 5 5 5 5 5 6 5 5 5 5 6 5 5 6 5 5 5 5 6 5 5 5 5 6 5 5 5 5 5 5 5 5 5 5 5 5 5 6 5 5 6 5 5 5 5 5 6 5 5 5 5 5 5 5 6 5 5 5 5 6 5 5 5 5 5 5 5 5 5 6 5 5 6 5 5 6 5 5 5 5 6 5 5 5 5 5 5 5 6 6 6 5 5 6 5 5 5 5 5 6 5 5 5 5 5 5 5 5 5 5 5 5 5 6 5 5 5 6 5 5 5 5 5 5 6 5 5 5 5 5 5 5 5 5 5 5 5 5 5 5 5 5 5 5 5 5 5 5 5 5 6 5 5 5 6 5 5 6 5 5 5 5 5 5 5 5 5 5 5 6 5 5 5 5 5 5 5 5 6 5 5 5 5 5 5 5 5 6 5 5 5 5 5 5 5 5 5 6 5 5 5 5 5 5 5 5 5 5 5 5 5 5 5 5 5 5 5 5 5 5 5 6 5 5 5 6 5 6 5 6 5 5 6 5 5 5 6 5 6 5 6 5 6 6 5 6 5 5 6 5 6 5 5 5 6 5 6 6 5 5 6 5 5 5 6 5 6 6 6 5 6 5 5 5 6 5 6 6 6 5 5 6 6 5 5 5 5 6 5 6 5 5 6 5 5 5 6 5 6 6 6 5 5 5 6 5 6 6 6 6 5 5 5 6 6 5 5 6 6 6 5 6 5 5 5 5 6 5 5 5 5 5 5 5 6 5 5 5 5 5 5 6 6 5 5 5 6 5 5 5 6 5 6 5 6 6 5 5 5 5 6 5 5 6 5 5 5 5 6 5 6 5 5 5 5 5 6 6 5 5 5 5 5 5 5 5 6 5 5 5 6 5 5 6 5 6 5 5 5 5 5 5 5 5 5 5 5 6 5 6 5 6 5 5 5 6 5 6 5 6 5 5 5 5 5 5 6 5 6 5 5 5 6 5 5 5 6 5 6 6 5 5 5 5 6 5 5 5 5 6 6 5 5 6 5 6 5 6 6 5 5 5 6 5 5 5 5 6 5 5 5 5 5 5 5 5 5 5 5 6 5 5 5 5 6 5 5 5 6 5 6 6 6 5 5 5 6 6 5 6 5 5 6 5 5 5 5 6 5 5 5 5 5 5 5 5 5 5 5 6 6 5 5 6 5 5 5 6 5 5 5 5 5 5 6 5 5 5 6 5 5 5 6 5 5 5 5 5 5 5 5 5 5 5 6 5 5 5 6 5 5 5 5 5 5 5 6 5 5 5 5 5 6 5 5 5 5 5 5 5 5 5 5 5 5 5 5 5 5 5 5 5 6 5 5 5 5 6 5 5 6 5 5 5 5 5 5 5 6 5 5 5 5 5 5 5 5 6 5 6 5 5 6 5 5 5 6 5 5 6 5 5 5 6 5 6 5 5 6 5 6 5 5 5 5 5 5 5 5 5 5 5 5 5 5 5 5 5 5 5 5 5 5 6 5 6 5 6 5 5 5 5 5 5 5 5 5 5 5 5 5 5 5 6 5 5 5 5 5 5 5 5 5 6 5 5 5 5 5 5 5 5 5 5 5 5 5 5 5 5 5 5 5 5 5 5 5 5 5 5 5 5 5 6 5 5 6 5 5 5 6 6 5 6 5 5 5 5 5 6 5 5 5 5 5 6 5 5 5 5 5 5 5 5 5 5 5 5 5 5 5 5 5 5 5 5 5 5 5 5 5 5 5 5 5 5 5 5 5 5 5 5 5 5 5 5 5 5 5 5 5 5 5 5 5 6 5 5 5 5 5 5 5 5 5 5 5 5 5 5 5 6 5 5 5 5 6 5 5 5 5 5 5 5 5 5 5 5 5 5 5 5 5 5 5 5 5 5 5 5 5 5 5 5 6 5 5 6 5 6 6 6 6 5 5 6 5 5 5 5 5 5 5 5 5 5 5 5 5 5 5 5 5 6 5 5 6 5 6 5 5 5 5 6 5 6 5 5 5 5 6 5 5 5 6 5 5 5 5 5 6 5 6 5 5 6 6 5 6 5 5 5 5 5 5 5 5 5 5 5 6 5 5 5 6 5 5 5 6 5 5 6 6 6 5 5 5 5 5 5 5 5 5 5 5 6 5 5 5 5 5 5 5 5 6 6 6 5 5 5 5 5 5 5 5 6 6 5 5 5 6 5 5 6 5 5 5 5 5 5 5 5 5 5 5 6 5 5 5 5 5 5 5 5 6 5 5 5 5 5 5 5 5 5 5 6 5 6 6 6 5 5 5 5 5 5 5 6 6 5 6 5 5 5 5 5 6 5 6 6 5 5 5 6 5 6 5 5 5 5 6 5 5 5 5 5 5 5 5 5 5 5 5 5 5 5 5 5 6 5 5 5 6 5 5 5 5 5 6 5 5 5 5 5 5 6 5 6 5 5 5 5 5 5 5 5 6 5 5 5 6 5 5 5 5 5 5 5 5 5 5 5 5 5 5 5 5 5 5 5 5 5 5 5 5 5 6 6 6 5 5 5 5 6 5 5 5 5 6 5 5 5 5 5 5 5 6 5 5 5 5 5 5 5 5 6 5 5 5 5 5 5 5 5 5 5 5 5 6 5 5 5 5 5 5 6 5 5 5 5 5 5 5 5 6 5 5 5 6 5 5 5 5 5 5 5 5 5 5 5 5 6 5 5 5 5 5 5 5 5 5 5 5 5 5 5 5 5 5 5 5 5 5 5 5 5 5 5 5 5 5 5 5 5 5 5 5 5 5 5 5 5 5 5 5 5 5 5 5 6 5 5 5 5 5 5 5 5 5 5 5 5 5 5 5 5 5 5 5 5 5 5 5 5 6 5 5 5 5 5 5 5 5 5 5 6 5 5 6 5 5 5 5 5 5 5 5 5 6 5 6 5 5 5 5 6 5 5 6 5 6 5 5 5 5 5 6 5 5 5 5 5 5 5 5 6 5 5 5 5 5 5 5 5 5 5 5 5 5 5 6 5 6 6 5 5 5 5 5 6 5 5 5 5 5 5 5 5 5 5 5 5 5 5 5 6 5 5 5 5 5 5 5 5 5 5 5 5 5 5 5 5 6 5 5 5 5 5 6 6 5 5 6 5 5 5 5 5 5 5 5 5 5 6 5 5 5 5 5 5 5 5 5 6 5 6 5 5 5 5 5 6 5 5 5 5 6 5 5 5 6 5 5 5 6 5 5 6 5 5 5 5 5 5 5 5 5 5 5 5 5 5 5 5 6 5 5 5 5 5 5 5 6 5 5 5 5 5 5 5 5 5 5 5 5 5 5 5 5 5 5 5 5 5 5 5 5 5 5 5 6 5 5 5 5 6 5 5 5 6 5 5 5 5 5 5 5 5 5 6 5 6 5 5 5 5 5 5 5 5 5 5 5 5 5 5 5 5 5 5 6 6 5 5 5 6 5 5 6 5 5 6 5 5 5 6 5 5 6 5 5 5 5 5 5 5 5 5 5 5 5 5 5 5 5 5 5 5 5 6 5 6 5 5 5 5 5 5 5 5 5 5 5 6 5 6 5 5 5 6 5 5 5 5 5 6 5 5 5 5 5 5 6 5 5 5 5 5 5 5 5 5 5 5 6 5 5 5 5 5 5 5 5 6 5 5 5 6 5 5 6 5 5 5 5 5 6 5 5 5 5 5 5 5 5 5 6 5 5 6 5 6 5 6 6 6 5 6 5 5 5 5 5 5 6 5 5 5 5 5 5 6 5 5 5 5 5 5 5 6 5 5 5 5 6 5 5 5 5 5 6 5 6 5 5 5 5 5 5 5 5 5 5 6 5 5 5 5 5 5 5 6 5 5 5 5 5 5 5 6 5 6 5 5 5 5 5 5 5 5 6 5 5 5 6 6 5 5 5 5 5 6 6 5 6 5 5 6 5 5 6 5 5 5 5 5 5 5 5 6 5 5 5 5 5 6 5 5 5 5 6 5 5 6 5 5 5 5 5 5 5 5 5 5 5 5 5 5 5 5 5 5 5 5 5 5 5 5 5 5 5 5 5 5 5 5 5 5 5 5 5 5 5 5 5 6 5 5 6 5 5 5 5 5 6 5 5 5 5 6 5 5 5 5 5 5 5 5 5 5 5 5 5 5 5 5 5 5 5 5 5 5 5 5 6 5 5 5 6 5 5 5 5 5 5 6 5 5 5 5 5 5 5 5 5 5 5 6 5 6 6 5 5 6 5 5 5 5 5 5 5 5 5 5 5 6 5 5 6 5 5 5 5 5 5 5 5 5 5 5 5 5 5 5 6 5 5 5 5 5 5 5 6 5 6 5 5 5 5 6 5 6 5 5 5 5 5 5 5 5 5 6 5 5 5 5 5 5 5 5 5 5 5 5 5 5 5 5 5 6 5 5 5 5 5 5 5 5 5 5 5 5 5 5 5 5 5 5 5 5 5 5 5 5 5 6 6 5 5 5 5 5 5 5 5 5 5 5 6 5 5 5 5 6 5 5 5 5 6 5 5 5 5 5 5 5 5 6 5 5 5 5 5 5 5 5 5 6 5 5 5 5 5 5 5 5 5 5 5 5 5 5 5 5 5 5 5 5 6 5 5 5 5 5 5 5 5 5 5 5 5 5 5 6 5 6 5 5 5 5 5 5 5 5 6 5 5 6 5 5 5 5 5 5 5 5 5 5 5 5 5 5 5 5 5 5 5 5 5 5 5 5 5 5 5 5 5 5 5 5 5 5 5 5 6 5 5 6 5 5 5 5 6 5 6 5 5 6 5 6 5 5 5 5 5 6 5 5 5 5 5 5 5 5 5 5 5 5 6 5 5 5 6 5 5 5 5 5 5 5 5 5 6 5 5 5 5 6 6 5 5 5 5 5 5 5 5 6 5 5 5 5 5 6 5 5 5 6 5 5 5 6 5 5 5 5 6 5 5 5 5 5 5 5 5 5 5 5 5 5 5 6 5 5 5 5 5 5 6 5 6 6 5 6 5 6 5 5 5 5 6 5 5 5 5 6 5 5 5 5 5 5 5 5 5 6 5 5 5 5 5 5 5 5 5 5 5 5 5 5 6 5 5 5 6 5 5 5 6 5 6 5 5 5 5 5 5 5 5 5 5 5 5 5 5 5 5 6 5 5 5 5 5 5 6 5 5 5 5 5 5 5 5 5 5 5 5 5 5 5 5 5 5 6 5 5 5 5 5 5 5 5 5 5 5 5 5 5 5 5 5 5 5 5 5 5 5 5 5 5 5 5 5 5 5 5 5 5 6 5 5 5 5 6 5 5 5 5 5 5 5 6 5 5 5 5 5 5 5 5 5 6 5 5 6 5 5 5 5 5 6 5 5 5 6 5 5 6 5 5 5 5 5 5 5 5 5 5 5 5 5 5 5 5 5 5 5 5 6 5 5 5 5 5 5 5 5 5 5 6 6 5 6 5 5 5 5 5 6 5 5 5 5 6 5 5 5 5 5 6 5 6 5 5 6 5 5 5 5 5 5 5 5 6 5 5 5 5 5 5 6 5 5 5 5 5 5 6 5 5 5 5 6 5 5 6 5 6 5 5 6 5 5 5 5 5 5 6 5 5 5 5 6 5 5 5 5 5 5 5 5 6 6 5 5 5 5 5 5 5 5 6 5 5 5 5 5 5 6 5 5 5 5 5 5 5 6 5 5 5 6 5 5 5 5 5 5 5 5 5 5 5 5 6 5 5 5 5 6 5 5 6 5 5 5 5 6 5 5 5 6 6 5 5 5 6 5 5 5 6 5 5 5 5 5 5 5 5 5 6 5 5 5 6 5 5 5 5 5 5 5 5 5 5 5 5 6 5 6 5 5 6 5 5 6 5 5 5 5 5 5 5 6 5 5 5 5 5 6 5 6 5 5 5 6 6 5 6 6 5 6 5 5 5 5 5 5 6 5 6 5 5 5 5 5 5 5 5 5 5 5 5 5 6 5 5 6 5 6 5 5 6 5 5 5 6 6 5 5 6 5 5 5 5 5 5 5 5 5 5 5 5 5 5 5 5 5 5 5 5 5 5 5 6 6 5 6 5 6 5 5 6 6 5 5 6 5 5 6 5 5 6 5 6 5 5 5 5 6 5 5 5 5 6 5 6 6 5 6 5 5 6 6 5 5 5 6 5 5 5 5 6 6 5 5 5 5 5 6 5 5 5 5 5 5 5 5 5 5 5 6 5 6 5 6 5 5 6 5 6 5 5 5 5 5 5 5 5 6 5 5 6 5 5 5 5 6 5 5 5 5 5 5 5 5 5 5 5 5 6 5 5 5 5 5 5 5 5 5 5 5 6 5 5 5 5 5 5 6 5 6 5 5 6 5 5 5 5 5 5 5 5 5 5 5 5 5 5 5 5 5 6 6 5 5 5 6 5 5 6 5 5 5 5 5 5 5 5 5 5 5 5 5 5 5 5 5 5 5 5 5 5 5 5 5 6 6 5 5 5 5 5 5 5 5 5 5 5 6 5 5 5 5 5 5 5 5 5 5 5 5 5 5 5 5 5 5 5 5 5 5 5 5 5 5 5 5 5 5 5 5 5 6 5 5 5 5 5 6 5 5 6 5 5 6 6 5 5 5 5 5 5 5 5 5 5 5 5 5 6 5 5 6 5 5 5 5 5 5 6 5 5 6 5 5 5 5 5 5 5 5 5 5 5 5 5 6 5 5 5 5 5 5 5 6 5 5 5 5 5 5 5 5 5 5 5 5 6 5 5 6 5 5 5 5 5 5 5 5 5 5 5 5 5 5 5 5 5 5 5 5 6 5 5 6 5 6 5 5 5 6 5 5 6 5 6 5 5 5 6 5 5 5 5 6 5 5 5 5 5 5 5 6 5 5 5 6 5 5 5 5 5 5 5 5 5 5 5 5 6 5 5 5 5 5 5 5 5 6 5 5 5 5 5 5 5 5 5 5 5 6 5 5 5 5 5 5 5 5 5 5 5 5 5 5 5 5 5 5 5 6 6 5 5 5 6 5 5 5 5 5 5 5 5 5 5 5 5 6 5 5 5 5 5 5 5 5 5 6 5 5 5 5 5 5 5 5 5 5 5 5 5 5 5 5 6 5 6 5 5 5 5 5 6 5 5 5 5 6 5 5 5 6 5 5 5 6 5 5 5 5 5 5 5 5 5 6 5 5 5 6 5 5 6 5 5 5 5 5 5 6 5 5 5 5 5 5 5 5 6 5 5 5 6 5 5 5 5 5 5 5 5 5 5 5 5 5 5 5 5 5 5 5 5 5 5 5 5 5 5 5 6 5 5 5 5 5 5 5 6 5 5 5 5 5 5 5 5 5 5 5 5 5 5 5 5 5 5 5 5 5 5 5 5 5 6 5 6 5 5 5 5 5 5 6 5 5 5 6 5 5 6 5 5 5 5 5 5 5 5 5 5 5 5 6 5 5 5 5 5 6 5 5 5 5 5 5 5 5 5 5 5 5 5 6 5 5 5 6 5 5 5 5 5 5 5 5 5 5 5 5 6 6 5 5 5 5 6 5 5 5 5 5 5 5 5 5 6 6 5 5 5 5 5 6 5 5 5 5 5 6 5 5 5 5 5 6 5 6 5 5 5 5 6 5 6 5 6 6 5 5 5 5 5 5 5 6 6 5 5 5 5 5 5 6 6 6 5 6 6 5 5 5 6 5 5 5 5 5 6 6 6 5 6 5 5 5 6 5 6 6 5 5 5 5 5 5 5 6 6 5 5 6 6 6 5 5 5 5 5 5 5 5 5 5 5 5 5 5 5 5 5 5 5 5 5 5 5 5 5 5 5 5 5 5 5 5 5 5 5 5 5 5 5 5 6 5 5 5 5 5 5 5 5 5 5 6 5 5 5 5 5 5 6 5 5 6 5 5 5 5 5 5 5 5 5 5 5 5 5 6 5 6 5 5 5 5 6 5 5 5 6 5 5 6 5 5 5 6 5 5 6 5 5 5 5 5 6 5 5 5 5 5 5 5 6 5 5 5 5 5 5 5 6 5 5 6 5 5 5 5 6 5 6 5 5 5 5 5 6 5 5 5 5 6 5 5 5 5 5 5 6 6 5 5 5 5 5 6 5 5 6 5 5 5 5 5 5 5 5 5 5 6 5 5 5 5 5 5 5 5 5 5 5 5 5 5 5 5 5 5 6 5 5 5 5 5 5 6 5 5 5 5 5 5 5 6 6 5 5 5 5 6 5 5 5 5 5 5 5 6 5 5 6 5 6 6 6 5 5 5 5 5 5 6 5 5 5 5 5 6 5 5 5 5 6 5 5 5 6 5 5 5 6 5 5 5 5 5 5 5 5 5 5 5 5 5 5 5 5 5 5 5 5 5 5 5 5 5 6 5 5 5 5 5 5 5 6 5 6 5 5 5 5 5 5 6 5 5 6 5 5 5 6 5 5 6 5 5 5 5 5 6 5 5 5 6 6 5 5 5 5 5 5 5 5 5 5 5 5 6 5 5 5 5 5 5 5 5 5 6 5 5 5 5 5 6 6 5 5 5 5 5 5 5 5 5 6 5 5 5 5 5 5 5 5 6 5 5 5 5 5 5 5 5 5 5 5 5 5 5 5 5 5 5 6 5 5 5 5 6 5 6 5 6 5 5 5 5 5 5 5 5 5 5 5 5 5 5 5 5 5 6 5 5 5 5 5 6 5 5 5 6 6 5 5 5 5 5 6 5 5 5 5 6 5 5 5 5 5 5 5 5 6 5 5 5 5 5 5 5 6 5 5 5 5 5 5 5 5 5 6 5 5 5 5 5 5 5 5 5 5 5 5 5 5 5 5 5 5 6 5 5 5 5 5 5 5 5 5 5 5 5 5 6 5 5 5 5 5 5 6 5 5 6 5 5 6 5 5 5 5 5 5 5 5 5 5 5 5 5 5 5 5 5 5 5 5 5 5 5 5 5 5 6 5 6 5 6 6 5 5 5 6 5 5 5 5 5 5 5 5 5 6 6 5 6 5 5 5 5 5 5 5 5 5 5 5 5 5 5 6 5 6 6 5 6 5 5 5 5 5 5 5 5 5 6 6 5 5 5 5 5 5 5 5 5 5 5 5 5 5 5 5 5 5 5 5 5 5 6 5 5 5 5 5 6 5 5 5 5 5 6 5 5 5 6 5 5 5 5 5 5 5 5 5 6 5 5 5 5 6 5 5 5 5 5 5 6 5 5 5 5 5 5 5 6 5 5 5 5 6 5 5 5 5 5 5 5 5 5 5 6 5 5 5 5 6 5 5 5 6 5 5 5 5 5 6 5 5 5 5 5 5 5 5 5 5 5 5 5 5 6 6 5 5 6 5 5 5 5 5 5 5 6 5 5 5 5 5 5 6 5 5 5 5 5 5 5 5 5 5 5 5 5 5 5 5 5 5 5 5 5 5 5 6 5 5 5 5 5 5 5 5 6 5 5 5 5 6 5 5 5 5 5 6 5 6 5 6 5 5 5 5 5 5 5 6 5 5 5 6 5 5 5 5 5 6 5 5 5 5 5 6 5 6 5 5 6 5 6 5 5 5 5 5 6 5 5 5 6 5 5 5 5 5 5 5 5 5 5 6 5 5 5 5 5 5 5 5 5 5 5 5 5 5 5 5 5 5 5 5 5 5 6 5 5 5 5 5 5 5 5 5 5 5 5 5 5 5 5 5 5 6 5 5 5 6 5 5 5 5 5 5 6 5 5 5 6 6 5 6 5 6 6 5 6 5 5 6 5 5 6 6 5 5 5 5 5 5 5 5 6 5 6 5 5 5 5 5 5 5 5 5 5 5 5 5 5 5 5 5 5 5 5 5 5 6 5 5 5 5 5 5 5 5 6 5 5 6 5 5 6 6 5 5 6 5 5 5 5 5 5 5 5 5 5 5 5 5 5 5 5 5 5 5 5 5 5 5 5 5 5 5 5 5 5 5 5 5 5 5 5 5 5 5 6 5 6 5 5 5 5 5 5 5 5 5 5 5 5 5 5 5 5 5 5 5 5 5 5 5 5 5 5 5 5 5 5 5 5 5 5 5 5 5 5 5 5 6 5 5 6 5 5 5 5 5 6 5 6 5 5 6 5 5 5 5 5 5 6 5 5 5 5 5 5 5 5 5 5 5 6 5 5 6 6 5 6 5 5 6 5 5 5 5 6 5 5 5 5 5 5 5 5 5 6 5 6 5 5 5 5 5 5 5 6 5 6 5 5 5 5 5 5 5 5 5 6 5 6 5 5 5 5 5 5 5 5 5 5 6 5 5 5 6 5 5 6 5 5 6 5 5 5 5 6 5 5 5 6 5 5 5 5 5 5 5 5 5 5 5 5 5 5 6 5 5 5 5 5 5 6 5 6 5 6 5 5 5 6 5 5 5 5 5 5 5 5 6 5 5 5 5 5 6 5 5 6 5 5 5 5 5 5 5 5 5 6 5 5 5 6 5 5 5 5 5 5 6 5 5 5 5 5 5 5 5 5 5 5 5 5 5 5 5 5 5 5 5 5 5 5 5 5 5 5 5 5 5 5 6 5 5 5 5 5 6 5 5 6 6 5 5 5 5 6 5 5 5 5 5 6 5 5 5 5 5 5 5 5 5 5 5 5 5 5 5 5 6 5 5 5 5 5 5 5 5 6 6 5 5 5 5 5 5 6 5 5 5 5 6 5 5 5 5 5 5 5 5 5 5 5 5 5 5 5 5 5 5 5 5 5 5 5 5 6 5 5 6 5 5 5 5 5 5 5 5 5 5 5 5 5 5 5 5 5 5 5 5 5 5 5 5 5 5 5 6 5 6 5 5 5 5 5 6 5 5 5 5 5 5 5 5 5 5 5 5 5 5 5 5 5 5 5 5 6 6 5 6 5 5 5 5 5 5 5 5 5 5 5 5 5 5 5 5 6 5 5 5 6 5 5 5 5 5 5 5 5 5 5 5 5 5 6 5 5 5 5 5 5 5 5 5 5 5 5 5 5 5 5 5 5 5 5 5 5 6 5 5 5 5 5 5 5 5 5 5 5 5 5 6 5 6 5 5 6 6 5 5 5 5 5 5 5 5 5 5 5 5 5 5 5 5 5 5 5 5 6 5 5 6 5 5 5 6 5 5 5 5 5 5 6 5 5 5 6 5 5 5 5 5 5 5 5 6 5 5 6 5 5 6 5 6 5 5 5 5 6 6 5 5 6 6 5 5 6 5 5 5 5 6 5 5 6 6 5 6 5 5 5 5 5 5 5 5 5 5 5 5 5 5 5 5 5 5 5 5 6 5 5 5 5 6 5 5 5 5 6 6 5 5 5 5 5 5 5 5 5 5 5 5 6 5 5 5 6 5 5 5 5 5 5 5 6 5 5 5 6 5 5 6 6 5 5 5 6 5 5 5 6 5 5 5 5 5 5 5 5 5 5 5 5 5 5 5 5 5 5 6 5 5 5 5 5 5 5 5 5 5 5 5 5 5 5 5 5 5 6 6 5 5 5 5 5 6 6 5 6 5 5 5 5 5 5 5 5 5 6 5 5 5 6 5 5 5 5 5 5 5 5 5 5 5 5 5 5 6 5 5 5 5 5 5 5 6 5 5 6 5 5 5 5 5 5 6 5 5 5 5 6 5 5 5 5 5 5 6 5 5 5 5 5 5 5 5 6 6 5 5 5 6 6 5 5 5 5 5 6 5 5 5 5 5 5 6 5 5 5 5 6 5 5 5 5 5 6 5 5 5 5 6 5 5 5 5 5 5 5 5 5 5 5 5 5 5 5 5 5 5 5 5 5 5 5 5 5 6 5 5 5 5 6 5 6 5 6 5 5 6 5 5 6 5 5 6 5 5 5 5 5 5 6 5 5 6 5 6 6 6 5 5 6 5 6 6 5 5 5 6 5 6 5 5 5 5 5 5 6 5 5 5 6 5 5 5 5 5 5 5 6 5 5 5 6 5 6 6 5 5 5 5 5 5 5 6 5 5 5 5 5 5 5 5 6 6 5 5 5 5 6 5 5 6 5 5 5 6 5 5 5 6 6 5 5 5 5 6 5 5 5 5 5 6 6 5 5 5 5 5 5 5 5 5 5 5 5 5 5 5 5 5 5 5 5 5 5 5 5 5 5 5 5 5 5 5 6 5 5 5 6 5 5 5 5 5 5 5 5 5 5 5 5 5 5 5 6 5 6 6 5 5 6 5 5 5 5 5 5 5 5 5 5 5 5 5 5 5 5 5 5 5 5 5 5 5 6 5 5 6 6 5 5 5 5 5 5 5 6 5 5 5 6 5 5 5 5 6 6 5 5 5 5 5 5 5 6 5 5 5 5 6 5 5 5 5 6 5 5 5 5 5 5 5 5 5 5 5 5 5 5 5 5 5 5 5 6 5 5 5 5 5 5 5 5 5 5 5 5 5 5 5 5 6 5 5 5 6 5 5 5 5 5 5 5 5 5 6 5 5 5 5 5 5 5 5 5 5 5 5 5 5 5 5 5 5 5 5 5 6 5 5 5 5 5 5 5 5 5 5 5 5 5 5 5 5 5 6 5 5 5 5 5 6 5 5 5 5 5 5 5 5 5 5 5 5 5 5 5 5 5 5 5 5 5 5 5 5 5 5 5 6 5 5 6 5 5 5 6 5 5 5 5 5 5 5 5 5 5 5 5 5 5 5 6 5 6 5 5 5 5 5 5 5 5 5 6 5 5 5 5 5 5 5 5 5 6 6 5 5 5 5 5 5 5 5 5 5 5 5 5 5 5 5 5 5 5 5 5 5 5 5 5 5 5 5 5 5 5 5 5 5 5 5 5 5 5 5 5 5 5 5 5 5 5 5 5 5 5 5 5 5 5 5 5 5 5 5 5 5 5 5 5 5 5 5 5 5 5 6 5 5 5 5 5 5 6 5 5 5 5 5 5 5 5 5 6 5 6 5 5 5 5 5 5 5 5 5 5 5 5 5 5 5 5 5 5 5 5 5 5 5 5 5 5 5 5 5 5 5 5 5 5 6 5 5 5 6 6 5 5 5 5 5 5 5 5 5 5 5 5 5 5 5 5 5 5 5 5 5 5 6 6 5 5 5 5 5 5 5 5 6 5 5 5 5 5 5 6 5 5 5 5 5 6 5 5 5 5 6 5 5 5 6 5 5 5 6 5 5 6 5 5 5 5 5 5 5 5 5 5 5 5 5 6 5 5 5 5 5 5 5 5 6 5 5 5 5 5 5 5 5 5 5 5 6 5 5 5 6 5 5 5 5 6 5 5 5 5 5 5 5 5 6 5 6 5 5 6 5 5 5 5 5 6 5 5 5 5 5 5 5 5 5 5 5 5 6 5 5 5 5 5 5 5 5 5 6 5 5 5 5 5 5 6 5 5 5 5 5 5 5 6 5 5 5 5 5 6 5 5 5 5 5 5 5 5 5 5 5 5 5 5 5 5 5 5 5 5 5 5 5 5 5 5 5 5 5 5 5 5 5 5 5 5 5 5 5 5 5 5 5 5 5 5 5 6 5 6 5 5 5 5 5 5 5 5 5 5 5 5 5 5 6 5 5 5 5 5 5 5 5 5 5 5 5 5 5 5 6 5 5 6 5 6 5 5 5 5 5 6 5 5 5 5 5 5 5 5 5 5 5 5 5 5 5 5 5 5 5 5 6 5 5 5 5 5 5 5 5 5 5 5 6 5 6 5 5 6 5 6 5 5 5 5 5 5 5 6 5 6 5 5 5 5 6 5 5 5 5 6 6 5 5 6 5 5 5 5 5 5 5 5 5 5 5 5 5 5 5 5 6 5 5 5 5 5 5 5 5 5 5 5 5 5 5 6 5 6 5 5 5 5 5 5 5 6 5 6 5 5 5 5 5 5 5 5 5 6 6 5 5 5 6 5 5 5 5 6 5 6 5 5 6 5 6 6 6 5 5 6 5 5 5 6 6 6 5 5 5 5 5 5 5 5 5 5 5 6 5 5 5 5 5 5 6 5 5 5 6 5 5 5 5 5 5 5 5 6 5 5 5 6 5 5 5 5 5 5 5 5 5 5 5 5 5 5 5 5 5 5 5 5 5 5 5 5 5 5 5 5 5 5 5 5 5 5 5 5 5 5 5 5 5 5 5 5 5 5 5 5 5 5 5 5 5 5 5 5 5 5 5 5 6 5 5 5 5 5 6 5 5 5 5 6 5 5 5 6 5 5 5 5 5 5 5 5 5 5 5 5 5 5 5 5 5 5 5 5 5 5 5 5 5 5 5 5 5 5 5 5 5 5 5 5 5 5 5 5 6 5 5 6 5 5 5 5 5 5 5 6 5 5 5 5 5 5 5 5 5 5 5 6 5 5 6 5 6 5 5 5 6 5 5 5 5 5 5 5 5 6 5 5 5 5 6 5 5 5 5 6 5 6 5 5 5 5 5 5 5 5 5 5 5 5 6 5 6 5 5 5 5 5 5 5 5 5 5 5 5 5 6 5 5 5 5 5 5 5 5 5 6 5 5 5 6 5 5 5 5 5 5 5 5 5 5 5 5 5 5 5 5 5 5 5 5 5 5 5 5 5 5 5 5 5 5 5 5 5 5 5 6 5 5 6 5 5 5 5 6 5 5 5 5 5 5 5 5 5 5 5 5 5 5 5 6 5 5 5 5 5 5 5 5 5 6 5 6 5 5 5 5 5 5 5 6 5 5 5 5 5 5 5 5 5 5 5 5 5 5 6 5 5 5 5 5 5 5 5 5 5 5 6 5 5 5 5 5 5 5 5 5 5 5 5 5 5 5 5 5 5 5 5 5 5 5 6 5 6 5 5 5 5 5 5 6 5 6 5 5 5 6 5 5 5 6 5 5 5 6 5 5 6 5 5 5 5 5 5 5 6 5 5 5 5 5 5 5 6 5 5 5 5 5 5 5 5 5 5 5 5 5 6 5 5 5 5 5 5 5 5 6 5 5 5 5 5 5 5 5 5 5 5 5 5 5 5 5 5 5 5 5 6 5 5 5 5 5 5 5 5 5 5 5 5 5 5 5 5 5 5 5 5 5 5 5 5 5 5 5 5 5 5 5 5 5 5 5 5 5 5 5 5 5 5 5 5 5 5 5 5 5 5 6 5 6 5 5 5 6 5 5 6 6 5 6 5 5 5 5 5 5 5 5 5 5 5 5 5 5 5 5 5 5 5 5 5 5 5 5 5 5 5 5 5 5 5 5 5 5 5 6 5 5 5 5 6 5 5 6 5 5 5 6 5 5 5 5 6 5 6 6 5 5 5 5 6 5 5 5 6 5 5 5 6 5 5 5 5 5 5 6 5 5 5 5 5 5 5 5 5 5 5 5 5 5 5 5 5 5 5 5 6 5 5 5 5 5 5 5 5 5 5 5 5 5 5 5 5 5 5 6 5 5 6 5 5 6 5 5 5 5 5 5 5 5 5 5 5 6 5 5 5 5 6 5 5 5 5 6 5 5 5 6 5 5 5 5 5 5 5 5 5 5 5 5 5 5 5 5 5 5 5 5 5 5 5 5 5 6 5 5 5 5 5 5 5 5 6 5 5 5 6 5 5 5 5 5 5 5 5 5 5 5 5 5 5 5 5 5 5 5 5 5 5 5 5 6 5 5 5 6 5 5 5 5 5 5 5 5 6 5 5 6 5 5 5 5 6 5 5 5 5 5 5 5 6 5 6 5 5 6 5 5 6 6 5 5 5 5 5 5 5 5 5 5 5 5 5 5 5 5 5 5 5 5 5 6 5 5 5 5 6 5 5 5 5 5 5 5 5 5 5 5 5 5 6 5 5 6 5 5 5 5 5 5 5 5 5 5 5 5 5 5 5 5 5 5 5 5 5 5 5 5 5 5 5 5 5 5 5 5 5 5 5 5 5 5 5 5 5 5 5 5 5 5 5 5 5 5 5 5 5 5 5 5 5 5 5 5 5 5 5 5 5 5 5 5 5 5 5 5 5 5 5 5 5 5 5 5 5 5 5 5 5 5 5 5 5 5 5 5 5 5 5 5 5 5 5 5 5 5 5 5 5 5 5 5 5 5 5 5 5 5 5 5 5 5 5 5 5 5 5 5 5 5 5 5 6 5 5 5 5 5 5 5 6 5 5 5 5 5 5 5 5 5 6 5 6 5 5 5 6 5 5 6 5 5 5 5 5 5 5 5 5 5 5 5 5 5 5 5 5 5 5 5 5 5 5 5 5 5 5 5 5 5 5 5 5 5 5 5 5 6 5 5 6 6 5 5 6 5 5 6 5 5 5 6 5 5 5 5 5 5 5 5 5 6 5 5 5 5 5 5 6 5 5 5 5 5 5 5 5 5 5 5 5 5 5 5 5 5 5 5 5 5 5 5 5 5 5 5 5 5 5 5 6 5 5 5 5 5 5 5 5 5 5 5 5 5 5 5 5 5 5 5 5 5 5 5 5 5 5 5 5 5 5 5 5 5 5 5 5 5 5 5 5 5 5 5 5 5 5 6 5 6 5 5 5 5 6 5 5 5 5 6 5 5 5 5 6 5 5 5 5 5 5 5 5 6 5 5 6 5 6 5 5 5 5 6 5 5 6 6 5 5 5 5 5 5 6 5 5 5 5 5 5 5 5 5 5 6 6 5 5 5 5 5 6 5 5 6 5 5 5 5 6 5 5 6 5 5 5 5 5 5 5 5 5 5 5 5 5 5 5 5 5 5 5 5 5 5 5 5 5 5 5 5 5 6 5 6 5 5 5 5 5 5 5 5 5 5 5 5 5 6 5 5 5 5 6 6 5 5 5 5 5 5 5 5 5 5 5 5 5 5 5 5 5 5 5 5 5 5 5 5 5 5 5 5 5 5 5 5 5 5 5 5 5 5 5 5 5 5 6 5 5 5 6 5 5 5 5 5 5 5 5 5 5 5 5 5 5 5 5 5 5 5 5 6 5 5 6 5 5 5 5 5 5 5 5 5 6 5 5 5 5 5 6 5 5 5 5 5 6 5 6 5 5 5 5 5 5 5 5 5 5 5 5 5 6 5 5 5 6 6 5 5 5 5 5 5 5 5 6 5 5 6 5 5 6 6 5 5 5 5 5 6 5 5 5 5 5 5 5 6 5 5 6 6 5 5 5 5 5 5 6 6 5 5 5 6 5 5 5 5 5 5 5 6 5 5 5 5 5 5 5 5 5 5 5 5 5 5 5 5 5 5 5 5 5 5 5 5 5 5 6 5 5 5 5 5 5 5 6 5 5 5 5 5 5 5 5 5 5 5 6 5 5 5 5 5 5 5 5 6 5 5 5 5 5 5 5 5 5 5 5 5 5 5 5 5 6 5 5 5 6 5 5 5 5 5 6 5 5 5 5 5 5 5 5 5 5 5 5 5 5 6 5 5 5 5 6 5 5 6 5 5 5 5 5 6 5 5 5 5 5 5 5 5 5 5 5 5 5 5 6 5 6 5 5 5 6 5 6 5 6 5 5 5 5 5 5 6 6 5 5 5 5 5 5 6 5 6 5 5 5 5 5 5 5 5 5 5 5 5 5 5 5 5 5 6 5 5 5 6 6 5 5 5 5 5 6 5 5 6 6 5 5 5 5 5 5 5 5 5 5 5 5 5 5 5 5 5 5 5 5 5 5 5 5 5 5 5 5 5 5 5 5 5 5 5 5 5 5 5 5 5 5 5 5 6 5 5 6 6 6 5 5 5 5 5 5 6 5 5 5 5 5 5 5 5 5 6 5 5 5 6 5 5 5 5 5 5 5 5 5 5 5 5 5 5 5 5 5 5 5 5 6 5 5 5 5 6 5 5 5 5 5 5 5 5 5 5 5 5 5 5 5 5 5 5 5 5 5 5 5 5 5 5 5 5 5 5 5 5 5 5 6 5 6 5 5 5 5 5 5 5 5 6 5 5 5 6 5 6 5 5 5 5 5 5 5 5 6 5 5 5 5 6 5 5 5 5 6 5 5 5 5 5 5 5 6 5 5 5 5 6 5 5 5 5 5 5 5 5 5 5 5 5 5 5 5 5 5 5 5 5 5 5 5 5 5 5 5 5 5 5 5 5 5 5 5 5 5 5 5 5 5 5 5 5 5 5 6 5 5 5 5 6 6 5 5 6 6 5 5 5 5 5 5 5 5 5 5 5 5 5 5 5 5 5 5 5 6 5 5 5 6 6 5 5 5 5 5 5 5 5 5 5 5 5 5 5 5 5 5 5 5 5 5 5 5 5 5 5 5 6 5 5 5 5 5 5 5 6 5 5 5 5 5 5 5 5 5 5 5 5 5 5 5 6 5 5 5 5 5 5 5 5 6 5 6 6 5 5 5 5 5 5 5 5 5 5 5 5 6 5 5 5 5 5 5 5 5 5 5 5 5 5 5 5 5 5 5 6 5 5 5 6 5 5 5 5 5 5 5 5 6 5 5 5 5 5 5 5 5 5 5 5 5 5 5 5 6 5 5 5 6 5 5 5 5 5 5 5 5 5 5 5 5 5 5 5 5 5 5 5 5 5 5 5 5 5 5 5 5 5 5 5 5 5 6 5 6 5 5 5 5 5 5 5 5 6 5 5 5 5 5 5 5 5 5 6 5 5 6 5 5 5 5 5 6 5 5 5 5 6 5 5 5 5 6 5 5 5 6 5 6 5 5 6 5 5 5 5 5 5 5 5 5 5 5 5 5 5 6 5 5 6 5 6 5 5 5 6 5 5 6 5 5 5 5 6 5 6 5 5 5 5 5 5 6 5 6 5 5 5 5 5 6 5 5 5 5 6 5 5 5 5 5 5 6 5 5 5 5 5 5 5 5 5 5 5 5 5 5 5 5 5 5 5 5 5 5 5 5 5 5 5 5 5 5 5 5 5 6 6 5 5 5 5 5 5 5 5 5 5 6 5 5 6 6 5 6 5 5 5 5 5 5 5 6 5 5 5 5 5 5 5 5 5 5 5 5 6 5 5 5 5 6 5 5 5 5 5 5 5 5 5 5 5 5 6 5 5 5 5 5 5 5 5 5 5 5 5 5 5 5 5 5 6 5 5 5 5 5 6 5 5 5 6 5 5 5 5 5 5 6 5 6 5 5 5 6 5 5 5 5 5 5 5 5 5 6 5 5 6 5 5 5 5 5 5 5 6 5 5 5 5 5 5 5 5 5 5 5 5 5 6 5 5 6 5 5 5 5 5 5 6 5 5 5 5 5 5 6 5 5 5 5 5 5 5 6 5 5 5 5 5 5 5 5 5 5 5 5 5 5 5 5 5 5 5 5 5 5 6 5 5 5 5 5 5 5 5 5 5 6 5 5 5 5 6 6 5 5 5 5 6 5 5 5 5 5 5 5 5 5 6 5 5 5 5 5 5 5 5 5 5 5 6 5 5 5 6 5 5 5 6 5 5 5 5 5 5 5 5 5 5 5 5 6 5 5 5 5 5 6 5 5 6 5 5 5 5 5 5 5 5 5 5 5 5 5 5 6 5 5 5 5 5 5 5 6 5 5 5 6 5 5 5 5 5 6 5 5 5 5 5 5 5 5 5 6 5 5 5 5 5 5 5 5 6 5 5 5 5 5 6 5 5 5 5 5 5 5 6 5 5 5 5 5 5 5 5 5 5 5 5 5 5 5 5 5 5 5 5 5 5 5 5 5 5 5 5 5 5 5 5 5 5 5 5 5 5 5 5 5 5 5 5 5 5 5 5 6 5 5 5 5 5 5 5 6 5 5 5 5 5 5 5 5 5 5 5 5 5 5 5 5 5 5 5 5 5 5 6 6 5 5 6 6 5 5 5 5 5 5 5 6 5 5 5 5 5 5 5 5 5 5 5 5 5 5 6 5 5 5 5 5 5 5 5 6 5 5 6 5 5 5 6 5 5 5 5 5 5 5 5 5 5 5 5 5 5 5 5 5 5 5 5 5 5 5 5 5 5 5 5 6 5 5 5 5 5 5 5 5 6 5 5 5 5 5 5 6 6 5 5 5 5 6 5 5 6 5 5 6 5 5 5 5 5 5 6 5 5 5 5 5 5 5 5 6 5 5 5 5 5 5 5 5 5 5 5 6 5 5 6 5 5 5 5 5 5 5 6 5 5 5 6 5 6 5 6 5 5 5 5 5 5 5 5 5 5 5 5 5 5 5 5 5 6 5 6 5 5 5 5 5 5 5 5 5 5 6 5 5 5 5 5 5 5 6 5 5 5 6 5 6 6 5 5 6 5 5 5 5 6 5 5 5 6 5 5 5 6 5 6 6 5 5 5 5 5 5 6 5 5 5 5 5 5 5 5 6 6 6 5 6 5 5 6 6 5 5 6 5 5 5 5 5 5 5 5 5 5 5 6 5 5 5 5 5 5 5 5 5 5 5 5 5 6 6 5 5 5 5 6 5 5 5 6 5 5 5 5 5 6 6 5 5 5 6 5 5 5 5 5 5 5 5 5 5 5 5 5 5 5 6 5 5 5 6 5 5 5 6 5 5 5 5 5 5 6 5 5 5 5 5 6 5 5 5 5 5 5 5 5 6 5 5 5 5 5 5 5 5 5 6 5 5 5 5 6 5 6 5 5 6 5 6 5 5 5 5 5 5 6 5 6 6 5 5 5 5 5 5 5 5 6 5 6 5 6 5 6 5 5 5 5 5 5 5 5 5 5 5 6 5 5 5 6 5 5 5 5 5 5 5 5 6 5 5 5 5 5 5 5 5 5 6 5 5 5 5 6 5 5 6 5 5 5 5 5 5 5 5 5 6 5 5 5 6 5 5 5 5 5 5 5 5 5 5 5 5 5 5 5 5 5 5 5 6 5 5 5 5 5 5 5 5 5 5 6 5 5 5 5 5 5 5 5 5 5 5 5 5 5 5 5 5 5 5 5 5 5 5 5 5 5 5 5 5 5 5 5 5 5 5 5 5 5 5 5 5 5 5 5 5 6 6 5 5 5 5 5 5 5 5 5 5 5 5 5 6 6 5 5 5 6 5 5 6 5 5 5 6 5 5 5 6 5 5 5 5 5 5 5 5 6 5 5 6 5 6 6 5 5 5 5 5 5 6 5 6 6 6 5 5 6 5 5 6 6 5 5 5 5 5 5 5 5 5 5 5 5 5 5 5 5 5 5 5 5 5 6 5 5 5 5 5 5 5 5 5 6 5 5 5 5 5 5 5 6 6 5 5 5 5 5 5 5 5 5 5 5 5 5 5 5 5 5 5 5 5 5 5 5 6 5 6 5 5 5 5 5 5 5 6 5 5 5 6 6 5 5 6 5 5 5 5 6 5 5 5 6 5 5 5 6 5 5 5 5 5 5 5 5 5 6 6 5 5 5 5 5 6 5 5 6 6 6 5 5 5 5 5 6 5 5 5 5 5 5 5 5 5 6 5 6 5 5 5 5 5 5 5 5 5 5 5 5 5 5 5 5 5 5 5 5 5 5 5 5 6 5 5 5 5 6 6 5 5 5 6 5 5 5 5 5 5 5 5 5 5 5 5 5 5 5 5 6 5 5 5 6 5 5 6 5 5 5 5 5 5 5 5 5 5 5 5 5 6 5 5 6 5 5 5 6 5 6 5 6 5 6 6 6 5 5 5 5 5 5 5 5 6 5 5 5 5 5 5 5 5 6 5 5 6 5 5 5 5 5 5 5 5 5 5 5 5 5 5 5 5 5 5 5 5 5 6 5 5 5 5 5 5 5 5 5 5 6 5 6 5 5 6 5 6 5 6 5 5 6 5 6 5 5 6 5 5 5 6 5 5 5 5 5 5 5 5 5 5 5 5 5 5 5 5 5 5 5 5 5 5 5 5 5 5 5 5 5 5 5 5 5 5 5 5 5 5 5 5 5 5 5 5 5 5 5 5 5 5 5 5 5 5 5 5 5 5 5 5 5 6 5 5 6 5 5 5 5 5 5 6 6 5 5 5 5 5 5 5 5 5 5 5 5 5 5 5 5 5 5 6 5 5 5 6 5 5 5 5 5 5 5 5 5 5 5 5 5 5 5 5 6 5 5 5 5 5 5 5 6 5 5 5 5 5 5 5 5 6 5 6 5 5 5 5 5 5 5 5 5 5 5 5 5 5 5 5 6 5 5 5 5 5 5 5 6 5 5 5 5 6 5 5 5 5 5 5 5 6 5 5 6 6 5 5 6 5 5 5 5 5 5 6 5 5 5 5 5 5 5 5 5 6 5 5 6 5 5 6 5 5 6 5 5 5 5 5 6 5 5 5 5 5 5 5 5 6 5 5 5 5 5 5 5 6 5 5 5 5 5 5 5 5 5 5 5 5 6 5 5 5 5 5 5 5 6 6 5 6 5 6 5 5 5 5 5 5 5 5 5 5 5 5 5 5 5 6 5 6 5 5 5 5 5 5 5 5 6 5 6 5 6 5 6 5 6 5 5 6 5 5 5 5 5 6 5 5 5 5 5 5 5 5 6 5 5 5 5 5 6 5 5 6 5 6 6 5 5 5 5 5 5 5 5 6 5 5 5 5 5 5 5 5 5 5 5 5 5 6 5 5 5 5 5 5 5 6 5 5 5 6 5 5 5 5 5 5 5 5 5 5 5 5 5 5 5 5 5 6 5 5 5 5 5 5 5 6 5 5 6 5 5 5 5 5 5 5 5 5 5 5 5 5 5 5 6 5 5 5 5 6 5 5 5 5 5 5 5 5 5 5 5 5 5 5 5 5 5 5 5 5 5 5 5 5 5 6 5 5 5 5 5 5 6 5 5 5 5 5 5 5 5 5 6 6 5 5 5 6 5 6 5 5 5 5 5 5 5 5 5 5 5 5 5 5 5 6 5 5 5 5 5 5 5 5 5 5 5 5 6 6 5 5 5 5 5 5 5 5 6 5 5 6 5 5 6 6 5 5 5 5 5 5 5 6 5 5 5 5 5 5 5 5 5 6 5 5 5 6 5 5 5 5 5 6 5 5 5 5 5 5 5 5 5 5 5 5 6 5 5 5 6 5 5 5 6 5 5 5 5 5 5 5 5 5 5 5 5 5 5 5 5 5 5 5 5 5 5 5 5 5 5 5 5 5 5 5 5 6 5 5 5 5 5 5 5 5 5 5 5 5 5 5 5 5 5 5 5 5 5 5 5 5 6 5 6 5 5 6 5 5 5 5 5 5 5 5 5 6 5 5 5 5 5 5 5 5 5 5 5 5 5 5 6 5 5 5 5 6 5 5 5 6 5 5 5 5 5 5 5 5 5 5 5 5 5 5 5 5 5 5 5 5 5 5 5 5 5 5 5 5 5 5 5 5 5 5 5 5 5 5 5 5 5 5 5 5 5 5 5 5 5 5 5 5 5 5 5 5 5 5 5 5 5 5 5 5 5 5 5 5 5 5 5 5 5 5 5 5 5 5 5 5 5 5 5 5 5 5 5 5 5 5 5 5 5 5 5 5 5 5 5 5 5 5 5 5 5 5 5 5 5 5 5 5 5 5 5 5 5 5 5 5 5 5 5 5 5 5 5 5 5 5 5 5 5 5 5 5 5 5 5 5 5 5 5 5 5 5 5 5 5 5 5 5 5 5 5 5 5 5 5 5 5 5 5 5 5 5 5 5 5 5 5 5 5 5 5 5 5 5 5 5 5 5 5 5 5 5 5 5 5 6 5 5 5 5 5 5 5 5 5 5 5 5 5 5 5 5 6 5 5 5 5 5 5 5 5 6 5 5 5 5 6 5 5 5 5 5 5 5 5 5 5 5 5 5 5 5 5 5 5 5 5 5 5 6 5 5 5 5 5 5 5 5 5 5 5 5 5 6 6 5 5 5 5 5 6 5 6 5 5 5 5 5 5 5 5 5 5 5 6 5 5 5 5 5 5 5 6 5 5 5 5 5 5 5 5 5 5 5 5 5 5 5 6 6 5 5 5 5 5 5 5 5 5 5 5 5 6 5 5 5 5 5 5 5 5 5 5 5 5 5 5 5 5 6 5 5 5 5 5 5 5 6 5 5 5 5 5 5 5 5 5 5 6 6 5 5 5 5 5 5 5 5 5 5 5 5 5 5 5 5 5 5 5 5 5 5 5 5 5 5 5 5 5 5 6 5 5 5 5 5 6 5 5 5 5 5 5 5 5 5 5 6 5 5 5 5 6 5 5 5 5 5 5 5 5 5 5 6 5 6 5 5 5 5 5 5 5 5 5 5 5 5 5 5 5 5 5 5 5 5 5 5 5 5 5 5 5 5 5 5 5 6 5 5 5 5 5 6 5 5 5 5 5 5 5 5 5 5 5 5 5 5 5 5 5 5 6 5 5 6 5 5 5 6 5 5 5 5 5 6 5 5 5 5 5 5 5 5 5 5 6 5 5 5 5 5 5 6 5 5 5 5 5 6 6 5 5 6 5 5 6 5 5 5 5 5 5 5 5 5 5 6 5 5 6 5 5 6 5 5 6 5 5 6 5 5 6 5 5 5 5 5 5 6 5 5 5 5 5 5 5 5 5 5 5 6 5 5 5 5 5 5 5 6 5 5 5 5 6 5 5 5 6 5 5 5 5 5 5 5 5 5 5 5 6 5 5 5 5 5 5 5 5 5 5 5 5 5 5 5 5 5 5 5 5 5 5 5 5 6 5 5 5 5 5 6 5 5 5 5 5 5 5 5 5 5 5 5 5 5 6 5 5 6 5 6 5 5 5 5 6 5 6 6 5 6 5 5 5 5 5 5 5 6 5 6 5 5 5 5 5 5 6 5 5 5 5 5 5 6 5 5 5 5 6 5 5 5 5 5 6 5 5 6 5 5 5 5 6 5 5 5 5 6 5 5 5 5 5 5 6 5 5 5 5 5 5 5 5 5 6 5 5 5 5 5 5 6 5 5 5 5 6 5 5 5 5 5 5 5 5 5 5 5 5 5 5 5 5 6 5 5 5 6 5 5 6 5 5 5 5 5 5 5 5 5 5 5 5 5 5 5 5 6 5 6 5 5 5 5 5 5 5 5 5 5 5 5 5 5 5 5 5 5 5 5 5 5 5 5 5 5 6 5 5 6 5 5 5 5 5 5 5 5 5 5 6 5 5 5 5 6 5 5 5 5 6 5 5 5 5 5 5 5 5 5 6 5 5 5 5 5 5 5 5 5 5 5 5 5 5 5 5 5 5 5 5 5 5 5 5 5 5 5 5 
</DataArray>
<DataArray type="Float64" Name="stress" NumberOfComponents="9" format="ascii">
-231015068.01351753 -804373474.27712822 0 -804373474.27712822 2200473835.2326431 0 0 0 0 -143582854.39384538 -134847308.52829933 0 -134847308.52829933 1546403026.057682 0 0 0 0 1024511.7464495889 -119853558.41914558 0 -119853558.41914558 1231473045.7903404 0 0 0 0 152329911.28706476 -307536396.0370121 0 -307536396.0370121 624988842.52765656 0 0 0 0 -33824497.361418247 -173948124.64775467 0 -173948124.64775467 628069334.28381217 0 0 0 0 -1170235.5828887946 -467948.75642284751 0 -467948.75642284751 -1705882.4843001813 0 0 0 0 -8617601.9280745983 99024648.375202179 0 99024648.375202179 8450989.3791904449 0 0 0 0 64589741.621908844 -36507769.073818207 0 -36507769.073818207 91072511.814033508 0 0 0 0 89810318.922931224 -631707698.54335594 0 -631707698.54335594 1386185022.6686325 0 0 0 0 348353172.11943924 -342724126.60206985 0 -342724126.60206985 563053044.52360535 0 0 0 0 2893674.900010705 -235861429.31805038 0 -235861429.31805038 694956940.7064352 0 0 0 0 1375214950.6584873 -1185913680.9907875 0 -1185913680.9907875 440738207.94409943 0 0 0 0 502555008.22666514 1275046516.9665699 0 1275046516.9665699 2201529935.1008835 0 0 0 0 3609769.8758856305 -4243590.8697812185 0 -4243590.8697812185 11971928.288550109 0 0 0 0 -75634377.142626196 550196464.16098738 0 550196464.16098738 1607995758.9798355 0 0 0 0 -327316987.87463486 210447464.4486084 0 210447464.4486084 2205273476.8819513 0 0 0 0 -5426.0873287022114 419168669.9903717 0 419168669.9903717 909407728.16085052 0 0 0 0 44707856.970328122 241982239.55039978 0 241982239.55039978 950611326.98231983 0 0 0 0 2984960.7243668754 -11312707.053908207 0 -11312707.053908207 31279697.76551801 0 0 0 0 139954239.16843936 181623815.56181908 0 181623815.56181908 511493597.65977478 0 0 0 0 -130100081.0764994 -109211370.76125717 0 -109211370.76125717 1207663147.9733391 0 0 0 0 -7500910.7790592136 11924044.104373947 0 11924044.104373947 21177542.637386065 0 0 0 0 -88511835.172330379 9633689.7625350952 0 9633689.7625350952 98033083.085952759 0 0 0 0 -156316165.18613005 -10825860.276565552 0 -10825860.276565552 134767595.81211853 0 0 0 0 -62672908.127707958 -5065965.0554275513 0 -5065965.0554275513 105731023.20757294 0 0 0 0 -128554883.65533698 -133578460.72184372 0 -133578460.72184372 12218929.049819946 0 0 0 0 3403116.2638301207 -24652441.384120055 0 -24652441.384120055 67299790.932677701 0 0 0 0 102732722.37914968 -104345209.21451569 0 -104345209.21451569 -11226765.60749054 0 0 0 0 -13548714.243420541 -72486583.808921814 0 -72486583.808921814 55586906.824493408 0 0 0 0 -78488279.15135181 -41241262.970536232 0 -41241262.970536232 144014889.74297333 0 0 0 0 128609111.24257672 -3768136.5432128906 0 -3768136.5432128906 -108317344.24316788 0 0 0 0 -5880492.5980732962 -5732824.4825328887 0 -5732824.4825328887 10684590.66565036 0 0 0 0 270769776.9322533 -224155567.12452126 0 -224155567.12452126 216696106.64684677 0 0 0 0 162296487.76567888 77999064.049987793 0 77999064.049987793 144240623.08234406 0 0 0 0 36098393.79326725 -103421888.89340591 0 -103421888.89340591 209028120.02738953 0 0 0 0 37663721.425380707 -95980386.468624115 0 -95980386.468624115 -5492327.6545257568 0 0 0 0 -64110891.328163736 -8714924.2108858675 0 -8714924.2108858675 216146289.32301331 0 0 0 0 -17717331.818367228 -51079969.634741783 0 -51079969.634741783 213469191.74264526 0 0 0 0 -20250675.972834826 -126930151.98216248 0 -126930151.98216248 263879105.63804626 0 0 0 0 -2316405.6875095367 -95079075.172653198 0 -95079075.172653198 257888291.24191284 0 0 0 0 -64207559.198518783 -31538942.356442809 0 -31538942.356442809 345010293.66421509 0 0 0 0 74158290.666332483 -17001955.976928711 0 -17001955.976928711 174669264.04644394 0 0 0 0 269034799.24643159 212135318.50575256 0 212135318.50575256 443779233.29602051 0 0 0 0 384425530.16996843 -110038537.49111938 0 -110038537.49111938 198713421.38200378 0 0 0 0 35005859.157042265 31213966.702262878 0 31213966.702262878 520938920.95799255 0 0 0 0 229764.01634029485 -254841.26558868587 0 -254841.26558868587 2253165.631757021 0 0 0 0 248344862.86315966 -214807375.9863205 0 -214807375.9863205 199887874.45252991 0 0 0 0 323087241.66364729 258036583.06674194 0 258036583.06674194 222774523.63700867 0 0 0 0 -69567.925811238121 651906.49781911075 0 651906.49781911075 322267.92985770106 0 0 0 0 97896505.136279583 -191212598.76708221 0 -191212598.76708221 47714837.749450684 0 0 0 0 8490431.829621315 -70812160.776000977 0 -70812160.776000977 297482674.64147949 0 0 0 0 -97276343.808966637 -196810074.4083252 0 -196810074.4083252 718546865.27850342 0 0 0 0 -16580572.946153164 -107826271.51089478 0 -107826271.51089478 296036791.45917368 0 0 0 0 4361527.5516934395 3191061.0561447144 0 3191061.0561447144 14042715.328575134 0 0 0 0 -55714.979756978806 83192.812116730958 0 83192.812116730958 4046122.325612396 0 0 0 0 -49319806.544950485 -10647220.106136322 0 -10647220.106136322 59168842.725799561 0 0 0 0 5218179.9766774178 4511183.6441001892 0 4511183.6441001892 49868198.152198792 0 0 0 0 7566493.5474433489 -20492474.284010887 0 -20492474.284010887 120810960.81436157 0 0 0 0 19406539.286614612 -64132216.98465538 0 -64132216.98465538 121566161.98989868 0 0 0 0 -20493113.661036849 -66027550.837112427 0 -66027550.837112427 136329219.43415833 0 0 0 0 -207061684.86719796 -123012791.30501938 0 -123012791.30501938 115939409.18345642 0 0 0 0 -43038815.788184941 -78948935.675262451 0 -78948935.675262451 56241067.134544373 0 0 0 0 3896236.0658793356 -19465116.491939291 0 -19465116.491939291 56832921.556268066 0 0 0 0 -36053641.889942348 32942194.343795776 0 32942194.343795776 52856968.661987305 0 0 0 0 -130075897.05870655 29398171.035638809 0 29398171.035638809 190794415.73123169 0 0 0 0 34752878.433846593 -15755478.766052246 0 -15755478.766052246 149117039.48521423 0 0 0 0 78675243.699517369 97975039.425449371 0 97975039.425449371 61673295.00989151 0 0 0 0 -72112.906251638429 -578503.64318269491 0 -578503.64318269491 3622897.0518875122 0 0 0 0 26728791.863253355 131330439.93093872 0 131330439.93093872 186610084.80398941 0 0 0 0 119374154.67419779 74435277.229103088 0 74435277.229103088 74974952.48903656 0 0 0 0 -35022929.134331606 24004637.674510956 0 24004637.674510956 78887669.377349854 0 0 0 0 -49671955.805670381 42875464.455230713 0 42875464.455230713 92684776.59210968 0 0 0 0 -62660288.406975687 306079.14857387543 0 306079.14857387543 59104996.283081055 0 0 0 0 -48563503.404369056 46005308.273590088 0 46005308.273590088 76533007.263465881 0 0 0 0 164296.35029050708 38238370.49961853 0 38238370.49961853 49142295.547943115 0 0 0 0 -14159524.837443173 16478574.605064392 0 16478574.605064392 46731074.912124634 0 0 0 0 72501196.358063281 49752536.98840332 0 49752536.98840332 48172330.76991272 0 0 0 0 610308.93765742704 102559.98705114424 0 102559.98705114424 5385166.9124899507 0 0 0 0 1225090.7812426761 1977397.4345684052 0 1977397.4345684052 11853085.684700012 0 0 0 0 1881095.8753097057 2355136.9491786957 0 2355136.9491786957 5984875.3401947021 0 0 0 0 435958.88037682977 1630890.5967347622 0 1630890.5967347622 6042360.3031476736 0 0 0 0 10970532.586103439 11423862.218486786 0 11423862.218486786 33498258.195587158 0 0 0 0 19518991.42319949 21312185.755878925 0 21312185.755878925 44794020.085296631 0 0 0 0 6144637.2644581851 6702426.352048859 0 6702426.352048859 3537594.0460973871 0 0 0 0 21879490.76598683 40325757.306682587 0 40325757.306682587 43494053.823738098 0 0 0 0 2557934.3705291748 -952645.83783340454 0 -952645.83783340454 5888940.1084899902 0 0 0 0 1513451.3966470361 -12507061.074451447 0 -12507061.074451447 4907467.8439102173 0 0 0 0 -15650439.051849604 15059557.729633331 0 15059557.729633331 9511512.3543701172 0 0 0 0 -519363.17431719479 123217.12325684354 0 123217.12325684354 9338251.4952717423 0 0 0 0 7944076.499859333 9548539.1999969482 0 9548539.1999969482 876610.21703338623 0 0 0 0 -1164478.4666993618 -3305452.4717407227 0 -3305452.4717407227 12507892.353916168 0 0 0 0 3500945.335480392 -2335549.1362991333 0 -2335549.1362991333 -3390242.5580749512 0 0 0 0 15283762.189476073 21835314.327468872 0 21835314.327468872 20312350.881391525 0 0 0 0 9482076.1735736728 2670801.5750350952 0 2670801.5750350952 -3810269.384765625 0 0 0 0 68867353.374551326 -30125657.731414795 0 -30125657.731414795 93216323.950416565 0 0 0 0 -1205155.7302033755 -1758898.3410787582 0 -1758898.3410787582 4529488.9075469971 0 0 0 0 -56148.92379606863 -358130.73810905218 0 -358130.73810905218 -29388.42070518434 0 0 0 0 -27108.180041193344 -100003.71931023896 0 -100003.71931023896 23418.180751144886 0 0 0 0 -119228.28429482314 79317.049792166799 0 79317.049792166799 1567261.0502844453 0 0 0 0 -6431168.0738444608 5032225.1788902283 0 5032225.1788902283 7314254.7017059326 0 0 0 0 -3941523.3153736517 -2680885.7076721191 0 -2680885.7076721191 3142207.2469711304 0 0 0 0 30000.444907833709 70782.969854228199 0 70782.969854228199 727266.31223973632 0 0 0 0 -1308449.0047501177 1251451.4769973755 0 1251451.4769973755 2001994.5428237915 0 0 0 0 -488701.20201595593 2178214.5474815369 0 2178214.5474815369 1528992.3446502686 0 0 0 0 423772.36997034494 -3641462.0547561646 0 -3641462.0547561646 287652.93533325195 0 0 0 0 -486179.11941564083 1489559.4315223694 0 1489559.4315223694 -797920.74449157715 0 0 0 0 -1487033.7798756994 2164372.9121704102 0 2164372.9121704102 3022186.8294525146 0 0 0 0 110083.42408091699 -114790.17530730367 0 -114790.17530730367 -31639.912135452032 0 0 0 0 -806938.52977860672 -2857933.7542572021 0 -2857933.7542572021 7246334.7403717041 0 0 0 0 225376.61773607839 -20820871.953151703 0 -20820871.953151703 108050495.04279709 0 0 0 0 -8997762.5252179652 -80578436.526716232 0 -80578436.526716232 212917114.1504364 0 0 0 0 87642345.806170911 -116839680.98361206 0 -116839680.98361206 207534772.83180714 0 0 0 0 -128695.93553145381 -51200559.161206231 0 -51200559.161206231 382308375.24230957 0 0 0 0 21119036.557093993 -76642057.30708313 0 -76642057.30708313 301407874.8780365 0 0 0 0 120010807.57629606 -231723592.68652344 0 -231723592.68652344 344360189.86475372 0 0 0 0 140705973.56583363 -127529562.50469685 0 -127529562.50469685 194325333.06880951 0 0 0 0 25814685.113430977 -11236485.434608459 0 -11236485.434608459 195091134.1359145 0 0 0 0 9723824.2928696461 -10475364.900139809 0 -10475364.900139809 208354083.53260803 0 0 0 0 9801668.5962516665 -11607550.766090393 0 -11607550.766090393 125510617.12970734 0 0 0 0 25098734.881071448 -66396697.242370605 0 -66396697.242370605 174826623.74893188 0 0 0 0 23630364.93531248 -17726774.829727173 0 -17726774.829727173 212089567.49355316 0 0 0 0 -164331.12686959998 208037.33770051599 0 208037.33770051599 749432.8830602318 0 0 0 0 -5642735.5838872492 -74452761.691856384 0 -74452761.691856384 185102813.04250336 0 0 0 0 -28063983.786320031 -49441078.433502197 0 -49441078.433502197 167077500.54046631 0 0 0 0 89240332.911805764 -57647459.071372986 0 -57647459.071372986 186734228.27330017 0 0 0 0 2473570.7393576279 2814979.0602413565 0 2814979.0602413565 17010775.089673102 0 0 0 0 179563088.31442451 158816274.13375354 0 158816274.13375354 98991551.385162354 0 0 0 0 -128309989.9732863 117383525.68582726 0 117383525.68582726 30255153.378223419 0 0 0 0 74859682.356024042 112237669.56075191 0 112237669.56075191 -75512024.336166382 0 0 0 0 91252238.406656057 -46924271.836296082 0 -46924271.836296082 -107969999.85160255 0 0 0 0 51462872.814643145 -40044588.945796013 0 -40044588.945796013 805076310.86021423 0 0 0 0 218279250.19180173 -32133792.023532867 0 -32133792.023532867 -116216653.52896881 0 0 0 0 105663.76793680451 -82093.534697342664 0 -82093.534697342664 6965436.8846622258 0 0 0 0 -32800269.185463011 -433021811.51234245 0 -433021811.51234245 780232098.30566025 0 0 0 0 593411104.32916331 538451957.71421409 0 538451957.71421409 642364730.57925797 0 0 0 0 327218565.04730564 -78046063.069210529 0 -78046063.069210529 1749334552.5361633 0 0 0 0 268458854.7982744 -464488981.94146657 0 -464488981.94146657 1505055599.2399902 0 0 0 0 -185739186.59486312 -72764889.147890091 0 -72764889.147890091 2205320119.2556953 0 0 0 0 -172897023.42804897 -77213113.040538788 0 -77213113.040538788 1794900309.9958267 0 0 0 0 -15826600.003346503 -132694737.81458092 0 -132694737.81458092 832154781.06080627 0 0 0 0 -17601992.655130934 150008096.88587379 0 150008096.88587379 947579481.92058563 0 0 0 0 -153190430.46288213 55565735.195846558 0 55565735.195846558 1805162284.519001 0 0 0 0 -140134409.3924616 152815589.93475056 0 152815589.93475056 2204847780.0294838 0 0 0 0 -161622680.70696777 25496070.120990753 0 25496070.120990753 1812748954.5349274 0 0 0 0 411758523.90022862 159495820.56719971 0 159495820.56719971 1906949244.4524841 0 0 0 0 274657825.49899173 498780685.71126938 0 498780685.71126938 495525454.98441315 0 0 0 0 -114212058.83973975 290376198.86348343 0 290376198.86348343 1981133304.604269 0 0 0 0 -30957252.021888137 -63828796.163743973 0 -63828796.163743973 522303862.56199646 0 0 0 0 34980973.543823242 -96961905.449931145 0 -96961905.449931145 114012995.84371185 0 0 0 0 -5363091.4971710443 -28968283.380432129 0 -28968283.380432129 324330030.08661461 0 0 0 0 183032228.94156227 -14523748.819665909 0 -14523748.819665909 298643301.10998535 0 0 0 0 161697303.07225373 -68892750.529953957 0 -68892750.529953957 258034065.25089264 0 0 0 0 -417714.27100726962 115536296.76813126 0 115536296.76813126 958483966.99532032 0 0 0 0 27679682.144893557 153435243.99071503 0 153435243.99071503 105724311.82796669 0 0 0 0 33841239.463568389 -177393713.38593575 0 -177393713.38593575 34867755.223823547 0 0 0 0 77613428.764865041 -1065296.0080223083 0 -1065296.0080223083 -173343163.60316467 0 0 0 0 70495592.167555571 -59900964.031764984 0 -59900964.031764984 -52928817.383712769 0 0 0 0 -18856773.881650448 5308201.8641166687 0 5308201.8641166687 30198376.273464203 0 0 0 0 -873428.52485122764 735332.30177738145 0 735332.30177738145 591475.88037844002 0 0 0 0 40807331.928922653 31872641.603313446 0 31872641.603313446 -22274533.099336147 0 0 0 0 -93728234.626096845 -75900959.427932739 0 -75900959.427932739 142719944.09290314 0 0 0 0 139158914.34539521 -133516764.50047207 0 -133516764.50047207 121862067.58081055 0 0 0 0 5573117.6147758979 -4253300.0468847677 0 -4253300.0468847677 6631131.7466383576 0 0 0 0 111267124.30691123 -78722171.376895905 0 -78722171.376895905 88771236.179389954 0 0 0 0 47154612.236031532 -204585067.19824982 0 -204585067.19824982 194640362.25186157 0 0 0 0 1032756.1196808659 86699.966318400577 0 86699.966318400577 6336722.1460206211 0 0 0 0 -31897703.826955557 9033884.482170105 0 9033884.482170105 152629678.36419678 0 0 0 0 47613452.673900843 -63408985.258275986 0 -63408985.258275986 238238946.96835327 0 0 0 0 73607503.715168715 -129021510.15262222 0 -129021510.15262222 217253962.09967041 0 0 0 0 -119672617.9405117 -46601382.42464447 0 -46601382.42464447 262575963.75897217 0 0 0 0 -38460190.878946304 -163749499.54515076 0 -163749499.54515076 297171702.99401855 0 0 0 0 -89183310.468763828 -9147187.0775718689 0 -9147187.0775718689 420046404.98365784 0 0 0 0 -61362284.152771115 72248514.446169853 0 72248514.446169853 307715579.20019531 0 0 0 0 -61318819.544281244 -53155205.956356049 0 -53155205.956356049 344464047.20292664 0 0 0 0 -24789744.202122688 -53751136.336219788 0 -53751136.336219788 118528537.34787369 0 0 0 0 -57464279.268909931 25575939.682197571 0 25575939.682197571 329018616.12048531 0 0 0 0 179749893.99427199 130800628.35587883 0 130800628.35587883 -258520200.20381546 0 0 0 0 3278935.7742413143 4021488.7393967733 0 4021488.7393967733 3699390.2571647614 0 0 0 0 22148697.676574945 -170403942.49790192 0 -170403942.49790192 3089201371.5168953 0 0 0 0 -18832866.994003773 -421472992.78221893 0 -421472992.78221893 204053119.91798019 0 0 0 0 179558484.70925829 -63447688.263656616 0 -63447688.263656616 2205279370.9049401 0 0 0 0 313341226.18997014 113861412.24310684 0 113861412.24310684 2355159805.5482941 0 0 0 0 279035762.30052006 230678435.95947266 0 230678435.95947266 2782729114.8249893 0 0 0 0 59000495.425925806 -366085528.18599319 0 -366085528.18599319 2656619826.0644455 0 0 0 0 59271995.730071895 -330138664.53866243 0 -330138664.53866243 2085877607.8172836 0 0 0 0 -21862810.303667992 30076381.292938232 0 30076381.292938232 2222125575.8010483 0 0 0 0 5682050.7886870429 11651009.539559588 0 11651009.539559588 7044164.6626961157 0 0 0 0 -7626166.0822533071 -164057249.04640961 0 -164057249.04640961 1933367753.9266357 0 0 0 0 9554730.6969981194 31032030.717285156 0 31032030.717285156 -104151431.57969666 0 0 0 0 -149337034.53296471 201489902.54767609 0 201489902.54767609 813373895.45156097 0 0 0 0 -83505519.867958069 141033613.03776932 0 141033613.03776932 217480046.96601486 0 0 0 0 -53203191.108595759 -259977863.71270752 0 -259977863.71270752 1755357724.3850174 0 0 0 0 -163274451.62589893 -78020090.811155319 0 -78020090.811155319 2204591690.5962982 0 0 0 0 -298400431.29825675 206354157.52349854 0 206354157.52349854 1873189118.6555023 0 0 0 0 -34959934.103759646 62414183.052108765 0 62414183.052108765 1331075545.6524715 0 0 0 0 1437181.1001182485 15800456.771844566 0 15800456.771844566 6747774.0967424065 0 0 0 0 -112237594.54694864 -165778245.18495178 0 -165778245.18495178 292111015.1647644 0 0 0 0 440063221.27679586 156925488.58189392 0 156925488.58189392 -10269303.048881531 0 0 0 0 191987544.01435161 -197099368.72068024 0 -197099368.72068024 101605165.24811554 0 0 0 0 -274927094.74693632 29224283.669769287 0 29224283.669769287 536069924.70610809 0 0 0 0 -203017258.68147516 -146759485.77273178 0 -146759485.77273178 262789908.121521 0 0 0 0 -87963477.958032131 14424316.481361389 0 14424316.481361389 371311711.57574463 0 0 0 0 13639793.119449139 49195450.748214722 0 49195450.748214722 263952804.95645905 0 0 0 0 214495213.69950414 -32200731.287994385 0 -32200731.287994385 -26654806.790267944 0 0 0 0 -65577019.999434948 233472742.69678879 0 233472742.69678879 500671478.37517166 0 0 0 0 3649184.4781039255 -1537224.3252107501 0 -1537224.3252107501 426823.56908166409 0 0 0 0 52119240.395211458 39961582.986717224 0 39961582.986717224 -34983917.305786133 0 0 0 0 43190671.759561062 19027988.172428131 0 19027988.172428131 69006631.082397461 0 0 0 0 -68808062.103620291 78117474.233695984 0 78117474.233695984 69745023.468795776 0 0 0 0 22414969.834394455 -105168287.64490509 0 -105168287.64490509 94030742.469238281 0 0 0 0 30337759.58052063 -26607438.338867188 0 -26607438.338867188 57036394.93170166 0 0 0 0 23761657.005270004 -13274421.781723022 0 -13274421.781723022 85910037.977134705 0 0 0 0 35850885.778505802 -11778638.558208466 0 -11778638.558208466 44130253.018234253 0 0 0 0 20010858.498834848 -36948574.802963257 0 -36948574.802963257 18843517.077289581 0 0 0 0 7879462.4772689342 -110427507.21875572 0 -110427507.21875572 73474381.402938843 0 0 0 0 152236234.86304784 -37859169.544250488 0 -37859169.544250488 9935196.6350822449 0 0 0 0 757170.55525827408 -30186568.594654083 0 -30186568.594654083 27711035.400085449 0 0 0 0 8726477.4832640886 -36587708.958526611 0 -36587708.958526611 17114724.386642456 0 0 0 0 11662782.981046796 -21931399.906898499 0 -21931399.906898499 15329673.760726929 0 0 0 0 38129808.771315336 -15431328.954918861 0 -15431328.954918861 18549099.340194702 0 0 0 0 40909026.618247986 -29650284.488891602 0 -29650284.488891602 18246661.365409851 0 0 0 0 33893555.465920925 -13746875.201667786 0 -13746875.201667786 6508889.578994751 0 0 0 0 19171884.749694824 1804361.0678749084 0 1804361.0678749084 5027418.1446380615 0 0 0 0 18565615.861386299 -27563474.676322937 0 -27563474.676322937 18072792.063991547 0 0 0 0 9349191.2758331299 -22989886.383810997 0 -22989886.383810997 14862244.520324707 0 0 0 0 -1483268.770919323 -14862564.746921539 0 -14862564.746921539 28082077.199798584 0 0 0 0 12432526.344564915 -12844932.992012024 0 -12844932.992012024 13137696.367347717 0 0 0 0 9041864.1103420258 -7663561.1041259766 0 -7663561.1041259766 7438745.3170337677 0 0 0 0 12244498.808033943 -538726.01906776428 0 -538726.01906776428 11989205.930709839 0 0 0 0 -253952.56749997102 246055.32094976306 0 246055.32094976306 4474321.477250237 0 0 0 0 2124467.5295028687 -10440574.080219269 0 -10440574.080219269 19133917.684432983 0 0 0 0 -217182.91201639175 -5651081.2484741211 0 -5651081.2484741211 15321125.457870483 0 0 0 0 -14900963.538722873 -38298610.840805054 0 -38298610.840805054 20449337.35552597 0 0 0 0 -28225.506470899214 -13589981.852425829 0 -13589981.852425829 45648091.699143142 0 0 0 0 -7037531.0226904154 -20887749.335525513 0 -20887749.335525513 22049269.622917175 0 0 0 0 -77986.879708022811 480845.83140744269 0 480845.83140744269 12754916.249888077 0 0 0 0 -2103261.7233918905 2148475.1786117554 0 2148475.1786117554 54653060.705664158 0 0 0 0 -2930054.9821703015 -5563692.1033839881 0 -5563692.1033839881 25508340.935364485 0 0 0 0 5505492.3565403223 5022766.0523262024 0 5022766.0523262024 40300743.262672424 0 0 0 0 9346228.2352256775 12416213.62739563 0 12416213.62739563 39643431.609665871 0 0 0 0 10366463.202671722 8386507.3876799494 0 8386507.3876799494 8003079.867407022 0 0 0 0 11923624.227966547 15873786.073074341 0 15873786.073074341 44228852.181694031 0 0 0 0 -4832470.9634273052 -1966340.2459793091 0 -1966340.2459793091 26702855.923416138 0 0 0 0 -3201142.1474915743 -2780910.5927047729 0 -2780910.5927047729 29322140.197494507 0 0 0 0 -2302341.4447067846 -596395.53374848329 0 -596395.53374848329 22993874.197403044 0 0 0 0 -1490061.9176044464 6420189.2282104492 0 6420189.2282104492 12721440.458427429 0 0 0 0 158017.96317528654 -1054604.3626848757 0 -1054604.3626848757 15502854.90605313 0 0 0 0 -4293213.5349836349 4126084.4537963867 0 4126084.4537963867 8956360.3876981735 0 0 0 0 -4309133.1966908025 3334655.2885486037 0 3334655.2885486037 37760275.740704581 0 0 0 0 -3617150.8775653839 1685416.8156433105 0 1685416.8156433105 13258555.594848633 0 0 0 0 -3730966.0787971406 1784050.7817225307 0 1784050.7817225307 25474154.915115267 0 0 0 0 -2320362.7544573974 -3991494.9425165355 0 -3991494.9425165355 13057200.400817089 0 0 0 0 -2483007.829736948 2644801.4218120575 0 2644801.4218120575 32813992.798057556 0 0 0 0 -1881058.555570554 -504949.21176190674 0 -504949.21176190674 12319076.777606022 0 0 0 0 408677.62485122681 -1689853.8061103821 0 -1689853.8061103821 29825262.348770142 0 0 0 0 -57829.383726596832 -4537113.1611633301 0 -4537113.1611633301 21079618.95728898 0 0 0 0 126673.46722884849 -4200091.7469268143 0 -4200091.7469268143 8381738.5463106865 0 0 0 0 -1607515.6947579384 -5787665.1194734573 0 -5787665.1194734573 32044417.654594421 0 0 0 0 -1426226.5735541508 3100926.556457743 0 3100926.556457743 12222057.052544445 0 0 0 0 2425708.0727901459 -946630.29879760742 0 -946630.29879760742 27516335.268875122 0 0 0 0 -355658.44550514221 -3744545.6145477295 0 -3744545.6145477295 32447976.285413742 0 0 0 0 1909562.9197239876 -4176329.3746500015 0 -4176329.3746500015 34425598.181465149 0 0 0 0 973147.13745792024 -5378657.9199126586 0 -5378657.9199126586 20796405.520489767 0 0 0 0 1362867.878510952 -2472422.8193464279 0 -2472422.8193464279 27455392.619617462 0 0 0 0 984481.62506740261 -4739974.4030098096 0 -4739974.4030098096 19815974.685282558 0 0 0 0 2897137.9012023434 121760.23503573239 0 121760.23503573239 6323498.5168075254 0 0 0 0 4276148.9378929138 -165844.00332069397 0 -165844.00332069397 21667105.191047668 0 0 0 0 5398841.0194768906 -2254131.676322937 0 -2254131.676322937 19122083.493553162 0 0 0 0 2388480.0127602965 -431659.12666671723 0 -431659.12666671723 7037506.2291129231 0 0 0 0 5596381.3696373701 -1941215.0557203293 0 -1941215.0557203293 16545114.123550415 0 0 0 0 -1336419.9893693924 -3260064.3894271851 0 -3260064.3894271851 10532556.113922119 0 0 0 0 -2079859.214864254 -2788948.3669700623 0 -2788948.3669700623 16380906.810144186 0 0 0 0 80798.219418372959 -3142745.7901675068 0 -3142745.7901675068 13785957.28107962 0 0 0 0 2913118.1198358536 -2107024.4311141968 0 -2107024.4311141968 19346390.879314423 0 0 0 0 -1962961.2654599552 -3366941.3867707886 0 -3366941.3867707886 12698388.523126185 0 0 0 0 -1419521.0113877961 -776361.06659242697 0 -776361.06659242697 9485909.0644716918 0 0 0 0 -178204.54006984457 66924.881038308144 0 66924.881038308144 12178455.056604087 0 0 0 0 -4443121.5739974976 841309.76359558105 0 841309.76359558105 6690358.2026824951 0 0 0 0 -2298724.4797420856 -2972065.0000101924 0 -2972065.0000101924 17309361.287796192 0 0 0 0 592868.05727958679 22748613.729206085 0 22748613.729206085 -5365484.1905441284 0 0 0 0 525219.39902210236 -4369948.4625964165 0 -4369948.4625964165 15895567.845489502 0 0 0 0 1434444.5862033367 -4844630.9527454376 0 -4844630.9527454376 15951237.883277893 0 0 0 0 659369.4207926672 -370015.85261046886 0 -370015.85261046886 700816.52449086308 0 0 0 0 -6804776.4287319183 7834997.1861038208 0 7834997.1861038208 9326358.6826782227 0 0 0 0 1252386.3859713264 -5132432.6338307317 0 -5132432.6338307317 13372357.00114423 0 0 0 0 2040711.2542318031 -6050620.7716761306 0 -6050620.7716761306 11453174.856921732 0 0 0 0 1081591.2683796864 691837.79757963866 0 691837.79757963866 -904202.53555214405 0 0 0 0 18430623.967240334 -29819681.985639572 0 -29819681.985639572 -29108585.601585388 0 0 0 0 7092194.6117840409 6149648.9368724823 0 6149648.9368724823 -4493107.4276733398 0 0 0 0 4733900.3687785398 -4497810.0153704286 0 -4497810.0153704286 8871854.5685718805 0 0 0 0 7241847.0229635071 1246049.436273165 0 1246049.436273165 2685693.4167927951 0 0 0 0 -3981534.6086028218 -28456676.945518494 0 -28456676.945518494 -65812895.41885376 0 0 0 0 6742981.2548503876 477730.85710906982 0 477730.85710906982 5733657.0419712067 0 0 0 0 11715264.46690717 1964639.3747253418 0 1964639.3747253418 -7689259.3082351685 0 0 0 0 -16395939.898714967 60412645.089557648 0 60412645.089557648 -83032174.603317261 0 0 0 0 10934326.110547706 8787721.8394161612 0 8787721.8394161612 3388748.1517099887 0 0 0 0 10229666.754054546 6754001.5509262085 0 6754001.5509262085 15908966.576259613 0 0 0 0 3733167.2954897867 2480059.5388204874 0 2480059.5388204874 -1970063.1559582055 0 0 0 0 -5633855.069678843 -35448027.077586412 0 -35448027.077586412 -89222673.896503448 0 0 0 0 9855090.9687314034 5318920.5793323517 0 5318920.5793323517 19023983.437515259 0 0 0 0 2775209.1263330439 2957091.8585329689 0 2957091.8585329689 10436198.763578236 0 0 0 0 9192187.8306101561 4689285.5104250908 0 4689285.5104250908 18433368.509223938 0 0 0 0 4921321.0005521774 1807076.7927818298 0 1807076.7927818298 11173213.766723633 0 0 0 0 5108384.6165981293 1472881.8594703674 0 1472881.8594703674 8870893.676486969 0 0 0 0 3072881.2727378309 572364.00866009295 0 572364.00866009295 7329954.4830328673 0 0 0 0 5786732.7866377831 1856880.3911361694 0 1856880.3911361694 18614379.08319664 0 0 0 0 552229.48189144395 -656110.80159816518 0 -656110.80159816518 11457222.847461626 0 0 0 0 3906877.1572061488 -2233696.2703074515 0 -2233696.2703074515 6556948.1265197545 0 0 0 0 3897989.4645556952 -930591.96515141055 0 -930591.96515141055 3996344.3172175288 0 0 0 0 4077089.4609289169 -814803.28115844727 0 -814803.28115844727 2994007.7354888916 0 0 0 0 2242169.565987587 -1143565.8173065186 0 -1143565.8173065186 29059552.963897705 0 0 0 0 3767547.7557277679 549920.02020263672 0 549920.02020263672 9828274.4828839302 0 0 0 0 1221610.0525766965 116163.8857228756 0 116163.8857228756 21589263.381434709 0 0 0 0 -155704.95425796509 369040.55182266235 0 369040.55182266235 7937131.9580383301 0 0 0 0 2938535.2021059683 2863.6798174530268 0 2863.6798174530268 15932685.425658435 0 0 0 0 2800254.843090049 785008.72896909714 0 785008.72896909714 14391103.0083552 0 0 0 0 1577365.7903525643 -1110633.7351638824 0 -1110633.7351638824 12816002.124790819 0 0 0 0 819250.13472176529 1973498.8237692267 0 1973498.8237692267 11814664.290833727 0 0 0 0 2530530.7713890076 83310.082588195801 0 83310.082588195801 34326769.765216827 0 0 0 0 3277055.77135849 -4226140.3691329956 0 -4226140.3691329956 34099182.917545319 0 0 0 0 183569.71256065369 -2791222.764831543 0 -2791222.764831543 35994397.396728516 0 0 0 0 1932479.8649023033 542250.71531206695 0 542250.71531206695 22160092.310402274 0 0 0 0 -2123678.8375601377 4147479.7464865297 0 4147479.7464865297 4502942.0182781368 0 0 0 0 987786.59715652466 1812222.4464569092 0 1812222.4464569092 20034945.240783691 0 0 0 0 -5493307.0183200836 -220093.64934921265 0 -220093.64934921265 6044265.1558227539 0 0 0 0 571679.93425003812 1030828.2934383228 0 1030828.2934383228 16396532.449265718 0 0 0 0 -407977.72222064342 -1065043.7107848627 0 -1065043.7107848627 12598140.621346653 0 0 0 0 -2243593.3758247755 -902204.15689344704 0 -902204.15689344704 34545557.83076825 0 0 0 0 5734067.3725795746 5787867.9588699341 0 5787867.9588699341 34035024.619216919 0 0 0 0 528446.16906310059 1901081.4942586124 0 1901081.4942586124 8828231.6051849239 0 0 0 0 21056948.896435738 -13027387.848278046 0 -13027387.848278046 11795805.420394897 0 0 0 0 -24377691.12804985 -23551263.531341553 0 -23551263.531341553 -5920374.0713195801 0 0 0 0 3467726.964635849 20232267.462295532 0 20232267.462295532 62619970.406341553 0 0 0 0 -24192171.376456499 21041849.574036598 0 21041849.574036598 74189237.097747803 0 0 0 0 -864182.8860002365 5356119.9454892874 0 5356119.9454892874 5304328.0379214287 0 0 0 0 -17499873.158688545 -16136550.804740906 0 -16136550.804740906 36190817.540679932 0 0 0 0 -16026340.297128677 -12101161.484687805 0 -12101161.484687805 47097202.47385025 0 0 0 0 -10462643.822856903 -22479999.749641418 0 -22479999.749641418 63070035.877960205 0 0 0 0 11295808.622278214 -31294388.248260498 0 -31294388.248260498 72871157.456718445 0 0 0 0 6419002.8129272461 -19081459.151374817 0 -19081459.151374817 43793387.674987793 0 0 0 0 26686139.465810776 35950271.292186737 0 35950271.292186737 -18663940.610198975 0 0 0 0 -10769754.607697487 -1160804.889251709 0 -1160804.889251709 122374387.82983398 0 0 0 0 5860051.4325614013 1593835.4820230752 0 1593835.4820230752 4309280.684548757 0 0 0 0 9568368.0507326126 538667.27066802979 0 538667.27066802979 28235783.857463837 0 0 0 0 -11423571.830109596 9908216.6934642792 0 9908216.6934642792 44156214.029541016 0 0 0 0 -12344596.168046951 211607.33639144897 0 211607.33639144897 28006626.041755676 0 0 0 0 -21727439.676431656 9099230.708404541 0 9099230.708404541 21339797.978946686 0 0 0 0 12100287.672298431 -7744481.7254257202 0 -7744481.7254257202 16871340.338165283 0 0 0 0 -6905507.6593952179 6236794.7906494141 0 6236794.7906494141 34876458.683769226 0 0 0 0 5497549.7842658823 -803377.4907496511 0 -803377.4907496511 11093576.842915222 0 0 0 0 -1307200.8059965726 510067.64618005604 0 510067.64618005604 3075078.259564817 0 0 0 0 6601201.8078041077 2734439.531665802 0 2734439.531665802 27696782.37865448 0 0 0 0 -6171177.538724184 28653703.630880356 0 28653703.630880356 55995919.484745026 0 0 0 0 20277129.341556668 -53596350.001559973 0 -53596350.001559973 -3675447.6084327698 0 0 0 0 5227469.2022730205 2292177.8096015677 0 2292177.8096015677 6288392.7268408574 0 0 0 0 6796439.9295034409 7196196.9494895935 0 7196196.9494895935 30520474.166722775 0 0 0 0 35557448.273155212 99675009.770622253 0 99675009.770622253 68315341.698226929 0 0 0 0 19659288.475409508 12242706.418651581 0 12242706.418651581 -5352654.5529632568 0 0 0 0 -223558.30156717263 3298044.0618963689 0 3298044.0618963689 2093056.6711760014 0 0 0 0 17576181.411539555 -24085830.205034256 0 -24085830.205034256 47256815.997314453 0 0 0 0 -2233075.8781486638 6868812.9612167031 0 6868812.9612167031 24261304.078696247 0 0 0 0 -6192573.4212245941 9575148.1208877563 0 9575148.1208877563 39758815.627403259 0 0 0 0 -5109621.4701183923 146888.85867114365 0 146888.85867114365 5393039.0790623967 0 0 0 0 1959007.1448437767 9393698.4045249037 0 9393698.4045249037 22287311.068543687 0 0 0 0 -16675468.044254303 16639305.158567429 0 16639305.158567429 53273741.093057632 0 0 0 0 -14646449.846963882 22596605.742448807 0 22596605.742448807 45305986.927528381 0 0 0 0 -6275425.1975507736 11282002.766342163 0 11282002.766342163 11509003.289302826 0 0 0 0 6718482.3272037506 183238.74910354614 0 183238.74910354614 22397528.93529129 0 0 0 0 -2672593.4949984215 -420826.59073981643 0 -420826.59073981643 7413844.3418543413 0 0 0 0 4503032.2998404503 33442373.731227875 0 33442373.731227875 -27956899.535934448 0 0 0 0 -69013.476301193237 33033278.017467499 0 33033278.017467499 41788351.756458282 0 0 0 0 3959385.7023153258 9446981.2868627515 0 9446981.2868627515 21144430.721042424 0 0 0 0 10709676.97721529 8070559.186750412 0 8070559.186750412 23531989.089179993 0 0 0 0 8032185.6975383759 7509276.7723503113 0 7509276.7723503113 23505631.869569302 0 0 0 0 -41649545.748265266 4101009.7829380035 0 4101009.7829380035 21107998.204986572 0 0 0 0 -62138403.855988503 -28528960.376235485 0 -28528960.376235485 44952156.446044922 0 0 0 0 917848.16450171405 5014706.6569080725 0 5014706.6569080725 933056.12214246392 0 0 0 0 -131150137.6552639 12916440.193161011 0 12916440.193161011 37846701.735366821 0 0 0 0 -2168138.8879906349 -1849561.0477445479 0 -1849561.0477445479 2293635.9083641022 0 0 0 0 9122713.3072190285 7456144.3236541748 0 7456144.3236541748 20596679.433244705 0 0 0 0 6771006.7277398109 5076345.9365367889 0 5076345.9365367889 23628563.686225891 0 0 0 0 9024838.1940401793 4184201.3413167 0 4184201.3413167 22327989.987739563 0 0 0 0 9815107.5244269371 6259152.9820661545 0 6259152.9820661545 17212290.107704163 0 0 0 0 11435358.492191792 9023924.1276454926 0 9023924.1276454926 12714781.61989212 0 0 0 0 3272734.9645635807 7860387.6817303058 0 7860387.6817303058 16190603.825179979 0 0 0 0 9547559.2714301385 9589398.1717206612 0 9589398.1717206612 6779283.6284037307 0 0 0 0 9504120.3720989227 9785224.6827716827 0 9785224.6827716827 18144921.640312195 0 0 0 0 -52157101.158279419 33343477.687610626 0 33343477.687610626 29963126.438827515 0 0 0 0 -306954150.09380341 -66133162.892396927 0 -66133162.892396927 192597537.40626526 0 0 0 0 -105303891.63967085 3702079.0829963684 0 3702079.0829963684 155330971.42510796 0 0 0 0 -208185131.42081451 -16971024.805646896 0 -16971024.805646896 191999580.44901276 0 0 0 0 -133929093.51435566 31107087.34640789 0 31107087.34640789 219867172.52951431 0 0 0 0 -287077386.00181293 36352698.817043304 0 36352698.817043304 274459455.61036682 0 0 0 0 51473099.846964836 38432074.338750839 0 38432074.338750839 36176134.375522614 0 0 0 0 -491463.94687175797 355858.9659401942 0 355858.9659401942 3097391.3536348194 0 0 0 0 -227308164.01132488 11871103.812049866 0 11871103.812049866 511499655.47044373 0 0 0 0 50663830.732391208 131834779.88408183 0 131834779.88408183 90525841.341835022 0 0 0 0 22375020.97604847 19472889.330608368 0 19472889.330608368 -123374738.99778318 0 0 0 0 -403706.38798647188 4034905.6066124178 0 4034905.6066124178 774198.91564359516 0 0 0 0 56464256.56937623 -12730649.808060169 0 -12730649.808060169 -122545606.25671577 0 0 0 0 -63399997.179661274 -22142387.741305351 0 -22142387.741305351 93938977.977088928 0 0 0 0 -4883620.7234416595 -712567.29369768873 0 -712567.29369768873 31191065.318787232 0 0 0 0 -35791581.532160759 -60063275.772678375 0 -60063275.772678375 -40146977.90698719 0 0 0 0 -696211.438562233 1575274.4593318924 0 1575274.4593318924 1939472.7614335418 0 0 0 0 -113141484.01738071 -48355499.481399536 0 -48355499.481399536 -107377130.24318314 0 0 0 0 -226510989.04339457 -120955303.97756958 0 -120955303.97756958 22885287.865600586 0 0 0 0 -213082217.96232522 -68903480.861232758 0 -68903480.861232758 111223980.19055176 0 0 0 0 -77156871.09872818 24961197.252897263 0 24961197.252897263 13578887.783342361 0 0 0 0 -55416563.326495647 -10233714.593309402 0 -10233714.593309402 49343636.448432922 0 0 0 0 -101122944.35576439 83062271.357746124 0 83062271.357746124 -33767157.597380638 0 0 0 0 -36445981.552550316 102649755.37547016 0 102649755.37547016 39217580.094329834 0 0 0 0 -81015190.971524477 49521400.788139343 0 49521400.788139343 11175851.697635651 0 0 0 0 -44417145.60820055 53260000.884284973 0 53260000.884284973 -46469275.233324051 0 0 0 0 -29739048.939652443 76988553.955784798 0 76988553.955784798 -23736575.004657745 0 0 0 0 -78822549.288919449 78589363.556684494 0 78589363.556684494 17813612.286029816 0 0 0 0 88522.647708451375 1868283.7763524372 0 1868283.7763524372 18932120.374438159 0 0 0 0 -6649439.4552669525 7744840.8745727539 0 7744840.8745727539 8048064.9495412111 0 0 0 0 -2970135.9011043478 8459822.0049383007 0 8459822.0049383007 15970824.340343714 0 0 0 0 10503346.61785984 -1432137.3352508545 0 -1432137.3352508545 6934858.5068473816 0 0 0 0 -1585445.5994406017 6021324.6478969343 0 6021324.6478969343 12994810.432459675 0 0 0 0 -94504556.924077749 35155332.745733738 0 35155332.745733738 -3035008.7579612732 0 0 0 0 -132793172.50138187 49561263.67377758 0 49561263.67377758 16688296.829452515 0 0 0 0 10180350.349086046 29511771.836941242 0 29511771.836941242 21548841.766780853 0 0 0 0 -1011425.3509021397 2272499.6671350077 0 2272499.6671350077 9219734.2551210597 0 0 0 0 8963045.2943372726 6586685.1842651367 0 6586685.1842651367 16793134.737625122 0 0 0 0 -2571036.1940801395 -3414695.3872735463 0 -3414695.3872735463 4159571.7839441448 0 0 0 0 -3782200.8293194771 4863690.4290161133 0 4863690.4290161133 24231825.199241638 0 0 0 0 -2307829.4627407584 1435240.7295884565 0 1435240.7295884565 16066700.272469476 0 0 0 0 -3354828.8451938629 2484224.789932251 0 2484224.789932251 25408243.933309555 0 0 0 0 -787263.96275615692 3138873.2703952789 0 3138873.2703952789 23168123.664321899 0 0 0 0 -1019401.0464849472 1361745.9420528412 0 1361745.9420528412 10452224.732039213 0 0 0 0 -2348307.7301921844 -546243.28838348389 0 -546243.28838348389 30908228.933723211 0 0 0 0 4522570.3807125092 -399161.67483520508 0 -399161.67483520508 27607684.322933197 0 0 0 0 -6966578.6035270691 -3349692.8462600708 0 -3349692.8462600708 31385399.41519165 0 0 0 0 357137.98527469323 1786345.1608772613 0 1786345.1608772613 20324053.790783808 0 0 0 0 -1341148.0611548424 -7281999.5766277313 0 -7281999.5766277313 24903355.591506958 0 0 0 0 -1463656.1652086861 2106742.4102148525 0 2106742.4102148525 31145387.451861918 0 0 0 0 -73760379.089588642 -24214665.495479584 0 -24214665.495479584 103384824.97337341 0 0 0 0 -12851126.829845786 11242429.905959606 0 11242429.905959606 53950146.052116394 0 0 0 0 -11104196.847367287 4764021.4106025696 0 4764021.4106025696 25254255.121552825 0 0 0 0 -428381.32124333596 -388463.23962009605 0 -388463.23962009605 29268764.834831104 0 0 0 0 3083541.8446331024 17924360.509223938 0 17924360.509223938 36341734.411823273 0 0 0 0 -2604819.1874608994 49481754.833229065 0 49481754.833229065 57549861.002372742 0 0 0 0 63040004.066676855 14003748.59702301 0 14003748.59702301 41501991.933166504 0 0 0 0 -2486000.6809410565 8057181.5498003103 0 8057181.5498003103 42166041.729147196 0 0 0 0 -11303637.06483078 9206396.6460266113 0 9206396.6460266113 28503559.352661133 0 0 0 0 -1895341.369469177 9330664.802066233 0 9330664.802066233 30975833.293292791 0 0 0 0 -1178406.4819494504 13585722.268360093 0 13585722.268360093 15537202.841031253 0 0 0 0 14655291.28264904 8669464.5016098022 0 8669464.5016098022 28741534.550542831 0 0 0 0 -16011175.180994987 -11575559.464775085 0 -11575559.464775085 64728599.140907288 0 0 0 0 -19163890.696166992 -5976647.4944200516 0 -5976647.4944200516 52810032.631019592 0 0 0 0 -35453543.37256813 18154351.472745895 0 18154351.472745895 64011407.819107056 0 0 0 0 -5303739.8309275955 -647655.56483262405 0 -647655.56483262405 38302814.443456337 0 0 0 0 -1887009.5069103241 7342279.2975521088 0 7342279.2975521088 64170320.220206261 0 0 0 0 -23017933.141517639 -6854752.9530754089 0 -6854752.9530754089 7229144.8261108398 0 0 0 0 -37629244.200863481 54606220.112097263 0 54606220.112097263 84347556.148513794 0 0 0 0 -3980119.3105559349 -1820784.8767585754 0 -1820784.8767585754 64281430.521514893 0 0 0 0 -2214605.1141715236 11328886.826963753 0 11328886.826963753 43251631.94414258 0 0 0 0 2663213.3561705481 10750985.813582778 0 10750985.813582778 38031897.333158009 0 0 0 0 -2971373.9113693237 14122544.810112 0 14122544.810112 28059058.192428589 0 0 0 0 8265468.1796636581 13539663.432603836 0 13539663.432603836 38637742.727897644 0 0 0 0 -1405228.568268979 1287423.5962018669 0 1287423.5962018669 50051893.879902467 0 0 0 0 9565212.4128437042 13675573.704849243 0 13675573.704849243 37041160.185592651 0 0 0 0 2758479.1543315658 15209458.763220139 0 15209458.763220139 26628207.167620838 0 0 0 0 -10129958.032147884 -1494012.3200931549 0 -1494012.3200931549 78062646.44644928 0 0 0 0 1210275.5456555523 5531732.9149372429 0 5531732.9149372429 6129819.5364628844 0 0 0 0 7486789.1999489833 7615799.9293090701 0 7615799.9293090701 15697449.694698807 0 0 0 0 4899727.2872533798 -6770171.0823783875 0 -6770171.0823783875 45692660.765655518 0 0 0 0 6801146.2114751339 -23186633.673362732 0 -23186633.673362732 93720925.86730957 0 0 0 0 33983494.313690305 97855531.289848328 0 97855531.289848328 88209726.455245972 0 0 0 0 641492.44301385805 2515837.8850365058 0 2515837.8850365058 6051357.6350396425 0 0 0 0 18371061.905335903 1608472.5280647278 0 1608472.5280647278 30564864.627880096 0 0 0 0 -17487091.870146632 69551817.195853233 0 69551817.195853233 141036587.49608612 0 0 0 0 -58319159.729655623 21331809.560214996 0 21331809.560214996 147921961.4186554 0 0 0 0 97997977.540805817 -5050488.5934410095 0 -5050488.5934410095 28341538.104812622 0 0 0 0 -1909839.3592741396 -4834359.6022027098 0 -4834359.6022027098 26172528.660661072 0 0 0 0 -29645473.682672024 -20801509.841497421 0 -20801509.841497421 27021427.496551514 0 0 0 0 18096253.825910568 -29449602.114467621 0 -29449602.114467621 24601482.897914886 0 0 0 0 28522121.134364128 -8937389.5258712769 0 -8937389.5258712769 9246476.8367235661 0 0 0 0 -7321569.4275341034 -3754160.4570560455 0 -3754160.4570560455 21506290.921592712 0 0 0 0 50438201.229450226 31487849.533622742 0 31487849.533622742 49707734.394340515 0 0 0 0 3418545.770813942 -9334602.1179962158 0 -9334602.1179962158 22767427.555549622 0 0 0 0 11817709.446973562 41018538.548841476 0 41018538.548841476 103098466.3523941 0 0 0 0 3357805.8688144684 20174670.980709076 0 20174670.980709076 72664551.166759491 0 0 0 0 2449312.8903107643 16689377.247903824 0 16689377.247903824 70980935.609970093 0 0 0 0 -571010.43732261658 9432257.6661758423 0 9432257.6661758423 68667343.340953827 0 0 0 0 7143793.5145940781 12657617.917709351 0 12657617.917709351 59420589.156044006 0 0 0 0 1723333.5322585488 2672719.705855459 0 2672719.705855459 2938313.7800665349 0 0 0 0 9999041.9243803024 28362913.480270386 0 28362913.480270386 76373334.999401093 0 0 0 0 5668449.3543977737 898820.27490234375 0 898820.27490234375 33730605.537968636 0 0 0 0 10430764.56857872 22251922.585739136 0 22251922.585739136 69216721.195198059 0 0 0 0 -2229966.4658858776 11579913.97841835 0 11579913.97841835 9523735.0200042725 0 0 0 0 4235331.5999582531 4046556.5507320315 0 4046556.5507320315 8621039.3750744835 0 0 0 0 693349.39842796326 4662463.2200927734 0 4662463.2200927734 11722172.232543945 0 0 0 0 1259640.454957962 12462551.47744751 0 12462551.47744751 26441213.995483398 0 0 0 0 5620202.8132734895 5635362.1910948753 0 5635362.1910948753 13131700.56288147 0 0 0 0 7224803.0182627374 7849282.8646520898 0 7849282.8646520898 18873504.746594608 0 0 0 0 43159366.614143372 35962598.056427002 0 35962598.056427002 21640233.543762207 0 0 0 0 1760151.4870138387 933577.01628911868 0 933577.01628911868 10856330.063805968 0 0 0 0 16677211.013799625 19802091.514776528 0 19802091.514776528 7362210.0990512073 0 0 0 0 2018115.4880091483 2766833.5124095436 0 2766833.5124095436 -1419701.8704640865 0 0 0 0 7728360.2600810528 6355661.9172859192 0 6355661.9172859192 31580541.27305603 0 0 0 0 6436396.3330771923 13867595.90905571 0 13867595.90905571 51651335.643562317 0 0 0 0 11878418.909809113 6691666.8034248352 0 6691666.8034248352 46247009.535018921 0 0 0 0 5615795.0141568221 11869270.455362424 0 11869270.455362424 16635833.451732032 0 0 0 0 -4394691.8863018192 -8912638.7120762095 0 -8912638.7120762095 45768363.40443033 0 0 0 0 -4239033.7435933352 3252546.2300853729 0 3252546.2300853729 59714350.842292786 0 0 0 0 -3356601.6874267813 -8049311.8810539246 0 -8049311.8810539246 47016666.158477396 0 0 0 0 -2026360.125734508 6695680.0045166016 0 6695680.0045166016 64647677.871292114 0 0 0 0 -1916181.0478219986 -17529862.239360809 0 -17529862.239360809 54271506.539974213 0 0 0 0 -2923560.4478772338 968912.3658734113 0 968912.3658734113 15844280.231166616 0 0 0 0 -6667066.4847795963 2360289.5170822144 0 2360289.5170822144 70039644.494310379 0 0 0 0 480440.22192651033 -14603107.039546967 0 -14603107.039546967 71009979.164222717 0 0 0 0 -10700303.155782551 -8321741.0956840515 0 -8321741.0956840515 71492297.907178879 0 0 0 0 -15898517.623389304 -14030817.050905228 0 -14030817.050905228 74002895.553939819 0 0 0 0 -10036611.380877715 -7689207.1534355134 0 -7689207.1534355134 62466644.579257593 0 0 0 0 -10372125.623437647 -12727945.479431152 0 -12727945.479431152 72918464.103775024 0 0 0 0 -11033998.097758651 -14144400.337001801 0 -14144400.337001801 72482352.832946777 0 0 0 0 -30697058.742435299 -6661765.0483341217 0 -6661765.0483341217 89850295.502708435 0 0 0 0 -27482782.346180193 -20553202.62622261 0 -20553202.62622261 118019781.6436615 0 0 0 0 -97680452.386546314 -33206176.546440125 0 -33206176.546440125 126389252.4940033 0 0 0 0 -76768821.183015496 -25816058.712265015 0 -25816058.712265015 118615110.22478867 0 0 0 0 -12044913.011959746 14640068.333564758 0 14640068.333564758 106499423.45549774 0 0 0 0 -17940873.818960115 223626.26213264465 0 223626.26213264465 71515679.203361511 0 0 0 0 -17813291.372685164 -5662553.6528606415 0 -5662553.6528606415 83740554.41198349 0 0 0 0 -4899105.7176172733 7825992.1881780624 0 7825992.1881780624 123548036.35789871 0 0 0 0 -12105506.392289318 3628378.1967697144 0 3628378.1967697144 88098131.156134605 0 0 0 0 -9808161.9376884643 -10802456.292996213 0 -10802456.292996213 70211090.717782944 0 0 0 0 -967967.8788853169 16050430.445098527 0 16050430.445098527 56590262.744813129 0 0 0 0 -25008182.262435302 1155283.7050323486 0 1155283.7050323486 87720849.439255714 0 0 0 0 -10559683.218092918 34155779.06495285 0 34155779.06495285 51272958.469741821 0 0 0 0 -7016951.7433551736 11410548.253647603 0 11410548.253647603 31232171.377916351 0 0 0 0 -27940508.443912983 62072562.98018837 0 62072562.98018837 46509109.163073063 0 0 0 0 -9138847.2369219661 21216666.073071718 0 21216666.073071718 67961847.545600891 0 0 0 0 122897486.7063024 14626984.073709488 0 14626984.073709488 34328950.380195618 0 0 0 0 -12078326.168743208 -9407493.2575713024 0 -9407493.2575713024 19437210.678354144 0 0 0 0 12893444.700007468 18773509.586813688 0 18773509.586813688 45939693.474212646 0 0 0 0 11376781.053316832 28633373.590961218 0 28633373.590961218 73194652.135894775 0 0 0 0 16090130.541660309 1466434.9966640472 0 1466434.9966640472 62076265.62935257 0 0 0 0 20170127.536921024 11438635.453788757 0 11438635.453788757 79230504.194194794 0 0 0 0 1824614.9396783113 -1903086.3574829102 0 -1903086.3574829102 69174580.584495544 0 0 0 0 -1095206.2032529712 -14563364.645102501 0 -14563364.645102501 42466522.964584351 0 0 0 0 1489183.3609663923 10463236.163451746 0 10463236.163451746 66955893.353380308 0 0 0 0 -32139314.32445097 69561.991632461548 0 69561.991632461548 72787030.957094193 0 0 0 0 -17621036.67213726 99201809.095708847 0 99201809.095708847 82441463.208904266 0 0 0 0 -9807315.2608070374 95179431.342727184 0 95179431.342727184 58833706.379413605 0 0 0 0 4347295.7325475942 4484708.1554231979 0 4484708.1554231979 5187905.9267838448 0 0 0 0 -10622084.059264183 89793495.704977036 0 89793495.704977036 93039358.224632263 0 0 0 0 20938632.304527611 15716238.148126602 0 15716238.148126602 33260715.920642853 0 0 0 0 -117592820.00384426 -31629602.098384857 0 -31629602.098384857 54059021.3335495 0 0 0 0 -2741692.5203977702 1554508.8923738264 0 1554508.8923738264 20442186.044079795 0 0 0 0 -99784906.245811462 23994545.38923645 0 23994545.38923645 44761175.854408264 0 0 0 0 -6236338.9047489166 82120440.591598511 0 82120440.591598511 106590020.73997498 0 0 0 0 12139212.257987976 66857574.057670593 0 66857574.057670593 113536828.55152893 0 0 0 0 31039066.971027374 60840114.768791199 0 60840114.768791199 77955685.318309784 0 0 0 0 48909856.529834747 28092624.9789505 0 28092624.9789505 123983678.82310677 0 0 0 0 95747267.918568611 57789950.58810997 0 57789950.58810997 63877298.571048737 0 0 0 0 10168837.988872528 44563832.253925323 0 44563832.253925323 110212072.9260788 0 0 0 0 141185003.33894444 13984893.519849777 0 13984893.519849777 71403884.200786591 0 0 0 0 -18227054.55753994 63308240.201778412 0 63308240.201778412 102896354.53309631 0 0 0 0 -24563623.91339016 -14251093.750740051 0 -14251093.750740051 59630588.262460709 0 0 0 0 -158916609.66392756 46544065.658952713 0 46544065.658952713 118138040.45412445 0 0 0 0 1673086.0927300663 11698771.326595172 0 11698771.326595172 65677897.370024592 0 0 0 0 11525832.228826046 42477128.405069351 0 42477128.405069351 26918434.673103333 0 0 0 0 -111476594.66093612 -35739049.991275787 0 -35739049.991275787 160961062.83604431 0 0 0 0 -26506177.540349007 31293607.632621765 0 31293607.632621765 29412491.443876266 0 0 0 0 -2128989.862363643 7277395.5762613732 0 7277395.5762613732 62721191.226637468 0 0 0 0 -134964611.91233063 -15342191.32160759 0 -15342191.32160759 117259632.71838951 0 0 0 0 41373650.66918087 58610476.352519989 0 58610476.352519989 107883155.93699837 0 0 0 0 -57895959.847468376 -2070462.0257415771 0 -2070462.0257415771 175485089.78488255 0 0 0 0 -28014143.05300045 35592188.657906532 0 35592188.657906532 134936007.4067421 0 0 0 0 67753096.738174677 53957134.924584866 0 53957134.924584866 54780430.688606262 0 0 0 0 55071036.398541927 38238246.754413605 0 38238246.754413605 130693277.17730618 0 0 0 0 49330343.586113095 99853489.761298656 0 99853489.761298656 169994992.47135162 0 0 0 0 391396.13199706469 -1692967.0216461755 0 -1692967.0216461755 3428871.0131647885 0 0 0 0 131682750.71310687 178333242.36644101 0 178333242.36644101 304040341.71717644 0 0 0 0 70125346.021261215 -138279214.10160446 0 -138279214.10160446 -62036447.19750905 0 0 0 0 17133605.93370223 -70218252.444802284 0 -70218252.444802284 -77883914.39576149 0 0 0 0 -123642453.02869177 -64104632.518951416 0 -64104632.518951416 60338115.72844696 0 0 0 0 155120569.80449444 148347724.44074124 0 148347724.44074124 91306824.610931396 0 0 0 0 3150935.1312205195 -4167118.7411900423 0 -4167118.7411900423 9160634.0944792852 0 0 0 0 -124081864.91997933 -66524885.117533684 0 -66524885.117533684 47484897.150302887 0 0 0 0 -97418405.793395996 -105680423.31538391 0 -105680423.31538391 -28413110.427745819 0 0 0 0 -65984307.346323013 -53867416.293651581 0 -53867416.293651581 24307547.974777222 0 0 0 0 -72548019.507484436 -3095809.8714675903 0 -3095809.8714675903 70058513.895931244 0 0 0 0 -80852286.600597382 2507123.319229126 0 2507123.319229126 67118726.807296753 0 0 0 0 -108027935.28407288 -15475280.050647736 0 -15475280.050647736 180757665.40596771 0 0 0 0 -65839863.400709152 10601808.529979706 0 10601808.529979706 -8352507.8131742477 0 0 0 0 -63268770.089740753 -26718983.362565994 0 -26718983.362565994 38235928.881690979 0 0 0 0 -74242729.95338726 1616927.2991199493 0 1616927.2991199493 51963750.042884827 0 0 0 0 -44679586.397837639 37511809.15007782 0 37511809.15007782 52152141.067965508 0 0 0 0 -58383805.051784515 63582532.542010307 0 63582532.542010307 129259475.34625244 0 0 0 0 -100267922.0870657 59101539.854541779 0 59101539.854541779 187840640.6783905 0 0 0 0 -198257928.56410122 104267891.28165817 0 104267891.28165817 326354454.71162033 0 0 0 0 -57568365.995538712 -18139734.145208359 0 -18139734.145208359 18111241.35242939 0 0 0 0 -178044114.5079959 385533209.23147106 0 385533209.23147106 106155415.534935 0 0 0 0 -101449946.73144245 -50679655.939296722 0 -50679655.939296722 88295105.27936554 0 0 0 0 -94200317.270969212 -95567802.942458868 0 -95567802.942458868 -135599012.93260193 0 0 0 0 -2831305.1129699051 -5229707.100982666 0 -5229707.100982666 14040594.91211319 0 0 0 0 1825163.9454379585 7735233.081615448 0 7735233.081615448 1139375.7317008972 0 0 0 0 -808552.89207702898 1131505.1943931133 0 1131505.1943931133 1126758.77221331 0 0 0 0 -1879735.5744344667 -2064010.1183419228 0 -2064010.1183419228 10079749.224273682 0 0 0 0 60414925.216014266 -101047752.83519173 0 -101047752.83519173 166812028.10919952 0 0 0 0 14842680.119765028 -10992774.218202591 0 -10992774.218202591 245413626.63063049 0 0 0 0 -31644764.442339331 -85314380.83039093 0 -85314380.83039093 178606764.04929352 0 0 0 0 -281990.0423763151 819251.47911630571 0 819251.47911630571 965836.36622281373 0 0 0 0 -9659001.1440228224 -54262376.245794296 0 -54262376.245794296 175578850.74214935 0 0 0 0 14670102.844156159 -37228495.749176025 0 -37228495.749176025 19321525.648895264 0 0 0 0 -66467.209651873418 256124.10353751481 0 256124.10353751481 476273.29603639245 0 0 0 0 -13633.966009857782 -1166561.7567405701 0 -1166561.7567405701 13102179.444568634 0 0 0 0 9341617.2381850015 -4475910.9352302551 0 -4475910.9352302551 -15447687.189292908 0 0 0 0 -4521876.6358481376 1532533.9902591705 0 1532533.9902591705 11507236.082427979 0 0 0 0 13998507.891490847 -16021884.493305206 0 -16021884.493305206 11518621.814445496 0 0 0 0 2290945.7234643367 8274912.0431232452 0 8274912.0431232452 8022428.6186523438 0 0 0 0 -4144596.2268414777 4806650.8677215576 0 4806650.8677215576 35023782.806884766 0 0 0 0 -14291576.776887242 13182743.278617859 0 13182743.278617859 56300557.910339355 0 0 0 0 -9623.7721736427229 15904.396939225495 0 15904.396939225495 452322.54365879297 0 0 0 0 1604175.1630246304 29370.45401763916 0 29370.45401763916 -978419.42934417725 0 0 0 0 2227403.4775091778 3609957.389251709 0 3609957.389251709 2839285.0859909058 0 0 0 0 -946.35191317240515 1670265.6987800598 0 1670265.6987800598 9380427.156375885 0 0 0 0 9426.7698990168283 199137.02553233496 0 199137.02553233496 1583588.9889678955 0 0 0 0 174965.3399920197 416341.20336914062 0 416341.20336914062 1864882.8216171265 0 0 0 0 -3897213.523872877 -1064150.3776702881 0 -1064150.3776702881 2229575.1383972168 0 0 0 0 -4021453.3378794091 -694873.32567977905 0 -694873.32567977905 1248568.8889923096 0 0 0 0 -736571.15543670312 1692856.1613082886 0 1692856.1613082886 1784577.2994537354 0 0 0 0 -21945.708946885316 60813.457460433245 0 60813.457460433245 391629.93608858949 0 0 0 0 1175555.8731584847 -1644914.8807144165 0 -1644914.8807144165 6225312.9481124878 0 0 0 0 21718.969679289152 224136.19020291418 0 224136.19020291418 1189914.0473018885 0 0 0 0 5507960.3438322693 -5660278.1787948608 0 -5660278.1787948608 5805777.4558792114 0 0 0 0 982712.0900965333 -1278164.0795154572 0 -1278164.0795154572 5622688.1200942993 0 0 0 0 86930.508720276644 807821.6468603313 0 807821.6468603313 -149337.3608976719 0 0 0 0 -459644.75796827674 -1379786.1918373108 0 -1379786.1918373108 9682008.4758071899 0 0 0 0 -791682.17820632458 -1999291.5138168335 0 -1999291.5138168335 11092594.185802221 0 0 0 0 -1735251.1525112391 -2823329.455493927 0 -2823329.455493927 10381589.880607605 0 0 0 0 -779205.43320488161 835323.40704093874 0 835323.40704093874 2443873.9080040171 0 0 0 0 -130530.82604658604 -2744389.8125991821 0 -2744389.8125991821 9857076.6498756409 0 0 0 0 11203084.731904684 -35664443.183316708 0 -35664443.183316708 124935246.41973114 0 0 0 0 -1053864.3338835565 699985.71711170673 0 699985.71711170673 2200570.8960926831 0 0 0 0 400780.09756845236 -1989224.2698173523 0 -1989224.2698173523 9273502.9100856781 0 0 0 0 -367467.1465754509 1530704.9204006195 0 1530704.9204006195 24801870.184677124 0 0 0 0 2444894.5013844967 1884766.6448974609 0 1884766.6448974609 30988893.921554565 0 0 0 0 1831397.4404803612 -767694.53327096254 0 -767694.53327096254 17608716.854840964 0 0 0 0 -1960410.6208149791 -1096550.7148094177 0 -1096550.7148094177 20478539.092277884 0 0 0 0 -1167960.5985739892 -1800918.9790317155 0 -1800918.9790317155 12850841.867073387 0 0 0 0 655042.92531299591 -16984250.004776001 0 -16984250.004776001 68959290.028610229 0 0 0 0 -7157722.271781832 -54006221.358217239 0 -54006221.358217239 150191120.2689209 0 0 0 0 323763.74524378916 -216193.98253117502 0 -216193.98253117502 -30746.699665784836 0 0 0 0 -12904008.533141583 -21377923.343547821 0 -21377923.343547821 65149226.733535767 0 0 0 0 -2702899.4602831281 -5315915.7473316044 0 -5315915.7473316044 5469572.3163259774 0 0 0 0 -9250439.8655366302 -16581709.842079163 0 -16581709.842079163 69527111.881233215 0 0 0 0 -4365360.6798664033 -783788.79441452026 0 -783788.79441452026 48992080.450408936 0 0 0 0 -9849985.531293571 -440906.12301254272 0 -440906.12301254272 63618506.754196167 0 0 0 0 -11046922.444168329 -1633440.374256134 0 -1633440.374256134 82709850.435668945 0 0 0 0 13233888.100789133 -25678525.875715256 0 -25678525.875715256 83704047.569213867 0 0 0 0 -6584285.0239380598 -7543802.6839408875 0 -7543802.6839408875 82108394.754196167 0 0 0 0 -14736069.979533195 10059086.619644165 0 10059086.619644165 65288358.172897339 0 0 0 0 3819188.2463675737 -845964.5496673584 0 -845964.5496673584 75865078.768356323 0 0 0 0 -17232628.081498351 -13124410.282465935 0 -13124410.282465935 99509861.554595947 0 0 0 0 -7397399.7097388804 12051591.859436035 0 12051591.859436035 65348647.864746094 0 0 0 0 -2401259.6697089076 15168846.65802002 0 15168846.65802002 -15288122.220245361 0 0 0 0 -4796305.5310881734 12011721.687461853 0 12011721.687461853 43446390.68888092 0 0 0 0 -6663640.081632046 4182818.9075867608 0 4182818.9075867608 62761431.464675903 0 0 0 0 23246444.443758272 -32383483.11498642 0 -32383483.11498642 98164103.238464355 0 0 0 0 5642915.2431726456 -59373294.879924774 0 -59373294.879924774 137934297.1516304 0 0 0 0 -11859870.564706415 -36424070.686508179 0 -36424070.686508179 126413464.56223679 0 0 0 0 -48902585.157474034 -6031678.8123588562 0 -6031678.8123588562 135242357.64904022 0 0 0 0 -30007206.80226022 35339007.553276062 0 35339007.553276062 57020032.98008728 0 0 0 0 3546814.558984898 28158842.371688843 0 28158842.371688843 24392420.323757172 0 0 0 0 -23483996.780240722 12889919.253574848 0 12889919.253574848 64972016.98777771 0 0 0 0 -23384862.064674173 14294067.346534014 0 14294067.346534014 17307956.486625671 0 0 0 0 -45760236.369181059 -9642397.9858474731 0 -9642397.9858474731 40405492.336589813 0 0 0 0 -16244.868867773796 -540941.36201563478 0 -540941.36201563478 2126447.398763597 0 0 0 0 -61819714.989504002 -2707249.6871490479 0 -2707249.6871490479 57903546.241592407 0 0 0 0 -997670.85861343553 -441718.84843884408 0 -441718.84843884408 -985015.120584324 0 0 0 0 1330307.5342349224 -12105889.704303741 0 -12105889.704303741 78301369.696905136 0 0 0 0 -491886.60045944893 238624.3302526921 0 238624.3302526921 237337.27043158561 0 0 0 0 -4552754.5550757553 -15008713.437835693 0 -15008713.437835693 95261441.313524246 0 0 0 0 5761542.0185745703 -8434713.9344272614 0 -8434713.9344272614 59485227.019241333 0 0 0 0 15057339.519978968 -8773406.4484062195 0 -8773406.4484062195 24855237.668289185 0 0 0 0 18970433.957418036 -21035106.167655945 0 -21035106.167655945 63271332.275190353 0 0 0 0 -2225708.4778794199 -24496775.00169754 0 -24496775.00169754 84263844.263015747 0 0 0 0 -2619016.8124015396 -30567946.804246187 0 -30567946.804246187 62019530.342712402 0 0 0 0 -28934037.608918034 -30335795.001541138 0 -30335795.001541138 84468632.991977692 0 0 0 0 31254920.500751816 -36039454.87286377 0 -36039454.87286377 41350787.304466248 0 0 0 0 16422998.58294563 -49328045.743614197 0 -49328045.743614197 80245117.134780884 0 0 0 0 33945974.33154875 -86361091.211143494 0 -86361091.211143494 107560935.63764954 0 0 0 0 12580089.419252336 -44145053.714347839 0 -44145053.714347839 190240733.71799469 0 0 0 0 -7940009.8743583597 -52562183.323070526 0 -52562183.323070526 80556546.2759552 0 0 0 0 -8706204.3375190906 -54755193.988042831 0 -54755193.988042831 111911459.68786621 0 0 0 0 -53277669.878386632 -63791936.054420471 0 -63791936.054420471 127624093.92222595 0 0 0 0 3407254.0538994968 4125446.9713592529 0 4125446.9713592529 -8754168.7630462646 0 0 0 0 41151.074457886585 -222080.07777643204 0 -222080.07777643204 1083634.7405189276 0 0 0 0 29811223.923475392 -85993951.651535034 0 -85993951.651535034 51027974.983379364 0 0 0 0 23223026.087139077 100431987.86163521 0 100431987.86163521 149644448.17793655 0 0 0 0 3821585.9491612762 36442894.790626526 0 36442894.790626526 122282727.80178833 0 0 0 0 1768489.6279855669 62058329.536567688 0 62058329.536567688 75323729.224060059 0 0 0 0 3712351.59939228 15227471.633495331 0 15227471.633495331 35729300.957351685 0 0 0 0 -4334912.0127505586 32443424.499240875 0 32443424.499240875 -2495289.5938034058 0 0 0 0 18420759.859951131 -4119825.410446167 0 -4119825.410446167 54871205.828165054 0 0 0 0 4187251.3367528021 -61715379.726957321 0 -61715379.726957321 64216506.704986572 0 0 0 0 6825626.0412149355 -42427985.896549225 0 -42427985.896549225 168016144.72252846 0 0 0 0 31522.000065688859 -312681.3690719083 0 -312681.3690719083 1030165.5025967956 0 0 0 0 575536.82173672318 37758332.074317932 0 37758332.074317932 167902131.12198362 0 0 0 0 -33685842.309409067 -99424132.651596069 0 -99424132.651596069 81086767.996200562 0 0 0 0 3366419.0094439387 -86401136.254852295 0 -86401136.254852295 32761057.549194336 0 0 0 0 13574832.909247465 -54894478.047325134 0 -54894478.047325134 219059628.29868317 0 0 0 0 29951122.180009011 -37159864.350280762 0 -37159864.350280762 95898522.93547821 0 0 0 0 18546889.316497497 2338841.8441143036 0 2338841.8441143036 118603681.67868805 0 0 0 0 19237388.07077824 -2208446.7108840942 0 -2208446.7108840942 120645487.22519684 0 0 0 0 107289.37836742355 -134868.54619598389 0 -134868.54619598389 131399082.38005829 0 0 0 0 -6607.2209173968622 13800961.748786926 0 13800961.748786926 107367248.44540024 0 0 0 0 22889189.210289259 12649481.450626373 0 12649481.450626373 88515362.474533081 0 0 0 0 1997637.8356954381 30304034.849021912 0 30304034.849021912 101701975.26963043 0 0 0 0 5956603.2682018047 21813277.120944977 0 21813277.120944977 117531200.6337738 0 0 0 0 -8275.6651061747416 13402013.036243439 0 13402013.036243439 120609719.24817657 0 0 0 0 -6366035.2303860597 18264783.652610779 0 18264783.652610779 117673112.2536788 0 0 0 0 -5136656.3165593669 23545598.925310135 0 23545598.925310135 139400356.95161438 0 0 0 0 -12336588.668892536 3114160.2618865967 0 3114160.2618865967 132475596.85176945 0 0 0 0 -9585586.2553376146 -987657.9263458252 0 -987657.9263458252 114454692.00238037 0 0 0 0 -19725625.650612615 39807171.190900803 0 39807171.190900803 174521734.20645142 0 0 0 0 -9414709.1526294425 32810689.883708954 0 32810689.883708954 121662672.38612556 0 0 0 0 -12388114.009931426 962931.55846405029 0 962931.55846405029 124722698.81203461 0 0 0 0 -5946077.3330489323 -23011892.967996597 0 -23011892.967996597 190534289.96091461 0 0 0 0 13487718.589150088 -28943439.418394327 0 -28943439.418394327 128274314.37060547 0 0 0 0 14635938.617932843 -36295950.208282948 0 -36295950.208282948 98767289.739891052 0 0 0 0 9675037.2532010525 -6361819.3208961487 0 -6361819.3208961487 69471634.576450348 0 0 0 0 -10721.881108887186 8821382.7842903137 0 8821382.7842903137 95305819.553218842 0 0 0 0 10908594.994239463 -7492695.6542129517 0 -7492695.6542129517 39085109.665641785 0 0 0 0 -32047.33922373876 -8178863.3142700195 0 -8178863.3142700195 83360498.659015656 0 0 0 0 11861.473313158805 8772155.8628425598 0 8772155.8628425598 41391385.304786682 0 0 0 0 6034933.3827458434 -2509379.3999938965 0 -2509379.3999938965 18664103.759010315 0 0 0 0 1476024.1355199537 2149221.3891052753 0 2149221.3891052753 3076640.4946396053 0 0 0 0 326.43493831234036 4449932.0611343384 0 4449932.0611343384 7785098.7268218994 0 0 0 0 -5845018.5370039577 4762747.8036499023 0 4762747.8036499023 11407567.208618164 0 0 0 0 -1471427.3806341731 43873.7601788342 0 43873.7601788342 3145653.974065721 0 0 0 0 -3145991.4125928879 19720372.720825195 0 19720372.720825195 15107456.87812829 0 0 0 0 3289724.254178524 20096863.222976685 0 20096863.222976685 15118834.104831219 0 0 0 0 -4622763.3354925727 -5820248.622648716 0 -5820248.622648716 6437743.175491333 0 0 0 0 -7670880.3021593718 -1551895.6482937634 0 -1551895.6482937634 7788992.7424436808 0 0 0 0 7562914.1585727306 7267460.7584817559 0 7267460.7584817559 6313309.5696335137 0 0 0 0 10911567.386526387 8538873.1676645279 0 8538873.1676645279 34378932.026191711 0 0 0 0 6447791.8294236101 5438248.765940845 0 5438248.765940845 4427574.3430927396 0 0 0 0 -15012621.235963583 27047075.921695709 0 27047075.921695709 -11029090.810791016 0 0 0 0 -23587670.615901172 14465724.90157032 0 14465724.90157032 17349149.46710968 0 0 0 0 -25755064.645442963 15803373.730255127 0 15803373.730255127 19148424.86177063 0 0 0 0 4320040.5032329559 9818612.2594985962 0 9818612.2594985962 15154155.987678528 0 0 0 0 -6417236.1317822933 9357039.8968086243 0 9357039.8968086243 15137013.64591217 0 0 0 0 -6900281.9885542123 -3564101.7775071561 0 -3564101.7775071561 8067782.5382098258 0 0 0 0 -6053265.2965579648 -10656308.015987396 0 -10656308.015987396 12360897.804787636 0 0 0 0 -12906489.375846982 11285607.466662407 0 11285607.466662407 32997544.267913818 0 0 0 0 -21988808.168711185 -4832654.2052268982 0 -4832654.2052268982 25841155.07477951 0 0 0 0 -10447419.826684833 3732813.6309785843 0 3732813.6309785843 26672853.939842224 0 0 0 0 -16285846.339300632 -9985549.4261360168 0 -9985549.4261360168 24964543.882603645 0 0 0 0 -5217087.9996517207 -4573967.6615038514 0 -4573967.6615038514 9042764.7975146174 0 0 0 0 10136628.700802691 10713891.33253479 0 10713891.33253479 16771203.016766548 0 0 0 0 3562325.240729569 -3263841.9125556946 0 -3263841.9125556946 28565702.92988205 0 0 0 0 -10026071.155616388 12297437.047245026 0 12297437.047245026 49607094.995399475 0 0 0 0 429731.45538945636 10428382.646102905 0 10428382.646102905 37983156.558765411 0 0 0 0 -36980.570030692303 2880059.7422971167 0 2880059.7422971167 18418741.021316528 0 0 0 0 762989.7939225249 5882618.4861602783 0 5882618.4861602783 8833505.4583129883 0 0 0 0 3722416.2392941397 -3796802.4217896461 0 -3796802.4217896461 5373632.6678695679 0 0 0 0 -3742557.5395575128 9791842.8535881042 0 9791842.8535881042 16056104.935043335 0 0 0 0 -14603480.578358114 -39757473.150405884 0 -39757473.150405884 102041258.45137405 0 0 0 0 23219153.715834074 -43887712.393548965 0 -43887712.393548965 33618697.788146973 0 0 0 0 -19635419.037469029 -21163846.074924469 0 -21163846.074924469 43490695.775802612 0 0 0 0 14917128.20118586 -13862802.230531693 0 -13862802.230531693 37450844.309547424 0 0 0 0 68677212.775236726 -60119212.338665009 0 -60119212.338665009 75653148.036365509 0 0 0 0 -4964350.64638412 -29033755.810863495 0 -29033755.810863495 32633327.376205444 0 0 0 0 13848692.256498396 -33170869.042289734 0 -33170869.042289734 -10670512.71736145 0 0 0 0 -832959.40308839083 -26730284.796905518 0 -26730284.796905518 26289329.963546753 0 0 0 0 -9569741.1954047084 -35585614.282871246 0 -35585614.282871246 43430314.90020752 0 0 0 0 3588937.709205687 -32288987.016002655 0 -32288987.016002655 7085771.8882293701 0 0 0 0 -2965905.292576313 -22215725.028625488 0 -22215725.028625488 2315828.4618301392 0 0 0 0 -9526232.4034163952 -26995385.766448975 0 -26995385.766448975 13894217.355199158 0 0 0 0 -8598870.3170084953 -23662578.5338974 0 -23662578.5338974 224289.24011230469 0 0 0 0 -17673115.97598052 -16682201.883407593 0 -16682201.883407593 11749437.232498169 0 0 0 0 -10310018.023843288 -22594717.922286987 0 -22594717.922286987 10963236.391393661 0 0 0 0 -15109795.12808919 -26027749.400909424 0 -26027749.400909424 30671910.784423828 0 0 0 0 -12168533.204839349 -24693322.6587677 0 -24693322.6587677 13877294.703272104 0 0 0 0 -16285052.804973841 -8989046.1439208984 0 -8989046.1439208984 12436724.03225708 0 0 0 0 -19083725.809236407 -17165021.252038956 0 -17165021.252038956 29386128.836761475 0 0 0 0 -22486172.599306345 -5097476.9392585754 0 -5097476.9392585754 46013700.124534607 0 0 0 0 -22125338.852915287 -14591286.334144592 0 -14591286.334144592 28970247.453131676 0 0 0 0 -22005811.204573035 -22286313.722187042 0 -22286313.722187042 53343494.97315979 0 0 0 0 -22119969.724663973 -14374956.073951721 0 -14374956.073951721 37604483.843299866 0 0 0 0 -29241745.465285897 5165898.9331016541 0 5165898.9331016541 69803307.678089142 0 0 0 0 -28340319.845988274 4526675.9540987015 0 4526675.9540987015 37441789.50415802 0 0 0 0 -26788390.679129601 8484421.3503761292 0 8484421.3503761292 41823180.448776245 0 0 0 0 -15816034.21006 19013011.474996567 0 19013011.474996567 -13577241.852302551 0 0 0 0 -22031256.006087422 33692067.720878601 0 33692067.720878601 26775075.348472595 0 0 0 0 -16959237.061174631 27464953.752758026 0 27464953.752758026 14067254.192398071 0 0 0 0 -11086305.995232373 61536259.353542328 0 61536259.353542328 57298138.034591675 0 0 0 0 -10044356.149297625 57415065.223674774 0 57415065.223674774 70297826.888679504 0 0 0 0 1138459.6340315193 106817861.23739624 0 106817861.23739624 33055525.88507843 0 0 0 0 -26992863.040413804 837174.38660240173 0 837174.38660240173 77806350.816970825 0 0 0 0 -25691231.411987141 6198242.6001396179 0 6198242.6001396179 89670104.958747864 0 0 0 0 -3197874.4825356305 17775808.847536087 0 17775808.847536087 368344213.46575928 0 0 0 0 -8111200.7798631787 54114523.851493835 0 54114523.851493835 124186974.96846771 0 0 0 0 -26046921.786523759 -5233238.2554826736 0 -5233238.2554826736 201594908.84420776 0 0 0 0 64795976.187508106 138395906.90615082 0 138395906.90615082 112018078.46886444 0 0 0 0 -14848220.731204588 67910983.208312988 0 67910983.208312988 144432376.95355988 0 0 0 0 40741641.221025229 109609397.84344482 0 109609397.84344482 42854328.199897766 0 0 0 0 30003691.428839535 67892633.249666214 0 67892633.249666214 -6608933.1713562012 0 0 0 0 845628.97476684861 -252025.60920938104 0 -252025.60920938104 267206.40715557337 0 0 0 0 -19578097.43414104 -58353988.87033844 0 -58353988.87033844 115613825.78494263 0 0 0 0 -123471906.14900187 176242113.99998665 0 176242113.99998665 -58683916.887649536 0 0 0 0 -62308459.958091423 104523914.94968605 0 104523914.94968605 -93755942.511108398 0 0 0 0 31687618.009411313 103311900.89222717 0 103311900.89222717 -52305974.144775391 0 0 0 0 -98467241.773073137 108334957.69637108 0 108334957.69637108 -2184735.0516357422 0 0 0 0 11414664.773074932 72474729.45287323 0 72474729.45287323 7834259.8966903687 0 0 0 0 26979524.828562796 78731400.845714569 0 78731400.845714569 -26194104.959518433 0 0 0 0 33160494.335369352 84790631.932855844 0 84790631.932855844 -34440108.741424561 0 0 0 0 26186861.86737211 158550235.57050133 0 158550235.57050133 115067056.67812347 0 0 0 0 127848091.26332441 126431561.00972748 0 126431561.00972748 -18890203.706748962 0 0 0 0 -84316614.164150298 118864200.39576721 0 118864200.39576721 24860462.864074707 0 0 0 0 -76570870.978068367 35815543.741401672 0 35815543.741401672 45509502.832015991 0 0 0 0 -149854432.1595329 62823128.913848877 0 62823128.913848877 -21722058.983375549 0 0 0 0 -17549011.255963922 81691552.257736206 0 81691552.257736206 -18716884.71081543 0 0 0 0 -61472366.719864368 112707471.92963409 0 112707471.92963409 -14076939.382019043 0 0 0 0 4235847.6873708535 3725286.050669834 0 3725286.050669834 3176592.3659726977 0 0 0 0 -31669735.739593029 57552859.322673798 0 57552859.322673798 -27876117.415958405 0 0 0 0 -17377995.646431208 15156525.05803299 0 15156525.05803299 -26370862.36857605 0 0 0 0 39380621.33695519 55502719.784965515 0 55502719.784965515 1409297.9063129425 0 0 0 0 102639729.95653611 45985552.469863892 0 45985552.469863892 -67555985.214233398 0 0 0 0 1776265.8001224345 1255101.3021446913 0 1255101.3021446913 1098781.8468856514 0 0 0 0 24646718.223003939 -33683187.365470886 0 -33683187.365470886 130086267.62775803 0 0 0 0 18024240.205826148 -58787932.853123665 0 -58787932.853123665 300244896.8080368 0 0 0 0 106893959.93049321 56957225.63302803 0 56957225.63302803 234465416.58093262 0 0 0 0 6287031.4232368506 3502142.3012695312 0 3502142.3012695312 212975618.69993591 0 0 0 0 -79378328.036398172 26946594.834835052 0 26946594.834835052 95282934.514221191 0 0 0 0 -141439334.22950482 73723907.560112 0 73723907.560112 70605715.757858276 0 0 0 0 -145046966.45494771 8505919.8751678467 0 8505919.8751678467 96128491.210830688 0 0 0 0 101022971.46406767 -69460107.919282913 0 -69460107.919282913 136020773.90957642 0 0 0 0 -68880153.81374003 82741080.361320496 0 82741080.361320496 221466507.4684906 0 0 0 0 -31372438.340378635 -55785678.842460632 0 -55785678.842460632 217524399.12916636 0 0 0 0 149145965.75639501 35151879.749698639 0 35151879.749698639 156573570.06665039 0 0 0 0 -29239310.58635512 -41130744.671401978 0 -41130744.671401978 166126293.45539856 0 0 0 0 -32862621.388070215 -60528661.555589676 0 -60528661.555589676 103002246.53292847 0 0 0 0 -96652209.858875155 -36407797.832252502 0 -36407797.832252502 149790256.48983765 0 0 0 0 -70738768.724174082 -41569956.677604675 0 -41569956.677604675 120566959.73547363 0 0 0 0 -117976856.41796261 -18066731.378204346 0 -18066731.378204346 117701724.76248932 0 0 0 0 -88520028.230838448 -59554637.172889709 0 -59554637.172889709 110158877.26878357 0 0 0 0 -87131948.326036096 51803493.705937386 0 51803493.705937386 167266310.39370728 0 0 0 0 -216855835.58262768 -11184435.332313538 0 -11184435.332313538 151649505.66992188 0 0 0 0 -135275229.33259439 -5963364.9268341064 0 -5963364.9268341064 82662630.036376953 0 0 0 0 -183167374.8496114 -64363640.390724182 0 -64363640.390724182 13363346.992324829 0 0 0 0 -128605759.12133709 -47987750.613265991 0 -47987750.613265991 52479467.048370361 0 0 0 0 -145672829.07579172 5341445.0618743896 0 5341445.0618743896 67039719.243179321 0 0 0 0 -147700607.66078225 23326191.342920303 0 23326191.342920303 -59602225.16104126 0 0 0 0 -124033712.54903054 10222642.708274841 0 10222642.708274841 81932559.683185577 0 0 0 0 -212093390.04290003 31424814.799255371 0 31424814.799255371 62257577.246322632 0 0 0 0 -179093898.08636767 65661619.752601624 0 65661619.752601624 81318260.102272034 0 0 0 0 -2827789.7650535572 2791333.382599432 0 2791333.382599432 16998160.687540829 0 0 0 0 -112756128.7526795 13105448.202091217 0 13105448.202091217 22890837.822357178 0 0 0 0 -221121737.53564709 80921606.556003571 0 80921606.556003571 42943703.788970947 0 0 0 0 -4213963.1662193444 -7198538.4587259218 0 -7198538.4587259218 14118982.833383352 0 0 0 0 -18682217.86566627 5163357.7125434875 0 5163357.7125434875 25149167.144416809 0 0 0 0 -5592738.503527388 -5839186.0569256544 0 -5839186.0569256544 31720061.171735883 0 0 0 0 -4412280.4575863276 -4691031.263250567 0 -4691031.263250567 14913720.588619024 0 0 0 0 -3120292.2549628792 16804570.988875248 0 16804570.988875248 5346210.1837638021 0 0 0 0 2618428.6735330215 23535917.505742237 0 23535917.505742237 56323421.413158268 0 0 0 0 30547323.175813913 18833188.930053711 0 18833188.930053711 -8601241.7538452148 0 0 0 0 -14182506.735435605 82777542.504701614 0 82777542.504701614 91981641.950523376 0 0 0 0 1879330.1599012751 3300325.9514472075 0 3300325.9514472075 -721475.87401223183 0 0 0 0 -238437603.52058175 -42425190.798950195 0 -42425190.798950195 112727437.18063354 0 0 0 0 -9782082.335380435 20248173.369888306 0 20248173.369888306 74047713.617576599 0 0 0 0 -5283862.2511920333 11827199.392185211 0 11827199.392185211 65126151.064897537 0 0 0 0 14858434.698773623 13810051.610523224 0 13810051.610523224 69569006.817955017 0 0 0 0 -4709336.8831479549 14283426.906181335 0 14283426.906181335 76209222.263061523 0 0 0 0 -3674203.0048263967 17181436.433635712 0 17181436.433635712 74793429.77053833 0 0 0 0 6598688.3132426739 7881359.6056289673 0 7881359.6056289673 67081061.286239624 0 0 0 0 9385575.7169988155 8716580.0535049438 0 8716580.0535049438 75193870.415420532 0 0 0 0 4254793.9842994213 17674495.704319 0 17674495.704319 82397933.100357056 0 0 0 0 -1159987.3254057169 15780697.971975327 0 15780697.971975327 73874599.183944702 0 0 0 0 915974.02036619186 12641673.884063721 0 12641673.884063721 75448274.157279968 0 0 0 0 1220188.821003601 11532517.860042572 0 11532517.860042572 73655646.515594482 0 0 0 0 3015801.4150774479 7300156.0541687012 0 7300156.0541687012 83253718.473859787 0 0 0 0 3608187.4157133102 22546068.682655334 0 22546068.682655334 74434338.671758652 0 0 0 0 -21265.381410121918 -2825280.3824310303 0 -2825280.3824310303 25846208.673690796 0 0 0 0 -3572270.8974817097 10979167.17199707 0 10979167.17199707 77728704.293704987 0 0 0 0 -3675863.6404901743 12842722.01533699 0 12842722.01533699 71187163.890655518 0 0 0 0 -7756346.1265937807 -10596288.290534884 0 -10596288.290534884 19875600.075877011 0 0 0 0 -3034041.373681426 3252464.6375617981 0 3252464.6375617981 67396788.194551468 0 0 0 0 -1048486.4759657383 -2449121.0289154053 0 -2449121.0289154053 31389551.562240601 0 0 0 0 -12953267.43455489 -8752738.0469513685 0 -8752738.0469513685 37287358.761669919 0 0 0 0 5892885.6759715676 1240332.3053073883 0 1240332.3053073883 73149427.526199579 0 0 0 0 2412243.1798153995 4495618.7078931928 0 4495618.7078931928 13752699.089297477 0 0 0 0 -36290876.233219147 -47494395.274909973 0 -47494395.274909973 -13844512.512423992 0 0 0 0 2956789.6796989441 9865728.7461357117 0 9865728.7461357117 78052153.029876709 0 0 0 0 -3719497.1644697785 5775395.5222396851 0 5775395.5222396851 77568364.600204468 0 0 0 0 -33272952.923156738 -133596947.61724854 0 -133596947.61724854 12920115.964233398 0 0 0 0 -10604303.455762917 -19430111.764929645 0 -19430111.764929645 36076732.257470012 0 0 0 0 -31780587.716374874 -48076629.455284119 0 -48076629.455284119 -35644648.841369629 0 0 0 0 6080177.2216913067 -8312467.2375351265 0 -8312467.2375351265 3614255.1931448579 0 0 0 0 29412535.139730453 -6907602.5946884155 0 -6907602.5946884155 12386675.83140564 0 0 0 0 -128670748.5195961 31249423.834091187 0 31249423.834091187 -151129657.8921051 0 0 0 0 334115.99358457327 -7899799.9191875458 0 -7899799.9191875458 17337866.745040894 0 0 0 0 3813641.3091974258 4029727.6608428955 0 4029727.6608428955 31023299.138702393 0 0 0 0 1634652.6774355639 -3328421.1486316174 0 -3328421.1486316174 -2033382.9139339328 0 0 0 0 -14280580.482609749 -15710130.770202637 0 -15710130.770202637 31830993.925617695 0 0 0 0 3603182.7967758179 -9063414.2774848938 0 -9063414.2774848938 1899272.6092071533 0 0 0 0 765513.6016960144 -6710096.3665924072 0 -6710096.3665924072 17155547.390314102 0 0 0 0 -559258.25332433241 -1876024.5488794371 0 -1876024.5488794371 14788508.136325061 0 0 0 0 1901197.5940747261 -5450452.8691520691 0 -5450452.8691520691 16186325.247650146 0 0 0 0 1621171.3685097694 -3467628.2024650574 0 -3467628.2024650574 10597736.387329102 0 0 0 0 -740363.33794999123 -684978.20268630981 0 -684978.20268630981 28239656.189949036 0 0 0 0 9447460.5855827332 -11844158.002563477 0 -11844158.002563477 2334272.3044433594 0 0 0 0 -1330576.4199223518 -665679.36859130859 0 -665679.36859130859 3753502.006095171 0 0 0 0 1349053.2622299143 -5064935.2890019566 0 -5064935.2890019566 11603649.838505723 0 0 0 0 -193691536.34810543 139212086.30569458 0 139212086.30569458 -54352707.600875854 0 0 0 0 905735.48473508027 -3313656.3596388623 0 -3313656.3596388623 4642144.9420050681 0 0 0 0 -199041699.60022759 108673890.36639404 0 108673890.36639404 -12731790.957321167 0 0 0 0 -145153216.32603526 47552027.182132721 0 47552027.182132721 -21682024.039367676 0 0 0 0 -2004809.4004093721 -316028.5119987689 0 -316028.5119987689 13286101.779464424 0 0 0 0 -1726330.518549684 83619.852797083557 0 83619.852797083557 11017404.24647817 0 0 0 0 -291465.38828635216 -6448209.3839416504 0 -6448209.3839416504 20511109.032463074 0 0 0 0 -1713690.9408093691 -3808358.4367554337 0 -3808358.4367554337 6147066.2160973139 0 0 0 0 -1842206.890619278 -8610096.241973877 0 -8610096.241973877 19192335.720638275 0 0 0 0 -7666109.2643408775 -9995423.6631889343 0 -9995423.6631889343 19831275.235832214 0 0 0 0 51621469.411651254 54649744.07738781 0 54649744.07738781 967942.41732788086 0 0 0 0 86530376.92668581 -30374916.74686718 0 -30374916.74686718 -51907895.057878494 0 0 0 0 45721333.138909101 -83659312.711055756 0 -83659312.711055756 278205166.30138779 0 0 0 0 42831318.920810223 -8942619.9563188553 0 -8942619.9563188553 80282802.280382156 0 0 0 0 -5178304.1714763641 -48743926.178760529 0 -48743926.178760529 71677985.048998356 0 0 0 0 -3901360.6932210922 -36563548.01434803 0 -36563548.01434803 12954157.875499725 0 0 0 0 -44361670.687403202 -23529618.804508209 0 -23529618.804508209 60490888.773447037 0 0 0 0 -40036552.018280029 -59130172.765574455 0 -59130172.765574455 51264434.11453867 0 0 0 0 -2353017.925519228 -65404438.935669422 0 -65404438.935669422 101829594.17345428 0 0 0 0 -15323013.62999237 -7066755.055405356 0 -7066755.055405356 72821957.303561419 0 0 0 0 -82293046.181385994 -55811716.127695084 0 -55811716.127695084 77666195.43427825 0 0 0 0 -58083403.084199607 -7610558.9871275425 0 -7610558.9871275425 71965889.456420898 0 0 0 0 16914342.763174653 24757609.411887646 0 24757609.411887646 86194302.051460266 0 0 0 0 -14165876.019419909 -5427324.0430995189 0 -5427324.0430995189 69714947.972980469 0 0 0 0 10287489.046108484 5381916.0307121277 0 5381916.0307121277 84229839.197148323 0 0 0 0 22867329.150012016 20731643.689916611 0 20731643.689916611 91520289.483200073 0 0 0 0 6478047.1106508151 240336.0601234436 0 240336.0601234436 72001397.4972229 0 0 0 0 9394320.9319444783 7251877.4258398116 0 7251877.4258398116 21214267.032979578 0 0 0 0 2358603.3579981029 -5830926.3161792755 0 -5830926.3161792755 63133430.877045155 0 0 0 0 -3782785.2653479576 8200882.6396045685 0 8200882.6396045685 87696819.987850189 0 0 0 0 -5292806.210290378 -10136328.667603832 0 -10136328.667603832 59919563.164422974 0 0 0 0 -1864907.4862996787 2096702.095388025 0 2096702.095388025 20536776.574203912 0 0 0 0 -244985.7282564491 -1480783.3496200703 0 -1480783.3496200703 -483087.13244144339 0 0 0 0 -1333831.8943264484 9506861.6688642502 0 9506861.6688642502 78678356.087949753 0 0 0 0 -36439250.51884985 -4868084.026927948 0 -4868084.026927948 75827554.135460854 0 0 0 0 12779196.148854256 28260799.330444336 0 28260799.330444336 77802256.19052887 0 0 0 0 -3704589.9504313469 -1191130.4543828964 0 -1191130.4543828964 114242645.88409805 0 0 0 0 2644379.8634450436 13053579.567749977 0 13053579.567749977 65384765.237003326 0 0 0 0 807863.44484996796 10518861.156131744 0 10518861.156131744 72614002.829528809 0 0 0 0 -85181739.0779984 -98499338.756164074 0 -98499338.756164074 208287924.4458828 0 0 0 0 -12189557.930134773 25048123.599777222 0 25048123.599777222 124748268.45009613 0 0 0 0 -17674956.146531105 -33502437.947444916 0 -33502437.947444916 199143400.75971985 0 0 0 0 -13161510.755337238 -19845728.877192974 0 -19845728.877192974 103679411.58005524 0 0 0 0 45679350.807725906 -44234753.103237152 0 -44234753.103237152 -133785625.4434433 0 0 0 0 1207893.0722904834 -16507878.750578217 0 -16507878.750578217 -6403917.2143234164 0 0 0 0 18839864.871002853 -62265866.440875769 0 -62265866.440875769 51399059.578842163 0 0 0 0 20923355.356420517 -84132795.82664299 0 -84132795.82664299 140689418.42205048 0 0 0 0 12384982.731930733 -48191545.630923748 0 -48191545.630923748 86729999.675357819 0 0 0 0 -13444772.46925354 18030961.135752201 0 18030961.135752201 77611970.862134933 0 0 0 0 9932106.1821556091 -20839683.43693161 0 -20839683.43693161 104307402.54182816 0 0 0 0 21645407.638145685 -16976065.850068092 0 -16976065.850068092 37117514.823448181 0 0 0 0 9455169.4352760315 -15609746.921363831 0 -15609746.921363831 93304847.76020813 0 0 0 0 3826298.0242950916 -14386347.688499451 0 -14386347.688499451 58403815.275436401 0 0 0 0 -6923948.7725534737 -11616113.672297355 0 -11616113.672297355 63654968.116293997 0 0 0 0 -2356359.8455002452 -19260296.09944123 0 -19260296.09944123 55354487.684543461 0 0 0 0 -3825015.8551864913 -22158197.402702693 0 -22158197.402702693 54845534.313513644 0 0 0 0 2445946.8364297152 -11886032.126031876 0 -11886032.126031876 58725952.448860168 0 0 0 0 30020751.862069368 -356180186.78977966 0 -356180186.78977966 -95849365.751115799 0 0 0 0 313168557.32345271 -34917151.095199585 0 -34917151.095199585 11561453.331306458 0 0 0 0 98777223.796346664 155094772.86812592 0 155094772.86812592 125884666.35274887 0 0 0 0 35218435.319104671 84946918.494659424 0 84946918.494659424 -131481543.7872467 0 0 0 0 -219679008.93394089 -49355430.942909241 0 -49355430.942909241 37101546.53055191 0 0 0 0 4814178.8512536287 -3873194.9146842957 0 -3873194.9146842957 63371486.633568764 0 0 0 0 49346523.021895409 -141772192.13864899 0 -141772192.13864899 -179920737.22393799 0 0 0 0 -5217608.1951262895 -23181561.731584489 0 -23181561.731584489 37821686.1070728 0 0 0 0 -30837.83029040508 -995038.53030027449 0 -995038.53030027449 1462258.8499241993 0 0 0 0 -58992651.665392399 -40529203.079936981 0 -40529203.079936981 -35503686.464644313 0 0 0 0 -50603831.104019165 -86635586.569572449 0 -86635586.569572449 -73392151.452529907 0 0 0 0 49929734.784912109 -162230252.97332764 0 -162230252.97332764 42708250.064208984 0 0 0 0 6430350.128417179 -4031741.8339217752 0 -4031741.8339217752 1219065.7571407557 0 0 0 0 43630137.534971781 70799172.066572666 0 70799172.066572666 138476015.99206543 0 0 0 0 41987898.27222991 50403090.788948059 0 50403090.788948059 83658363.06111145 0 0 0 0 4264620.966596527 -4403718.6548418254 0 -4403718.6548418254 3428543.4506730735 0 0 0 0 64411415.878189087 749170.64639854431 0 749170.64639854431 7623853.0804138184 0 0 0 0 -20657585.272028089 18550842.00188446 0 18550842.00188446 234348446.36545181 0 0 0 0 16323383.477721781 77182122.880800247 0 77182122.880800247 158860713.38961792 0 0 0 0 17850639.136997819 61302365.015517235 0 61302365.015517235 293484007.15913391 0 0 0 0 35132375.561974108 -20566161.867588043 0 -20566161.867588043 109465069.40190125 0 0 0 0 43503582.501210928 -86229337.990135193 0 -86229337.990135193 130139082.0417366 0 0 0 0 42654815.91836524 -143715014.3721962 0 -143715014.3721962 195084409.48761749 0 0 0 0 17755987.532886758 15195771.018883705 0 15195771.018883705 347335401.02023315 0 0 0 0 357251529.89493704 -127595595.67757034 0 -127595595.67757034 364143147.79368591 0 0 0 0 190232896.9849 82215235.955299377 0 82215235.955299377 248121020.57195282 0 0 0 0 100454897.96822067 72157836.692448556 0 72157836.692448556 314052797.65151978 0 0 0 0 1558110.8899893118 -1281097.9952922389 0 -1281097.9952922389 1451944.6256504953 0 0 0 0 44019123.258548498 -148855515.94161224 0 -148855515.94161224 -152273415.45002174 0 0 0 0 140759400.32058823 -356984761.13471031 0 -356984761.13471031 246732822.17271423 0 0 0 0 -423573726.11798763 -68195624.762107849 0 -68195624.762107849 224449051.78065491 0 0 0 0 -84234257.319029093 7948925.8033866882 0 7948925.8033866882 103163615.04016113 0 0 0 0 -57038405.749285698 -78499412.183963776 0 -78499412.183963776 377884936.9322052 0 0 0 0 166240494.05410814 132756344.81521606 0 132756344.81521606 346859371.07137489 0 0 0 0 406126214.8434068 -77620226.642154694 0 -77620226.642154694 324378045.93235779 0 0 0 0 140013937.72082138 69584398.58719635 0 69584398.58719635 523262706.8179245 0 0 0 0 88141.647657958558 -842302.03496395797 0 -842302.03496395797 3566125.8387738764 0 0 0 0 334761198.21305192 398044868.63145447 0 398044868.63145447 291587500.10095596 0 0 0 0 -85222362.713670254 165422326.41339111 0 165422326.41339111 226694630.37019348 0 0 0 0 298353733.7819941 127770931.49138641 0 127770931.49138641 59442901.344963074 0 0 0 0 -38394705.792321205 -7138194.3079872131 0 -7138194.3079872131 172118530.83743286 0 0 0 0 92676735.137042284 190644628.12326813 0 190644628.12326813 240987871.01556396 0 0 0 0 -139209045.28434563 52228002.857818604 0 52228002.857818604 195356639.02475739 0 0 0 0 -365048381.59671116 -113039882.12683868 0 -113039882.12683868 122120343.65428162 0 0 0 0 -209899066.97028756 159990200.15364838 0 159990200.15364838 177571484.8984375 0 0 0 0 -60889999.934044242 61941797.760886192 0 61941797.760886192 -42331937.81918335 0 0 0 0 -289258153.31165648 -136690000.10951233 0 -136690000.10951233 35025136.920898438 0 0 0 0 -7725624.6669390425 4436936.7987247705 0 4436936.7987247705 24526604.414422721 0 0 0 0 -18943520.958358049 7402382.1494789124 0 7402382.1494789124 46918161.43649292 0 0 0 0 -14145890.495414523 366206.79493401572 0 366206.79493401572 72455726.508886024 0 0 0 0 -26610533.857570935 -4351992.3604624197 0 -4351992.3604624197 118383972.29364671 0 0 0 0 241397.98914863169 9868711.4512014426 0 9868711.4512014426 48514990.858624026 0 0 0 0 -391660930.38745427 -55541558.471260071 0 -55541558.471260071 195420813.62008667 0 0 0 0 -511871144.03804493 57650026.387046814 0 57650026.387046814 90236522.283447266 0 0 0 0 8327371.8289897442 -4491076.2914428711 0 -4491076.2914428711 58601461.508705139 0 0 0 0 -305461533.06196618 -104104773.47494507 0 -104104773.47494507 258103227.4230423 0 0 0 0 -326584389.18777645 -34105533.240356445 0 -34105533.240356445 44982057.399429321 0 0 0 0 -53310258.226064682 -52721598.856185913 0 -52721598.856185913 10041250.591674805 0 0 0 0 -473362516.62086916 -274623693.58404541 0 -274623693.58404541 113214290.28497314 0 0 0 0 -1118077.4681784099 -18845441.250911668 0 -18845441.250911668 63238997.794117793 0 0 0 0 -3638714.8744555265 -2226909.9344051704 0 -2226909.9344051704 88279725.991638392 0 0 0 0 19737947.480109215 11366282.473695755 0 11366282.473695755 31638091.834945679 0 0 0 0 4662285.2157963235 -32388418.231757876 0 -32388418.231757876 13685104.695451617 0 0 0 0 -9899880.2098617554 9032855.8504180908 0 9032855.8504180908 164467126.59424591 0 0 0 0 -34613023.900449991 3814086.1912879944 0 3814086.1912879944 211729369.13285065 0 0 0 0 2823970.9843506813 57098299.825309753 0 57098299.825309753 345573069.77144623 0 0 0 0 225581224.22650456 -35441599.27986908 0 -35441599.27986908 125495687.19869995 0 0 0 0 54039162.093938112 -101607284.6763916 0 -101607284.6763916 200259375.8404007 0 0 0 0 1257048.7367755058 -446458.25259558111 0 -446458.25259558111 2289355.8566536903 0 0 0 0 111917951.07051557 18402494.947792053 0 18402494.947792053 11320104.106506348 0 0 0 0 -729191.20816355688 -1400544.9830440283 0 -1400544.9830440283 2983227.5059663989 0 0 0 0 5123739.3475065669 -4786144.5146211535 0 -4786144.5146211535 3183257.2698591761 0 0 0 0 1791234.8430790901 -7475825.4440498352 0 -7475825.4440498352 13480418.003677368 0 0 0 0 40801175.588894367 -48857221.215076447 0 -48857221.215076447 70494640.295318604 0 0 0 0 -23251176.113591671 14397737.62795639 0 14397737.62795639 174358025.46395111 0 0 0 0 4541245.3172570914 -4214227.2909636647 0 -4214227.2909636647 1115156.2289461605 0 0 0 0 -9132938.7074346542 -25892019.971931458 0 -25892019.971931458 -8818128.1392555237 0 0 0 0 3145458.1189933037 -4205837.764647752 0 -4205837.764647752 2499917.3726275451 0 0 0 0 175868149.37318563 -144927450.38288879 0 -144927450.38288879 -27459254.59753418 0 0 0 0 15855965.432939291 48213382.082481384 0 48213382.082481384 120139447.28856468 0 0 0 0 19207473.476423264 63708280.117538452 0 63708280.117538452 -13220700.923675537 0 0 0 0 -7056302.2995271683 70228660.545021057 0 70228660.545021057 -13433805.403511047 0 0 0 0 26874.59639399033 -256613.44549260288 0 -256613.44549260288 833985.53355425596 0 0 0 0 -65005431.584311485 13750680.596626282 0 13750680.596626282 8545841.6841812134 0 0 0 0 2519826.7502125502 46653714.149627686 0 46653714.149627686 152222363.71147156 0 0 0 0 -6452104.9797763824 52757427.203239441 0 52757427.203239441 155021595.54659843 0 0 0 0 -5180818.6020188332 67812533.44329071 0 67812533.44329071 155290388.75426483 0 0 0 0 -33249250.19848749 21361244.651886225 0 21361244.651886225 172136963.20106506 0 0 0 0 -59154795.391371489 15268902.834701538 0 15268902.834701538 170823056.1458168 0 0 0 0 -18338858.574136615 14503291.44833374 0 14503291.44833374 115028863.86531448 0 0 0 0 -46131697.396334857 62777424.655628204 0 62777424.655628204 162359601.09853363 0 0 0 0 -60325022.487176299 53978707.654453278 0 53978707.654453278 80301668.540462494 0 0 0 0 -95978100.515339136 -35164357.436986923 0 -35164357.436986923 73282215.900428772 0 0 0 0 12664250.817992747 18949486.663093567 0 18949486.663093567 -111485089.22962189 0 0 0 0 -46339539.851587325 26526924.237146378 0 26526924.237146378 173013010.3256073 0 0 0 0 -34028578.63217032 38933387.368427277 0 38933387.368427277 108944540.24471283 0 0 0 0 68362156.414802015 1665400.5130844116 0 1665400.5130844116 22315580.801452637 0 0 0 0 28445006.709408283 4779884.0867996216 0 4779884.0867996216 118717199.52670288 0 0 0 0 43352265.697484016 -22380425.556079865 0 -22380425.556079865 -52559844.66204834 0 0 0 0 -20969100.291837811 -1869517.5653305054 0 -1869517.5653305054 22175775.518044472 0 0 0 0 -2550774.5767106479 -1455595.5580168366 0 -1455595.5580168366 -923468.50145761669 0 0 0 0 -3181262.314165175 -36280081.312824249 0 -36280081.312824249 40230894.735565186 0 0 0 0 6232733.8976950645 26117883.346298218 0 26117883.346298218 -75643109.310638428 0 0 0 0 22290022.098728299 -28362255.665409088 0 -28362255.665409088 -31379389.359237671 0 0 0 0 5481820.9775638329 -2884057.07612288 0 -2884057.07612288 948329.39634676278 0 0 0 0 35272104.808861375 -45611579.265930176 0 -45611579.265930176 50200521.66365242 0 0 0 0 -10471401.505635262 -33686157.194389343 0 -33686157.194389343 -64967476.859596252 0 0 0 0 -18643498.505553603 -12799668.993766785 0 -12799668.993766785 3417473.4543304443 0 0 0 0 26990713.159898698 -7183965.7627983093 0 -7183965.7627983093 3925308.0138168335 0 0 0 0 -48959491.640350819 -19930474.732345581 0 -19930474.732345581 64331548.130561829 0 0 0 0 -853395.42254450591 -466672.67082819343 0 -466672.67082819343 -205760.77015440911 0 0 0 0 -56724293.632991433 -40890520.107292175 0 -40890520.107292175 10684928.441864014 0 0 0 0 -4847792.3556007147 -75379006.121658325 0 -75379006.121658325 6303830.5128898621 0 0 0 0 28862759.195826292 -42892332.433404922 0 -42892332.433404922 4039275.253326416 0 0 0 0 61443611.664659262 -69565346.931163788 0 -69565346.931163788 -11291578.196716309 0 0 0 0 -18940901.486931205 -16352047.441978455 0 -16352047.441978455 -43200495.699104309 0 0 0 0 -35873681.798529267 -44875879.646568298 0 -44875879.646568298 9859184.7300453186 0 0 0 0 4261024.0941377459 -2400664.8265309036 0 -2400664.8265309036 934726.4743206799 0 0 0 0 26542630.801569283 -8154774.8240203857 0 -8154774.8240203857 127435595.72920418 0 0 0 0 1678253.8962503781 -948519.13471610844 0 -948519.13471610844 463393.98099070042 0 0 0 0 -5886193.9464939982 -30719647.632598877 0 -30719647.632598877 332057811.19869232 0 0 0 0 101422137.11210501 -47205331.838172913 0 -47205331.838172913 -130223125.07831955 0 0 0 0 58840674.159934103 -107306204.83057404 0 -107306204.83057404 261684980.00911713 0 0 0 0 74956182.457469702 -4191424.2033843994 0 -4191424.2033843994 189767519.41917038 0 0 0 0 20959838.559297711 48525829.262866974 0 48525829.262866974 232697688.0370636 0 0 0 0 58933439.414177954 35653363.882038116 0 35653363.882038116 192768216.68816376 0 0 0 0 13454126.582224861 66227641.40342617 0 66227641.40342617 173704411.78713989 0 0 0 0 -14424757.258172423 -12176827.681472778 0 -12176827.681472778 194542231.54029846 0 0 0 0 681052.3011229306 -4213351.3447196335 0 -4213351.3447196335 8988652.4364141524 0 0 0 0 50901103.074790068 4321479.8646566868 0 4321479.8646566868 -32868792.784606934 0 0 0 0 -222063885.58619225 -17502833.818948746 0 -17502833.818948746 212966548.99902344 0 0 0 0 54545889.417549409 199787685.77468729 0 199787685.77468729 205923144.08044434 0 0 0 0 -3787260.1157065663 -8168203.8243071344 0 -8168203.8243071344 78990650.661297262 0 0 0 0 -31458454.156308949 29348039.356399536 0 29348039.356399536 171432441.33581543 0 0 0 0 -107670714.05341536 -119298776.30619431 0 -119298776.30619431 -44723953.859512329 0 0 0 0 -111218718.96563843 -79449617.370414734 0 -79449617.370414734 56874821.985839844 0 0 0 0 103740187.93345517 -153770535.41871643 0 -153770535.41871643 41180773.635730743 0 0 0 0 51038323.609672785 -97403247.679857254 0 -97403247.679857254 1644080.9974517822 0 0 0 0 49059802.335051179 -163908910.86686707 0 -163908910.86686707 -54068369.102348328 0 0 0 0 3999035.3586978316 -15595330.734148026 0 -15595330.734148026 -53281348.650810242 0 0 0 0 90709130.137726784 -70407859.813018799 0 -70407859.813018799 -21481166.743499756 0 0 0 0 80314529.575580835 -95252328.800102234 0 -95252328.800102234 -25979950.30178833 0 0 0 0 147923792.15474975 -112559118.58037186 0 -112559118.58037186 -57275822.281118393 0 0 0 0 77775675.041838944 -54928219.194770813 0 -54928219.194770813 -39461030.361694336 0 0 0 0 92333366.726852685 19154136.819849014 0 19154136.819849014 120729702.59246826 0 0 0 0 142172023.8103956 -89922643.68287468 0 -89922643.68287468 136817020.19900513 0 0 0 0 -7800103.3521462679 -13283699.018520355 0 -13283699.018520355 143036443.93045807 0 0 0 0 -9945877.5677178502 8815350.0616569519 0 8815350.0616569519 85670291.900348663 0 0 0 0 -13104631.188335299 -50944675.695808411 0 -50944675.695808411 186538031.44139099 0 0 0 0 -13870945.565965772 -69086556.020466805 0 -69086556.020466805 29011489.669586182 0 0 0 0 -89463778.287833929 -29869825.187255859 0 -29869825.187255859 124737248.4906311 0 0 0 0 -91789910.585871756 -44378205.832701683 0 -44378205.832701683 61012095.111816406 0 0 0 0 -84462659.554386735 5430971.8786811829 0 5430971.8786811829 69392694.248382568 0 0 0 0 -120445468.50955617 -26674187.398208618 0 -26674187.398208618 101091454.66658783 0 0 0 0 -121041546.10950458 -20603022.286493301 0 -20603022.286493301 44378884.96257782 0 0 0 0 -123260334.78121227 -11288564.470355988 0 -11288564.470355988 59487817.132339478 0 0 0 0 -128444947.79921867 -50028222.932648659 0 -50028222.932648659 56589431.339111328 0 0 0 0 -121544502.75267589 -28545001.724487305 0 -28545001.724487305 57634422.003089905 0 0 0 0 3251290.3350058189 -2452732.9266726822 0 -2452732.9266726822 22015500.832217127 0 0 0 0 -792771.65546069469 -1853612.3376358785 0 -1853612.3376358785 21185398.879842311 0 0 0 0 1709300.2669953131 3999677.6603971124 0 3999677.6603971124 24788619.670327157 0 0 0 0 -450354.57618153095 13575320.782279968 0 13575320.782279968 46854584.757324219 0 0 0 0 -63361570.244903803 17328325.635490417 0 17328325.635490417 20724906.852600098 0 0 0 0 -227497901.81534114 77411254.395212173 0 77411254.395212173 92229968.81427002 0 0 0 0 22773192.672497392 -23112935.521278381 0 -23112935.521278381 -89643724.36946106 0 0 0 0 -2193469.0124734021 1578651.7300248966 0 1578651.7300248966 15593170.829156876 0 0 0 0 -77156294.185330868 129083225.8396759 0 129083225.8396759 -164702554.47733307 0 0 0 0 -163369448.6530174 65655661.642017365 0 65655661.642017365 96514230.464324951 0 0 0 0 -219888581.36612916 -12414922.609352112 0 -12414922.609352112 91088205.97467041 0 0 0 0 -153812230.70163298 69118903.670501709 0 69118903.670501709 11129306.909790039 0 0 0 0 444660.13550456497 3918211.2907122821 0 3918211.2907122821 16190358.334552586 0 0 0 0 -120406828.24279211 11006691.627072334 0 11006691.627072334 12154299.223632812 0 0 0 0 -117555467.47361824 -17994166.570002079 0 -17994166.570002079 62259507.714294434 0 0 0 0 -150320362.57252795 37173607.148195267 0 37173607.148195267 77371363.200546265 0 0 0 0 -116138381.57102752 24737486.168914795 0 24737486.168914795 77243370.525604248 0 0 0 0 -103599339.29740095 -3811723.779510498 0 -3811723.779510498 111231305.05958557 0 0 0 0 -53853322.884844184 28320334.260725021 0 28320334.260725021 92897210.320388794 0 0 0 0 -73172536.129483819 -19321891.816227913 0 -19321891.816227913 100016755.40406799 0 0 0 0 1066919.5051050636 21282.905628561974 0 21282.905628561974 32919.408936675638 0 0 0 0 -158775355.87539077 46142232.396270752 0 46142232.396270752 -76981100.416723251 0 0 0 0 -79702745.074139297 1999116.3884544373 0 1999116.3884544373 144271885.66483307 0 0 0 0 -144839128.58510423 37229486.773651123 0 37229486.773651123 125403112.32461548 0 0 0 0 4796442.8395408392 -1223912.5689239502 0 -1223912.5689239502 93079143.535240173 0 0 0 0 8341212.6981322542 15802372.227119923 0 15802372.227119923 97540443.555931091 0 0 0 0 32513326.539516326 -38718893.846632004 0 -38718893.846632004 171861479.91899109 0 0 0 0 52058003.703520954 12554369.153610229 0 12554369.153610229 87768666.307365417 0 0 0 0 39330605.169418395 18742167.578989029 0 18742167.578989029 57409801.045185089 0 0 0 0 2700416.1817571241 615517.1071396172 0 615517.1071396172 206957.49612879008 0 0 0 0 86258045.478712112 90309929.83111763 0 90309929.83111763 31664850.732681274 0 0 0 0 50687925.043712497 21059641.364513397 0 21059641.364513397 124901157.10965347 0 0 0 0 10318869.599650308 149394073.01694489 0 149394073.01694489 356366276.77577209 0 0 0 0 49816817.151797771 210843908.03552246 0 210843908.03552246 342908925.82673645 0 0 0 0 119990858.6531257 124240359.95732117 0 124240359.95732117 28555778.989349365 0 0 0 0 80937138.688710496 259889948.63791656 0 259889948.63791656 284987793.29214478 0 0 0 0 56454122.581409037 265036090.02671814 0 265036090.02671814 284603605.54644012 0 0 0 0 -28613911.870691746 2048041.4434051514 0 2048041.4434051514 76104711.978645325 0 0 0 0 8224615.0919178128 13641839.353858948 0 13641839.353858948 -79799470.604064941 0 0 0 0 -338189004.47032785 -84046475.398387909 0 -84046475.398387909 -23317480.024337769 0 0 0 0 -244537662.01316506 17435076.805957794 0 17435076.805957794 19070163.907409668 0 0 0 0 99103879.681084514 150955068.33027649 0 150955068.33027649 -159503170.25424194 0 0 0 0 616098.89272053028 1971470.3416636884 0 1971470.3416636884 7416984.4455241561 0 0 0 0 40443748.878502011 377557127.80115128 0 377557127.80115128 274368358.47723389 0 0 0 0 -29879187.853644371 131473759.32301331 0 131473759.32301331 -21784836.163169861 0 0 0 0 25147990.940999031 57827398.96704483 0 57827398.96704483 -192103063.36940002 0 0 0 0 -171115342.8381021 -48048514.618373871 0 -48048514.618373871 -181371202.75624084 0 0 0 0 338466522.5331049 -396413587.73570633 0 -396413587.73570633 439447963.42860413 0 0 0 0 118744504.96209082 -125970150.89031982 0 -125970150.89031982 -59236973.20488739 0 0 0 0 1696139.3827353842 -4369274.6174869239 0 -4369274.6174869239 3641508.8237955868 0 0 0 0 245191293.66389242 -402714141.60409927 0 -402714141.60409927 689149633.95465088 0 0 0 0 93854912.520071745 -193152570.24061584 0 -193152570.24061584 315461620.32273865 0 0 0 0 159092702.58049244 -322784060.19430161 0 -322784060.19430161 508409382.12304688 0 0 0 0 200629400.04373884 -282632221.64229584 0 -282632221.64229584 384897282.14697266 0 0 0 0 291966625.6820752 -337381088.36959839 0 -337381088.36959839 308419890.73434448 0 0 0 0 257814296.15585554 -236646016.05656433 0 -236646016.05656433 107984569.269104 0 0 0 0 335585914.19052768 -299058391.42610168 0 -299058391.42610168 73140548.990966797 0 0 0 0 329820215.81172532 -346651088.63041306 0 -346651088.63041306 157131403.50610352 0 0 0 0 -2793670.8974990193 -2886596.533863619 0 -2886596.533863619 31307727.703308731 0 0 0 0 -29365851.162732929 45276196.873886108 0 45276196.873886108 85075302.810882568 0 0 0 0 -6076673.4468985647 -42776792.124408722 0 -42776792.124408722 53704916.547592163 0 0 0 0 -363803864.83324695 80174658.266555786 0 80174658.266555786 9122336.6242599487 0 0 0 0 896717.6630235468 5359682.368139457 0 5359682.368139457 17834640.361743838 0 0 0 0 86459373.34460181 94436544.648696899 0 94436544.648696899 14310028.778663635 0 0 0 0 245196673.18455362 127179565.86773682 0 127179565.86773682 215296973.53861427 0 0 0 0 109219276.61081097 143440836.45679283 0 143440836.45679283 373554362.20993042 0 0 0 0 110779546.73874873 127121074.46422386 0 127121074.46422386 292256859.07833099 0 0 0 0 59819391.930113494 97825441.796562195 0 97825441.796562195 292240591.84472656 0 0 0 0 126482864.70014489 77834501.850543976 0 77834501.850543976 223638361.93173599 0 0 0 0 85203164.450553492 18349846.158397675 0 18349846.158397675 183921952.71517944 0 0 0 0 86382764.417201564 8784423.8479576111 0 8784423.8479576111 200988393.12350082 0 0 0 0 68141159.279251397 -59620396.723508835 0 -59620396.723508835 162589131.2593689 0 0 0 0 32913015.960317075 -60272385.371833801 0 -60272385.371833801 175858384.70810699 0 0 0 0 4840011.615644902 14648042.392539978 0 14648042.392539978 120077873.88208771 0 0 0 0 171963263.76810813 -42216057.660655975 0 -42216057.660655975 47968792.605651855 0 0 0 0 1688320.8803225197 319902.28644619882 0 319902.28644619882 327081.82249635085 0 0 0 0 185729436.47415966 210242400.59272194 0 210242400.59272194 370912243.8747406 0 0 0 0 -2810898.9508156776 58895318.771878242 0 58895318.771878242 438506284.75517273 0 0 0 0 -4877632.0028919578 208530471.31962204 0 208530471.31962204 522939216.48361969 0 0 0 0 227918269.21992612 155545105.09924316 0 155545105.09924316 417033604.69615769 0 0 0 0 206128663.57319495 121268835.38912582 0 121268835.38912582 368191495.85684967 0 0 0 0 98601138.840119928 195945812.70819283 0 195945812.70819283 449200781.60914612 0 0 0 0 19656504.35926193 150281376.44591141 0 150281376.44591141 429992523.28356647 0 0 0 0 -7031354.1425725222 118266329.57167053 0 118266329.57167053 434097401.3911705 0 0 0 0 12172290.559857786 129960003.90619278 0 129960003.90619278 389108338.02413177 0 0 0 0 48906240.949676096 136751827.82356071 0 136751827.82356071 390293073.19264984 0 0 0 0 33564508.493012875 127648155.27146339 0 127648155.27146339 334752406.123909 0 0 0 0 55406865.118849993 162532601.00556564 0 162532601.00556564 390124092.9691062 0 0 0 0 15620376.577483267 157941160.50152302 0 157941160.50152302 379673575.29573059 0 0 0 0 16042812.083956927 101063521.53920937 0 101063521.53920937 311381361.58045959 0 0 0 0 24380677.940325797 116254743.76503754 0 116254743.76503754 336301492.70562458 0 0 0 0 65691566.352817774 106497576.66624165 0 106497576.66624165 270738515.38951874 0 0 0 0 -32550152.166834995 145219359.66643524 0 145219359.66643524 406879282.07197571 0 0 0 0 -26007276.879042804 114899999.16000366 0 114899999.16000366 410369050.17932892 0 0 0 0 -29914975.010165453 88308555.121360779 0 88308555.121360779 431915376.7124424 0 0 0 0 -19013587.861484945 104476996.86696243 0 104476996.86696243 344450078.15916443 0 0 0 0 -11365430.781571448 118097631.41444016 0 118097631.41444016 368089826.92565036 0 0 0 0 -9338332.1458107829 137646455.53713989 0 137646455.53713989 367949590.44331712 0 0 0 0 -17773650.975336432 151672339.37075424 0 151672339.37075424 395390677.67230988 0 0 0 0 -32107354.719430625 143185960.6386528 0 143185960.6386528 390458079.92768478 0 0 0 0 -25684156.585971013 162329496.00048065 0 162329496.00048065 366885460.18263245 0 0 0 0 -27003047.511682391 159741970.33047867 0 159741970.33047867 391146221.54026794 0 0 0 0 2704419.6978263259 151708932.49438095 0 151708932.49438095 352148501.93175888 0 0 0 0 -11990201.301860362 83451678.304031372 0 83451678.304031372 413179776.4990921 0 0 0 0 -7919949.399833858 83944457.189714432 0 83944457.189714432 260588151.54372025 0 0 0 0 4065908.9413441122 208492474.79278564 0 208492474.79278564 231991687.16046143 0 0 0 0 -25035186.2769619 141125083.51276779 0 141125083.51276779 231400556.62391663 0 0 0 0 -22243539.750525713 159418445.12922668 0 159418445.12922668 286850614.89117813 0 0 0 0 -26680527.569512572 162451906.43698692 0 162451906.43698692 455028707.15830994 0 0 0 0 -37306001.232452139 196912654.32888794 0 196912654.32888794 421646571.86100769 0 0 0 0 -38702447.999614358 154671426.40779877 0 154671426.40779877 397552768.44295502 0 0 0 0 -31253910.306964546 182911133.9022522 0 182911133.9022522 350900365.25328827 0 0 0 0 -43958649.622520298 174826608.10797119 0 174826608.10797119 379795305.99530029 0 0 0 0 -42885805.042438015 38219404.437595367 0 38219404.437595367 13311458.55801487 0 0 0 0 7607606.1038268209 2283203.6483764648 0 2283203.6483764648 3204383.7011413574 0 0 0 0 267610499.164033 213320073.94689941 0 213320073.94689941 79494282.662322998 0 0 0 0 74503214.178681165 160907221.7638092 0 160907221.7638092 82054718.14276886 0 0 0 0 37776395.261526704 254428382.62355042 0 254428382.62355042 282670410.48070908 0 0 0 0 100640736.6812343 242124568.4036026 0 242124568.4036026 433065019.70320892 0 0 0 0 35441709.471318573 217971313.16103387 0 217971313.16103387 424122792.53166199 0 0 0 0 -103397252.47325629 -41759416.784015656 0 -41759416.784015656 34628556.594860077 0 0 0 0 350058988.61327761 369931790.63333321 0 369931790.63333321 367343091.751297 0 0 0 0 -236348.03217110844 223341959.35705566 0 223341959.35705566 637023209.54559326 0 0 0 0 -81249.37800100926 533909.02531176433 0 533909.02531176433 2962086.41903916 0 0 0 0 100676253.16923589 309231637.15266418 0 309231637.15266418 769180624.91905212 0 0 0 0 51457532.965693191 124050108.89653778 0 124050108.89653778 595432914.74965382 0 0 0 0 204279330.25423643 108835194.03375244 0 108835194.03375244 596245920.22151184 0 0 0 0 71723053.164330393 69328790.019393921 0 69328790.019393921 783705653.54777527 0 0 0 0 60202054.702038467 29939912.003166199 0 29939912.003166199 566897614.95175672 0 0 0 0 60979892.771652758 144743929.22870636 0 144743929.22870636 568208475.13705945 0 0 0 0 577598.70722540841 151342316.28875732 0 151342316.28875732 658620046.03982544 0 0 0 0 -1427064.0707619786 172393687.55301666 0 172393687.55301666 458780331.53158569 0 0 0 0 23818207.557680599 62447083.228843689 0 62447083.228843689 516050369.02020264 0 0 0 0 37689365.309697516 75701331.61866188 0 75701331.61866188 490217767.50335693 0 0 0 0 47090434.543776721 51423532.844482422 0 51423532.844482422 489475952.98748016 0 0 0 0 224759.36814585826 60119020.084575653 0 60119020.084575653 516810577.34336853 0 0 0 0 -29788107.993616283 167324228.64362335 0 167324228.64362335 406374236.49763489 0 0 0 0 -23818447.615341574 129779430.23111725 0 129779430.23111725 433762188.75392532 0 0 0 0 -46099276.88765271 151348069.52103806 0 151348069.52103806 467824124.6809845 0 0 0 0 -23742071.100195795 141861047.45805359 0 141861047.45805359 440204489.08094597 0 0 0 0 -30348235.469509616 142471697.44989777 0 142471697.44989777 532069009.88471985 0 0 0 0 -4366307.4824166894 103951761.53817749 0 103951761.53817749 464382604.98929834 0 0 0 0 17570184.428295627 62171927.476501465 0 62171927.476501465 478348887.04807568 0 0 0 0 -7330286.7865281403 101426703.02083969 0 101426703.02083969 470433219.36758423 0 0 0 0 17363160.933803082 88124077.440063477 0 88124077.440063477 440279853.81370163 0 0 0 0 -28343611.155308604 127738085.8444252 0 127738085.8444252 448375638.80441284 0 0 0 0 -21170117.971923649 104231285.94331932 0 104231285.94331932 455790755.5641098 0 0 0 0 -2811608.0215157568 11018187.618988037 0 11018187.618988037 658659285.81777191 0 0 0 0 860731.12377907522 906718.35802680254 0 906718.35802680254 878061.3073804006 0 0 0 0 2986105.0752555132 -8868682.9894046783 0 -8868682.9894046783 393932108.64488983 0 0 0 0 -3663752.6017072499 13827722.433509827 0 13827722.433509827 356163196.34340477 0 0 0 0 57241086.959388331 42173580.995380402 0 42173580.995380402 455557508.77859497 0 0 0 0 31460670.658425137 68724878.050441742 0 68724878.050441742 474977767.08644104 0 0 0 0 60759186.898022994 79806221.698123932 0 79806221.698123932 477862101.08163643 0 0 0 0 56584753.686097518 67248641.835983276 0 67248641.835983276 450576122.78136063 0 0 0 0 -75746.045632863199 1545013.8366279602 0 1545013.8366279602 388569529.16778183 0 0 0 0 35617033.689394884 154193266.59397125 0 154193266.59397125 233377350.56651306 0 0 0 0 70538168.285101116 73265439.227713585 0 73265439.227713585 15687714.345474243 0 0 0 0 39499165.591151543 -14884184.01874733 0 -14884184.01874733 332694.03787994385 0 0 0 0 -304981.71932638233 -73445.582410827279 0 -73445.582410827279 135556.12744838744 0 0 0 0 -19818976.051922422 7117054.1065063477 0 7117054.1065063477 137688384.33071899 0 0 0 0 105013.1802636216 3384939.0263290405 0 3384939.0263290405 41806228.951992035 0 0 0 0 2375033.1253333753 2508590.5288338214 0 2508590.5288338214 1449506.5139149651 0 0 0 0 11588996.329033971 -2902730.7894668579 0 -2902730.7894668579 8317921.5758666992 0 0 0 0 -14117536.333702281 19763629.915771484 0 19763629.915771484 -3546839.1530151367 0 0 0 0 40299816.238717467 29029515.729927063 0 29029515.729927063 -49025283.327774048 0 0 0 0 -25647638.7770807 3667580.5717163086 0 3667580.5717163086 28575131.663619995 0 0 0 0 -10639760.163669199 10821259.137954712 0 10821259.137954712 67889140.273410797 0 0 0 0 -13166268.947261453 -1396327.3593254089 0 -1396327.3593254089 25736096.632665634 0 0 0 0 -11044443.417507082 2510558.164056778 0 2510558.164056778 40989981.526481628 0 0 0 0 -21967845.985366106 2355037.8770256042 0 2355037.8770256042 27758244.954612732 0 0 0 0 6344351.8993399143 -242932.97174072266 0 -242932.97174072266 10347050.589729309 0 0 0 0 -893445.39576328942 -167129.25040644407 0 -167129.25040644407 -141090.21130737662 0 0 0 0 -5120955.362031728 -116130.16095161438 0 -116130.16095161438 37382977.908180237 0 0 0 0 -1047000.5464369822 496030.75471632183 0 496030.75471632183 2668102.7926432192 0 0 0 0 -8653218.1589283943 -16524331.994178772 0 -16524331.994178772 -5926171.6906890869 0 0 0 0 -3575859.2187455297 11248578.441814423 0 11248578.441814423 24693056.417762756 0 0 0 0 22197940.115056932 32798228.835796356 0 32798228.835796356 143942654.23081207 0 0 0 0 5051859.9423847198 2213180.9179992676 0 2213180.9179992676 15807653.249649048 0 0 0 0 3462984.886121735 3194800.2956744134 0 3194800.2956744134 3338419.283432357 0 0 0 0 -5075005.6823297739 27604860.434768677 0 27604860.434768677 188723488.03152466 0 0 0 0 -16194377.57964325 -10979795.723953247 0 -10979795.723953247 -13460798.148376465 0 0 0 0 -2181885.6181418127 -3607812.6665818542 0 -3607812.6665818542 8106717.8155829757 0 0 0 0 235593.64321041107 357155.77191162109 0 357155.77191162109 5998718.1467285156 0 0 0 0 -1459940.4859774415 -1863407.2791233659 0 -1863407.2791233659 5809366.2683959454 0 0 0 0 -6648252.8405866623 -24487794.513244629 0 -24487794.513244629 -6643485.2984619141 0 0 0 0 -15387385.735314965 -15499185.285194397 0 -15499185.285194397 -12177698.952819824 0 0 0 0 -10205341.246984959 -16799809.002349854 0 -16799809.002349854 -13539265.641906738 0 0 0 0 -8716104.3511605263 -23578015.934783936 0 -23578015.934783936 -7035975.7493591309 0 0 0 0 -14286916.672002196 -12904161.838363647 0 -12904161.838363647 -17247162.594604492 0 0 0 0 -3971985.1007095529 -6062853.3410431594 0 -6062853.3410431594 8701448.8767805696 0 0 0 0 -14542405.926755905 -16572711.401153564 0 -16572711.401153564 -10979674.246002197 0 0 0 0 -8789634.1608877182 -21545018.630706787 0 -21545018.630706787 -4278098.8344345093 0 0 0 0 -5917303.2091166377 -23055120.605792999 0 -23055120.605792999 -8739923.8741455078 0 0 0 0 -9737739.058303833 -23822489.460906982 0 -23822489.460906982 255969.37838745117 0 0 0 0 -29177.277403116226 -27052784.827651978 0 -27052784.827651978 -5361976.5967102051 0 0 0 0 5182729.0053770542 -1624438.6826324463 0 -1624438.6826324463 -44971055.367984772 0 0 0 0 -2013567.0093771219 -28409715.277549744 0 -28409715.277549744 -2922753.7480163574 0 0 0 0 12465128.72027266 -14266276.893577576 0 -14266276.893577576 -46179187.747657776 0 0 0 0 -4352970.5443976661 -2873718.0310052931 0 -2873718.0310052931 1632863.740988344 0 0 0 0 -4691568.8718515635 -14840729.844848633 0 -14840729.844848633 -18756358.609970093 0 0 0 0 7329423.484487839 -22437984.090961456 0 -22437984.090961456 -24545700.347412109 0 0 0 0 -1537938.5067895651 -8321366.3885650635 0 -8321366.3885650635 -27729485.30537796 0 0 0 0 -20257004.396241426 -6614937.6462860107 0 -6614937.6462860107 -16743982.495147705 0 0 0 0 -7162986.7180652618 -10982470.486251831 0 -10982470.486251831 -20982673.844406128 0 0 0 0 -12266362.288370371 -4949523.4144134521 0 -4949523.4144134521 -25105375.761459351 0 0 0 0 -17967711.04655242 -879217.65028381348 0 -879217.65028381348 -22008700.981491089 0 0 0 0 -504020.04302637279 -14942696.158431053 0 -14942696.158431053 -20793319.139038086 0 0 0 0 4272806.2805731893 -29122018.289749146 0 -29122018.289749146 -31843029.241500854 0 0 0 0 1928931.9755936414 -17685083.993911743 0 -17685083.993911743 -12990649.010383606 0 0 0 0 5581311.0550076067 -24575862.763368607 0 -24575862.763368607 8508726.5885467529 0 0 0 0 7444557.6253567934 17019673.743011475 0 17019673.743011475 10417020.698345184 0 0 0 0 -7512767.3736331463 14019884.212684631 0 14019884.212684631 10338964.317169189 0 0 0 0 11159355.972233891 1057334.7962036133 0 1057334.7962036133 -6520697.843837738 0 0 0 0 5329935.8065510467 -3167362.3298682868 0 -3167362.3298682868 1814209.6898314804 0 0 0 0 -678370.10685908794 487782.33683776855 0 487782.33683776855 3290148.577129364 0 0 0 0 1870475.8292244771 -1569597.6800078601 0 -1569597.6800078601 10559271.48528897 0 0 0 0 973714.2770250492 -259889.05536620319 0 -259889.05536620319 1383664.6328423917 0 0 0 0 8027159.6367418766 -2704708.5160598755 0 -2704708.5160598755 124702284.52888489 0 0 0 0 -13498927.879720271 59240735.270851135 0 59240735.270851135 271911016.93338013 0 0 0 0 24255282.889903069 78240480.12348938 0 78240480.12348938 153579854.24820137 0 0 0 0 19045405.497527644 88056559.74446106 0 88056559.74446106 282955740.8131485 0 0 0 0 37373608.787658811 53677012.480125427 0 53677012.480125427 269690409.08361053 0 0 0 0 65334.474866649834 -301807.47962152958 0 -301807.47962152958 613266.44630385935 0 0 0 0 22758161.158165634 55316796.758712769 0 55316796.758712769 273012333.70645142 0 0 0 0 50618392.275082082 60738563.457073212 0 60738563.457073212 264158433.75172424 0 0 0 0 37236903.706925631 63804768.419372559 0 63804768.419372559 268199060.95819998 0 0 0 0 -2844553.7953683138 65230278.841049194 0 65230278.841049194 271288511.87472534 0 0 0 0 1961866.4212288857 81052038.814613342 0 81052038.814613342 311127622.97547913 0 0 0 0 -26780661.851885617 62667812.21064949 0 62667812.21064949 291377544.25775146 0 0 0 0 -23222390.703407586 80325950.601222992 0 80325950.601222992 345843436.9353168 0 0 0 0 -32564054.376321316 75227048.944179535 0 75227048.944179535 392313432.97476959 0 0 0 0 -28742742.608335674 95594941.76805687 0 95594941.76805687 356359491.38367462 0 0 0 0 -9325623.9229843616 -6601383.7410564423 0 -6601383.7410564423 283394118.46406555 0 0 0 0 5753348.3037559986 -3963845.1218032837 0 -3963845.1218032837 180346191.62282562 0 0 0 0 -11425770.815734684 36642578.087680817 0 36642578.087680817 302207963.56355286 0 0 0 0 -2015695.6296876669 42551000.929115295 0 42551000.929115295 187363865.68300056 0 0 0 0 -95162914.56493783 44786894.69338131 0 44786894.69338131 -87827869.807618141 0 0 0 0 -183551715.87547493 69623213.116486549 0 69623213.116486549 457255717.80999756 0 0 0 0 3237432.0276870346 -3976223.6785283275 0 -3976223.6785283275 4236538.1241042111 0 0 0 0 -170006199.14388561 92715865.422940254 0 92715865.422940254 161431310.55348468 0 0 0 0 -136675894.82972121 11167295.841953397 0 11167295.841953397 223922715.32353687 0 0 0 0 -70528080.308481216 20430280.802175522 0 20430280.802175522 189210900.85715389 0 0 0 0 -64786601.719403267 6422596.2403521538 0 6422596.2403521538 165473014.11393642 0 0 0 0 -68512162.377563 -27758213.832482904 0 -27758213.832482904 181331890.65354824 0 0 0 0 -7878745.6030569077 -65380232.257939339 0 -65380232.257939339 203542971.08606398 0 0 0 0 23213663.731742859 -71061669.946368933 0 -71061669.946368933 145174017.57600069 0 0 0 0 -52835175.194115639 21728675.574440718 0 21728675.574440718 125666174.5140667 0 0 0 0 -21044204.253061295 -27260136.703278542 0 -27260136.703278542 86943445.364406586 0 0 0 0 -60993230.722441196 51554655.88619113 0 51554655.88619113 47253272.778005123 0 0 0 0 -55853547.610381126 26386965.561154842 0 26386965.561154842 164004048.60912848 0 0 0 0 83437174.010638237 -449190178.67773247 0 -449190178.67773247 -170797663.17788124 0 0 0 0 785793837.28408432 90996075.806059837 0 90996075.806059837 -479132414.78529763 0 0 0 0 198193164.93490887 15897732.012494087 0 15897732.012494087 19235224.859199524 0 0 0 0 126895346.09584355 -97334547.470305681 0 -97334547.470305681 268365902.20020485 0 0 0 0 285925546.62914848 -98581093.689884901 0 -98581093.689884901 142250073.66602135 0 0 0 0 -411074.76597848535 257386.33085506409 0 257386.33085506409 7885560.3216393031 0 0 0 0 99438851.745656013 189243052.07996798 0 189243052.07996798 160399412.10255671 0 0 0 0 304831113.82014656 203804504.07744312 0 203804504.07744312 -102245735.86122608 0 0 0 0 -250197266.16657877 -402496012.23095512 0 -402496012.23095512 371035798.38033104 0 0 0 0 56061602.162239075 -6933298.1572675705 0 -6933298.1572675705 280104345.12312627 0 0 0 0 25428175.740531921 -167558601.81103086 0 -167558601.81103086 -246996646.45288634 0 0 0 0 12620022.816920027 -9548964.4157968815 0 -9548964.4157968815 6444520.1650424432 0 0 0 0 -854939.2613898227 -555329.23612570763 0 -555329.23612570763 2331757.2847632971 0 0 0 0 14306601.73613739 136902429.02631474 0 136902429.02631474 56787271.882999077 0 0 0 0 75261096.051083088 -217451768.38162804 0 -217451768.38162804 58991900.039153099 0 0 0 0 10442695.802380033 -9446892.9903830085 0 -9446892.9903830085 7508207.4029643498 0 0 0 0 -150565433.70130348 -434470382.61488819 0 -434470382.61488819 -40008370.829482079 0 0 0 0 5454119.4440968037 102771566.83180523 0 102771566.83180523 -26894822.136126041 0 0 0 0 88784821.951501369 101409383.85573292 0 101409383.85573292 -83804468.794140816 0 0 0 0 29183408.958877563 45557419.249132633 0 45557419.249132633 55604085.875977516 0 0 0 0 117007617.23217654 49213910.544497967 0 49213910.544497967 53643001.532121181 0 0 0 0 236149058.91975832 -59993863.113979816 0 -59993863.113979816 26496227.842536271 0 0 0 0 470938173.35409212 309777925.01127005 0 309777925.01127005 -13962153.075944781 0 0 0 0 22688748.647666216 -129579251.57361729 0 -129579251.57361729 41763882.823413134 0 0 0 0 353886052.380252 632541477.98591089 0 632541477.98591089 536316739.42559528 0 0 0 0 -187739956.86262316 107327182.00721422 0 107327182.00721422 -211784258.74211216 0 0 0 0 1209715.2416689852 -1975352.7892194889 0 -1975352.7892194889 4677736.4679361274 0 0 0 0 24893748.63975215 -154354850.44070554 0 -154354850.44070554 195576509.94709802 0 0 0 0 -231701953.31532884 179825001.75798512 0 179825001.75798512 977231845.57290983 0 0 0 0 -153971586.06243807 -132095866.00559688 0 -132095866.00559688 1386094746.950798 0 0 0 0 254306584.82528919 -409564976.46771932 0 -409564976.46771932 475027238.95293283 0 0 0 0 -14586294.122501187 200536215.57266021 0 200536215.57266021 -236093997.58795786 0 0 0 0 -46634198.552685499 -379585039.84268332 0 -379585039.84268332 397375971.1651516 0 0 0 0 41211607.127290249 42451953.63671422 0 42451953.63671422 -59649243.141292572 0 0 0 0 71368982.332915783 -118274.13196563721 0 -118274.13196563721 -96905187.960489273 0 0 0 0 113273332.38058662 44313140.307122231 0 44313140.307122231 -115655051.68334556 0 0 0 0 3031261.9710147819 -4029360.9057851946 0 -4029360.9057851946 4840756.5335897636 0 0 0 0 126240787.37758207 59205681.879908562 0 59205681.879908562 -80820639.60792017 0 0 0 0 -5149658.0701538473 15429696.026515411 0 15429696.026515411 76361643.410984173 0 0 0 0 -116942492.44131082 -37007391.562335253 0 -37007391.562335253 215145483.43127012 0 0 0 0 -170461812.30186355 81146687.563733667 0 81146687.563733667 120438039.99951947 0 0 0 0 -33656525.692502826 24197647.757646203 0 24197647.757646203 164993452.99445248 0 0 0 0 26071532.612488508 102675952.4663322 0 102675952.4663322 547040242.78528404 0 0 0 0 -993291.17983776331 -27031333.671085119 0 -27031333.671085119 235190931.15238953 0 0 0 0 1855867.1339815666 -2734121.4904966638 0 -2734121.4904966638 -1204686.2643213794 0 0 0 0 127172407.38740078 58486984.907834411 0 58486984.907834411 -19796847.555765152 0 0 0 0 243709646.65609229 274197482.61193895 0 274197482.61193895 239818468.30104327 0 0 0 0 239571744.96303797 219220020.91687036 0 219220020.91687036 180968095.26325971 0 0 0 0 -97575434.603217572 34566788.322287798 0 34566788.322287798 99579968.253551483 0 0 0 0 -2121043.18831729 18096483.657126147 0 18096483.657126147 84707649.49561879 0 0 0 0 -91522650.064753056 14990735.088350773 0 14990735.088350773 107286771.1384697 0 0 0 0 -80058237.926204205 15579284.650204659 0 15579284.650204659 113098503.07495117 0 0 0 0 -78520096.386495113 17563408.181976318 0 17563408.181976318 78031193.417926788 0 0 0 0 -840481.09820205881 12452016.910000721 0 12452016.910000721 11030786.515801102 0 0 0 0 283105237.96300864 -402759360.9806819 0 -402759360.9806819 -270936188.71784973 0 0 0 0 -39919592.758933082 148832516.8164041 0 148832516.8164041 45662135.122218728 0 0 0 0 -4824203.4650113583 92057689.519151688 0 92057689.519151688 135061659.90954208 0 0 0 0 4190558.913124925 20164531.859442417 0 20164531.859442417 73397536.743245095 0 0 0 0 -35867547.940574497 42926674.552675724 0 42926674.552675724 120962699.73564887 0 0 0 0 200251258.69903931 344432450.07607031 0 344432450.07607031 173502457.48304856 0 0 0 0 -1376716.1536697461 7017168.7092084475 0 7017168.7092084475 27738233.830453679 0 0 0 0 -86243051.109702826 1081845.6304569244 0 1081845.6304569244 90605456.391180038 0 0 0 0 -78454105.106531143 10367801.416628838 0 10367801.416628838 87730717.604019165 0 0 0 0 -50484488.340781212 3102183.6821975708 0 3102183.6821975708 87784688.826526642 0 0 0 0 150525170.48139262 43741000.81865263 0 43741000.81865263 -54306535.677078247 0 0 0 0 -55986766.522932053 -46515578.692301273 0 -46515578.692301273 239345350.34425068 0 0 0 0 225603578.38078403 -40516906.553128242 0 -40516906.553128242 24774622.803152084 0 0 0 0 269287405.16899967 -144801746.50379467 0 -144801746.50379467 114160399.0865078 0 0 0 0 96163537.805809975 -89293552.023501873 0 -89293552.023501873 212052433.82804871 0 0 0 0 216936926.495224 -281928158.43069935 0 -281928158.43069935 514078577.57428741 0 0 0 0 312201879.78060722 -209922172.53392506 0 -209922172.53392506 203918925.75081062 0 0 0 0 72440213.95207119 -30323042.626643658 0 -30323042.626643658 67843944.813421249 0 0 0 0 223260574.13966775 11009007.662112713 0 11009007.662112713 -66626460.039113045 0 0 0 0 98862741.889142871 34687958.51708889 0 34687958.51708889 -64616071.424919128 0 0 0 0 -82532478.768949151 -75611679.980769396 0 -75611679.980769396 127346758.56784439 0 0 0 0 119357934.15156826 27794527.830361366 0 27794527.830361366 -252216247.18319827 0 0 0 0 -52059669.621973515 -114254636.01959324 0 -114254636.01959324 125934381.32953835 0 0 0 0 1773604.2436346533 -2121987.3960111234 0 -2121987.3960111234 2268878.8869426623 0 0 0 0 88630660.473520279 -49951652.998755455 0 -49951652.998755455 61620158.608185768 0 0 0 0 -47580876.479148388 38122644.960501671 0 38122644.960501671 11245218.545297623 0 0 0 0 -24058155.308733821 -58196643.872467041 0 -58196643.872467041 68941797.242268562 0 0 0 0 -29471658.101117611 -58605725.597514629 0 -58605725.597514629 206123713.13608587 0 0 0 0 -8165867.7215089798 -145878347.86710644 0 -145878347.86710644 191570731.97113419 0 0 0 0 -30455887.72559382 -93013294.934821188 0 -93013294.934821188 310205620.1844635 0 0 0 0 -32029681.672161102 -112666558.0672617 0 -112666558.0672617 428911605.48806763 0 0 0 0 -1924982.1551194421 8805915.318915559 0 8805915.318915559 10016889.532637779 0 0 0 0 13999279.626410484 -25851186.376021385 0 -25851186.376021385 222272602.57945251 0 0 0 0 -35369030.887612492 54708402.25116396 0 54708402.25116396 176736252.31745303 0 0 0 0 82569749.083119482 -6958341.405978024 0 -6958341.405978024 61150692.416772604 0 0 0 0 -32539162.538840503 44320020.486774445 0 44320020.486774445 212761803.91705012 0 0 0 0 -34150966.259482443 -73011663.045233965 0 -73011663.045233965 163112935.00808907 0 0 0 0 87853445.336969018 -27382915.695003986 0 -27382915.695003986 105193124.77423 0 0 0 0 164455543.68949497 -92355191.723434567 0 -92355191.723434567 121901280.28842926 0 0 0 0 156823863.46858552 80272698.886348426 0 80272698.886348426 159815530.64306259 0 0 0 0 121554955.71334457 -87733754.784703255 0 -87733754.784703255 171997700.30112982 0 0 0 0 396543642.00737667 -127894478.86566639 0 -127894478.86566639 173398035.4064045 0 0 0 0 -39347828.825246811 -7776164.8402557373 0 -7776164.8402557373 957759192.8042984 0 0 0 0 694420237.29493284 327205335.08439493 0 327205335.08439493 206844576.10882568 0 0 0 0 -14877083.355262756 42603253.503047943 0 42603253.503047943 351120969.94059086 0 0 0 0 -6111582.424697876 -80083809.049828053 0 -80083809.049828053 248407651.35251713 0 0 0 0 127013798.44740486 -147465855.81109905 0 -147465855.81109905 263589795.35930729 0 0 0 0 129672011.16075611 -105698473.65612793 0 -105698473.65612793 148405029.95432663 0 0 0 0 45191978.981182575 -50574727.785871744 0 -50574727.785871744 97028166.014133453 0 0 0 0 80331571.786763191 -95815157.980327606 0 -95815157.980327606 147100206.14808798 0 0 0 0 132606498.92152405 -51832152.775593758 0 -51832152.775593758 70472157.07653141 0 0 0 0 80191305.919905186 -60726091.677249432 0 -60726091.677249432 77131004.699868202 0 0 0 0 76065839.354982376 -47211455.149497271 0 -47211455.149497271 76140755.451181889 0 0 0 0 47385688.929952502 -41925211.909710564 0 -41925211.909710564 40946776.301242471 0 0 0 0 55135174.712629795 -8124527.5739904642 0 -8124527.5739904642 33509973.453495502 0 0 0 0 60699294.72403264 -20472272.304198265 0 -20472272.304198265 49876015.066995621 0 0 0 0 117925621.83514404 -3106362.7404227257 0 -3106362.7404227257 51548329.121496201 0 0 0 0 77365693.694035918 23449558.41613017 0 23449558.41613017 33577788.557767153 0 0 0 0 17681203.94520843 22098999.048375964 0 22098999.048375964 39881901.466988206 0 0 0 0 3656910.9027467389 9321891.8174066152 0 9321891.8174066152 30825328.407364078 0 0 0 0 8759862.6297440529 -650336.72874450684 0 -650336.72874450684 27300353.610296249 0 0 0 0 35577977.455809832 -18568908.44833535 0 -18568908.44833535 30686433.536619425 0 0 0 0 28063991.220096111 -8514337.6006057262 0 -8514337.6006057262 20517714.469382286 0 0 0 0 10665812.273215771 -77729778.195140839 0 -77729778.195140839 47585031.585063577 0 0 0 0 612816.57628591522 -2256683.7887630165 0 -2256683.7887630165 5927767.1185049713 0 0 0 0 -28937907.111770153 -8952301.2131958008 0 -8952301.2131958008 44974247.160415649 0 0 0 0 -90681482.835271671 -44520832.604064941 0 -44520832.604064941 93309593.599763393 0 0 0 0 9276133.0341813564 -4161286.4438381195 0 -4161286.4438381195 38521433.016387939 0 0 0 0 -1110236.8177853338 -8314556.3125383761 0 -8314556.3125383761 53044494.643489592 0 0 0 0 136899285.02913451 480921461.94388676 0 480921461.94388676 228519392.24125671 0 0 0 0 34141731.413889885 -201384871.81510735 0 -201384871.81510735 215105709.29523087 0 0 0 0 507358105.91705704 -592295630.16534042 0 -592295630.16534042 -78729973.391604424 0 0 0 0 484165365.59126759 39437228.127544403 0 39437228.127544403 56433191.781677246 0 0 0 0 63129795.743085861 187690224.94833755 0 187690224.94833755 396328734.73241425 0 0 0 0 -65518242.929502487 13494653.869186401 0 13494653.869186401 475744926.60756302 0 0 0 0 -17979043.055643082 -40540896.667297363 0 -40540896.667297363 31358488.604034424 0 0 0 0 -53013895.560469151 -514112128.87430191 0 -514112128.87430191 20782791.3409729 0 0 0 0 9379916.243055582 -44737516.25024128 0 -44737516.25024128 -11576459.95460701 0 0 0 0 2598586.8856301522 -22957971.337542228 0 -22957971.337542228 44809524.982881144 0 0 0 0 -32241103.836075306 -100708642.16612244 0 -100708642.16612244 -125974008.13069916 0 0 0 0 -3464392.9375397246 -1475858.3462770265 0 -1475858.3462770265 6314126.1043511964 0 0 0 0 -158319892.84951019 127782395.5449028 0 127782395.5449028 -85714588.440246582 0 0 0 0 14559615.042733192 60050921.504924774 0 60050921.504924774 -66625014.901885986 0 0 0 0 -236530662.43682647 71901.818172454834 0 71901.818172454834 26987818.185195923 0 0 0 0 -120120555.15080357 -73048398.067333221 0 -73048398.067333221 44037493.110977173 0 0 0 0 42740364.579741001 -27584080.969102859 0 -27584080.969102859 -15101332.311022758 0 0 0 0 17178695.184055269 -16497452.064427614 0 -16497452.064427614 27131903.743995667 0 0 0 0 22264964.878421545 -9139796.6905012131 0 -9139796.6905012131 2290407.0327682495 0 0 0 0 36003902.242416143 30863133.436282158 0 30863133.436282158 47287260.262869835 0 0 0 0 23622069.652982473 12353989.760437965 0 12353989.760437965 24357764.431704521 0 0 0 0 49982683.875140667 14363270.094859958 0 14363270.094859958 11938764.124132156 0 0 0 0 43654009.613163143 -15761417.130095482 0 -15761417.130095482 -34379614.109525681 0 0 0 0 73757691.949479103 -55713236.450656891 0 -55713236.450656891 -38784873.936870575 0 0 0 0 124662655.3775599 42227421.637397766 0 42227421.637397766 -9142585.3139266968 0 0 0 0 5017675.6953448057 -39062502.355047226 0 -39062502.355047226 9975938.7549438477 0 0 0 0 19646583.990571976 -80035534.207431793 0 -80035534.207431793 -143748590.59469604 0 0 0 0 -22568032.820336819 -40210558.225318909 0 -40210558.225318909 -27643287.453769684 0 0 0 0 -30339558.625575542 -114071374.17175674 0 -114071374.17175674 -102802634.01991272 0 0 0 0 -76891759.731523395 -176158267.46709061 0 -176158267.46709061 -148773728.47944641 0 0 0 0 8936397.7514470518 -4949791.5888773687 0 -4949791.5888773687 -12784825.855703674 0 0 0 0 3369725.7481334619 8353904.8174953721 0 8353904.8174953721 20989498.875639345 0 0 0 0 8463859.4991316795 445719.91615581512 0 445719.91615581512 29339511.243895769 0 0 0 0 24890616.083928108 -1027029.5013408661 0 -1027029.5013408661 27253016.965639114 0 0 0 0 17825822.567762971 6290095.5131959915 0 6290095.5131959915 25106369.301129341 0 0 0 0 3799212.6283963565 -1533849.0503760949 0 -1533849.0503760949 5436663.0034756586 0 0 0 0 23600540.609018326 12084848.477149963 0 12084848.477149963 28214856.247428417 0 0 0 0 52319304.265246391 -51067399.283522606 0 -51067399.283522606 89165734.59905529 0 0 0 0 5095385.161262596 7355925.6346653365 0 7355925.6346653365 12502097.725997463 0 0 0 0 -57914157.364096642 92065286.039855957 0 92065286.039855957 125193029.02075386 0 0 0 0 -30706328.889126778 150279081.74404573 0 150279081.74404573 302138644.91273284 0 0 0 0 -2768829.8841122091 667880.54489318561 0 667880.54489318561 8527731.9861549065 0 0 0 0 -56086824.589151382 -86513891.630279541 0 -86513891.630279541 717352.74578070641 0 0 0 0 561871890.22972393 189061777.51734638 0 189061777.51734638 276563889.62858868 0 0 0 0 460266147.11830711 311012634.33234501 0 311012634.33234501 167626662.72997093 0 0 0 0 -880228.40068269521 2606451.244697731 0 2606451.244697731 6637912.0646619331 0 0 0 0 -11593796.91087842 -173520387.08605951 0 -173520387.08605951 32580934.75 0 0 0 0 31126403.572424889 -78947643.105871916 0 -78947643.105871916 28477054.691328764 0 0 0 0 -1729542.4973562621 -1246950.4922374035 0 -1246950.4922374035 1810732.2289153179 0 0 0 0 -1408978.0130300522 -20416702.90699935 0 -20416702.90699935 134434221.88970828 0 0 0 0 -1427451.8865566254 -14837994.296928644 0 -14837994.296928644 36462624.313404322 0 0 0 0 9683521.9145152569 -4253010.3000165224 0 -4253010.3000165224 46539870.837873459 0 0 0 0 21506369.167084932 -27059834.018911272 0 -27059834.018911272 41978396.897144318 0 0 0 0 26892211.31564045 -30772132.652528405 0 -30772132.652528405 37048285.21474278 0 0 0 0 22901189.550335407 -39279676.90188244 0 -39279676.90188244 34819550.122956693 0 0 0 0 11945443.655448914 -73736740.082619429 0 -73736740.082619429 40003670.763093233 0 0 0 0 19969133.732036114 -57797356.600952983 0 -57797356.600952983 -10961514.656296015 0 0 0 0 5563760.6183655262 -3616164.818492204 0 -3616164.818492204 -25238694.565270185 0 0 0 0 -266497.62717819214 -21045220.522400439 0 -21045220.522400439 28568533.874671996 0 0 0 0 -46743185.397373199 -26843176.526975453 0 -26843176.526975453 66114338.007108606 0 0 0 0 -100780031.88903332 719849.64850318432 0 719849.64850318432 61968781.18981123 0 0 0 0 -46139380.009819627 -16890467.232846901 0 -16890467.232846901 85377238.803521633 0 0 0 0 38550302.063254356 -31069435.385966539 0 -31069435.385966539 56592389.402465463 0 0 0 0 27267189.783870697 -50158847.423801482 0 -50158847.423801482 74524671.180718035 0 0 0 0 -20501280.671360016 -24944003.39142549 0 -24944003.39142549 96758805.460813522 0 0 0 0 -3566040.4787740707 -14236011.31930548 0 -14236011.31930548 37437186.157214284 0 0 0 0 577004403.20225382 527716122.78154147 0 527716122.78154147 504463276.13224411 0 0 0 0 143182489.78610802 -174694597.40257931 0 -174694597.40257931 878209990.61873484 0 0 0 0 -538408172.06703901 153380388.93618309 0 153380388.93618309 1124599753.4245493 0 0 0 0 -1402346.4194962457 1352684.0900093317 0 1352684.0900093317 13942033.155172495 0 0 0 0 353414023.59109116 322825620.47500908 0 322825620.47500908 -132602823.05082417 0 0 0 0 6045928.5325364806 6369024.3201163951 0 6369024.3201163951 8088610.3033661563 0 0 0 0 347881161.74551386 240489596.29843491 0 240489596.29843491 -209928447.26684356 0 0 0 0 -191290111.79981613 136329623.51230982 0 136329623.51230982 130091508.60109544 0 0 0 0 277469941.86901009 160126522.95071483 0 160126522.95071483 -232448978.26479244 0 0 0 0 443145923.51727438 438311498.88938802 0 438311498.88938802 80357995.312934399 0 0 0 0 274820329.98394012 241224980.64476132 0 241224980.64476132 -150380075.35851103 0 0 0 0 64581360.239941597 177830278.24016643 0 177830278.24016643 354067403.90258884 0 0 0 0 138094383.92370796 108316838.95767641 0 108316838.95767641 371418987.43283176 0 0 0 0 36728404.538976669 76266351.980715275 0 76266351.980715275 77903265.380393028 0 0 0 0 -103883740.59484196 113095000.44858563 0 113095000.44858563 253364769.64362335 0 0 0 0 112509286.54163885 -123091552.70179868 0 -123091552.70179868 194061376.25830841 0 0 0 0 -86225075.056346893 112124818.95136786 0 112124818.95136786 -45095690.309503317 0 0 0 0 16244042.440627567 19459636.825654212 0 19459636.825654212 18877659.902473968 0 0 0 0 -215533760.25592232 304553612.56767589 0 304553612.56767589 -18130066.218211249 0 0 0 0 15747330.438439995 18828193.908182006 0 18828193.908182006 53564620.154096067 0 0 0 0 16789079.728391647 -93645634.990696907 0 -93645634.990696907 127309911.85495365 0 0 0 0 -106800670.5803647 -133493551.47619629 0 -133493551.47619629 58727607.681524277 0 0 0 0 -211194664.8591795 -77576759.179595947 0 -77576759.179595947 108875851.13919449 0 0 0 0 -12135258.762238391 -27600612.122356124 0 -27600612.122356124 130155260.79741822 0 0 0 0 -50323616.438159943 -77629047.281465769 0 -77629047.281465769 161000384.26427555 0 0 0 0 6536666.275601387 -29787228.445048809 0 -29787228.445048809 140085791.71151805 0 0 0 0 -76236209.44977951 -17187383.234547615 0 -17187383.234547615 196340529.19165993 0 0 0 0 -93373334.802177429 26492744.782369137 0 26492744.782369137 158522903.45349836 0 0 0 0 -60439532.421623707 47999968.980098963 0 47999968.980098963 97595806.097776413 0 0 0 0 -3936770.9599435292 -4294315.1151454728 0 -4294315.1151454728 24108249.381079517 0 0 0 0 -42981664.487607956 -72393192.322302818 0 -72393192.322302818 265085778.87436962 0 0 0 0 9073483.9711017609 48357741.076460838 0 48357741.076460838 169317687.94604635 0 0 0 0 8900076.8955574036 53910491.295000076 0 53910491.295000076 447491358.98564434 0 0 0 0 61056842.25993824 -41518095.331893921 0 -41518095.331893921 190364535.19682074 0 0 0 0 140634064.00110054 -126865818.93319416 0 -126865818.93319416 280804267.75951815 0 0 0 0 -11929645.731555581 8143871.3030319214 0 8143871.3030319214 40440527.868885994 0 0 0 0 2635477.6720802868 -10164419.71552375 0 -10164419.71552375 -8542699.9126413614 0 0 0 0 190775492.84931874 -56398834.379699707 0 -56398834.379699707 -14741451.774963379 0 0 0 0 540825.41362324357 -139689763.5518117 0 -139689763.5518117 302744709.73265076 0 0 0 0 12261918.607344747 -75077135.996437073 0 -75077135.996437073 218984506.3604126 0 0 0 0 95845913.881688923 -228500887.07213569 0 -228500887.07213569 343383740.98939514 0 0 0 0 -1327086.1229248047 -119672518.21151733 0 -119672518.21151733 459328529.85441589 0 0 0 0 -22240442.508015156 -143549278.96982384 0 -143549278.96982384 506193128.78829956 0 0 0 0 -24455954.527573586 -78680394.458610535 0 -78680394.458610535 332226493.88697815 0 0 0 0 5579121.0231297016 -48339659.307029724 0 -48339659.307029724 303470804.62219238 0 0 0 0 -38260364.482522011 -87649120.65568924 0 -87649120.65568924 396308885.18538666 0 0 0 0 33218061.989356756 -123338218.06251335 0 -123338218.06251335 147441670.0925827 0 0 0 0 44538751.072922945 -91782207.470596313 0 -91782207.470596313 128899156.85501671 0 0 0 0 -103499.12219336443 -12905311.415708005 0 -12905311.415708005 -16780453.8272205 0 0 0 0 44970775.328100443 -89180138.826683044 0 -89180138.826683044 107811265.02206421 0 0 0 0 -16351179.401638031 -51097362.487140656 0 -51097362.487140656 174768669.47854233 0 0 0 0 5159314.6326959878 -59726162.408636689 0 -59726162.408636689 177761251.59875488 0 0 0 0 -11494925.673794985 49011190.231811523 0 49011190.231811523 341053232.59661865 0 0 0 0 -21966693.009473562 455625.54557037354 0 455625.54557037354 139816472.55114746 0 0 0 0 -76933396.592091799 -29553034.065200806 0 -29553034.065200806 183795982.83045197 0 0 0 0 -16678785.113776714 -56530984.301592112 0 -56530984.301592112 84718287.792747498 0 0 0 0 -38755735.666583061 335179.90974450111 0 335179.90974450111 117756581.06710052 0 0 0 0 -14165767.879280709 -29094625.988007672 0 -29094625.988007672 126031158.73257455 0 0 0 0 -58241752.427617073 -134653280.22550201 0 -134653280.22550201 84704592.692049876 0 0 0 0 -34732594.242749214 -87583326.854789734 0 -87583326.854789734 88108676.425186157 0 0 0 0 -23479653.092388153 -54004355.957826614 0 -54004355.957826614 172950525.33567429 0 0 0 0 -10967831.579617186 -18706370.439692758 0 -18706370.439692758 92532560.193312034 0 0 0 0 90962915.152760983 9436047.147857666 0 9436047.147857666 56674272.342475891 0 0 0 0 24266647.340084553 -49438907.081653595 0 -49438907.081653595 116318263.55807877 0 0 0 0 -10666954.498271558 -19705558.860289842 0 -19705558.860289842 15411074.561900288 0 0 0 0 -29614147.303315759 -85740454.543920517 0 -85740454.543920517 126867044.4437561 0 0 0 0 23505655.017260551 -42300685.142742157 0 -42300685.142742157 55273127.059268951 0 0 0 0 -10401329.898925781 -65177253.608085632 0 -65177253.608085632 102196642.21960831 0 0 0 0 -58777325.758893728 -54444436.253398895 0 -54444436.253398895 93824921.595363617 0 0 0 0 -37907146.610222578 44785095.00177002 0 44785095.00177002 36166268.496379852 0 0 0 0 -805003.84379854694 3275005.151627332 0 3275005.151627332 24422484.034772113 0 0 0 0 -63893192.438393652 24224699.624417067 0 24224699.624417067 44068369.202148438 0 0 0 0 -62699081.697285764 25712383.996692896 0 25712383.996692896 21597651.240020752 0 0 0 0 -63079200.227887392 11455642.115036011 0 11455642.115036011 -12149589.641479492 0 0 0 0 -33551390.5873034 -32569880.750652313 0 -32569880.750652313 61120592.283779144 0 0 0 0 16830174.652299881 -28705125.616052628 0 -28705125.616052628 40017944.759384155 0 0 0 0 -59161259.705135345 1183360.2062454224 0 1183360.2062454224 64896142.46156311 0 0 0 0 42089693.758355141 58922993.183700562 0 58922993.183700562 52707677.955345154 0 0 0 0 -168546412.73284483 284452973.03799057 0 284452973.03799057 200503368.45466423 0 0 0 0 -116744149.85943544 47623976.919465065 0 47623976.919465065 52009959.597991943 0 0 0 0 -3540865.0315196593 -7139264.963003438 0 -7139264.963003438 5513431.1492886245 0 0 0 0 111839080.34147584 -89477157.741653442 0 -89477157.741653442 12394858.186676025 0 0 0 0 -163226660.87239748 -304202163.6170578 0 -304202163.6170578 66361010.692073822 0 0 0 0 1210179.3974748836 -2901418.419401845 0 -2901418.419401845 62471024.47360903 0 0 0 0 -24529821.438618243 2147422.1798858643 0 2147422.1798858643 25433142.838012695 0 0 0 0 -1011153.1001195904 1048954.4300783128 0 1048954.4300783128 37044572.337782085 0 0 0 0 -25401804.36492157 2699064.10496521 0 2699064.10496521 34560670.361206055 0 0 0 0 -1410240.9112723444 20624190.56692379 0 20624190.56692379 64492454.691696167 0 0 0 0 1417887.134320321 -4389815.257158272 0 -4389815.257158272 36872435.501617745 0 0 0 0 -580458.12809839833 -7019240.240097858 0 -7019240.240097858 21349293.151362658 0 0 0 0 24244495.069925308 31195816.435577393 0 31195816.435577393 -1085966.2467346191 0 0 0 0 978291.66827964317 4322417.0821429417 0 4322417.0821429417 4623379.1793235689 0 0 0 0 82895049.561836958 105544976.90638065 0 105544976.90638065 37537144.610328674 0 0 0 0 -26755614.533804178 47256224.078701019 0 47256224.078701019 -23113125.192230225 0 0 0 0 2854404.0860314369 -23669089.915792465 0 -23669089.915792465 145355316.45070648 0 0 0 0 -159532023.87846494 -90907278.388114929 0 -90907278.388114929 65378443.093971252 0 0 0 0 -3857377.7395188808 -58146705.123090744 0 -58146705.123090744 138349653.38388824 0 0 0 0 -113176114.28341305 32601578.326465607 0 32601578.326465607 161426697.66129684 0 0 0 0 -14223375.335953739 -11731198.575967152 0 -11731198.575967152 86064081.446997374 0 0 0 0 66667380.695009232 -108560900.17290258 0 -108560900.17290258 86435560.414462566 0 0 0 0 -92998577.109510422 -120308759.67433357 0 -120308759.67433357 114090787.49111891 0 0 0 0 -26012045.670568466 23551376.642320633 0 23551376.642320633 84823534.252758026 0 0 0 0 16112117.943258286 -1184275.0176401138 0 -1184275.0176401138 31958474.745371342 0 0 0 0 74938453.027946949 142138505.81933355 0 142138505.81933355 200331414.32942486 0 0 0 0 182610824.85497093 26723775.187275887 0 26723775.187275887 60112410.801382542 0 0 0 0 2368934.1755571552 1489097.2782006501 0 1489097.2782006501 970155.34728618711 0 0 0 0 26781208.180295944 -10061353.556506157 0 -10061353.556506157 19823722.10112381 0 0 0 0 183852123.21986628 17220471.698842406 0 17220471.698842406 -1704140.1647787094 0 0 0 0 24771327.662366867 72855169.618199348 0 72855169.618199348 63090306.373876572 0 0 0 0 28045849.807323456 54478992.964700699 0 54478992.964700699 60344347.521228075 0 0 0 0 -58511292.276861191 79274704.216645241 0 79274704.216645241 267339975.12789345 0 0 0 0 120614710.08278894 161154063.35428417 0 161154063.35428417 141746101.90442085 0 0 0 0 65252703.879965544 59871227.687530518 0 59871227.687530518 46600299.253265381 0 0 0 0 -17593569.876662139 -7034876.1143731587 0 -7034876.1143731587 76898123.725796565 0 0 0 0 -105841412.01001835 -12911302.385426521 0 -12911302.385426521 152182626.61322403 0 0 0 0 16445692.250669479 55604553.222995758 0 55604553.222995758 84378333.793265343 0 0 0 0 19772759.139659882 75417232.879081011 0 75417232.879081011 105347741.55841446 0 0 0 0 -89438270.785636023 18557619.08215332 0 18557619.08215332 105134610.67559052 0 0 0 0 -20030484.620403331 2284327.6394860372 0 2284327.6394860372 73811298.213762566 0 0 0 0 -35943460.699217558 52494452.785640717 0 52494452.785640717 87543155.954994202 0 0 0 0 12443439.702735901 51851741.516396999 0 51851741.516396999 91353747.853157043 0 0 0 0 -78908009.363309845 59140521.561248779 0 59140521.561248779 116678206.55857086 0 0 0 0 -67412002.531402349 14135186.673973083 0 14135186.673973083 156293267.86271286 0 0 0 0 -105116380.78406966 -72451825.703231812 0 -72451825.703231812 115766151.29139709 0 0 0 0 -732288.36070251325 -716489.31132059172 0 -716489.31132059172 69171039.463051662 0 0 0 0 -39871771.159472466 -90493887.310466766 0 -90493887.310466766 69240610.561790466 0 0 0 0 -2984539.9574079313 -11507321.033617463 0 -11507321.033617463 4489337.596366927 0 0 0 0 54330300.679151535 102929997.57810163 0 102929997.57810163 163076496.27013397 0 0 0 0 143115057.88118994 15064878.319283158 0 15064878.319283158 157425916.48471355 0 0 0 0 28639434.886764526 59639550.164550304 0 59639550.164550304 183077276.17208409 0 0 0 0 260319120.66617012 140846179.23212624 0 140846179.23212624 206621683.89431286 0 0 0 0 -57770346.82013607 91801046.891307354 0 91801046.891307354 234771601.29449081 0 0 0 0 -55312726.946414948 63027183.047386646 0 63027183.047386646 154246808.51267052 0 0 0 0 18815164.673017502 30256566.200602531 0 30256566.200602531 153385017.15836644 0 0 0 0 -32179346.639252663 52199241.876154661 0 52199241.876154661 145134598.80758572 0 0 0 0 -56784623.108916283 53732998.418734074 0 53732998.418734074 279380972.60090637 0 0 0 0 -16037233.316108227 35584591.368346691 0 35584591.368346691 38637261.608997345 0 0 0 0 5554934.1307467297 4233917.3374669915 0 4233917.3374669915 2856189.0828316174 0 0 0 0 -20743849.316020966 81900215.437414646 0 81900215.437414646 17677238.802978516 0 0 0 0 -7022700.1262102127 25603960.954748154 0 25603960.954748154 -25127902.564435005 0 0 0 0 42969185.6294384 91581672.654151917 0 91581672.654151917 33053096.74031353 0 0 0 0 45171777.086035728 40254409.031804085 0 40254409.031804085 16571150.005995274 0 0 0 0 30728159.943423867 127094899.53438389 0 127094899.53438389 128138910.74132538 0 0 0 0 88574926.50188446 72053236.473740101 0 72053236.473740101 -52597893.947098732 0 0 0 0 30886995.285363674 -13373495.852697968 0 -13373495.852697968 -117929904.42038918 0 0 0 0 9925991.8199722879 -5845359.4324136786 0 -5845359.4324136786 4833817.4522884116 0 0 0 0 30981097.091462135 17009800.773109198 0 17009800.773109198 32165416.546593189 0 0 0 0 9760669.4500484467 19386854.726432323 0 19386854.726432323 46116296.020298958 0 0 0 0 33046493.819656372 -1669164.8889732361 0 -1669164.8889732361 32305506.903803825 0 0 0 0 21567628.842441082 16658179.06133461 0 16658179.06133461 44896716.773487091 0 0 0 0 52279469.61477375 19319589.335615158 0 19319589.335615158 30232716.045753479 0 0 0 0 48869337.126304626 31104203.673286438 0 31104203.673286438 40307386.755218506 0 0 0 0 17902587.9778862 26656505.683502197 0 26656505.683502197 107927492.80113983 0 0 0 0 1326890.3601370454 -900684.68729999103 0 -900684.68729999103 436104.37950600684 0 0 0 0 24911144.297837436 42327908.593756437 0 42327908.593756437 -53844163.576028824 0 0 0 0 8120149.0641751289 5453797.1737187793 0 5453797.1737187793 5319694.0791690163 0 0 0 0 15280599.487516403 -5252611.0708708763 0 -5252611.0708708763 11692740.5002985 0 0 0 0 15650835.814687729 7815703.8528637886 0 7815703.8528637886 8611802.7053222656 0 0 0 0 18862354.298362732 -317427.93671560287 0 -317427.93671560287 7008084.0988044739 0 0 0 0 24903531.035243988 -2480322.9769859314 0 -2480322.9769859314 7764657.7660198212 0 0 0 0 17856605.394926071 16908.020127296448 0 16908.020127296448 12051045.732718825 0 0 0 0 7564021.0835561752 7161801.659081459 0 7161801.659081459 13237782.592716217 0 0 0 0 14665155.422726631 7367315.63093853 0 7367315.63093853 13233636.873538271 0 0 0 0 7581904.9342565536 -757402.90093994141 0 -757402.90093994141 11992937.04863739 0 0 0 0 18421709.200444352 11223276.218588725 0 11223276.218588725 7278073.1808899418 0 0 0 0 9871008.6026668549 27913520.016517639 0 27913520.016517639 29783860.52230072 0 0 0 0 48878465.77031517 -56346306.563131332 0 -56346306.563131332 66875271.532934189 0 0 0 0 26691535.788518906 36836027.302444458 0 36836027.302444458 42640792.941997528 0 0 0 0 21272614.596153341 8659850.2181193009 0 8659850.2181193009 4840194.9227157664 0 0 0 0 4248681.6762536615 3807947.3999958858 0 3807947.3999958858 3475988.2390555441 0 0 0 0 24927298.090003967 -35805843.112421989 0 -35805843.112421989 161326759.99029827 0 0 0 0 18119621.328397274 -22655230.736792564 0 -22655230.736792564 174142207.53254318 0 0 0 0 26223137.390069425 -3977695.7573981285 0 -3977695.7573981285 46431884.75680542 0 0 0 0 21113095.234654903 -74579200.069120407 0 -74579200.069120407 164801130.11922073 0 0 0 0 74312492.184229851 474770.45489406586 0 474770.45489406586 15654798.511810303 0 0 0 0 13756738.666263593 10255309.731215009 0 10255309.731215009 5564646.4866699614 0 0 0 0 3936780.8098256383 2850860.14388787 0 2850860.14388787 3280142.2734935135 0 0 0 0 37686691.393263936 48758928.835839987 0 48758928.835839987 232420377.25742531 0 0 0 0 15406607.598699499 6495060.2930495441 0 6495060.2930495441 2078436.4414414354 0 0 0 0 19521086.492273331 2609321.0481910706 0 2609321.0481910706 20614714.282253265 0 0 0 0 9062286.0526362658 4588824.6831097603 0 4588824.6831097603 20502444.582475662 0 0 0 0 -3251104.2088566944 4434275.9343840741 0 4434275.9343840741 2974494.7588342316 0 0 0 0 16188861.815872192 -1473310.7273254395 0 -1473310.7273254395 33118978.410400391 0 0 0 0 22165863.610201836 19177521.601563692 0 19177521.601563692 21081872.51071167 0 0 0 0 1467229.1180076934 -1413133.0185558312 0 -1413133.0185558312 9921521.5768243149 0 0 0 0 16034192.948471069 25582004.522844315 0 25582004.522844315 30646092.649158478 0 0 0 0 37467916.755321503 10618481.085073471 0 10618481.085073471 25815270.078123093 0 0 0 0 28481955.781276703 20183284.739788055 0 20183284.739788055 34967526.490901947 0 0 0 0 30012224.972311974 27196945.533232689 0 27196945.533232689 25503126.46787262 0 0 0 0 9315824.0374145508 18430630.141394615 0 18430630.141394615 23980274.968536854 0 0 0 0 18583087.490375042 24919146.326927185 0 24919146.326927185 -8222802.6189212799 0 0 0 0 23304828.283119202 10133279.886274338 0 10133279.886274338 7890985.5432825089 0 0 0 0 26049259.670748234 -32456329.907684326 0 -32456329.907684326 36246459.130768538 0 0 0 0 9249181.1729417406 -12656722.27692176 0 -12656722.27692176 32994542.442592576 0 0 0 0 15634025.173697829 -15354282.347460032 0 -15354282.347460032 51813963.213928223 0 0 0 0 19358354.754703522 -18666757.590770721 0 -18666757.590770721 55492613.095665932 0 0 0 0 17593707.531665802 -30264509.714729309 0 -30264509.714729309 53718378.282784224 0 0 0 0 740713.93344116211 3826921.4775714874 0 3826921.4775714874 52583613.837059021 0 0 0 0 24767388.911901474 19540896.96538353 0 19540896.96538353 110456505.42794323 0 0 0 0 23388918.42978045 26648482.149698749 0 26648482.149698749 43263869.765661776 0 0 0 0 -368134.16493755579 -33877202.268356323 0 -33877202.268356323 39544824.013031006 0 0 0 0 11280183.726417542 36698705.190867424 0 36698705.190867424 59956235.193824768 0 0 0 0 17152505.905199051 43398102.994831562 0 43398102.994831562 63503759.821395874 0 0 0 0 29214668.158880234 57687472.606354713 0 57687472.606354713 69151794.088106155 0 0 0 0 28548904.121618956 10809749.151138708 0 10809749.151138708 14547963.456171311 0 0 0 0 25837676.876208067 -25655348.143122673 0 -25655348.143122673 62440812.176990509 0 0 0 0 39883558.788755417 -13990305.143192291 0 -13990305.143192291 -7130498.2702159882 0 0 0 0 26487062.243690677 10409165.880652972 0 10409165.880652972 3840661.7729171496 0 0 0 0 53134805.898084641 21976932.48234272 0 21976932.48234272 -5452359.6590137482 0 0 0 0 67240773.62100172 27695165.724157333 0 27695165.724157333 9252932.8582439423 0 0 0 0 30644546.372406006 12231740.347441673 0 12231740.347441673 7534848.4258832932 0 0 0 0 77350396.016237468 49993604.00028415 0 49993604.00028415 34916938.467391968 0 0 0 0 78314654.163819909 4454248.8807277828 0 4454248.8807277828 7146986.3246383667 0 0 0 0 22201666.724309921 2531427.5789632797 0 2531427.5789632797 8754965.8220431805 0 0 0 0 70713383.469996452 -2384013.4773674011 0 -2384013.4773674011 96720596.101276398 0 0 0 0 7494760.6092541218 -41841223.651579022 0 -41841223.651579022 82561471.135122299 0 0 0 0 -17324920.91881609 23120168.363548279 0 23120168.363548279 170579492.13796234 0 0 0 0 12564851.220077515 -18551812.478773117 0 -18551812.478773117 186463296.59207726 0 0 0 0 66246421.1055336 27444963.370517731 0 27444963.370517731 172866199.48580647 0 0 0 0 5644990.0981049538 -2161170.7518253326 0 -2161170.7518253326 310210936.45787811 0 0 0 0 89650883.259902 2673485.0930938721 0 2673485.0930938721 167690328.26085234 0 0 0 0 107380699.53645885 79911208.919937134 0 79911208.919937134 340309959.44911194 0 0 0 0 48001356.86780262 -10650068.798294067 0 -10650068.798294067 72471721.756277084 0 0 0 0 35031103.257787108 -47509230.61403513 0 -47509230.61403513 92262666.521373749 0 0 0 0 34302929.356818199 -28590251.410814285 0 -28590251.410814285 49767463.877512455 0 0 0 0 47760195.104780674 -31515815.025912285 0 -31515815.025912285 105852519.50910187 0 0 0 0 87292015.97880733 -47612196.237549305 0 -47612196.237549305 97469248.009384155 0 0 0 0 44524855.346598148 -44218953.807060242 0 -44218953.807060242 157462473.66883087 0 0 0 0 154843149.43497133 -15526602.426343918 0 -15526602.426343918 159693702.70743334 0 0 0 0 18207441.666820049 -2678918.7880191803 0 -2678918.7880191803 143439384.05763817 0 0 0 0 8318423.2272024155 -37546445.186006546 0 -37546445.186006546 162549166.77144527 0 0 0 0 8687827.0122289658 -11283876.451559067 0 -11283876.451559067 137105397.38738823 0 0 0 0 8880227.2742891312 -39998017.015062332 0 -39998017.015062332 113892294.65504074 0 0 0 0 11550667.689418197 -48071940.652215004 0 -48071940.652215004 127113327.96179199 0 0 0 0 5313488.3221673965 -42361069.128593445 0 -42361069.128593445 130782179.43334007 0 0 0 0 28897835.428883553 -56451950.373662949 0 -56451950.373662949 127313531.78629303 0 0 0 0 12874918.493644714 -32299249.30096817 0 -32299249.30096817 97580322.283298492 0 0 0 0 22397915.23289156 -38110976.327944756 0 -38110976.327944756 93006283.743404388 0 0 0 0 17248704.865115166 -20154804.039405823 0 -20154804.039405823 103241854.50018311 0 0 0 0 55725349.9453969 70752562.862820625 0 70752562.862820625 37485709.893659592 0 0 0 0 66246625.635912895 51144384.625883102 0 51144384.625883102 -11246407.864120483 0 0 0 0 67926064.553895473 58931149.623327255 0 58931149.623327255 24490989.454422951 0 0 0 0 13471228.944014072 39605322.433124542 0 39605322.433124542 161936435.22080994 0 0 0 0 15975448.546313286 -10680586.508278847 0 -10680586.508278847 122839676.19954681 0 0 0 0 28080048.540387213 -47754120.61109972 0 -47754120.61109972 272784639.74618149 0 0 0 0 63174196.952433586 157357837.5652256 0 157357837.5652256 200696429.66545916 0 0 0 0 -14384767.869441748 79057931.994815826 0 79057931.994815826 45084219.798532486 0 0 0 0 47030031.628733873 52508490.719172478 0 52508490.719172478 47306114.75850296 0 0 0 0 -4622552.8120851517 -9471095.7006978989 0 -9471095.7006978989 -4904998.3570508957 0 0 0 0 -82955.046344856266 -37843.322215305641 0 -37843.322215305641 5529700.3472210988 0 0 0 0 -75460394.812372684 -13931868.78234005 0 -13931868.78234005 25917466.236701965 0 0 0 0 66754109.019892901 72303117.567741394 0 72303117.567741394 -21832838.656028748 0 0 0 0 830641.4578717025 541736.04488299415 0 541736.04488299415 1269463.6307120398 0 0 0 0 45434123.657625198 -135962543.02485466 0 -135962543.02485466 452174145.11083698 0 0 0 0 53233187.837938726 -104726095.33161688 0 -104726095.33161688 227980655.82851791 0 0 0 0 5207937.3231049776 -13074155.620468616 0 -13074155.620468616 196533791.61737823 0 0 0 0 33039806.369947433 -56982759.682447433 0 -56982759.682447433 147616953.79534912 0 0 0 0 13412228.806205511 -64657311.980280399 0 -64657311.980280399 209257206.39463043 0 0 0 0 798828.6550711235 -116647.9176386185 0 -116647.9176386185 253720.13045008481 0 0 0 0 8854605.076757431 -69362532.737331867 0 -69362532.737331867 151950793.30108643 0 0 0 0 23003159.220414162 -49164386.793821335 0 -49164386.793821335 147999757.89520353 0 0 0 0 20324316.594787359 -15310363.391120911 0 -15310363.391120911 -5150487.5679512024 0 0 0 0 13235131.55689764 -45226948.766970634 0 -45226948.766970634 20778887.907552719 0 0 0 0 -210542.21851711604 -683164.22922045365 0 -683164.22922045365 7113240.1534063593 0 0 0 0 -42840379.453547955 -18074876.456711769 0 -18074876.456711769 11572191.198310852 0 0 0 0 39682198.911037922 86759487.792347908 0 86759487.792347908 18661067.994930267 0 0 0 0 -141138384.48748159 9240463.5261325836 0 9240463.5261325836 32439629.680046082 0 0 0 0 68195853.683888435 141837440.65792727 0 141837440.65792727 71359424.621458054 0 0 0 0 208910326.70718956 -24388848.2641716 0 -24388848.2641716 28588641.866848469 0 0 0 0 117941128.98510633 31810993.661699355 0 31810993.661699355 133204603.01932907 0 0 0 0 94154834.28358674 33136362.482439041 0 33136362.482439041 147603198.00623226 0 0 0 0 90948743.789055973 51013322.494154096 0 51013322.494154096 185774935.26898956 0 0 0 0 24736088.272223949 13394170.909944534 0 13394170.909944534 256048510.67459488 0 0 0 0 82547020.609310389 13090875.999092579 0 13090875.999092579 179573188.2735405 0 0 0 0 97091623.879806519 -15639776.333735466 0 -15639776.333735466 192438512.37427616 0 0 0 0 56345601.663409233 -18851517.600821495 0 -18851517.600821495 151725769.98298264 0 0 0 0 24412865.644497871 -18550136.292158127 0 -18550136.292158127 207824745.28740311 0 0 0 0 670992.36445260048 -45627628.570997238 0 -45627628.570997238 187960895.88823318 0 0 0 0 2598219.9683917761 -46195852.694443226 0 -46195852.694443226 173790755.88072395 0 0 0 0 6375061.6731700897 -53921884.3828125 0 -53921884.3828125 164063212.94856262 0 0 0 0 11784237.433624268 -41021579.630766869 0 -41021579.630766869 160296261.45722198 0 0 0 0 30464932.364716291 -59860955.008708954 0 -59860955.008708954 83208036.759479523 0 0 0 0 25507000.967980385 -27391260.135883331 0 -27391260.135883331 138408437.09697533 0 0 0 0 120336935.2654109 2273363.4562959671 0 2273363.4562959671 96337006.719052315 0 0 0 0 25096103.098579884 -41155155.355558395 0 -41155155.355558395 138135402.8346138 0 0 0 0 204116089.17687201 25319974.55126667 0 25319974.55126667 27118840.534393311 0 0 0 0 44367791.058813691 -54611155.853400707 0 -54611155.853400707 53782806.003406525 0 0 0 0 18471009.436569214 4060020.9641675949 0 4060020.9641675949 70777027.989217997 0 0 0 0 1350321.5929603465 595608.8830765821 0 595608.8830765821 83267.35503834486 0 0 0 0 5861983.9937179685 11309039.702344894 0 11309039.702344894 -20404189.149301529 0 0 0 0 61938624.122473478 2090630.2230081558 0 2090630.2230081558 -19305442.016755581 0 0 0 0 21165258.39634335 7098338.1487231255 0 7098338.1487231255 76628265.031764984 0 0 0 0 723596.50084589142 377446.0739672184 0 377446.0739672184 158379.58432223648 0 0 0 0 68872773.95419836 151916975.75048447 0 151916975.75048447 107177561.9506855 0 0 0 0 159729843.63407683 105459739.03727007 0 105459739.03727007 132372204.55838394 0 0 0 0 113717988.72675776 69085533.549464226 0 69085533.549464226 105201143.90034962 0 0 0 0 114221070.41288388 61324903.323201954 0 61324903.323201954 122454911.04861832 0 0 0 0 105460099.12404203 73578936.837100029 0 73578936.837100029 108200909.25336838 0 0 0 0 49598153.004912972 17180255.961215973 0 17180255.961215973 114136804.25459862 0 0 0 0 208610.61061556078 481717.12090330943 0 481717.12090330943 1080572.7782693654 0 0 0 0 28668494.367401183 63749581.005247355 0 63749581.005247355 17862061.515081406 0 0 0 0 180436587.20265985 -14046783.457680225 0 -14046783.457680225 -30923841.69260788 0 0 0 0 167673259.57213068 -1608907.9165248871 0 -1608907.9165248871 10884391.470560074 0 0 0 0 196738273.98157024 34872700.870720863 0 34872700.870720863 114523912.9053188 0 0 0 0 136898360.51866341 88273115.428012848 0 88273115.428012848 150427594.64887428 0 0 0 0 -61690633.312157631 4410065.574555397 0 4410065.574555397 92186422.965664864 0 0 0 0 -50279731.133985877 6949808.4231553078 0 6949808.4231553078 33090288.611034393 0 0 0 0 1599197.1666808128 -93004589.851445198 0 -93004589.851445198 164851741.94326544 0 0 0 0 -115873786.30251884 -10991271.420530319 0 -10991271.420530319 185341350.99272919 0 0 0 0 -70142704.315363884 -12174616.000038147 0 -12174616.000038147 87411942.257930756 0 0 0 0 -41911866.011529922 14065619.162155628 0 14065619.162155628 96825919.454224586 0 0 0 0 -4491975.0931805316 4567213.5241459496 0 4567213.5241459496 70292912.236139253 0 0 0 0 -92268580.96826309 65207192.030608416 0 65207192.030608416 47525251.140014648 0 0 0 0 -577073.81022907048 -16078433.820155356 0 -16078433.820155356 23134130.176590886 0 0 0 0 -4701855.9567908701 10272652.254434057 0 10272652.254434057 20016569.994346775 0 0 0 0 -3090374.7527512908 -5243877.3795339465 0 -5243877.3795339465 39162357.251722336 0 0 0 0 -130976634.98407221 77682361.897855759 0 77682361.897855759 43516304.809841156 0 0 0 0 -3464226.2711002687 -2345295.5572993732 0 -2345295.5572993732 36642792.637482539 0 0 0 0 16187868.104489684 -5872702.3577054739 0 -5872702.3577054739 48784911.591091156 0 0 0 0 -166777480.85705328 -323968941.23002243 0 -323968941.23002243 -60864048.164450645 0 0 0 0 -291134740.79976892 23994567.800765991 0 23994567.800765991 84685316.333569288 0 0 0 0 -174008804.09982824 -190963754.62285328 0 -190963754.62285328 -94009295.605072021 0 0 0 0 -278747542.95201576 91889413.682196379 0 91889413.682196379 38007746.916690826 0 0 0 0 277758724.14277744 1348070.5493183136 0 1348070.5493183136 -298599385.69937325 0 0 0 0 -93516320.936442614 2963963.7607252598 0 2963963.7607252598 48770604.321895599 0 0 0 0 -20512878.557833433 279641923.21855927 0 279641923.21855927 776163854.99809074 0 0 0 0 361277178.92294359 -236654578.10096169 0 -236654578.10096169 190030058.62667465 0 0 0 0 -245939606.21570578 27358219.41304493 0 27358219.41304493 190496732.30019903 0 0 0 0 -19089849.736928105 17061135.644464612 0 17061135.644464612 65676104.917777061 0 0 0 0 -2747922.8427989599 -946142.40711966436 0 -946142.40711966436 56044895.140880071 0 0 0 0 191541275.43152905 110360212.85147667 0 110360212.85147667 75378545.33665657 0 0 0 0 457105311.61119795 258347075.83401871 0 258347075.83401871 -54207362.154600143 0 0 0 0 6137255.8577720318 1524366.1679107696 0 1524366.1679107696 626623.06020802632 0 0 0 0 107474681.10512424 226171901.13709927 0 226171901.13709927 663827484.11500549 0 0 0 0 51190914.371196032 59583258.123361588 0 59583258.123361588 206103960.98573208 0 0 0 0 -20234586.092015266 35542978.354341984 0 35542978.354341984 34463241.140386105 0 0 0 0 -20007202.560292244 26053278.300896168 0 26053278.300896168 7179960.6883893013 0 0 0 0 119165457.03505856 111664588.60034245 0 111664588.60034245 1530025.0111236572 0 0 0 0 162198707.14452219 201813345.41340828 0 201813345.41340828 44630729.344417572 0 0 0 0 113947156.18988353 148293068.29704213 0 148293068.29704213 -8031157.2370796204 0 0 0 0 205853039.50353432 161220761.96147823 0 161220761.96147823 -64498914.993523598 0 0 0 0 291518922.85047054 -17559399.486731529 0 -17559399.486731529 -65722010.14367485 0 0 0 0 434919939.51689351 260897256.95795059 0 260897256.95795059 -22525672.921218872 0 0 0 0 -683949.31533479691 255957966.93120289 0 255957966.93120289 140034683.67978239 0 0 0 0 200072262.51867998 145723694.81407833 0 145723694.81407833 -90890140.366798401 0 0 0 0 -17973503.287864685 -10183831.119702816 0 -10183831.119702816 49086068.701982021 0 0 0 0 -155906289.7213347 83636787.566410542 0 83636787.566410542 3879099.2856369019 0 0 0 0 -12126739.105135441 -8305288.3569967747 0 -8305288.3569967747 52948416.10174036 0 0 0 0 -629843.46218258538 -2042635.4442559602 0 -2042635.4442559602 43174156.420299672 0 0 0 0 -20534945.012491703 -8185659.8755496144 0 -8185659.8755496144 58565169.387003422 0 0 0 0 -26776878.743984699 -27336885.309589833 0 -27336885.309589833 39262561.457200438 0 0 0 0 -18677721.639059305 -20577190.0683676 0 -20577190.0683676 54311193.989421844 0 0 0 0 -15804671.318287849 -19240044.324056745 0 -19240044.324056745 35524022.56154418 0 0 0 0 640865064.74787235 69975684.905721664 0 69975684.905721664 -15776874.761415958 0 0 0 0 296331499.45798731 223865677.97409439 0 223865677.97409439 -67260894.617145061 0 0 0 0 197693862.71699572 102618199.10462761 0 102618199.10462761 73769656.421413422 0 0 0 0 -6874185.4644774329 3576591.3978252877 0 3576591.3978252877 10125628.345992446 0 0 0 0 160730617.4726305 207587182.62973309 0 207587182.62973309 63813991.400663376 0 0 0 0 3392882.7999856765 -2444035.5326497355 0 -2444035.5326497355 3087055.2781426422 0 0 0 0 413252615.48061013 52352091.239156365 0 52352091.239156365 217759427.17399597 0 0 0 0 178719042.8278451 362187654.05768299 0 362187654.05768299 194154208.18191719 0 0 0 0 510865607.41763854 296052077.63782597 0 296052077.63782597 31927532.513037682 0 0 0 0 14268847.028644606 -13836324.637898326 0 -13836324.637898326 194338395.22901821 0 0 0 0 6973862.5554229282 -13070818.274187211 0 -13070818.274187211 24302590.786662225 0 0 0 0 388424757.95137608 132343110.13826478 0 132343110.13826478 156877015.01459694 0 0 0 0 669473.84414749499 -1722255.4610612309 0 -1722255.4610612309 3449234.8519302644 0 0 0 0 -13112115.671995759 137032372.65011787 0 137032372.65011787 339245453.48727703 0 0 0 0 87692363.832783937 151051146.24978638 0 151051146.24978638 327230321.79589963 0 0 0 0 183427060.84154981 -323064476.46217847 0 -323064476.46217847 8435755.8966875076 0 0 0 0 -23352072.411173344 336456256.57759142 0 336456256.57759142 51965385.189169168 0 0 0 0 -11288896.723634183 -34930615.264505655 0 -34930615.264505655 38801816.590891838 0 0 0 0 7257555.4466567039 26549167.403327942 0 26549167.403327942 56903765.84589684 0 0 0 0 7937014.6129169464 25223943.564537287 0 25223943.564537287 27644046.748651505 0 0 0 0 -167227156.29847336 -133504679.38824129 0 -133504679.38824129 133489573.48612213 0 0 0 0 73613698.646791935 57259255.05862999 0 57259255.05862999 -26701506.107728004 0 0 0 0 -3296796.8916094378 -445608.36868915707 0 -445608.36868915707 3474311.3392790668 0 0 0 0 -30095716.787408829 106386827.49277973 0 106386827.49277973 129188094.36578751 0 0 0 0 17230866.009954333 -21435372.084329486 0 -21435372.084329486 37016334.481515884 0 0 0 0 26179871.293043375 -34195952.155884802 0 -34195952.155884802 49385508.697212458 0 0 0 0 16206574.334943861 -20479761.41909343 0 -20479761.41909343 55763858.500733972 0 0 0 0 -17087430.630206108 -19362276.429671168 0 -19362276.429671168 64734588.250966907 0 0 0 0 -17848008.549836755 -20674651.333144277 0 -20674651.333144277 65292025.520059109 0 0 0 0 -5576288.4177578688 -31564487.827418804 0 -31564487.827418804 58122959.569216847 0 0 0 0 -32903709.935255885 -27604870.696621418 0 -27604870.696621418 69514271.103500605 0 0 0 0 -52776034.034250975 -19575895.265116394 0 -19575895.265116394 77339146.353957891 0 0 0 0 -38636959.293425992 -34054782.198260695 0 -34054782.198260695 84333204.834310532 0 0 0 0 4505333.3784260452 -84820675.194860339 0 -84820675.194860339 137009371.46822712 0 0 0 0 12135195.947338223 -39868475.689032912 0 -39868475.689032912 61470718.365629256 0 0 0 0 11881097.251671404 -37818964.04392942 0 -37818964.04392942 57044380.39397645 0 0 0 0 30122183.771300197 -43217571.517407537 0 -43217571.517407537 116374316.55354357 0 0 0 0 49647749.361122608 -53009978.783065021 0 -53009978.783065021 58055420.613172293 0 0 0 0 44619170.043990612 -45097979.310720563 0 -45097979.310720563 4316968.0204489231 0 0 0 0 -5056156.5010309219 -16373430.540397909 0 -16373430.540397909 35002297.462663971 0 0 0 0 4094425.6518202047 -7729879.2811375372 0 -7729879.2811375372 13673644.554036809 0 0 0 0 -22068904.579209089 -49809500.996743023 0 -49809500.996743023 12699056.955464371 0 0 0 0 84166720.1190539 259601500.52058697 0 259601500.52058697 352022155.78027153 0 0 0 0 -41907987.020291835 246195257.0070923 0 246195257.0070923 363886462.097435 0 0 0 0 -3610550.506093502 -10753663.746102393 0 -10753663.746102393 14051776.090327516 0 0 0 0 -28834152.937574327 -12173053.505322836 0 -12173053.505322836 42327598.269061446 0 0 0 0 8196687.8162384033 -9964007.7643233538 0 -9964007.7643233538 41415204.410797954 0 0 0 0 26139947.751553908 -26335415.095919892 0 -26335415.095919892 22632058.718661688 0 0 0 0 5285534.3136011958 -25163580.454037189 0 -25163580.454037189 34881841.879159093 0 0 0 0 13509196.422325119 -17981879.20146817 0 -17981879.20146817 53301428.319362164 0 0 0 0 22287418.69829832 -14004735.809139788 0 -14004735.809139788 51776907.942443848 0 0 0 0 -13967735.400075912 -10623455.379323602 0 -10623455.379323602 59858436.882886171 0 0 0 0 -8876525.875023365 -14379998.119654298 0 -14379998.119654298 41167030.749713182 0 0 0 0 7332891.2834250927 -12380789.145453215 0 -12380789.145453215 56884475.613761663 0 0 0 0 -11995058.346389294 793808.21096920967 0 793808.21096920967 82698942.45392561 0 0 0 0 20728166.035170496 -10526497.060493469 0 -10526497.060493469 94717373.147291899 0 0 0 0 3576434.1341264397 -2156065.8830699027 0 -2156065.8830699027 90691372.943702221 0 0 0 0 44464615.251618057 25326472.578468084 0 25326472.578468084 103821979.44999373 0 0 0 0 -2836116.8585733175 -23958798.422083139 0 -23958798.422083139 60730115.873506427 0 0 0 0 4200370.473213017 -6183169.9708382487 0 -6183169.9708382487 98445359.38223505 0 0 0 0 -3418691.244351387 -17658660.297993898 0 -17658660.297993898 63171466.556069374 0 0 0 0 -12712398.619450569 -14650834.134125002 0 -14650834.134125002 63771082.12523365 0 0 0 0 -12957378.52904892 -17778932.275409222 0 -17778932.275409222 59821028.10332489 0 0 0 0 -4393913.6598279476 -21957947.959504843 0 -21957947.959504843 61684488.232525229 0 0 0 0 -2963389.981205225 -23027723.147500515 0 -23027723.147500515 54314742.401105404 0 0 0 0 -76508681.169043362 34270132.932489634 0 34270132.932489634 294440144.67597175 0 0 0 0 988091.18057412677 289568.36715896893 0 289568.36715896893 -118599.01725632092 0 0 0 0 -613623.95489369426 1550703.9967071582 0 1550703.9967071582 -668172.42063688533 0 0 0 0 73778538.818990707 -48825523.814397335 0 -48825523.814397335 162225438.19162607 0 0 0 0 -2705758.0434803963 -15375325.532529593 0 -15375325.532529593 43277650.748468637 0 0 0 0 2049934.9902955145 -84653280.726973251 0 -84653280.726973251 -69074071.208683491 0 0 0 0 1382720.8361298442 -82587374.141291648 0 -82587374.141291648 63863504.996448517 0 0 0 0 6654899.8227616251 -21485966.95804131 0 -21485966.95804131 -60038685.74091053 0 0 0 0 3188218.8214530945 -35216010.087835431 0 -35216010.087835431 14329622.452049732 0 0 0 0 -1026480.6164019108 -13885089.743797302 0 -13885089.743797302 -25922789.076477289 0 0 0 0 -14705496.056196272 -2766266.6353685856 0 -2766266.6353685856 -16341136.734431267 0 0 0 0 -7759963.2753539681 351700.67393684387 0 351700.67393684387 -30489477.383395195 0 0 0 0 -15233119.422620177 -7701702.9514460564 0 -7701702.9514460564 -5729453.75385952 0 0 0 0 -101454413.14743298 -53813614.512485504 0 -53813614.512485504 274861216.51738167 0 0 0 0 320483.76488593826 745790.09019851498 0 745790.09019851498 422122.47688191757 0 0 0 0 70298606.17430374 -80109063.290282726 0 -80109063.290282726 96347436.704501152 0 0 0 0 -7487328.8224308491 -11005096.475810051 0 -11005096.475810051 -4706105.2956447601 0 0 0 0 -4084542.670279026 -16732530.963781595 0 -16732530.963781595 -2545646.3380317688 0 0 0 0 7194669.6311759949 42116.603060245514 0 42116.603060245514 -1623859.7274007797 0 0 0 0 1502268.133514666 -1049469.2522986438 0 -1049469.2522986438 12013541.570510309 0 0 0 0 -12545428.818691254 8677059.6710317135 0 8677059.6710317135 75739174.360903263 0 0 0 0 -4160297.1763305664 -22213895.279573441 0 -22213895.279573441 41964582.106226921 0 0 0 0 11526699.312531948 13114082.277072191 0 13114082.277072191 66961756.262270212 0 0 0 0 5001978.66523242 23525797.096787214 0 23525797.096787214 126393419.64138651 0 0 0 0 2356346.1497202301 -135043.55747651681 0 -135043.55747651681 -1035503.5576511556 0 0 0 0 861756.85433474183 -54404119.792876273 0 -54404119.792876273 -12535992.883886337 0 0 0 0 -15391274.175075769 -10423070.244119644 0 -10423070.244119644 70031997.111764967 0 0 0 0 -30422428.268614292 -9089865.6188526154 0 -9089865.6188526154 69925810.396452427 0 0 0 0 -25375519.23195219 -11680377.130962372 0 -11680377.130962372 78373265.587332964 0 0 0 0 -9846633.2188091278 -4255838.327958107 0 -4255838.327958107 73394044.33176899 0 0 0 0 -28069318.662099898 -20666937.258845091 0 -20666937.258845091 62079248.749708176 0 0 0 0 -30023600.139025003 -9112872.7994303703 0 -9112872.7994303703 98846965.982552528 0 0 0 0 -27248795.27570343 -5896527.8325991631 0 -5896527.8325991631 102530014.41745186 0 0 0 0 -7840206.5310562309 -2755757.7885058895 0 -2755757.7885058895 10822646.518809151 0 0 0 0 -9691028.7791457921 275190.78876590729 0 275190.78876590729 96111050.348454475 0 0 0 0 8740976.6650993824 -23326530.796463728 0 -23326530.796463728 86380089.566456795 0 0 0 0 -25160588.261149585 -6351954.9313287735 0 -6351954.9313287735 92536047.298708439 0 0 0 0 -16029528.743915498 9659864.8906326294 0 9659864.8906326294 62452402.778244019 0 0 0 0 -23762017.987460434 -14587538.152220726 0 -14587538.152220726 80436055.595300674 0 0 0 0 280526.81336784363 35521614.3257761 0 35521614.3257761 71013993.548712969 0 0 0 0 27374982.850216806 -176170170.02216387 0 -176170170.02216387 97525169.656713486 0 0 0 0 -148248598.38724729 45825295.587739706 0 45825295.587739706 243965138.32783127 0 0 0 0 -7383960.4200648684 40026495.894408226 0 40026495.894408226 55295141.522815228 0 0 0 0 -2941327.0709450599 361538.71707943268 0 361538.71707943268 -1365668.2965264367 0 0 0 0 -25026630.723118782 -46226960.755084515 0 -46226960.755084515 112740288.77864504 0 0 0 0 -77834275.771460533 -33153801.001766205 0 -33153801.001766205 119275275.18497849 0 0 0 0 -22669374.266624331 857683.31701278687 0 857683.31701278687 127932912.16373825 0 0 0 0 -108560515.45989639 28370179.494627237 0 28370179.494627237 189810951.58181 0 0 0 0 18999976.394708276 72236682.196755409 0 72236682.196755409 154187755.70287991 0 0 0 0 23119056.13066411 34805576.674409389 0 34805576.674409389 86036174.431772232 0 0 0 0 -37654541.67954886 21893126.261802197 0 21893126.261802197 110912694.42265606 0 0 0 0 -15498803.707001269 14104740.069138765 0 14104740.069138765 87837514.613428116 0 0 0 0 -20432038.548923999 -6094176.4504356384 0 -6094176.4504356384 83566828.332717896 0 0 0 0 1505301.8397288322 6191524.1773514748 0 6191524.1773514748 69539517.911525726 0 0 0 0 -11231279.761173725 7050571.1205463409 0 7050571.1205463409 73547692.627364159 0 0 0 0 28530159.584731102 10548607.438776493 0 10548607.438776493 66479937.443620682 0 0 0 0 4208052.34622702 15176084.940183401 0 15176084.940183401 70238031.925167084 0 0 0 0 5997724.6265431046 7056341.7343420982 0 7056341.7343420982 80242357.621192932 0 0 0 0 4007665.708773315 12322977.555583954 0 12322977.555583954 67364233.869438171 0 0 0 0 -18441799.609584033 7885480.5389575958 0 7885480.5389575958 75941340.467449188 0 0 0 0 13942811.576866079 10197647.155849546 0 10197647.155849546 63165865.2807827 0 0 0 0 -20230327.627231359 -632912.72775650024 0 -632912.72775650024 80604587.178690195 0 0 0 0 -156205658.80297422 -26247502.300851822 0 -26247502.300851822 126084799.06516266 0 0 0 0 12746555.61549902 24916360.436431408 0 24916360.436431408 78006075.042931378 0 0 0 0 -15863373.473664667 -18500030.854567163 0 -18500030.854567163 50034962.677984968 0 0 0 0 29560110.644824028 81424089.995407104 0 81424089.995407104 -165237944.50739384 0 0 0 0 -8170937.8684058189 52369212.554208755 0 52369212.554208755 136055191.58538818 0 0 0 0 -29100290.419719696 6381773.2746429443 0 6381773.2746429443 41947016.192138672 0 0 0 0 6545548.9076157808 156471324.5443058 0 156471324.5443058 169321302.15332794 0 0 0 0 -62253653.706582069 -44692050.189943314 0 -44692050.189943314 153752452.4308548 0 0 0 0 -114363911.27319336 -151063611.45898819 0 -151063611.45898819 -93458044.085213661 0 0 0 0 -63631437.510169029 -63194972.95945549 0 -63194972.95945549 73190526.535106659 0 0 0 0 -46560693.618983269 -27071189.761726379 0 -27071189.761726379 105865873.1942749 0 0 0 0 -27987795.013482332 16621464.580794334 0 16621464.580794334 60259765.758553505 0 0 0 0 -40938285.019345701 -2658777.7205142975 0 -2658777.7205142975 68398429.367713928 0 0 0 0 -18564631.404042006 9229725.5968523026 0 9229725.5968523026 65647583.956718445 0 0 0 0 -55606380.562825322 2991731.715344429 0 2991731.715344429 78777855.437509537 0 0 0 0 -40611503.411755323 16710769.790242195 0 16710769.790242195 73959148.6602211 0 0 0 0 -63532370.155562371 20061643.569615364 0 20061643.569615364 79580836.060012817 0 0 0 0 -1593976.8935372671 4692352.0153568685 0 4692352.0153568685 73177230.643018335 0 0 0 0 -140525094.89037693 137664434.62343192 0 137664434.62343192 -21218624.93255806 0 0 0 0 -2815.0796067211777 766565.30156083405 0 766565.30156083405 1482512.0934504569 0 0 0 0 -136986094.32325363 181858256.68222237 0 181858256.68222237 163049699.35253334 0 0 0 0 -48484411.138405085 61552634.708504677 0 61552634.708504677 206184977.94446182 0 0 0 0 -27768680.01929003 1512471.2532706261 0 1512471.2532706261 75580348.89094615 0 0 0 0 -27880231.423452735 6050586.3968091011 0 6050586.3968091011 63093782.978714898 0 0 0 0 -31242203.879831016 7701470.2920455933 0 7701470.2920455933 74140916.084497601 0 0 0 0 -17999169.957047194 15797444.38435483 0 15797444.38435483 72956347.212650299 0 0 0 0 -41015318.830088317 22998972.422696114 0 22998972.422696114 63552861.600160599 0 0 0 0 -11075729.407922387 -1377055.17710042 0 -1377055.17710042 24456885.471424103 0 0 0 0 -1934784.3458493808 2574118.333972821 0 2574118.333972821 72270319.698311672 0 0 0 0 -53300076.109710313 12276436.656346321 0 12276436.656346321 80273354.421715736 0 0 0 0 -77837521.593317032 37695690.815578461 0 37695690.815578461 55228666.198531151 0 0 0 0 305754.15314336494 1285664.7722089961 0 1285664.7722089961 2446684.2863382027 0 0 0 0 -22115725.711909488 -24404687.416484177 0 -24404687.416484177 27276991.492076874 0 0 0 0 91083206.728960514 -64338100.029666901 0 -64338100.029666901 -5447069.3674860001 0 0 0 0 -13145967.14078936 69233954.835894763 0 69233954.835894763 -44625180.173347473 0 0 0 0 -84627926.776949883 -39013616.894264221 0 -39013616.894264221 17038857.803531647 0 0 0 0 75871083.593607426 -24689717.605239868 0 -24689717.605239868 -65659386.217821598 0 0 0 0 59086251.244423389 4417343.3198680878 0 4417343.3198680878 73956118.041967392 0 0 0 0 60535745.864811182 580562.25263118744 0 580562.25263118744 80590609.765474319 0 0 0 0 40819475.295003414 -41678731.803667068 0 -41678731.803667068 -9892658.7573883533 0 0 0 0 40287102.156228781 -79519610.355273247 0 -79519610.355273247 73187854.748199463 0 0 0 0 40422338.944879651 -48770791.708406448 0 -48770791.708406448 98527526.743314743 0 0 0 0 32169089.353422403 -67678358.172712326 0 -67678358.172712326 56744490.467899799 0 0 0 0 -35510131.685013533 -51132853.25445652 0 -51132853.25445652 99924712.18902564 0 0 0 0 118650800.99372435 -120598406.74970055 0 -120598406.74970055 83325525.27661705 0 0 0 0 115590659.77136183 -191594957.85942841 0 -191594957.85942841 269384603.76678276 0 0 0 0 165076442.85643816 160722038.27931404 0 160722038.27931404 298170957.49138284 0 0 0 0 -37646321.097317934 -73470047.025324345 0 -73470047.025324345 191040427.69430161 0 0 0 0 -6146553.7031456232 -54488979.719704628 0 -54488979.719704628 66955798.312408447 0 0 0 0 -52060326.037051916 54591356.030111313 0 54591356.030111313 197663026.14126587 0 0 0 0 -29128263.400721431 -39744814.689598083 0 -39744814.689598083 74625587.690078735 0 0 0 0 76364205.814436913 77120378.922682762 0 77120378.922682762 200394515.39861679 0 0 0 0 41962923.853232145 -28619274.642881393 0 -28619274.642881393 52523692.945854187 0 0 0 0 83465380.380476594 -71076263.977820396 0 -71076263.977820396 138352547.39832306 0 0 0 0 137558838.75338602 -60512907.353870392 0 -60512907.353870392 48511962.109110117 0 0 0 0 148615109.09372473 149252142.47588921 0 149252142.47588921 368683990.4569397 0 0 0 0 404338336.78652573 -44426030.014305115 0 -44426030.014305115 140462250.83818054 0 0 0 0 33235041.5590868 -81698375.631656647 0 -81698375.631656647 431464111.45626354 0 0 0 0 32728708.782463551 -52940383.409683228 0 -52940383.409683228 183997770.81414795 0 0 0 0 34924532.244580269 24587808.025596619 0 24587808.025596619 232007056.82913303 0 0 0 0 8551261.5105042458 72377352.173377991 0 72377352.173377991 241894827.56459427 0 0 0 0 -7093641.2781047821 41607347.688030243 0 41607347.688030243 182229206.61003494 0 0 0 0 592019.14939880371 -61330104.092372894 0 -61330104.092372894 225567883.16670895 0 0 0 0 -20840315.503478527 -31817441.384008408 0 -31817441.384008408 185419106.23217773 0 0 0 0 8564026.5055885315 -101613484.80949593 0 -101613484.80949593 134274468.77911949 0 0 0 0 -24185905.595177174 -67810671.798611641 0 -67810671.798611641 109709279.20534515 0 0 0 0 95226837.600552082 -122930897.82115746 0 -122930897.82115746 94807415.867207527 0 0 0 0 10249706.22595346 -90311350.136847496 0 -90311350.136847496 209002004.40509796 0 0 0 0 95229.413518437883 437339.35021570954 0 437339.35021570954 3195302.4793918058 0 0 0 0 251348115.18360639 105895088.52853966 0 105895088.52853966 51610201.255489349 0 0 0 0 185874049.28709698 -173553201.60077667 0 -173553201.60077667 193148419.13913918 0 0 0 0 -349844.9820040171 -200464.74450319633 0 -200464.74450319633 1671097.4912825599 0 0 0 0 117468363.09544027 -65318550.391334534 0 -65318550.391334534 28268551.927581787 0 0 0 0 37975938.805479288 -45490635.922691345 0 -45490635.922691345 -154347196.53162956 0 0 0 0 -62820957.056865692 166795242.31775618 0 166795242.31775618 367814991.38981628 0 0 0 0 -6431150.6332504749 -1257610.7630910873 0 -1257610.7630910873 12272588.946979523 0 0 0 0 543929.02944006515 1644032.8040323637 0 1644032.8040323637 8576302.1007742733 0 0 0 0 -13455995.550483704 -24544316.887947083 0 -24544316.887947083 55236293.395591736 0 0 0 0 -5667097.5182581069 -2082213.6555893943 0 -2082213.6555893943 8534954.2131304182 0 0 0 0 17538454.129460692 -61214948.500731468 0 -61214948.500731468 61154623.08032608 0 0 0 0 54342937.974339008 -21403389.537836075 0 -21403389.537836075 27150115.762562931 0 0 0 0 -949489.32349056005 281062.82601644285 0 281062.82601644285 3015220.577982083 0 0 0 0 20530644.8139925 -67940887.756008148 0 -67940887.756008148 69670954.889792442 0 0 0 0 3437220.5491447118 3684398.238844756 0 3684398.238844756 3228212.3290141411 0 0 0 0 -119552480.57581484 133377961.21636248 0 133377961.21636248 49824175.785196304 0 0 0 0 -3118329.0419126153 80506971.883616447 0 80506971.883616447 -60431729.8586092 0 0 0 0 -20432508.130776167 -75894932.656947136 0 -75894932.656947136 15737678.761131287 0 0 0 0 -58220162.917713881 17739835.70788765 0 17739835.70788765 270032389.60692787 0 0 0 0 141079943.94454491 189256840.41667032 0 189256840.41667032 -153462281.84747314 0 0 0 0 1777554.4362404356 1666602.5156458728 0 1666602.5156458728 1349743.4147008173 0 0 0 0 -62075681.769894838 -604593.69659924507 0 -604593.69659924507 185522378.79301071 0 0 0 0 -32424393.123211801 -67497122.324734211 0 -67497122.324734211 184039613.59606552 0 0 0 0 5363848.720518589 29620198.879863739 0 29620198.879863739 76424889.877569199 0 0 0 0 -49842821.733698606 -17714898.857028008 0 -17714898.857028008 164257701.57901478 0 0 0 0 5469803.0989367664 34295528.681841105 0 34295528.681841105 60572154.961956024 0 0 0 0 45193264.432580948 165608486.27403831 0 165608486.27403831 227036534.45316553 0 0 0 0 67514686.086704493 34983367.048568726 0 34983367.048568726 22827002.240146637 0 0 0 0 22648840.972900301 8257376.8061783314 0 8257376.8061783314 15529557.765880585 0 0 0 0 12980214.832640409 -13698699.946169376 0 -13698699.946169376 9429668.893371582 0 0 0 0 21237784.600453526 2818373.2286596298 0 2818373.2286596298 13727641.455738068 0 0 0 0 15395019.99704051 -7486812.3943862915 0 -7486812.3943862915 52439159.266262054 0 0 0 0 -5455289.7992532253 6339722.4029283524 0 6339722.4029283524 17185387.357297421 0 0 0 0 -1889526.1292830668 -121564.06312567554 0 -121564.06312567554 12566187.205770966 0 0 0 0 -4860686.1869299412 4870447.2816495895 0 4870447.2816495895 20558879.179103851 0 0 0 0 -1907903.0727751255 -4617413.5828664303 0 -4617413.5828664303 22880482.745534897 0 0 0 0 -2138080.3815667927 -2482506.1111184359 0 -2482506.1111184359 10362379.263881683 0 0 0 0 -1270895.2229256965 -63985.900095021818 0 -63985.900095021818 17014255.036563143 0 0 0 0 -86075103.155082107 -33472695.873552322 0 -33472695.873552322 17616009.678358078 0 0 0 0 258938079.65330601 129673935.99412441 0 129673935.99412441 -198607933.67702484 0 0 0 0 25587632.255587101 -75543060.570653915 0 -75543060.570653915 -71998247.921411514 0 0 0 0 5818729.589469552 -11106560.16043663 0 -11106560.16043663 13920098.754001617 0 0 0 0 151263.28465366364 -664494.62879943848 0 -664494.62879943848 22155228.387035668 0 0 0 0 2443326.5281620026 3684850.3421554565 0 3684850.3421554565 22069093.212708101 0 0 0 0 1141592.795814991 9792717.1147804856 0 9792717.1147804856 17912428.45394516 0 0 0 0 22866920.804919243 14689024.889263153 0 14689024.889263153 26245803.376105309 0 0 0 0 -340438.60635948181 6193084.9101133347 0 6193084.9101133347 23168812.353440285 0 0 0 0 1245775.5498606488 9538351.4814883936 0 9538351.4814883936 23556101.959041703 0 0 0 0 2855048.6385354996 4812202.7294281125 0 4812202.7294281125 53851202.372531146 0 0 0 0 -20554728.127961159 -17512114.090025902 0 -17512114.090025902 34316311.205817699 0 0 0 0 -7760744.574303627 23096029.327293947 0 23096029.327293947 43430476.18408069 0 0 0 0 3708296.5704154968 10081855.932945251 0 10081855.932945251 15918340.427084804 0 0 0 0 13485.841549260542 6585435.349124711 0 6585435.349124711 21638136.880281068 0 0 0 0 2562106.3821689468 8567112.8333416227 0 8567112.8333416227 22005698.91391734 0 0 0 0 -13026261.972779274 7246447.1268908381 0 7246447.1268908381 32490377.034052253 0 0 0 0 -569772.09537157416 17643027.115824662 0 17643027.115824662 33164491.101114273 0 0 0 0 27427235.835050583 81838527.030371666 0 81838527.030371666 -18668913.104139328 0 0 0 0 -36718084.751664162 5987446.0948915482 0 5987446.0948915482 53568289.450143814 0 0 0 0 101666997.24181271 92030176.158687353 0 92030176.158687353 29932186.518452644 0 0 0 0 -63935122.439750195 33782522.312226057 0 33782522.312226057 54456493.494825363 0 0 0 0 82138764.133188248 36452976.675784349 0 36452976.675784349 -16741298.480073452 0 0 0 0 -12233776.010777473 69190878.793438435 0 69190878.793438435 176056847.12270927 0 0 0 0 -911763.34883525316 1430323.2282820977 0 1430323.2282820977 2685595.8790409379 0 0 0 0 48156899.574219227 8093564.3073796034 0 8093564.3073796034 18834533.598046303 0 0 0 0 -3302711.4036054611 -1179289.0520429611 0 -1179289.0520429611 34345463.624972343 0 0 0 0 34277864.584322929 -26966538.531273842 0 -26966538.531273842 36135382.12902832 0 0 0 0 48822953.211455584 40625418.671502113 0 40625418.671502113 25401426.365350723 0 0 0 0 84928859.973236084 117732676.04750729 0 117732676.04750729 159026530.39067554 0 0 0 0 9533329.2025020644 22523822.584427744 0 22523822.584427744 19751170.163906891 0 0 0 0 -5634142.6960067749 -17513785.455460072 0 -17513785.455460072 9228650.2917575836 0 0 0 0 -17751263.498419285 -71292031.3098526 0 -71292031.3098526 107643265.66165924 0 0 0 0 -14874953.311402321 27783348.966860771 0 27783348.966860771 115705246.87327957 0 0 0 0 6348274.8040328883 19968150.021210771 0 19968150.021210771 33123027.79092782 0 0 0 0 -2734756.6787672043 34901586.30115509 0 34901586.30115509 36190653.150028229 0 0 0 0 -11774873.9109869 27723175.038397789 0 27723175.038397789 107348828.91367722 0 0 0 0 -25827423.331731319 54138745.373443604 0 54138745.373443604 128078309.3526535 0 0 0 0 -21816972.4602351 -4174659.8453096747 0 -4174659.8453096747 58342428.526850194 0 0 0 0 -19419069.095265865 45565237.571924925 0 45565237.571924925 103594281.41772461 0 0 0 0 -17294371.691588879 37368630.139992237 0 37368630.139992237 121186920.64825821 0 0 0 0 -44966048.828982979 22027469.435375214 0 22027469.435375214 77802024.355763912 0 0 0 0 -221302764.7766161 -55318083.282423496 0 -55318083.282423496 137796615.26893044 0 0 0 0 -5440095.8093560021 -1782709.2056742446 0 -1782709.2056742446 75583675.004127294 0 0 0 0 -40367725.369397789 13105692.644643307 0 13105692.644643307 81287702.283198863 0 0 0 0 -175403142.83021194 -2304867.8301931024 0 -2304867.8301931024 143017977.63637543 0 0 0 0 -171674461.9231576 -84606698.931991577 0 -84606698.931991577 130854589.71708679 0 0 0 0 -83858769.630434036 -62799579.161563873 0 -62799579.161563873 128282518.13405609 0 0 0 0 -48981831.648317337 -84390903.835250854 0 -84390903.835250854 126660524.02240372 0 0 0 0 -25402107.858086348 -49444865.048426151 0 -49444865.048426151 119825340.50067139 0 0 0 0 -91683314.902534485 -69540694.959335327 0 -69540694.959335327 143629416.41682243 0 0 0 0 -131592395.64191359 18033561.730442882 0 18033561.730442882 111658715.22705078 0 0 0 0 -86293268.70624733 -50741735.948925018 0 -50741735.948925018 117009982.55419159 0 0 0 0 -121335768.13333797 -65384019.426185608 0 -65384019.426185608 135298789.29657555 0 0 0 0 -70629698.594429016 -57016878.118282318 0 -57016878.118282318 117538153.55217743 0 0 0 0 -109688783.90467548 -35874057.767068863 0 -35874057.767068863 126432795.45991516 0 0 0 0 -1036111.2225971222 22855618.533997171 0 22855618.533997171 42878061.309211545 0 0 0 0 -30725114.622274399 -10310291.393520355 0 -10310291.393520355 77617432.345615387 0 0 0 0 -8217194.7205859441 -6101098.4225973897 0 -6101098.4225973897 40508069.475499004 0 0 0 0 -57148391.395551682 -34552683.511291504 0 -34552683.511291504 119365099.95517445 0 0 0 0 -13407904.115767337 -22810210.07213527 0 -22810210.07213527 82485650.281051636 0 0 0 0 -27124101.040829182 -74816911.549032211 0 -74816911.549032211 108405721.38535047 0 0 0 0 -29182094.335377216 -53388964.818666458 0 -53388964.818666458 107119166.24892998 0 0 0 0 6887054.8727455139 11650139.3123696 0 11650139.3123696 33104929.502166629 0 0 0 0 34470161.523101807 1432201.6304321289 0 1432201.6304321289 124578693.15570736 0 0 0 0 2724428.4666431807 10126047.219057139 0 10126047.219057139 30526059.491662569 0 0 0 0 -44701534.622229576 15777077.823181152 0 15777077.823181152 68561110.715690613 0 0 0 0 -16688452.900849517 -1130505.2077583559 0 -1130505.2077583559 80722598.995785803 0 0 0 0 -9583564.1177228615 1997416.9866332263 0 1997416.9866332263 29373138.971318174 0 0 0 0 -12345997.730911255 -64997686.898323059 0 -64997686.898323059 35160890.494663239 0 0 0 0 -46314451.547559664 6972424.2653625226 0 6972424.2653625226 86194368.34461306 0 0 0 0 -44756396.83446312 230819.50554084778 0 230819.50554084778 42543154.931793213 0 0 0 0 -24785167.098680429 -3977599.03558899 0 -3977599.03558899 90385896.629277155 0 0 0 0 -46153012.521049857 -67453997.135920048 0 -67453997.135920048 145146738.98532104 0 0 0 0 172369143.22070074 80028738.084972382 0 80028738.084972382 137294938.67943478 0 0 0 0 -7620968.7042517662 -4603212.5116944313 0 -4603212.5116944313 244141484.65013313 0 0 0 0 -54151350.191130638 94597641.358488083 0 94597641.358488083 114847697.43651342 0 0 0 0 122063.0819913249 -318704.09016693011 0 -318704.09016693011 2623326.048592031 0 0 0 0 144753776.34707737 -152480520.06208134 0 -152480520.06208134 4422550.049369812 0 0 0 0 47137434.410802901 118669796.9572475 0 118669796.9572475 174300586.96623611 0 0 0 0 88492211.255690098 -180931459.32372189 0 -180931459.32372189 90643932.888519287 0 0 0 0 4997861.8485348821 -195875817.1447928 0 -195875817.1447928 143482907.44558144 0 0 0 0 -34891.210562916007 -933504.60659695417 0 -933504.60659695417 6386631.0476260856 0 0 0 0 -142137082.62996721 -68025615.466415405 0 -68025615.466415405 32522019.220978022 0 0 0 0 -38787973.388694644 -6498715.2101891041 0 -6498715.2101891041 59769400.079641342 0 0 0 0 57002840.178837061 51064624.961935043 0 51064624.961935043 41083676.050324917 0 0 0 0 57610459.936835051 122586677.54587126 0 122586677.54587126 181316405.13105774 0 0 0 0 168667127.11330223 84662829.127277374 0 84662829.127277374 134273066.95526266 0 0 0 0 191344664.86224103 -38196479.161799431 0 -38196479.161799431 258796039.46069479 0 0 0 0 99926676.560137749 122118116.15136528 0 122118116.15136528 73460029.929437518 0 0 0 0 68922583.821099997 21787556.790975571 0 21787556.790975571 57149560.666498184 0 0 0 0 -5765902.961794734 -24093358.906713486 0 -24093358.906713486 75300860.96305275 0 0 0 0 1519665.2611352028 1255450.4759102724 0 1255450.4759102724 1139664.4018585645 0 0 0 0 128541067.38730091 42768866.146190047 0 42768866.146190047 -104685965.93367958 0 0 0 0 74231863.942911446 152729064.78268552 0 152729064.78268552 188841690.55610847 0 0 0 0 146570227.49010909 139197074.06464577 0 139197074.06464577 103944423.18093276 0 0 0 0 55013265.647726476 22116804.85537529 0 22116804.85537529 187239969.07644463 0 0 0 0 192035631.58597088 83961263.3343153 0 83961263.3343153 92854377.163292408 0 0 0 0 148106639.41041946 109378003.6744976 0 109378003.6744976 110820402.37015152 0 0 0 0 15717527.656053305 36386970.314487457 0 36386970.314487457 329152138.75677395 0 0 0 0 166000115.60613441 174178636.5268507 0 174178636.5268507 172624235.12386322 0 0 0 0 109747085.83585191 53037855.30172348 0 53037855.30172348 133854759.99194449 0 0 0 0 100308341.96408629 60755518.021148682 0 60755518.021148682 134936175.13106155 0 0 0 0 3508670.6783072948 -19582606.015790939 0 -19582606.015790939 148056780.58639002 0 0 0 0 -15703894.606462717 15469700.02318573 0 15469700.02318573 61340473.42647171 0 0 0 0 25682028.077495575 -30703469.997246742 0 -30703469.997246742 96902474.957357407 0 0 0 0 -10066906.74271059 68792306.906869888 0 68792306.906869888 -83607450.041459084 0 0 0 0 3287945.9842016418 3253467.138740886 0 3253467.138740886 2876027.5003397465 0 0 0 0 -13977888.68634969 110713133.91304159 0 110713133.91304159 156165177.99979019 0 0 0 0 43195691.07606101 -69750084.055008888 0 -69750084.055008888 51881069.915839195 0 0 0 0 -9706294.8107725382 -10973834.705835342 0 -10973834.705835342 205876819.93982315 0 0 0 0 250104.10575705383 -738821.13766124845 0 -738821.13766124845 1745191.437910147 0 0 0 0 41082311.44722873 -59703894.262540817 0 -59703894.262540817 51241430.838855743 0 0 0 0 6191732.0285422802 18463097.779548645 0 18463097.779548645 6014077.6703386307 0 0 0 0 -16259966.572553754 8679808.2589635849 0 8679808.2589635849 22510261.933015823 0 0 0 0 680458.73079087958 1511401.5915183797 0 1511401.5915183797 6497281.6170602813 0 0 0 0 10623391.309555054 21741412.428896904 0 21741412.428896904 34517195.512256622 0 0 0 0 1648452.7721061734 1233005.8213986158 0 1233005.8213986158 -2739610.9373920336 0 0 0 0 56929049.177802294 16034635.180260181 0 16034635.180260181 -8735569.8944015503 0 0 0 0 80078557.015985459 95152478.888332844 0 95152478.888332844 121419232.97968674 0 0 0 0 46394359.396719337 29827239.628110886 0 29827239.628110886 24809081.898233414 0 0 0 0 44779249.448638678 34005744.427302361 0 34005744.427302361 55931703.834688187 0 0 0 0 45590721.556041718 37711821.674995422 0 37711821.674995422 8209404.9774169922 0 0 0 0 33924715.543276191 17072292.623963356 0 17072292.623963356 30981248.978580475 0 0 0 0 16755430.962594509 11813654.681155205 0 11813654.681155205 -765630.32841491699 0 0 0 0 23287575.058835626 30545541.485287189 0 30545541.485287189 47642700.099700928 0 0 0 0 19970830.481733561 -6174552.7131567001 0 -6174552.7131567001 44190722.827883005 0 0 0 0 1664986.6558349133 -3820761.3728179932 0 -3820761.3728179932 74906892.343336105 0 0 0 0 38850126.910789013 -8596334.9497365952 0 -8596334.9497365952 75520024.902616501 0 0 0 0 -3636719.1388552189 -27242304.345748425 0 -27242304.345748425 88933614.476570129 0 0 0 0 19587206.730610609 1676773.6806688309 0 1676773.6806688309 114039568.8800354 0 0 0 0 34361638.030923486 -17192359.568658829 0 -17192359.568658829 60540083.778335571 0 0 0 0 27847579.285320789 5480067.2272059917 0 5480067.2272059917 106539389.06343842 0 0 0 0 100614268.49029285 117567428.9932723 0 117567428.9932723 150140786.80375671 0 0 0 0 599744.66856543918 1312861.4290663917 0 1312861.4290663917 1547815.2289752364 0 0 0 0 -88690952.994945049 -32699163.855062485 0 -32699163.855062485 115785511.53122997 0 0 0 0 591761915.25442803 66658468.9469347 0 66658468.9469347 32121728.168907166 0 0 0 0 -23358811.810072422 50927964.649990082 0 50927964.649990082 186026591.39747143 0 0 0 0 -16171414.543693781 44073748.294109821 0 44073748.294109821 10627680.392511368 0 0 0 0 20013128.351035595 -6441014.7082371712 0 -6441014.7082371712 1665869.3131809235 0 0 0 0 -73052363.610977173 15160989.910482407 0 15160989.910482407 14425536.342671871 0 0 0 0 1096353.8346385213 3509906.7388527403 0 3509906.7388527403 4884109.6381898895 0 0 0 0 551266058.75603402 -96313607.526893616 0 -96313607.526893616 -69739453.850456238 0 0 0 0 192200068.47550154 -76965316.563997269 0 -76965316.563997269 124423895.85900116 0 0 0 0 230633050.46018815 -20404788.454219818 0 -20404788.454219818 79765074.744399071 0 0 0 0 342339090.43353438 60274555.709194183 0 60274555.709194183 8390541.6918811798 0 0 0 0 126530712.21259832 49306.656147003174 0 49306.656147003174 19954683.754337311 0 0 0 0 194922578.34982634 141595428.14609909 0 141595428.14609909 -102859955.06991386 0 0 0 0 129772872.73628688 -13998224.606760979 0 -13998224.606760979 -145202743.64339828 0 0 0 0 -44219013.928019524 58697696.208421707 0 58697696.208421707 12685278.72068429 0 0 0 0 191356535.32420778 104426176.09202099 0 104426176.09202099 44260147.537992477 0 0 0 0 53550581.165534496 12651590.497509003 0 12651590.497509003 16187209.555095077 0 0 0 0 28346261.592861176 50931656.313394547 0 50931656.313394547 82117749.69846344 0 0 0 0 -73572437.000634193 -37987846.31269455 0 -37987846.31269455 116246925.70876694 0 0 0 0 42218813.740924358 11985741.29416132 0 11985741.29416132 143863730.02873611 0 0 0 0 204032992.6445713 72624701.819024086 0 72624701.819024086 197329383.05574608 0 0 0 0 163749263.74072361 -12186547.672157288 0 -12186547.672157288 88504089.372131348 0 0 0 0 242056046.91219163 -28025493.139766693 0 -28025493.139766693 137048577.60593796 0 0 0 0 34186952.328990459 -9572190.7672834396 0 -9572190.7672834396 149657992.04911423 0 0 0 0 36438302.384519577 52813873.00247097 0 52813873.00247097 153132111.88798523 0 0 0 0 12286785.795105059 3802199.5086464062 0 3802199.5086464062 4868961.9656462036 0 0 0 0 -53534502.310410976 101652304.10673523 0 101652304.10673523 -65312757.706638336 0 0 0 0 -22428467.221542358 -33458252.704227448 0 -33458252.704227448 107399020.64296484 0 0 0 0 -53826933.013666153 34626829.522205353 0 34626829.522205353 31107038.924446106 0 0 0 0 -133525304.43210363 85096640.653224945 0 85096640.653224945 95243655.508306503 0 0 0 0 -83669941.559850693 -78785822.235164642 0 -78785822.235164642 193521757.4397583 0 0 0 0 404478179.55651522 -23443084.904413223 0 -23443084.904413223 -251884296.16007233 0 0 0 0 702143978.40678239 316186616.91951752 0 316186616.91951752 128074681.67710924 0 0 0 0 614055711.73497331 -6753275.5688095093 0 -6753275.5688095093 -12335883.269821167 0 0 0 0 285155587.23700714 -216744549.27820206 0 -216744549.27820206 71951231.318514347 0 0 0 0 177765850.92303276 -32474272.785086632 0 -32474272.785086632 78287802.983978271 0 0 0 0 82317905.435441971 -80591586.392124176 0 -80591586.392124176 108061605.17150116 0 0 0 0 236564311.95280147 -50123775.433330536 0 -50123775.433330536 29290212.957382202 0 0 0 0 77224200.704812527 -48367945.991513252 0 -48367945.991513252 62428562.44128418 0 0 0 0 236125169.1960758 7798616.2795829326 0 7798616.2795829326 29914043.8515625 0 0 0 0 436993049.71196747 -56230850.918823242 0 -56230850.918823242 -11704681.383544922 0 0 0 0 194759343.99630523 -10125133.981912613 0 -10125133.981912613 -984282.9323348999 0 0 0 0 321360286.63670826 7525013.1360702515 0 7525013.1360702515 -5511576.298122406 0 0 0 0 179765267.46407306 24825312.362123489 0 24825312.362123489 9314740.0786209106 0 0 0 0 95578731.542318821 1446133.1635551453 0 1446133.1635551453 37562677.228431702 0 0 0 0 10206409.661304474 5301436.781955719 0 5301436.781955719 50421961.943792343 0 0 0 0 38887259.253174305 1580322.7674379349 0 1580322.7674379349 66777484.937950134 0 0 0 0 -19328337.051722527 -36767942.400318146 0 -36767942.400318146 59308827.281761169 0 0 0 0 -59634045.016759872 34838201.869205475 0 34838201.869205475 32287442.91034317 0 0 0 0 -70663769.102541924 27266251.008869171 0 27266251.008869171 71582647.5834198 0 0 0 0 -56057578.455436707 29533742.871353149 0 29533742.871353149 33906817.0259552 0 0 0 0 -55126302.974496841 -13454825.099765778 0 -13454825.099765778 8954131.2748947144 0 0 0 0 -55941435.861606598 -11719753.848087311 0 -11719753.848087311 53196030.776130676 0 0 0 0 -51854229.794259071 -24875275.309846878 0 -24875275.309846878 36891827.696857452 0 0 0 0 -34557478.885137558 -37967044.610084534 0 -37967044.610084534 43182317.307013512 0 0 0 0 -36258600.833284378 -14295077.549079895 0 -14295077.549079895 60699985.604959488 0 0 0 0 -29026765.440202653 29467892.821105957 0 29467892.821105957 71711459.293434143 0 0 0 0 -27274194.050642014 56287696.171325684 0 56287696.171325684 17004649.080921173 0 0 0 0 -5378298.0907182693 7445698.0466346741 0 7445698.0466346741 50414175.772306442 0 0 0 0 -20488698.452034235 -10798633.944727898 0 -10798633.944727898 93247188.759536743 0 0 0 0 -1411476.3429652657 -924598.20645107329 0 -924598.20645107329 -782211.78454292868 0 0 0 0 44548489.269423008 48944373.636749268 0 48944373.636749268 146384421.82432187 0 0 0 0 202332350.57691598 64939544.571304321 0 64939544.571304321 -234995455.27850151 0 0 0 0 260444703.07480764 33644606.487606049 0 33644606.487606049 34807644.190132141 0 0 0 0 93970360.222803116 22428135.720424652 0 22428135.720424652 10235907.136348724 0 0 0 0 -721723.03579271492 -1959441.0468910336 0 -1959441.0468910336 -121623.31152930902 0 0 0 0 155344545.19469678 69170012.413196564 0 69170012.413196564 35662925.572917938 0 0 0 0 109045097.86646295 -6022837.9953947067 0 -6022837.9953947067 -80913569.721115112 0 0 0 0 279270567.73061514 76560151.463718414 0 76560151.463718414 -31869431.716332436 0 0 0 0 273402050.3187921 -53033077.952960968 0 -53033077.952960968 7642889.0777463913 0 0 0 0 303989429.18315542 62449971.111574173 0 62449971.111574173 -29939919.330673218 0 0 0 0 -40220227.242435694 26396068.974141359 0 26396068.974141359 17070859.429740906 0 0 0 0 505437195.42793936 -1378745.7089240551 0 -1378745.7089240551 -73133147.645530701 0 0 0 0 1228073.3846086033 5533567.6332030622 0 5533567.6332030622 10086528.93099317 0 0 0 0 316982428.95121741 143725221.09716415 0 143725221.09716415 -54756601.554862976 0 0 0 0 -3473265.070707202 20363787.778992653 0 20363787.778992653 5009029.9044799805 0 0 0 0 -9198042.7483363152 30721716.321269989 0 30721716.321269989 -1577073.4336948395 0 0 0 0 9529274.0332829952 32546144.024305344 0 32546144.024305344 3625882.9735794067 0 0 0 0 -13176114.1846807 7933941.7167263031 0 7933941.7167263031 8864094.9176750183 0 0 0 0 13209841.135213375 19887077.523731232 0 19887077.523731232 5328482.8619995117 0 0 0 0 12039428.669932604 16499832.292918205 0 16499832.292918205 26489727.175777435 0 0 0 0 9634221.963280201 27791610.686131477 0 27791610.686131477 21553636.233440399 0 0 0 0 1125722309.6865225 -821529124.03596115 0 -821529124.03596115 364516678.92255187 0 0 0 0 14443105.731681954 3511119.7642917335 0 3511119.7642917335 -8980715.7570932955 0 0 0 0 7270713.4918259382 28163240.370854378 0 28163240.370854378 30338537.494823456 0 0 0 0 277410633.58120656 93073334.221242905 0 93073334.221242905 32375027.43585968 0 0 0 0 2878911.0389731731 8355434.2971528284 0 8355434.2971528284 17394586.57563673 0 0 0 0 292886601.59936452 86039187.585437775 0 86039187.585437775 27906574.99659729 0 0 0 0 368823516.05540997 85118150.487514496 0 85118150.487514496 3033878.9919509888 0 0 0 0 369578067.26646805 111656057.18130875 0 111656057.18130875 60181741.514816284 0 0 0 0 317714740.89131498 157773989.58823586 0 157773989.58823586 124361697.80808258 0 0 0 0 -20204793.445206165 255149998.40743637 0 255149998.40743637 413485170.2226944 0 0 0 0 3707721.3320186832 3849339.5677787382 0 3849339.5677787382 -798986.23832039535 0 0 0 0 54960000.035362244 115441866.72723389 0 115441866.72723389 287958064.98422241 0 0 0 0 198084452.12870884 149344297.52575684 0 149344297.52575684 239610640.16849518 0 0 0 0 596491862.38053358 129334090.65168381 0 129334090.65168381 22603815.080688477 0 0 0 0 1649267.0459237618 291512.15067299455 0 291512.15067299455 6220399.9793497473 0 0 0 0 450414551.45961845 225121712.26856232 0 225121712.26856232 114247666.99838257 0 0 0 0 612638769.06282592 185983025.0828743 0 185983025.0828743 233005598.06090546 0 0 0 0 2203448.8576561492 -4018214.7386159543 0 -4018214.7386159543 11497518.682909623 0 0 0 0 278817117.53977728 -387182356.77213478 0 -387182356.77213478 261091073.71907425 0 0 0 0 48952411.100198746 944854964.98212814 0 944854964.98212814 189880019.25736237 0 0 0 0 305019536.29030287 -246596936.52684712 0 -246596936.52684712 109053876.01276016 0 0 0 0 -1345771319.0122814 1231989735.3999863 0 1231989735.3999863 216512571.5268259 0 0 0 0 -144474804.5187397 -30579262.150844574 0 -30579262.150844574 198079140.38673401 0 0 0 0 -75882782.002516747 -340027149.24372482 0 -340027149.24372482 810931002.38421249 0 0 0 0 177230618.83255148 -215845270.50722122 0 -215845270.50722122 208715061.04048729 0 0 0 0 -5001464.0035028458 -161829193.48711014 0 -161829193.48711014 301172337.72617722 0 0 0 0 -36227335.281962872 -47566827.064440727 0 -47566827.064440727 87450544.096534729 0 0 0 0 -27734749.704392433 -218966835.06010056 0 -218966835.06010056 233095909.37625122 0 0 0 0 -36854425.505322933 -153282962.09455872 0 -153282962.09455872 -28650140.616760135 0 0 0 0 -162047521.9785611 96227899.02136898 0 96227899.02136898 -23947124.751625061 0 0 0 0 -89131962.236476898 -27520035.82711792 0 -27520035.82711792 172811057.37626648 0 0 0 0 -110920888.2661767 116098268.38739014 0 116098268.38739014 71012968.207681656 0 0 0 0 -168507039.50950056 35332789.851142883 0 35332789.851142883 -14062879.613384247 0 0 0 0 -193337384.86261463 399199377.73725128 0 399199377.73725128 -23337659.382564545 0 0 0 0 -96680109.975578547 49628524.285122871 0 49628524.285122871 301207543.70459747 0 0 0 0 -325483023.40583134 179996818.97377777 0 179996818.97377777 634275348.73340416 0 0 0 0 38381191.439805031 29156658.935594559 0 29156658.935594559 4782986.3776931763 0 0 0 0 30890639.141468287 40179445.5952878 0 40179445.5952878 7186991.8519363403 0 0 0 0 12313111.062148292 5853579.6814308017 0 5853579.6814308017 -14402438.964013979 0 0 0 0 6642281.9008283615 35439645.270013809 0 35439645.270013809 12134219.628279686 0 0 0 0 28817536.037768245 36008089.92086935 0 36008089.92086935 545696.62951660156 0 0 0 0 29569261.440248132 33883620.660527229 0 33883620.660527229 6177148.1184120178 0 0 0 0 12086487.87758255 28619940.246479034 0 28619940.246479034 6266921.4515562057 0 0 0 0 24103660.204708099 27536043.708322525 0 27536043.708322525 3830665.0759973526 0 0 0 0 36584827.051446527 8081186.4233636856 0 8081186.4233636856 -10519865.955600739 0 0 0 0 44583583.730684824 23032306.146404982 0 23032306.146404982 -21348530.5119133 0 0 0 0 8798099.1172835827 150097555.80616951 0 150097555.80616951 -144900319.11571217 0 0 0 0 -43824953.107060492 40822437.572315216 0 40822437.572315216 74153461.425868988 0 0 0 0 9006661.193703115 4457337.9822244644 0 4457337.9822244644 13108554.627109528 0 0 0 0 1334966.6766595091 -160613.50093473401 0 -160613.50093473401 21160281.151957214 0 0 0 0 5667290.1281045172 11180126.276023444 0 11180126.276023444 -12558864.886494502 0 0 0 0 1308355.1324311495 6966716.8310680389 0 6966716.8310680389 16742483.785394669 0 0 0 0 2971929.6087834174 4543418.8330672719 0 4543418.8330672719 12460255.857234962 0 0 0 0 -9926.0842401981354 13234099.590110779 0 13234099.590110779 17191116.633225918 0 0 0 0 -1399025.0631783009 7158450.2939128876 0 7158450.2939128876 16862050.730476379 0 0 0 0 2096214.8864843249 5383212.5182099342 0 5383212.5182099342 10365959.12569046 0 0 0 0 3725416.1679246649 986344.50856041908 0 986344.50856041908 18914243.416725159 0 0 0 0 4463176.1534463465 6228739.4011442661 0 6228739.4011442661 23455013.216068268 0 0 0 0 1940655.3131419257 4696216.9744865727 0 4696216.9744865727 13036481.762497976 0 0 0 0 1635059.8243762255 6818499.1456384659 0 6818499.1456384659 23970429.373790741 0 0 0 0 15167867.926808476 9752388.1998119354 0 9752388.1998119354 21990201.063184738 0 0 0 0 14969203.875526667 3992528.8192024231 0 3992528.8192024231 19349133.096200943 0 0 0 0 2274121.1898083985 7711407.765668869 0 7711407.765668869 22130524.876098633 0 0 0 0 369449.58008591918 -3438651.2893664213 0 -3438651.2893664213 13392721.596133575 0 0 0 0 -266528442.38118064 53453247.764701843 0 53453247.764701843 76608963.505210876 0 0 0 0 19610328.728137136 4982848.5459957123 0 4982848.5459957123 17655665.143779755 0 0 0 0 15886253.305299729 -2726667.4741444588 0 -2726667.4741444588 13585883.507705688 0 0 0 0 108757800.21407545 24988654.140264511 0 24988654.140264511 -9528859.6352214813 0 0 0 0 24995504.480099201 19332833.249797821 0 19332833.249797821 -4847363.1567592621 0 0 0 0 784036.50479757495 1035990.9136397727 0 1035990.9136397727 1278894.6211214215 0 0 0 0 23601069.548876286 5709103.2723274231 0 5709103.2723274231 12981088.127277374 0 0 0 0 716700.49997547374 1039502.5101541281 0 1039502.5101541281 1730678.7870941088 0 0 0 0 3209311.8632141352 64866305.181404114 0 64866305.181404114 14517951.327674866 0 0 0 0 32749476.860407829 23742263.437764168 0 23742263.437764168 45723295.625099182 0 0 0 0 -753479.56204330944 5651496.8390645497 0 5651496.8390645497 3571056.556453608 0 0 0 0 34319118.284836531 29975212.594768524 0 29975212.594768524 25460734.97150898 0 0 0 0 49649360.898947254 74432718.1696136 0 74432718.1696136 214227214.54396057 0 0 0 0 19149021.153241515 -16049004.332233429 0 -16049004.332233429 121732503.63491058 0 0 0 0 4715375.6045665741 36980861.672687531 0 36980861.672687531 131746865.98344135 0 0 0 0 48539969.344443217 61101125.714479685 0 61101125.714479685 60669319.267440796 0 0 0 0 22271309.311310291 -22906920.187290192 0 -22906920.187290192 39287914.725558281 0 0 0 0 -31188240.877850533 15616186.565807343 0 15616186.565807343 141595409.11283112 0 0 0 0 37106716.865356088 -58354239.895931244 0 -58354239.895931244 274800195.4886055 0 0 0 0 -18104.346313239075 152965.56106798723 0 152965.56106798723 -1820785.6499809027 0 0 0 0 8185066.4867190123 158544641.07744789 0 158544641.07744789 358021862.50634003 0 0 0 0 -25622209.259849072 -97939335.130613327 0 -97939335.130613327 255239614.26623058 0 0 0 0 -47045096.530889094 -187298071.3878305 0 -187298071.3878305 645125443.02056122 0 0 0 0 120470983.31324574 -169947521.21697998 0 -169947521.21697998 214920994.19704437 0 0 0 0 107041856.36548865 -188589085.11382556 0 -188589085.11382556 482965747.38779449 0 0 0 0 33521255.454726219 -69757573.967445374 0 -69757573.967445374 148383157.71032429 0 0 0 0 29281.865891253692 -195666.9402279146 0 -195666.9402279146 558454.79297591001 0 0 0 0 18542792.776083767 2263991.6404094696 0 2263991.6404094696 173261694.12717819 0 0 0 0 6956331.929189451 -1814677.8919763565 0 -1814677.8919763565 615300605.30319977 0 0 0 0 -400290783.15520394 -3133318.0443878174 0 -3133318.0443878174 2206835660.3462696 0 0 0 0 119260360.40992033 -431466941.88625336 0 -431466941.88625336 997103283.21435547 0 0 0 0 -362430847.16217202 186187711.69095993 0 186187711.69095993 1597027279.228508 0 0 0 0 -4644908.1264349222 49000941.848428726 0 49000941.848428726 408585771.83333874 0 0 0 0 -1246827.8027462368 1022781.5984367467 0 1022781.5984367467 1339725.2041953951 0 0 0 0 74556777.443873763 726864.47720718384 0 726864.47720718384 -167916172.61033249 0 0 0 0 -20517103.815690517 154807743.39777565 0 154807743.39777565 127948837.14058685 0 0 0 0 -34028948.609792948 -72431964.842380524 0 -72431964.842380524 235956822.7828331 0 0 0 0 37216537.642934799 100618358.94285393 0 100618358.94285393 -167867465.67967033 0 0 0 0 -7738209.525422588 588469.76778353006 0 588469.76778353006 5169435.9382822961 0 0 0 0 -338415094.05238378 355399559.88092136 0 355399559.88092136 2199882732.3187466 0 0 0 0 570203909.30483663 453465358.00139999 0 453465358.00139999 358760625.81515312 0 0 0 0 -1491313.5783460597 2308398.0179764768 0 2308398.0179764768 10620845.610318616 0 0 0 0 497232429.87733507 -707048205.92521811 0 -707048205.92521811 979897348.10297012 0 0 0 0 -13329043.073967002 8436130.3933369964 0 8436130.3933369964 9987988.8906671703 0 0 0 0 -7994023.8084529638 14651830.521286249 0 14651830.521286249 120904.13237380981 0 0 0 0 -33225160.747872353 -43962225.584999084 0 -43962225.584999084 -13496399.194658279 0 0 0 0 -3830774.3003042131 1949476.8409323934 0 1949476.8409323934 2812234.7085927725 0 0 0 0 -226346288.36500007 74812303.430335522 0 74812303.430335522 172701642.06568146 0 0 0 0 301737648.37300801 19134351.992485046 0 19134351.992485046 55575840.49930191 0 0 0 0 261986087.51002002 -239268412.48759651 0 -239268412.48759651 240863446.79058397 0 0 0 0 -42122178.925072193 -28346535.15004921 0 -28346535.15004921 497000547.73505402 0 0 0 0 -73584617.017874718 -257442391.11751366 0 -257442391.11751366 343268159.04331398 0 0 0 0 -60727647.097664237 -278869069.76025724 0 -278869069.76025724 197575735.26151276 0 0 0 0 496890.23180190672 -1591361.464886304 0 -1591361.464886304 5022072.7002961487 0 0 0 0 142938671.01139414 127708710.21296787 0 127708710.21296787 128627900.7304306 0 0 0 0 34541061.659543037 -163092500.44872093 0 -163092500.44872093 282168062.51685715 0 0 0 0 176442809.71476656 -245839695.6703015 0 -245839695.6703015 87294913.690322876 0 0 0 0 50191652.795297027 49113344.722187519 0 49113344.722187519 27056760.883525848 0 0 0 0 -723546.34899332863 -1611536.3347309604 0 -1611536.3347309604 2013124.9741127491 0 0 0 0 9647699.559076786 -258398320.14315414 0 -258398320.14315414 282764494.72172165 0 0 0 0 -64946754.54945159 -263942467.33091164 0 -263942467.33091164 315894548.94344711 0 0 0 0 97788055.222411633 -135252803.05669975 0 -135252803.05669975 302608479.2033329 0 0 0 0 28988010.550595284 73883030.85982132 0 73883030.85982132 -62608522.635417938 0 0 0 0 -137370117.27461433 191513.20958995819 0 191513.20958995819 80861634.822216034 0 0 0 0 -244246935.24483025 -68311511.970207214 0 -68311511.970207214 289204488.227005 0 0 0 0 187815091.71672666 364793744.53606606 0 364793744.53606606 371878914.78218079 0 0 0 0 500675298.2457031 -372807841.35886002 0 -372807841.35886002 352521451.06244564 0 0 0 0 946375.33100475976 -11665665.2746199 0 -11665665.2746199 31327177.531913683 0 0 0 0 -15455802.274609622 4350522.7867700607 0 4350522.7867700607 14642443.938242726 0 0 0 0 -16221467.329181671 22822079.320980072 0 22822079.320980072 24133121.787956238 0 0 0 0 -14540146.364440918 11401294.274768829 0 11401294.274768829 7019522.0746574402 0 0 0 0 223159463.38627517 44558599.379579544 0 44558599.379579544 -97453816.367494583 0 0 0 0 -4331994.4199625999 -337686945.84962368 0 -337686945.84962368 686108606.78717041 0 0 0 0 -211421533.99705538 19939886.50512886 0 19939886.50512886 1044313858.0741653 0 0 0 0 -302837283.12679392 -335694089.20420837 0 -335694089.20420837 2202200377.6968555 0 0 0 0 -54350769.07193961 834100865.11833382 0 834100865.11833382 2268566159.7896309 0 0 0 0 -217154468.43269843 -25742876.540902138 0 -25742876.540902138 682172903.35842133 0 0 0 0 -1922337.0384365935 -4317583.2798382416 0 -4317583.2798382416 19818131.710939646 0 0 0 0 -53109450.620964214 48919949.678443909 0 48919949.678443909 668346904.35525131 0 0 0 0 12539605.215205967 -54700280.725532532 0 -54700280.725532532 -29499216.855297089 0 0 0 0 -478827582.50011188 -19276216.774150848 0 -19276216.774150848 108782423.76842499 0 0 0 0 338537323.18872356 -215439114.00799942 0 -215439114.00799942 -209777026.0663166 0 0 0 0 -394307649.56062996 152114089.21006775 0 152114089.21006775 413373213.992733 0 0 0 0 343059756.62391967 -1047718555.1790695 0 -1047718555.1790695 805881945.29889679 0 0 0 0 1254847.1414772456 -2796260.2706443742 0 -2796260.2706443742 8239572.5455020368 0 0 0 0 149252757.54280567 -1328534952.9991989 0 -1328534952.9991989 1209411286.8963394 0 0 0 0 -50813843.271266274 -755726064.09115601 0 -755726064.09115601 2257622021.8288674 0 0 0 0 68421311.68109335 -260624492.33379364 0 -260624492.33379364 1288086620.2487979 0 0 0 0 199508153.81205744 -522061653.84702301 0 -522061653.84702301 1462412092.8886185 0 0 0 0 283942302.67673028 96733209.604722977 0 96733209.604722977 134423014.82524872 0 0 0 0 366603092.09571469 235418527.40999794 0 235418527.40999794 -60310790.902336121 0 0 0 0 -168940003.86017796 279715178.56275177 0 279715178.56275177 -190697428.79686165 0 0 0 0 -1976451.7466323485 -3180004.8282626122 0 -3180004.8282626122 7854467.9866360873 0 0 0 0 -27943371.096871853 526714805.81770325 0 526714805.81770325 234158202.32943726 0 0 0 0 411582040.50276613 342166747.8861084 0 342166747.8861084 94676343.261863708 0 0 0 0 -117530212.89168227 47998577.048536301 0 47998577.048536301 362376003.92852402 0 0 0 0 5294266.6655968511 -308012.60832731426 0 -308012.60832731426 -118571.97564202547 0 0 0 0 35486945.015431821 446479368.64729214 0 446479368.64729214 975199313.11249542 0 0 0 0 30511402.103770614 308411162.15790367 0 308411162.15790367 119329099.33705139 0 0 0 0 132951621.18849373 183999941.67215729 0 183999941.67215729 259070202.50281525 0 0 0 0 547223.542760849 -2613006.117667675 0 -2613006.117667675 34135965.887274504 0 0 0 0 3463278.7351379395 25576312.069727421 0 25576312.069727421 44621089.355884552 0 0 0 0 -16123315.728435516 11476699.278678894 0 11476699.278678894 15115997.256594658 0 0 0 0 56722703.305104494 -13985988.091725469 0 -13985988.091725469 60368939.70318985 0 0 0 0 29595114.671439409 36712098.134950042 0 36712098.134950042 87342594.112372398 0 0 0 0 6292538.1472969055 -60428864.615767717 0 -60428864.615767717 91462719.151743531 0 0 0 0 -24387085.36468029 -77760317.927264452 0 -77760317.927264452 89403199.081361294 0 0 0 0 -31439459.486039639 21351790.153120756 0 21351790.153120756 50881301.06237936 0 0 0 0 5190354.5366487503 -42519282.976632118 0 -42519282.976632118 -4003984.8307421207 0 0 0 0 -7579934.921791764 3280281.833736036 0 3280281.833736036 20865251.686579451 0 0 0 0 49944804.815594912 25361094.089322358 0 25361094.089322358 12643001.478410721 0 0 0 0 -47434070.550755501 42028856.504469156 0 42028856.504469156 252544003.24374676 0 0 0 0 -10068772.708841324 -120955274.73357975 0 -120955274.73357975 78831569.761091352 0 0 0 0 17876605.851704597 32515029.070853829 0 32515029.070853829 24288772.881327629 0 0 0 0 -3058345.2217001822 -5937730.6787864473 0 -5937730.6787864473 25484016.48552189 0 0 0 0 -5640067.4494832754 15497906.743425667 0 15497906.743425667 83742489.004609108 0 0 0 0 34976432.020029306 1508953.0887995958 0 1508953.0887995958 6487333.982875824 0 0 0 0 8253986.4780937862 -76698.700324560516 0 -76698.700324560516 1019813.0433212761 0 0 0 0 34958971.810076714 15986775.744583607 0 15986775.744583607 4718606.0437812805 0 0 0 0 42091722.955820084 2136775.3744606972 0 2136775.3744606972 29928734.356737137 0 0 0 0 28944865.559421539 28739565.275073051 0 28739565.275073051 62395423.761998177 0 0 0 0 30047840.205021143 14360506.703889132 0 14360506.703889132 20768589.865428925 0 0 0 0 389764.20087665971 -2192074.6559096538 0 -2192074.6559096538 15364992.50470748 0 0 0 0 -60054006.112902164 -10957959.950400591 0 -10957959.950400591 40773472.014008522 0 0 0 0 49386951.233243942 28950711.651495218 0 28950711.651495218 47855995.910728455 0 0 0 0 274105653.69330406 35798506.807867527 0 35798506.807867527 -77251549.442646265 0 0 0 0 567481.14611989632 -2837002.8683451209 0 -2837002.8683451209 1580940.9499949701 0 0 0 0 1154787.3097634614 1038891.4665940441 0 1038891.4665940441 21012847.353948668 0 0 0 0 9262518.3989801407 19772690.48029542 0 19772690.48029542 10142073.799279213 0 0 0 0 -32026231.029271126 16589720.787900686 0 16589720.787900686 30158601.086818695 0 0 0 0 71708896.894850731 54062398.395112514 0 54062398.395112514 1909750.0042037964 0 0 0 0 -895304.2169362111 1840394.5110327043 0 1840394.5110327043 7138756.883740087 0 0 0 0 -40046931.937532425 91390387.11902833 0 91390387.11902833 41519039.987845421 0 0 0 0 60691939.261586189 41712661.51482296 0 41712661.51482296 34917945.073270798 0 0 0 0 -44043913.80581224 -3511484.8031469584 0 -3511484.8031469584 37524584.581569672 0 0 0 0 -6640973.9582567476 372891.00878034718 0 372891.00878034718 27234369.407032285 0 0 0 0 67174373.429823875 23726433.61215353 0 23726433.61215353 29399441.171951294 0 0 0 0 23742841.700883865 -1576338.7271623611 0 -1576338.7271623611 2379072.9848775864 0 0 0 0 24421615.641351223 -5383052.665024519 0 -5383052.665024519 17340879.345097542 0 0 0 0 13580755.598635435 18275860.067880213 0 18275860.067880213 28651253.09017086 0 0 0 0 22013674.491607428 17864709.158718348 0 17864709.158718348 27945620.246077538 0 0 0 0 -6236446.1540431976 22488605.770358801 0 22488605.770358801 13887873.380805969 0 0 0 0 10044931.351295471 3854826.3751525879 0 3854826.3751525879 30942571.811534882 0 0 0 0 28061546.543014526 -2480113.4463768005 0 -2480113.4463768005 29750316.521857738 0 0 0 0 -31712677.285765171 13629925.495491266 0 13629925.495491266 76128219.139712334 0 0 0 0 255553.48750485014 8049634.4450190086 0 8049634.4450190086 32483152.647939272 0 0 0 0 -8627295.0057353973 -4418438.0613136292 0 -4418438.0613136292 49533139.647341728 0 0 0 0 -18809812.642612457 -7548468.8376960754 0 -7548468.8376960754 49048570.193374634 0 0 0 0 12839669.047222137 99853993.370091438 0 99853993.370091438 -10907664.994390726 0 0 0 0 -2441285.2248982489 -2183330.060966216 0 -2183330.060966216 8014207.7977114972 0 0 0 0 11169247.666166782 6650590.907269001 0 6650590.907269001 31191860.61809063 0 0 0 0 -6084486.1106529236 14728250.868098259 0 14728250.868098259 33725975.293449402 0 0 0 0 -13623447.443897724 20228010.362078428 0 20228010.362078428 35703671.001800537 0 0 0 0 -22539.803206920624 21795779.350390911 0 21795779.350390911 38857211.092702866 0 0 0 0 -3900270.5081033707 22454243.953117371 0 22454243.953117371 29695453.592728615 0 0 0 0 -14656653.652540207 4480045.7577233315 0 4480045.7577233315 21099889.924839973 0 0 0 0 -13319418.735967636 5413696.5313329697 0 5413696.5313329697 25785753.40306282 0 0 0 0 17939703.472114563 14251685.980416775 0 14251685.980416775 17901936.321520329 0 0 0 0 24903825.383037567 9213374.174503088 0 9213374.174503088 28803641.6944561 0 0 0 0 33337254.823355675 17742197.989142418 0 17742197.989142418 18671861.876899719 0 0 0 0 8121196.2280912399 -3326347.7234241962 0 -3326347.7234241962 30632127.124293327 0 0 0 0 -1388125.8616857529 3346329.7525067329 0 3346329.7525067329 32682752.698926568 0 0 0 0 -1272247.5216128957 1501090.7106673801 0 1501090.7106673801 17684431.532611106 0 0 0 0 22416246.594008446 10879198.56571722 0 10879198.56571722 16161615.571346283 0 0 0 0 948460.49090308324 1030201.0198416188 0 1030201.0198416188 1467574.3261019737 0 0 0 0 -2752228.9543061256 5251245.3154616356 0 5251245.3154616356 30254146.534173965 0 0 0 0 1586660.9862646759 922382.04022836685 0 922382.04022836685 15747473.784009933 0 0 0 0 -1486516.566019793 -3507631.3810606152 0 -3507631.3810606152 13158433.969906926 0 0 0 0 -1132413.9025213718 -14022120.132349014 0 -14022120.132349014 15424393.873215675 0 0 0 0 1743453.4090156555 73059966.51927948 0 73059966.51927948 30920121.633234501 0 0 0 0 -3434935.1739045363 -6603328.4604935367 0 -6603328.4604935367 10173029.690688882 0 0 0 0 -16659557.090634346 -21376932.939811707 0 -21376932.939811707 50456000.983901978 0 0 0 0 12503651.945405483 -5766270.6268382072 0 -5766270.6268382072 -54377176.062637329 0 0 0 0 3182618.3139286041 -8147924.1281766891 0 -8147924.1281766891 -5463671.5924282074 0 0 0 0 -1923581.7986545563 14116765.168284416 0 14116765.168284416 29737684.582996368 0 0 0 0 24784520.096633911 15392642.412062645 0 15392642.412062645 9601994.7356219292 0 0 0 0 1030346.0792007446 4832494.8319807053 0 4832494.8319807053 14456071.738100529 0 0 0 0 -17906428.315786362 -8591170.0820569992 0 -8591170.0820569992 474563.42365646362 0 0 0 0 -799116.77646010672 -3287370.044759552 0 -3287370.044759552 960041.27954676375 0 0 0 0 10942705.409669995 10297091.940979004 0 10297091.940979004 13020745.962068558 0 0 0 0 10295759.667426348 -1326300.7593584061 0 -1326300.7593584061 13846428.998397827 0 0 0 0 4493529.3063206673 4060327.2070732117 0 4060327.2070732117 8920245.7006778717 0 0 0 0 22627684.367612362 -1391442.2735178471 0 -1391442.2735178471 -10278091.48989296 0 0 0 0 66212.032494671643 -14373665.81039305 0 -14373665.81039305 106036531.87185287 0 0 0 0 1314112.6197844101 160475.47601681016 0 160475.47601681016 602650.71626738459 0 0 0 0 2317112.9789979458 4715503.6280603409 0 4715503.6280603409 10889143.810344696 0 0 0 0 -1750009.4090903783 -2731055.9676914141 0 -2731055.9676914141 12562752.894543469 0 0 0 0 3636947.7467653751 -876323.84746360779 0 -876323.84746360779 9139750.5994870067 0 0 0 0 24481646.721802711 26760710.634441376 0 26760710.634441376 28564316.454826355 0 0 0 0 1168986.1064660549 7820715.8857917786 0 7820715.8857917786 17873873.011253357 0 0 0 0 -1616339.9495536811 995811.99506431073 0 995811.99506431073 13654021.946358144 0 0 0 0 4447767.427571509 7938255.3679947667 0 7938255.3679947667 6861213.4353444092 0 0 0 0 -5236537.8616065979 15164783.85382843 0 15164783.85382843 24108381.251296997 0 0 0 0 -915681.5448733503 6736148.8008831237 0 6736148.8008831237 17785874.22859028 0 0 0 0 -3830612.4162918814 7169749.4825482164 0 7169749.4825482164 43465940.659502491 0 0 0 0 -448060856.53339052 53166964.881613731 0 53166964.881613731 49294385.97060585 0 0 0 0 -2244077.1162485378 -6708175.6754469015 0 -6708175.6754469015 14268858.715626078 0 0 0 0 1194317.9490756989 322386729.25540018 0 322386729.25540018 34212693.368589371 0 0 0 0 359602468.19818783 -192973206.78030777 0 -192973206.78030777 -47453917.931258202 0 0 0 0 -34119866.412926197 -151124354.9289937 0 -151124354.9289937 282960646.26301903 0 0 0 0 -166238579.49067926 15354078.410271168 0 15354078.410271168 256561193.57645798 0 0 0 0 -29077713.731279373 88101680.448363781 0 88101680.448363781 -35590725.557904929 0 0 0 0 4473535.7802480571 -59892196.110822909 0 -59892196.110822909 -29667411.470931053 0 0 0 0 2278548.1455606772 1971121.9166101362 0 1971121.9166101362 2128325.0960179679 0 0 0 0 4922870.1768327951 52095827.917850494 0 52095827.917850494 13223361.264282227 0 0 0 0 2264671.1668807846 17357257.125939421 0 17357257.125939421 42339298.095957316 0 0 0 0 8592057.7196960449 34534939.959747314 0 34534939.959747314 24674069.296348572 0 0 0 0 778193.91624069214 26218066.103927612 0 26218066.103927612 16837226.540252209 0 0 0 0 7879372.4667179585 45373962.607738495 0 45373962.607738495 58995854.665634155 0 0 0 0 1947150.6066083908 -7890778.6410512924 0 -7890778.6410512924 101056235.64430046 0 0 0 0 537075.68836212158 -14084484.731357336 0 -14084484.731357336 134612226.40693283 0 0 0 0 22247518.518352509 21971375.378432274 0 21971375.378432274 40473955.720861435 0 0 0 0 27408300.140893698 7900668.7640287876 0 7900668.7640287876 31049344.472129822 0 0 0 0 -14550471.243584633 13126606.140415668 0 13126606.140415668 97103157.321840286 0 0 0 0 20697759.24843359 -35707047.71637249 0 -35707047.71637249 115164107.44805086 0 0 0 0 -31811891.10125351 17278503.89345789 0 17278503.89345789 135686391.02738094 0 0 0 0 -14171573.181996346 35018984.313333035 0 35018984.313333035 30000940.154125214 0 0 0 0 -60891748.586127281 102414627.73382425 0 102414627.73382425 -37692287.998803973 0 0 0 0 -2389344.8415503502 -9883617.6154148579 0 -9883617.6154148579 105837280.00253773 0 0 0 0 2441026.0502836425 1047557.5298491009 0 1047557.5298491009 1630561.3340184782 0 0 0 0 12079164.153817177 24008114.275604248 0 24008114.275604248 83330726.697367191 0 0 0 0 14109256.266307831 33918952.156466484 0 33918952.156466484 125974764.20055932 0 0 0 0 1668469.0802117512 8429150.7745230533 0 8429150.7745230533 12030709.765386809 0 0 0 0 -7888733.8393955231 32001113.956171989 0 32001113.956171989 -1901704.9231680334 0 0 0 0 5868074.2598013729 6662592.8456662241 0 6662592.8456662241 7009491.2358938847 0 0 0 0 10788787.209249496 9691252.0950212479 0 9691252.0950212479 -1207132.4598255157 0 0 0 0 -18344126.238531359 4781806.7791927159 0 4781806.7791927159 42398786.651660919 0 0 0 0 -2466184.1564438092 10075863.069259712 0 10075863.069259712 32270422.976495791 0 0 0 0 -7597083.611749649 -4222556.1793842316 0 -4222556.1793842316 47427165.675174713 0 0 0 0 1026460.2854235172 13469830.218366623 0 13469830.218366623 17589000.38988018 0 0 0 0 4411822.2133765221 4392139.0004172325 0 4392139.0004172325 19930230.353193283 0 0 0 0 1001068.8306430578 4251888.2610249035 0 4251888.2610249035 15642099.452051384 0 0 0 0 -2279028.4767308072 9098677.6753030904 0 9098677.6753030904 7346503.2628532685 0 0 0 0 6093133.1936314106 21964694.514328003 0 21964694.514328003 62663825.068889618 0 0 0 0 -13440515.184764385 34723460.537100792 0 34723460.537100792 73058397.815704346 0 0 0 0 1642756.1652588556 15355867.008947553 0 15355867.008947553 34746321.262914091 0 0 0 0 -27571035.343225956 43055732.293949127 0 43055732.293949127 32361974.242198944 0 0 0 0 -26586810.060604095 20840559.944759369 0 20840559.944759369 58404579.608692169 0 0 0 0 -15593863.796861172 4040812.7018070221 0 4040812.7018070221 49665072.970842361 0 0 0 0 -18423036.383419044 1846427.9322149158 0 1846427.9322149158 62489056.672428131 0 0 0 0 -10554546.863687515 -12652338.546386719 0 -12652338.546386719 47661201.857398987 0 0 0 0 -244094.05908870697 -27628530.268657684 0 -27628530.268657684 78651683.791657925 0 0 0 0 -17281894.571179211 3289360.9071178436 0 3289360.9071178436 75098906.547939301 0 0 0 0 43429602.713985562 -55515183.57091713 0 -55515183.57091713 83246809.488866806 0 0 0 0 -3497958.140027523 -7507324.1065063477 0 -7507324.1065063477 77322961.062015295 0 0 0 0 -3739696.0218422413 1701663.3957138062 0 1701663.3957138062 117360726.57408142 0 0 0 0 11701940.984406948 -21059391.604438782 0 -21059391.604438782 37193405.689574242 0 0 0 0 21539055.443820119 -22424547.945013046 0 -22424547.945013046 37333721.824386597 0 0 0 0 7070426.1170101166 -27418887.70675087 0 -27418887.70675087 33045390.263860703 0 0 0 0 -8033404.5407972336 -10078659.980270386 0 -10078659.980270386 42945662.04649353 0 0 0 0 -18383280.393070698 -6903705.5643825531 0 -6903705.5643825531 43465301.046764374 0 0 0 0 -4081463.6338939667 -15694304.7384758 0 -15694304.7384758 46930568.119636536 0 0 0 0 -7008564.9151382446 -6367028.130440712 0 -6367028.130440712 26450498.178405762 0 0 0 0 5736015.4382166862 -22044844.352125645 0 -22044844.352125645 25183925.277229309 0 0 0 0 -14315682.099041939 -10323027.6039505 0 -10323027.6039505 24877348.201934814 0 0 0 0 13954051.54259491 -27476041.198892593 0 -27476041.198892593 30955872.729558945 0 0 0 0 2112159.0046696663 -19068149.164829016 0 -19068149.164829016 29069272.065254211 0 0 0 0 9792870.710372448 -2810961.2257041931 0 -2810961.2257041931 4166171.133895874 0 0 0 0 384973229.64669055 -710743280.25192642 0 -710743280.25192642 1330613646.3233337 0 0 0 0 6572386.3048967235 -4551929.9299114719 0 -4551929.9299114719 10850766.467320083 0 0 0 0 16742433.543755634 3389936.2646431066 0 3389936.2646431066 -657791.754646644 0 0 0 0 226187696.25904801 -816605421.800331 0 -816605421.800331 2292269722.0610638 0 0 0 0 2331399.2170119653 -2609885.4717856795 0 -2609885.4717856795 -1579423.3988629878 0 0 0 0 3757850.4193673134 -823690.84322738647 0 -823690.84322738647 35897095.948760271 0 0 0 0 1176744.4227361428 -3937259.6684879735 0 -3937259.6684879735 9759856.320378514 0 0 0 0 16561364.079170227 11370866.555311203 0 11370866.555311203 39650870.673904419 0 0 0 0 645174.15165090561 -7948624.7317590714 0 -7948624.7317590714 60604247.086982727 0 0 0 0 1067086.0784348007 -338667.43324000482 0 -338667.43324000482 -63122.311261113733 0 0 0 0 -15664.762441773899 -3362064.351184696 0 -3362064.351184696 21520620.072926268 0 0 0 0 -1708838.433303833 1215674.5824985504 0 1215674.5824985504 16004255.479499817 0 0 0 0 -14627450.073769331 -17522039.577112198 0 -17522039.577112198 24864591.339447021 0 0 0 0 -60535.572985036299 238525.78007212654 0 238525.78007212654 5917161.5348484199 0 0 0 0 6841809.4034609795 4543933.7201709747 0 4543933.7201709747 30203169.771361589 0 0 0 0 31578258.65780028 275799554.21883774 0 275799554.21883774 2205053363.1180849 0 0 0 0 8040787.7000908302 2244665.4941763654 0 2244665.4941763654 4705888.4956858885 0 0 0 0 -32604630.436428435 151334446.01032639 0 151334446.01032639 2186380282.5240226 0 0 0 0 7864262.929110527 87240.765530586243 0 87240.765530586243 35186400.879457474 0 0 0 0 1791088.4225827302 -6512102.0506269969 0 -6512102.0506269969 22288915.59305042 0 0 0 0 -36948280.208975084 147369449.14883518 0 147369449.14883518 2203191825.0923843 0 0 0 0 7015176.2200410552 -2594623.4133194983 0 -2594623.4133194983 1953562.371415623 0 0 0 0 17692007.62184 2916293.9784126282 0 2916293.9784126282 22802180.27575779 0 0 0 0 6691745.6836356148 -10211.739842310548 0 -10211.739842310548 34297750.719867706 0 0 0 0 55112356.085525334 -315988746.23591042 0 -315988746.23591042 2062199206.0544763 0 0 0 0 6919031.4625134468 1348159.0123081207 0 1348159.0123081207 33687842.908576965 0 0 0 0 3931522.487704345 -1006732.7108558584 0 -1006732.7108558584 -4603754.7778198645 0 0 0 0 30659775.912164114 -102272158.76371384 0 -102272158.76371384 2187403964.8152561 0 0 0 0 5796301.1883773804 6382847.5197811127 0 6382847.5197811127 33484665.297224045 0 0 0 0 43729856.895000145 43354758.346352518 0 43354758.346352518 27312101.789054871 0 0 0 0 23562296.756969087 24553151.51424408 0 24553151.51424408 44793476.719430923 0 0 0 0 -66171.797326332715 -1834713.0788969398 0 -1834713.0788969398 7652122.6781581892 0 0 0 0 438585969.16273385 939815029.61940074 0 939815029.61940074 2204686231.0964518 0 0 0 0 5694447.3359782817 -2931481.2193934172 0 -2931481.2193934172 10447011.329766285 0 0 0 0 11272260.308871338 9064588.8136663251 0 9064588.8136663251 18072439.487534538 0 0 0 0 11342498.72299552 9904866.1306419373 0 9904866.1306419373 27732915.882864952 0 0 0 0 8189637.4022296146 8396339.5189654566 0 8396339.5189654566 15647824.818694236 0 0 0 0 5994467.9154195786 8158722.7141098976 0 8158722.7141098976 20055331.586140633 0 0 0 0 573016018.28374958 -176556473.97259903 0 -176556473.97259903 -454938600.65082169 0 0 0 0 8314529.0790623538 3776643.9209905518 0 3776643.9209905518 14524218.093041858 0 0 0 0 7002181.0456019733 6786587.7771690357 0 6786587.7771690357 20492973.961054713 0 0 0 0 12436128.182806969 7804678.3263050169 0 7804678.3263050169 28145517.946337819 0 0 0 0 13500960.19401598 16753328.495031834 0 16753328.495031834 33495035.421780586 0 0 0 0 6322100.2175931931 7055374.7457199097 0 7055374.7457199097 41084326.875543594 0 0 0 0 5149117.8543089814 4332332.480981363 0 4332332.480981363 5206852.9529954111 0 0 0 0 14822215.465445489 -518874.55449330807 0 -518874.55449330807 37830305.509843826 0 0 0 0 714091.78179454803 5856693.7133922577 0 5856693.7133922577 22492292.922950745 0 0 0 0 -81933505.977568626 -41259004.963755608 0 -41259004.963755608 28145728.517608583 0 0 0 0 -95388916.025590897 225275062.18938375 0 225275062.18938375 -45613515.166156292 0 0 0 0 6413231.6984799746 8846174.8468306363 0 8846174.8468306363 12054090.64968917 0 0 0 0 2980996.3944704458 1152691.067562772 0 1152691.067562772 4787707.0982080782 0 0 0 0 129642496.68076879 -483727614.10035825 0 -483727614.10035825 523223316.29459858 0 0 0 0 111063768.12922955 292105511.44102931 0 292105511.44102931 110930645.69492912 0 0 0 0 -182516095.0702734 47974848.508580565 0 47974848.508580565 130540424.71237326 0 0 0 0 -272418098.13455963 76306223.086779594 0 76306223.086779594 409888385.79948425 0 0 0 0 90634133.818995476 108115409.14987898 0 108115409.14987898 5849002.7835350037 0 0 0 0 510679.46000141464 -1150559.5693467259 0 -1150559.5693467259 4517125.9882667707 0 0 0 0 -38276799.695851326 -74765403.963606358 0 -74765403.963606358 264703681.61045718 0 0 0 0 51181414.390405178 -85819252.479133129 0 -85819252.479133129 33271953.895214081 0 0 0 0 -41563548.79872784 -17372727.439303279 0 -17372727.439303279 30433112.094796181 0 0 0 0 -6844139.7395062447 -18969454.873719215 0 -18969454.873719215 15444728.608325005 0 0 0 0 -84869442.903768539 42424285.093028069 0 42424285.093028069 11370416.105538368 0 0 0 0 2697807.282968998 11125470.329502106 0 11125470.329502106 42012534.336742401 0 0 0 0 4985451.7899637222 9721585.0329351425 0 9721585.0329351425 52983276.947015762 0 0 0 0 5599127.8424286842 16391291.85372299 0 16391291.85372299 50191057.711782455 0 0 0 0 56513808.529314041 79210146.518058449 0 79210146.518058449 43085462.085858583 0 0 0 0 312322068.89060402 172739813.30285406 0 172739813.30285406 -275529314.83958101 0 0 0 0 -10955836.600899696 -22627153.834375978 0 -22627153.834375978 97032990.851432085 0 0 0 0 12718654.510558378 -2088400.3513303883 0 -2088400.3513303883 -739306.81266376469 0 0 0 0 35414845.326824188 10760480.642015219 0 10760480.642015219 30491549.694352567 0 0 0 0 -5727844.5486403666 5415736.2795396857 0 5415736.2795396857 13983714.59588591 0 0 0 0 -142012714.99036789 375615777.40837908 0 375615777.40837908 -182355542.95233536 0 0 0 0 -4442949.8827829482 -6835452.4586791694 0 -6835452.4586791694 25013837.210270673 0 0 0 0 12870840.541469574 17859523.686580658 0 17859523.686580658 57327728.501876354 0 0 0 0 15761901.176528931 3926276.527885437 0 3926276.527885437 44521820.901641846 0 0 0 0 -2512311.9317462221 3079449.3851777851 0 3079449.3851777851 7639829.7747361679 0 0 0 0 127289986.78842735 115687412.20239577 0 115687412.20239577 24107670.551453114 0 0 0 0 -813472.80572664179 -2918511.2524441499 0 -2918511.2524441499 28538276.296681784 0 0 0 0 -246677097.94074821 -204123373.76569724 0 -204123373.76569724 -37299401.341999888 0 0 0 0 20474441.481911182 7700625.8333563805 0 7700625.8333563805 47137325.832462311 0 0 0 0 14331971.037528992 5779313.0563602448 0 5779313.0563602448 53546972.688869476 0 0 0 0 13661660.363130212 12769520.926107407 0 12769520.926107407 50507040.617559433 0 0 0 0 11445367.771264248 13509045.610366508 0 13509045.610366508 43405941.839154482 0 0 0 0 11236136.887876868 11983652.655727023 0 11983652.655727023 33193346.373072423 0 0 0 0 355143028.00209492 914061991.78638458 0 914061991.78638458 1684193494.3162661 0 0 0 0 12735728.506902695 10991666.998357534 0 10991666.998357534 33166217.541328389 0 0 0 0 5242063.6684508137 -710042.62666753132 0 -710042.62666753132 6424209.6714787623 0 0 0 0 11565691.119257927 10149952.653749816 0 10149952.653749816 35566647.547698461 0 0 0 0 935193359.44166732 1053520960.8647201 0 1053520960.8647201 1207761673.2496829 0 0 0 0 11718021.682832342 8188206.699706696 0 8188206.699706696 3371481.8393195411 0 0 0 0 12288007.531824112 7992198.587947011 0 7992198.587947011 32906654.106898174 0 0 0 0 12689641.199919701 11592061.063040495 0 11592061.063040495 31359329.67805171 0 0 0 0 12817787.653664589 11695761.040118217 0 11695761.040118217 28115172.780608222 0 0 0 0 515089130.59190905 1229078934.0902686 0 1229078934.0902686 2689853682.9170828 0 0 0 0 614057.45881506801 -484929.88949113293 0 -484929.88949113293 2532553.3176176948 0 0 0 0 623257131.25273371 894003625.03829026 0 894003625.03829026 1977251011.9304488 0 0 0 0 156699110.61148649 723256901.01736689 0 723256901.01736689 2037511251.2389333 0 0 0 0 262039186.96784461 870979792.39128208 0 870979792.39128208 2204765595.1924577 0 0 0 0 361532190.33567178 870756335.98232555 0 870756335.98232555 1977662774.1125932 0 0 0 0 146831222.9586091 646194654.75987184 0 646194654.75987184 1787053016.8721929 0 0 0 0 -60305573.958208404 382120664.67553568 0 382120664.67553568 1887810869.2669148 0 0 0 0 -30251033.40372717 587003938.71431088 0 587003938.71431088 2204631802.0371461 0 0 0 0 250342969.38609636 500657575.74220037 0 500657575.74220037 1363050082.3269758 0 0 0 0 359025588.34418654 676568587.29961061 0 676568587.29961061 1402938937.8413706 0 0 0 0 364892844.96516126 754943649.09329772 0 754943649.09329772 1533125412.3160539 0 0 0 0 378480738.59794199 750773375.16787815 0 750773375.16787815 1505266610.4189191 0 0 0 0 350984147.83240175 691651659.22333145 0 691651659.22333145 1381046955.079937 0 0 0 0 1588482.5779309683 -2764337.5493648294 0 -2764337.5493648294 7816234.1071303636 0 0 0 0 264513334.46502304 594921919.8438009 0 594921919.8438009 1726480536.2520719 0 0 0 0 -529875055.51204091 -340813854.08352184 0 -340813854.08352184 1199150278.421525 0 0 0 0 -163983303.73975092 117783424.48468363 0 117783424.48468363 1418168332.6032562 0 0 0 0 -406416062.99034774 115251458.42704344 0 115251458.42704344 2204257283.5869865 0 0 0 0 60939415.860188663 360246039.10148811 0 360246039.10148811 1485425454.4431388 0 0 0 0 -314882597.62188214 224546308.18249738 0 224546308.18249738 1339449481.7129078 0 0 0 0 -423011461.07680786 -343777026.92363024 0 -343777026.92363024 -11166349.643103838 0 0 0 0 -140146237.79376268 1235137102.5867391 0 1235137102.5867391 -44486942.399595261 0 0 0 0 -119831406.39561331 11067496.667986155 0 11067496.667986155 811716772.17102242 0 0 0 0 279314658.31679392 875983221.81023121 0 875983221.81023121 353452145.06942606 0 0 0 0 263604467.01441184 843453886.87518942 0 843453886.87518942 1403415461.5068769 0 0 0 0 647579.12980075553 592509.05042900518 0 592509.05042900518 747869.57631174475 0 0 0 0 -412273199.8091929 707738119.72924423 0 707738119.72924423 672455513.54590225 0 0 0 0 16620530.037677407 406093795.62870455 0 406093795.62870455 7646938.338300705 0 0 0 0 -39001648.686523438 436404354.20387936 0 436404354.20387936 787256868.40879822 0 0 0 0 507616203.59887671 -143143273.96763802 0 -143143273.96763802 481768616.95983791 0 0 0 0 210401295.43206024 -615181261.63510323 0 -615181261.63510323 1456700531.4980574 0 0 0 0 106250518.91186714 198599397.52609062 0 198599397.52609062 1452599315.4660144 0 0 0 0 -26786.623865766916 3349492.4694404304 0 3349492.4694404304 6680328.4263105169 0 0 0 0 -2375116.260591507 16855514.269152164 0 16855514.269152164 63413827.161026955 0 0 0 0 9489704.7418914717 7286122.7689334955 0 7286122.7689334955 -2190755.2882037885 0 0 0 0 21551723.323882103 24056533.088409424 0 24056533.088409424 52995196.575619936 0 0 0 0 374552872.67411375 675225875.25340748 0 675225875.25340748 1360001905.1089888 0 0 0 0 4537061.5519900015 2920331.0352042038 0 2920331.0352042038 2643378.7572441902 0 0 0 0 377406032.62706465 667556578.00621557 0 667556578.00621557 1378024575.3425617 0 0 0 0 354412945.04945844 459872579.78845167 0 459872579.78845167 996750256.50233269 0 0 0 0 10292370.513558626 43043528.211475849 0 43043528.211475849 29687690.02973175 0 0 0 0 28672619.123085737 60881637.225513458 0 60881637.225513458 36716266.58232975 0 0 0 0 31660603.512663364 68616124.43478775 0 68616124.43478775 -213044912.35922623 0 0 0 0 -133662798.68966985 97067908.591781616 0 97067908.591781616 311368394.40784931 0 0 0 0 -109450047.99825621 67293733.694177628 0 67293733.694177628 115239269.73579788 0 0 0 0 -33953788.192130566 -3208041.1818304062 0 -3208041.1818304062 38038143.292502403 0 0 0 0 -58821910.181866169 52596409.860398293 0 52596409.860398293 64482459.633057833 0 0 0 0 5931186.3053708076 61773563.352864265 0 61773563.352864265 62133838.535997391 0 0 0 0 -36697576.956809998 29115867.932060242 0 29115867.932060242 53161517.121033698 0 0 0 0 -15167996.959898949 -2654801.0799970627 0 -2654801.0799970627 34462501.704231262 0 0 0 0 -861343.47355794907 -62104880.845119476 0 -62104880.845119476 22235453.090196609 0 0 0 0 -50154615.455818653 -27367723.24782753 0 -27367723.24782753 36604643.305374146 0 0 0 0 9582348.562710762 14750093.821819305 0 14750093.821819305 36245648.146202087 0 0 0 0 16951686.891472816 12466646.684206009 0 12466646.684206009 -8500502.1111869812 0 0 0 0 10322724.98590374 -10090906.48626709 0 -10090906.48626709 13473975.46330452 0 0 0 0 655020.29258096032 -584795.08761203242 0 -584795.08761203242 4945210.6034598127 0 0 0 0 837931.12503313646 -5914549.6936356714 0 -5914549.6936356714 14989606.079808418 0 0 0 0 35345870.889160156 23785201.968952179 0 23785201.968952179 -1695294.0389461517 0 0 0 0 39275395.98746109 34823281.460996628 0 34823281.460996628 38334108.045164108 0 0 0 0 28659377.002469301 -427588.67154216766 0 -427588.67154216766 -22136586.029882431 0 0 0 0 -797771.65748502128 220864.00695537124 0 220864.00695537124 -1214805.4108354971 0 0 0 0 -266145236.2804887 -240983698.37601757 0 -240983698.37601757 95248918.808439255 0 0 0 0 3732447.2365045547 -46921692.202186584 0 -46921692.202186584 2653167.4408726692 0 0 0 0 -432641.34922380466 -6271686.734457761 0 -6271686.734457761 10315911.098044563 0 0 0 0 -93935851.546799302 -231157757.14586401 0 -231157757.14586401 -21497857.608448029 0 0 0 0 -223212553.00679517 -7882905.4322071075 0 -7882905.4322071075 118120985.39022064 0 0 0 0 -59721779.434283733 6717705.3446140289 0 6717705.3446140289 -33548428.905845284 0 0 0 0 -91164793.649900436 -30662627.521027565 0 -30662627.521027565 241597818.53833771 0 0 0 0 73213726.624302179 128740212.897609 0 128740212.897609 346237851.05487251 0 0 0 0 35980267.882992834 -83795291.224737167 0 -83795291.224737167 360287591.42818892 0 0 0 0 36463199.157078743 17780432.313501358 0 17780432.313501358 188300824.91912651 0 0 0 0 314981281.7900815 -69425140.78373909 0 -69425140.78373909 124956730.17897034 0 0 0 0 45373293.503702506 -36544972.405332565 0 -36544972.405332565 115299154.12483788 0 0 0 0 -131819725.76930973 -119571914.15969396 0 -119571914.15969396 207457195.30088043 0 0 0 0 182503823.05491471 85210041.399251938 0 85210041.399251938 546846811.59643769 0 0 0 0 592572899.2766335 465983365.67181385 0 465983365.67181385 521302685.76749802 0 0 0 0 248402487.68064201 167073379.71383286 0 167073379.71383286 340466227.99153519 0 0 0 0 212908067.27178431 244784905.64321399 0 244784905.64321399 463741228.43311691 0 0 0 0 268822569.22685659 15489923.260219574 0 15489923.260219574 286945032.77530479 0 0 0 0 194207791.9020133 1643276.3926992416 0 1643276.3926992416 -77442239.554840088 0 0 0 0 336280986.29675663 82665361.293283463 0 82665361.293283463 82908336.105640411 0 0 0 0 139825170.2054348 56793678.243503571 0 56793678.243503571 92810082.518911362 0 0 0 0 -8814430.2843822464 -163201150.6465044 0 -163201150.6465044 57341310.781890869 0 0 0 0 -20263233.265487257 -10050001.995582581 0 -10050001.995582581 163469101.16023827 0 0 0 0 -21604063.312172115 -45817670.162631989 0 -45817670.162631989 -59786952.649148941 0 0 0 0 181920054.14714354 -40543832.331855774 0 -40543832.331855774 -91795402.990261078 0 0 0 0 -50863287.667136803 -7897603.2795572281 0 -7897603.2795572281 -102395666.88855743 0 0 0 0 -156002774.48088971 -214875260.5138588 0 -214875260.5138588 -313947729.09331512 0 0 0 0 -230929851.73997918 -15763723.260814905 0 -15763723.260814905 -6372227.1957778931 0 0 0 0 -1705321.3153544357 -325053.645016931 0 -325053.645016931 1656648.7529355548 0 0 0 0 -1441012.6739880892 -1199430.8834236749 0 -1199430.8834236749 4724848.4168816507 0 0 0 0 -11373375.719482303 -98499282.496048927 0 -98499282.496048927 80718577.652687073 0 0 0 0 -124112520.28555782 -31425961.83413887 0 -31425961.83413887 -1479427.5883960724 0 0 0 0 30507757.812073767 -56608853.025094986 0 -56608853.025094986 -164749409.01365852 0 0 0 0 56449623.925447583 -98052515.366716385 0 -98052515.366716385 -111111043.32105637 0 0 0 0 -84177541.246014595 -110994959.64699364 0 -110994959.64699364 -80870304.579090118 0 0 0 0 125904853.22317997 20735275.296595335 0 20735275.296595335 -71791510.934503555 0 0 0 0 42760606.380140305 -29866300.203131676 0 -29866300.203131676 -83900636.160993099 0 0 0 0 96458001.856460929 27398289.259132385 0 27398289.259132385 -60658773.677152634 0 0 0 0 9233047.8836161494 9194741.2873444557 0 9194741.2873444557 -25913955.324188232 0 0 0 0 5825105.4344428778 20270124.910673141 0 20270124.910673141 -60988609.966210604 0 0 0 0 -55521184.33465451 23325092.812952995 0 23325092.812952995 -5050640.0983963013 0 0 0 0 -2522335.7593448446 5475214.2679815721 0 5475214.2679815721 -1129480.130514428 0 0 0 0 -9387521.8195187449 -14826900.697892189 0 -14826900.697892189 -37455891.534406185 0 0 0 0 21052486.885490179 83237940.047523499 0 83237940.047523499 -17394676.551734924 0 0 0 0 -52359825.518339396 49728243.582180023 0 49728243.582180023 16049667.128417969 0 0 0 0 18300102.385834172 -24911354.406656265 0 -24911354.406656265 -34081602.697166443 0 0 0 0 -32505890.70065546 24343150.87355423 0 24343150.87355423 -25478654.012403488 0 0 0 0 2882724.3386061192 46455413.145817757 0 46455413.145817757 -16467482.495811462 0 0 0 0 -2893905.3111793995 35161202.855703354 0 35161202.855703354 -21581654.361297607 0 0 0 0 53095658.979681969 15769449.216653824 0 15769449.216653824 -24590697.686038971 0 0 0 0 50869259.116299629 -9357742.3084793091 0 -9357742.3084793091 -46181945.613848329 0 0 0 0 -477957.67909860611 29073632.66557312 0 29073632.66557312 -27638595.020610809 0 0 0 0 58916943.564508438 12924419.509735107 0 12924419.509735107 -27037458.93775177 0 0 0 0 103965489.00059581 -26682791.601663589 0 -26682791.601663589 5812564.8606185913 0 0 0 0 98744402.384299517 35601360.09106636 0 35601360.09106636 -30432482.592216492 0 0 0 0 41625626.897190809 -28786640.132297516 0 -28786640.132297516 81411239.403461456 0 0 0 0 53694958.196919441 -22319404.581920624 0 -22319404.581920624 5610941.7566986084 0 0 0 0 24005508.388094902 6597900.5269832611 0 6597900.5269832611 24005516.541641235 0 0 0 0 53461521.524677277 12707958.919963837 0 12707958.919963837 -47220230.133874893 0 0 0 0 47598383.604781151 53282761.279367447 0 53282761.279367447 6533890.9491691589 0 0 0 0 -5952757.1830768585 38278112.80052948 0 38278112.80052948 121565114.0728302 0 0 0 0 29633912.859243393 -14606428.476032257 0 -14606428.476032257 79743997.876207352 0 0 0 0 -3413259.5822017193 58888439.343165398 0 58888439.343165398 46143342.059318542 0 0 0 0 24730522.603181839 49631800.46944046 0 49631800.46944046 -19063943.819280624 0 0 0 0 6037143.3958396912 7285215.5114002228 0 7285215.5114002228 74363056.345197678 0 0 0 0 23894327.995690823 8083905.9435067177 0 8083905.9435067177 43905591.647155762 0 0 0 0 7144725.5620098114 17274943.55245018 0 17274943.55245018 66245480.441560745 0 0 0 0 3635471.7595176697 21670459.297454834 0 21670459.297454834 62506658.774023056 0 0 0 0 18305583.352937698 11252919.514371872 0 11252919.514371872 62319414.247028828 0 0 0 0 15067314.745592117 16960760.510998726 0 16960760.510998726 62663186.649703979 0 0 0 0 62939583.792295456 63807.311037063599 0 63807.311037063599 48462532.948188782 0 0 0 0 23788012.560762405 10836528.543758392 0 10836528.543758392 62329870.317222595 0 0 0 0 31434279.139820576 16234536.119416714 0 16234536.119416714 30643606.605247498 0 0 0 0 37943559.168534279 26916566.450702667 0 26916566.450702667 31661620.724704742 0 0 0 0 9444140.1351051331 35474448.652406693 0 35474448.652406693 39555700.972063065 0 0 0 0 -2289835.8793365657 275482.12020633742 0 275482.12020633742 3576439.728427954 0 0 0 0 20173051.140216589 39122865.283465385 0 39122865.283465385 -20381199.218251228 0 0 0 0 10815579.56273365 24722130.287464142 0 24722130.287464142 71103890.51115036 0 0 0 0 9548643.3438577652 9825364.3247184753 0 9825364.3247184753 87344771.775547981 0 0 0 0 36957669.05806303 13428917.968868256 0 13428917.968868256 41000922.041893005 0 0 0 0 7612793.7472395897 -73382556.037017822 0 -73382556.037017822 64863244.287212372 0 0 0 0 -691764.82937020808 -826174.62319514155 0 -826174.62319514155 1975476.8411148973 0 0 0 0 7215958.0121326447 13674798.491699219 0 13674798.491699219 3669970.4016313553 0 0 0 0 -35519913.596514106 -23319844.324251175 0 -23319844.324251175 -2154387.6135482788 0 0 0 0 2277171.8710788088 3435700.1645584777 0 3435700.1645584777 6163603.1396947503 0 0 0 0 -56772900.506904602 8322825.3280649185 0 8322825.3280649185 75738380.694339752 0 0 0 0 -77038465.896977544 143583090.21842957 0 143583090.21842957 -33652247.830212116 0 0 0 0 -2815921.8758992534 -115331.50067081302 0 -115331.50067081302 14436927.040852748 0 0 0 0 2704627.9979682486 16574477.370432623 0 16574477.370432623 54538735.341506884 0 0 0 0 14454458.935487628 39288785.48191309 0 39288785.48191309 -20089538.154499054 0 0 0 0 -19547924.192211747 58495639.080416203 0 58495639.080416203 -30798460.028423309 0 0 0 0 67434928.732740998 51201387.807788849 0 51201387.807788849 -41316929.083780289 0 0 0 0 53995026.510155082 83497393.697655201 0 83497393.697655201 -59903241.663515091 0 0 0 0 57155282.710359931 123115968.44100857 0 123115968.44100857 -63899448.726373672 0 0 0 0 -111575247.66995692 34280248.191568375 0 34280248.191568375 131104645.31523037 0 0 0 0 97562994.682214379 41227540.991029739 0 41227540.991029739 167301719.54191971 0 0 0 0 152935554.68404967 155983161.95351958 0 155983161.95351958 81358084.710128784 0 0 0 0 -30880228.386190057 -79863073.703276634 0 -79863073.703276634 391558006.39987254 0 0 0 0 19370436.479062587 197411956.43125057 0 197411956.43125057 326763289.83985329 0 0 0 0 168249191.81992114 39264965.837376595 0 39264965.837376595 480835831.5814991 0 0 0 0 -115403320.92050183 -181338917.07573318 0 -181338917.07573318 186372020.42577577 0 0 0 0 -238619926.50180316 37183114.023118019 0 37183114.023118019 187401967.10505295 0 0 0 0 3250696.8443034003 15305891.92418531 0 15305891.92418531 57393157.736012146 0 0 0 0 -207968422.12898558 232209976.73275042 0 232209976.73275042 81592104.915294647 0 0 0 0 91332204.253417641 -210647299.74486065 0 -210647299.74486065 263721758.66400528 0 0 0 0 981922.41886722436 1189144.9659612067 0 1189144.9659612067 1872866.4604421109 0 0 0 0 1190784.2560899258 69112962.724637985 0 69112962.724637985 363927806.00424957 0 0 0 0 -4629179.9816401005 -30269167.932050705 0 -30269167.932050705 37465170.943729401 0 0 0 0 24201916.619242668 180823167.84512711 0 180823167.84512711 6435197.4657931328 0 0 0 0 46070747.918196499 34723015.623547792 0 34723015.623547792 63665006.883705139 0 0 0 0 -15161146.088175178 24669815.436145782 0 24669815.436145782 -38177163.883956909 0 0 0 0 -156550457.33618975 161450050.78625298 0 161450050.78625298 57118818.059585571 0 0 0 0 -4258972.9062645417 2453436.9281256869 0 2453436.9281256869 9114893.5986850411 0 0 0 0 -178337932.3201752 -114666221.49305344 0 -114666221.49305344 374790777.55150223 0 0 0 0 -66317881.606015086 37152132.738573074 0 37152132.738573074 44613109.48336792 0 0 0 0 2387300.883619885 15291485.083414143 0 15291485.083414143 52090160.565327927 0 0 0 0 -160449112.50254112 -220840978.95526314 0 -220840978.95526314 480513486.81559372 0 0 0 0 -150085226.92512622 -250390584.92122412 0 -250390584.92122412 526121902.37672424 0 0 0 0 -7918239.5233186483 -148112608.29203033 0 -148112608.29203033 234933275.99039841 0 0 0 0 299622534.54426903 -518535860.56077576 0 -518535860.56077576 303323526.60014629 0 0 0 0 2908024.8122278191 -264530361.8368187 0 -264530361.8368187 654863755.19055939 0 0 0 0 -35088981.525663674 -350402106.45802689 0 -350402106.45802689 545140751.35536194 0 0 0 0 222528142.76026836 -324437023.73461914 0 -324437023.73461914 581104607.24808693 0 0 0 0 -149095024.33223626 -256801028.80572009 0 -256801028.80572009 556091666.95500183 0 0 0 0 -127380723.89878714 -297102659.89885521 0 -297102659.89885521 532524502.67646027 0 0 0 0 -88368630.601116419 -274750187.27939224 0 -274750187.27939224 437867640.81731415 0 0 0 0 -144399991.1426205 -280052807.58559608 0 -280052807.58559608 643278059.42632866 0 0 0 0 23795386.883352339 -314774267.5272522 0 -314774267.5272522 564506942.5099678 0 0 0 0 63188973.829657719 -248409360.0601902 0 -248409360.0601902 656045426.17073059 0 0 0 0 6383232.9015799761 21388179.702853281 0 21388179.702853281 22498133.98356577 0 0 0 0 242435049.03254098 -342074990.9722085 0 -342074990.9722085 659692430.50609589 0 0 0 0 201819634.677697 -265407490.06421471 0 -265407490.06421471 617471188.26994705 0 0 0 0 180358505.09364775 -305546475.85152817 0 -305546475.85152817 751452289.29600525 0 0 0 0 103920757.50361338 -245724400.53926229 0 -245724400.53926229 801419417.06778336 0 0 0 0 263827032.19474542 -299558221.33875942 0 -299558221.33875942 744181776.62625694 0 0 0 0 304824123.26416415 -572267159.15283203 0 -572267159.15283203 763532316.64826965 0 0 0 0 634691242.35021114 -774430805.0583725 0 -774430805.0583725 855419116.75851297 0 0 0 0 6159700.3302975977 7715610.5541756693 0 7715610.5541756693 -6316255.0188205689 0 0 0 0 207213807.31143573 -279236988.50383663 0 -279236988.50383663 886889329.61867523 0 0 0 0 271502547.98833656 -410185391.96079636 0 -410185391.96079636 646682521.32350349 0 0 0 0 -26490690.968711734 -18568080.291077614 0 -18568080.291077614 986008026.57469177 0 0 0 0 -131005529.89027607 -100403806.45925999 0 -100403806.45925999 396454034.67446899 0 0 0 0 -132649619.61186475 -89929904.315252304 0 -89929904.315252304 616701916.21253014 0 0 0 0 -142785672.92295229 -298659861.50736904 0 -298659861.50736904 608220813.87716031 0 0 0 0 -142381651.52757645 -275271196.86294556 0 -275271196.86294556 501937394.28479195 0 0 0 0 -147313292.80252391 -276244330.37856293 0 -276244330.37856293 528675733.52109909 0 0 0 0 -143902397.55297917 -263545505.57386303 0 -263545505.57386303 515115675.29621124 0 0 0 0 -194420328.45777923 -142179374.69818878 0 -142179374.69818878 457870084.49872708 0 0 0 0 74489958.562509537 -196241505.58128977 0 -196241505.58128977 460922176.78195763 0 0 0 0 -454574471.10678536 147927546.45632806 0 147927546.45632806 917049707.65197277 0 0 0 0 -1679743.0809490553 6450129.626149077 0 6450129.626149077 14928640.940675754 0 0 0 0 -205234275.85858887 -309199731.00723648 0 -309199731.00723648 486816672.84049225 0 0 0 0 294968340.13631326 -758565156.0761795 0 -758565156.0761795 1048953785.909781 0 0 0 0 -946021.84620315791 2721446.8814758975 0 2721446.8814758975 8268999.2151224464 0 0 0 0 144123223.16790596 -864511021.06598949 0 -864511021.06598949 2605121996.1958733 0 0 0 0 -561276842.2880528 -349884433.1542449 0 -349884433.1542449 2204900730.0585508 0 0 0 0 -14818380.222548753 -50957777.400601864 0 -50957777.400601864 1421625903.2565784 0 0 0 0 3967978.9169939458 35140579.579841614 0 35140579.579841614 987532431.36454964 0 0 0 0 170518742.24152696 -320223966.82161188 0 -320223966.82161188 1145237239.2588253 0 0 0 0 150655982.72922647 -263643060.51490402 0 -263643060.51490402 752000108.2120018 0 0 0 0 48294471.52388531 -208315763.75641441 0 -208315763.75641441 729107797.6082077 0 0 0 0 173231950.49661133 -236194634.74768257 0 -236194634.74768257 733537040.34880829 0 0 0 0 -57900667.321137547 -87160921.106477737 0 -87160921.106477737 759134259.48495293 0 0 0 0 -35488036.838438064 -92215785.740255356 0 -92215785.740255356 22499886.088890076 0 0 0 0 53811297.912481964 -173200274.38393211 0 -173200274.38393211 553586171.53745222 0 0 0 0 21052971.26438731 1092713.6618118286 0 1092713.6618118286 542630769.83012009 0 0 0 0 -302628131.23814613 560138759.34137702 0 560138759.34137702 1335732878.7884445 0 0 0 0 -265916412.56239671 682029040.05203629 0 682029040.05203629 242400448.22175908 0 0 0 0 498179576.87766796 151366832.00194168 0 151366832.00194168 2205631959.2483244 0 0 0 0 -340634492.91683173 109481673.41022682 0 109481673.41022682 2217558739.8521576 0 0 0 0 -256636279.01065707 27541177.951549053 0 27541177.951549053 1398616790.0632877 0 0 0 0 -221050329.47046813 -334777267.75558186 0 -334777267.75558186 2205014735.7392292 0 0 0 0 232592276.23027349 -385507800.90490723 0 -385507800.90490723 809586783.05640221 0 0 0 0 153964408.65201449 -256300938.29780388 0 -256300938.29780388 995773996.37955189 0 0 0 0 1151040.3817237478 17008305.134589963 0 17008305.134589963 19802738.393004082 0 0 0 0 210941217.95766544 -585037083.11055756 0 -585037083.11055756 1213622127.6760082 0 0 0 0 435788078.27158672 -1056882947.0617466 0 -1056882947.0617466 2201160019.6477494 0 0 0 0 2048272.6658092136 6145125.5141804889 0 6145125.5141804889 11706330.776575997 0 0 0 0 196938195.55348659 82765825.562839508 0 82765825.562839508 17377571.375782013 0 0 0 0 10060377.619537788 11460022.302929074 0 11460022.302929074 7559672.0593905225 0 0 0 0 -363416584.03215665 368773425.76104736 0 368773425.76104736 2201416821.3085747 0 0 0 0 160950821.21994007 190308370.54244804 0 190308370.54244804 838440609.78837585 0 0 0 0 -6609133.9647690877 1091878232.8264694 0 1091878232.8264694 1044588436.7815018 0 0 0 0 759873.13345309871 6894468.8168667592 0 6894468.8168667592 949480.4580116421 0 0 0 0 -124270304.05362985 -120946197.50579071 0 -120946197.50579071 568269326.5317955 0 0 0 0 -163094006.67764986 1697692.5068454742 0 1697692.5068454742 100204142.72424316 0 0 0 0 -2691121.7530426783 7606429.7177966358 0 7606429.7177966358 12279230.890362933 0 0 0 0 16770106.743764699 -8932450.8812065125 0 -8932450.8812065125 22085544.634906769 0 0 0 0 -3529432.8236331469 1930052.1199161485 0 1930052.1199161485 7662584.2488117293 0 0 0 0 -4228156.0561884344 8270223.5547046661 0 8270223.5547046661 10012180.531259537 0 0 0 0 -6491087.9870219827 6366652.7847509384 0 6366652.7847509384 11967562.113136292 0 0 0 0 -4170130.9649327397 7232547.3742074966 0 7232547.3742074966 12775274.23393631 0 0 0 0 -4118449.2158057201 4742410.1873174952 0 4742410.1873174952 14471436.957173929 0 0 0 0 -10696268.79959783 1137225.7451953888 0 1137225.7451953888 12727596.437838554 0 0 0 0 -5414709.8376456499 -5794280.9554519653 0 -5794280.9554519653 21064226.104431152 0 0 0 0 3691548.2089774609 -17842981.808517456 0 -17842981.808517456 14260225.740891933 0 0 0 0 -4226860.1717323959 -6207212.5631976128 0 -6207212.5631976128 -1320099.070514679 0 0 0 0 713103.66691759042 172899.48348851502 0 172899.48348851502 115406.77369520068 0 0 0 0 94829067.023663282 101678202.8122406 0 101678202.8122406 -4334553.896270752 0 0 0 0 1882280.5459297895 12998694.433041573 0 12998694.433041573 25951194.847801208 0 0 0 0 138188274.58331966 -28939924.444999695 0 -28939924.444999695 -25366678.726539612 0 0 0 0 39903748.950834751 87200472.754190445 0 87200472.754190445 -78398965.047330856 0 0 0 0 -31861679.565444291 18377405.723085403 0 18377405.723085403 20075216.782173157 0 0 0 0 -1458067.5026800632 5448361.2580208778 0 5448361.2580208778 2721426.9089736938 0 0 0 0 29687855.442813039 18196815.233510971 0 18196815.233510971 -52537089.053808212 0 0 0 0 1595522.3729850175 3502030.3230478615 0 3502030.3230478615 -2826110.8527851403 0 0 0 0 -171217425.56818104 -98437251.450454712 0 -98437251.450454712 1528173223.8618507 0 0 0 0 52911454.570623875 -141634096.02275085 0 -141634096.02275085 770882907.43862152 0 0 0 0 -30360527.387955725 251907171.77976227 0 251907171.77976227 1220902021.9012222 0 0 0 0 -1521510.5198696728 229916.72634798288 0 229916.72634798288 2986290.7079930129 0 0 0 0 -271409065.02366412 603791581.99361992 0 603791581.99361992 1698503659.1185989 0 0 0 0 -331812952.69234514 280057553.31971931 0 280057553.31971931 1872768170.3791046 0 0 0 0 -464912174.32676387 816940853.81609154 0 816940853.81609154 2200956482.0445824 0 0 0 0 -56451102.904455066 459612103.09402657 0 459612103.09402657 830336499.818367 0 0 0 0 -20531838.153288811 564930195.01775742 0 564930195.01775742 1136884362.8183861 0 0 0 0 -69559910.194267765 86238212.515464306 0 86238212.515464306 932515085.63426971 0 0 0 0 22594120.925422847 283160084.05394745 0 283160084.05394745 737078170.80140305 0 0 0 0 64118249.295563877 66884258.594116211 0 66884258.594116211 323744403.16987228 0 0 0 0 116927171.4037416 -45752575.637084961 0 -45752575.637084961 67309348.821643829 0 0 0 0 336096220.91271424 451705312.18094635 0 451705312.18094635 590829118.90900993 0 0 0 0 575842068.24851573 1351213031.4415894 0 1351213031.4415894 1251215341.6490784 0 0 0 0 696525828.21276271 676048527.78545642 0 676048527.78545642 -305338936.05363083 0 0 0 0 4710577.9042535648 3633896.0038472116 0 3633896.0038472116 4213236.6530791894 0 0 0 0 12808026.204793759 -623528525.42124557 0 -623528525.42124557 2204733626.1497107 0 0 0 0 -22489622.460157044 -422035047.24326324 0 -422035047.24326324 1058595667.9176941 0 0 0 0 -173121871.78275013 130493890.26699448 0 130493890.26699448 -62024313.371841431 0 0 0 0 -181922318.86136699 73804185.040121078 0 73804185.040121078 200680123.13534546 0 0 0 0 -22670490.648331642 -132328886.71753311 0 -132328886.71753311 178831889.54073787 0 0 0 0 -138056014.90229023 1031182.0954055786 0 1031182.0954055786 29789420.613197327 0 0 0 0 -66554910.08377862 -54808732.966981888 0 -54808732.966981888 -34918625.139549255 0 0 0 0 -14669704.388253093 -100826949.43321991 0 -100826949.43321991 5895674.9761767387 0 0 0 0 -1626638.4262505884 -1644070.8438491225 0 -1644070.8438491225 -1294663.1594696492 0 0 0 0 82349064.151158571 -66108236.719982147 0 -66108236.719982147 -386034657.40404892 0 0 0 0 -22658611.959809422 -61029001.944364548 0 -61029001.944364548 -74712941.423454285 0 0 0 0 242252.67268488836 -33274771.015191317 0 -33274771.015191317 154796227.24511719 0 0 0 0 -8177574.2303140163 -175197037.1744194 0 -175197037.1744194 72929447.520385742 0 0 0 0 75160186.580264986 -12633605.877006531 0 -12633605.877006531 146504985.30064392 0 0 0 0 -5155294.3038769513 15770475.75028801 0 15770475.75028801 376863199.48472595 0 0 0 0 107701067.49055266 -105323818.2834549 0 -105323818.2834549 371461432.16685104 0 0 0 0 29615503.857907474 151145127.354357 0 151145127.354357 132396714.56793213 0 0 0 0 71357323.68663758 -81516745.644966125 0 -81516745.644966125 185391360.37962341 0 0 0 0 -6252224.4535077102 -191813786.34643555 0 -191813786.34643555 -29486229.598888397 0 0 0 0 56171.953627079725 -114793354.31819153 0 -114793354.31819153 -60356880.332042217 0 0 0 0 341071.61468188604 -91720.412680193782 0 -91720.412680193782 -96443.219023168087 0 0 0 0 115011349.92357372 255663532.93733954 0 255663532.93733954 -112393067.56002426 0 0 0 0 103867183.41274154 52602663.060186386 0 52602663.060186386 -115333808.29698181 0 0 0 0 11970257.64113009 37320747.472873688 0 37320747.472873688 22314577.505210876 0 0 0 0 48917005.992653012 -234936352.14937401 0 -234936352.14937401 -19417195.961540222 0 0 0 0 35098852.24008584 -19231328.736885071 0 -19231328.736885071 116318989.82214355 0 0 0 0 202541480.63302267 -166693733.51981354 0 -166693733.51981354 139147472.94532776 0 0 0 0 -3013722.7527784705 22386491.526415825 0 22386491.526415825 691322335.28126526 0 0 0 0 8246329.2110240562 -31727035.749226928 0 -31727035.749226928 24059532.63230896 0 0 0 0 7204928.1823817641 -21715423.310922623 0 -21715423.310922623 71186762.397438049 0 0 0 0 72449129.408930898 -27151034.403700829 0 -27151034.403700829 -27698597.417675018 0 0 0 0 61376692.958576918 -80866917.611990929 0 -80866917.611990929 -47144702.896728516 0 0 0 0 -15080885.900209248 -52419801.435346603 0 -52419801.435346603 16925716.595031738 0 0 0 0 -82567581.725729585 -85667482.660509109 0 -85667482.660509109 4081743.928150177 0 0 0 0 10607001.061160073 -47874731.724786758 0 -47874731.724786758 14076334.769886971 0 0 0 0 -9400706.79338485 -20374752.532936096 0 -20374752.532936096 64162832.507537842 0 0 0 0 29579476.679414064 -13420473.245967865 0 -13420473.245967865 5658567.6359863281 0 0 0 0 -53171470.613300622 12521292.341825962 0 12521292.341825962 317274.1902923584 0 0 0 0 -9872601.2728212178 -9299795.0343799591 0 -9299795.0343799591 7655660.1156349182 0 0 0 0 -1120061.3313830495 5578983.3138999939 0 5578983.3138999939 1398581.7345428467 0 0 0 0 -7064399.9905929724 -3336913.4501852915 0 -3336913.4501852915 1878660.4309109673 0 0 0 0 -719226.14961059205 -578733.39153095894 0 -578733.39153095894 5852189.6833631843 0 0 0 0 -20986600.044659555 235131.19529533386 0 235131.19529533386 13438096.858009338 0 0 0 0 -740492.52938747406 15724356.936985016 0 15724356.936985016 18283461.05721283 0 0 0 0 62138068.247126073 -70390879.599916458 0 -70390879.599916458 40348486.057719231 0 0 0 0 132101.67152255808 -210006.40595961921 0 -210006.40595961921 2165465.6714889556 0 0 0 0 101878764.53121275 151027575.41581249 0 151027575.41581249 183569330.74804688 0 0 0 0 -5233017.0648822635 78649965.884277344 0 78649965.884277344 134328346.27694893 0 0 0 0 -709277.99383878708 103681133.97705841 0 103681133.97705841 267634063.06714869 0 0 0 0 3133485.2999189869 -39192061.63153553 0 -39192061.63153553 67602877.853790283 0 0 0 0 -1019796.2048264295 -58064521.978136063 0 -58064521.978136063 233228335.03269958 0 0 0 0 3970603.6664580423 -9616477.3173332214 0 -9616477.3173332214 63945935.553878784 0 0 0 0 -3505109.5196314976 14061502.060304642 0 14061502.060304642 197494165.67764664 0 0 0 0 -12717330.699987344 15396180.667024612 0 15396180.667024612 143900117.23783493 0 0 0 0 44039392.43142046 36385516.197002411 0 36385516.197002411 106272108.90083694 0 0 0 0 -1242273.8293625861 -1375169.7064628601 0 -1375169.7064628601 94941817.757994652 0 0 0 0 9685254.2958992049 6788495.9100532532 0 6788495.9100532532 48134990.347423553 0 0 0 0 37198092.817364648 85962742.463220596 0 85962742.463220596 -50475506.827159882 0 0 0 0 1462749.9848487088 205385.03033278883 0 205385.03033278883 -122536.29772892594 0 0 0 0 -32900790.369011879 35063675.344554901 0 35063675.344554901 362388969.98282433 0 0 0 0 8173939.4019520283 108657063.55580521 0 108657063.55580521 293207869.66010666 0 0 0 0 23752573.73416841 109602237.01152039 0 109602237.01152039 280594110.1702652 0 0 0 0 201837382.37941277 -34167491.932073355 0 -34167491.932073355 52501086.381500244 0 0 0 0 226252909.0115788 125632769.11457253 0 125632769.11457253 107556115.61148834 0 0 0 0 32997142.790694714 27909182.676303864 0 27909182.676303864 32738946.572433472 0 0 0 0 32862929.689301491 -7910564.4330558777 0 -7910564.4330558777 15481046.082636356 0 0 0 0 -20203280.735666826 -20076909.7358284 0 -20076909.7358284 37290381.670539856 0 0 0 0 -33111806.772195756 5804525.6073532104 0 5804525.6073532104 22757305.753950119 0 0 0 0 2262570.9738808814 1688395.9319943488 0 1688395.9319943488 2672845.5176377073 0 0 0 0 -18097040.901910529 18448120.452293396 0 18448120.452293396 3757384.7227401733 0 0 0 0 24304656.365708947 47051263.076566696 0 47051263.076566696 60574301.040878296 0 0 0 0 6320601.3155272454 22338397.324466228 0 22338397.324466228 79286073.230052948 0 0 0 0 -9052306.2857190371 67831582.951385498 0 67831582.951385498 197038246.28765488 0 0 0 0 -12620840.328332305 34977514.215553284 0 34977514.215553284 212157225.32464981 0 0 0 0 -31457911.283975393 -11137127.787754059 0 -11137127.787754059 102669751.67250061 0 0 0 0 -33589901.088078529 15794482.407600403 0 15794482.407600403 274631447.0740509 0 0 0 0 41952492.827598214 -23047761.863275528 0 -23047761.863275528 -28315321.91293335 0 0 0 0 11326426.370368838 25974696.117641449 0 25974696.117641449 84924711.077823639 0 0 0 0 20642165.666018188 20277653.294306755 0 20277653.294306755 88211306.934593201 0 0 0 0 57825012.472967863 149500176.95820236 0 149500176.95820236 220787468.51893997 0 0 0 0 11278702.901894569 58733898.374616623 0 58733898.374616623 88631042.887443542 0 0 0 0 9066838.9692091942 116701998.45522118 0 116701998.45522118 57938620.996330261 0 0 0 0 -13282115.447527885 -41905547.721008301 0 -41905547.721008301 12762221.026438713 0 0 0 0 113404934.64462638 58547669.286444664 0 58547669.286444664 50643192.078796387 0 0 0 0 -26432695.761967421 -20100444.062795639 0 -20100444.062795639 14746694.723167419 0 0 0 0 2242784.7619529907 -1218695.016032815 0 -1218695.016032815 -173746.86715033185 0 0 0 0 99286175.885451317 -118242239.03409576 0 -118242239.03409576 -23401180.33864212 0 0 0 0 400441.20459558722 -960915.50886210799 0 -960915.50886210799 1570727.5262463838 0 0 0 0 7020762.8487224579 55685615.871772766 0 55685615.871772766 115884616.88481808 0 0 0 0 14781353.669666767 -145583640.61227226 0 -145583640.61227226 -26291043.192779541 0 0 0 0 -14873037.034973621 23584439.256986618 0 23584439.256986618 131206711.77672005 0 0 0 0 -37688951.063208461 -8283245.7047367096 0 -8283245.7047367096 91880353.601886749 0 0 0 0 30591752.863658503 11037288.824723244 0 11037288.824723244 -24187650.084758759 0 0 0 0 3410630.69031817 -1096304.1549048871 0 -1096304.1549048871 148786.54037994985 0 0 0 0 8703500.5359005332 -1679769.4670619965 0 -1679769.4670619965 55129928.777198792 0 0 0 0 -13631516.165297985 -17567405.422691345 0 -17567405.422691345 64502055.241703868 0 0 0 0 1824749.2222354114 -4730783.8655412197 0 -4730783.8655412197 31484500.232940674 0 0 0 0 -4692686.1706389189 -14445057.346790314 0 -14445057.346790314 52485544.890258312 0 0 0 0 328846.3320652321 -610301.62792772055 0 -610301.62792772055 452997.55635160208 0 0 0 0 3573170.5415682495 1653003.6754794121 0 1653003.6754794121 17554048.030376434 0 0 0 0 1138997.358935833 11343658.874961853 0 11343658.874961853 -3975162.4642324448 0 0 0 0 28537329.128005981 26960576.916412354 0 26960576.916412354 -847580.46260070801 0 0 0 0 59651.73374204617 -431376.95304513723 0 -431376.95304513723 825778.12266165018 0 0 0 0 -79953808.684506178 -53343490.215162277 0 -53343490.215162277 239837634.87887573 0 0 0 0 -73879692.463180065 -91759399.592945099 0 -91759399.592945099 65303292.425735474 0 0 0 0 -81287115.359005451 -55291671.77504158 0 -55291671.77504158 -29760375.303606987 0 0 0 0 406691.05964914802 -1940255.0108792037 0 -1940255.0108792037 3641897.6534307301 0 0 0 0 125920142.23034739 95560855.315342903 0 95560855.315342903 16709804.29839325 0 0 0 0 43849072.270641327 105243369.45270538 0 105243369.45270538 279706457.26608276 0 0 0 0 100826431.69480991 -66565938.245265961 0 -66565938.245265961 -82308422.893915176 0 0 0 0 12625945.364528656 30540674.469657898 0 30540674.469657898 57034914.935836792 0 0 0 0 57131708.99415116 61506372.562724829 0 61506372.562724829 158569142.95348358 0 0 0 0 -8523085.167441681 -7117120.1507444382 0 -7117120.1507444382 100610165.35813522 0 0 0 0 38895646.804206505 -19388622.600132942 0 -19388622.600132942 157020458.32533264 0 0 0 0 76865569.878214374 25312010.009944916 0 25312010.009944916 106207481.23600006 0 0 0 0 34004568.588278368 86135957.278057098 0 86135957.278057098 111976315.79118347 0 0 0 0 1315424.2219577408 -198975.75984830409 0 -198975.75984830409 197281.8554952601 0 0 0 0 78257870.833603978 -21735844.524122238 0 -21735844.524122238 69817409.564083099 0 0 0 0 5191886.8433830738 -16242343.767393112 0 -16242343.767393112 129691817.51179504 0 0 0 0 11441071.601043999 5748638.4071216583 0 5748638.4071216583 80813169.194274902 0 0 0 0 3145150.1951371166 -643634.30693504214 0 -643634.30693504214 132263.66476401966 0 0 0 0 115728617.0200945 2093500.3871545792 0 2093500.3871545792 -23476849.413375854 0 0 0 0 -11717773.99143362 -6531419.5949268341 0 -6531419.5949268341 93917589.285993576 0 0 0 0 767375.82794637466 -196810.80710802227 0 -196810.80710802227 -306598.02203120291 0 0 0 0 8408070.7893039435 -129294.96470355988 0 -129294.96470355988 20708608.422100067 0 0 0 0 30244576.037364125 -17825082.73440361 0 -17825082.73440361 6932900.2379722595 0 0 0 0 -2074241.6856434345 -17725725.270282745 0 -17725725.270282745 35519097.204551697 0 0 0 0 11211055.514926016 -28839853.232235909 0 -28839853.232235909 41073345.119243622 0 0 0 0 -12332033.163822591 -25814823.922145844 0 -25814823.922145844 70930487.198548317 0 0 0 0 30999373.720895812 15280013.738121033 0 15280013.738121033 44836045.029903412 0 0 0 0 517592.20046550443 -222436.24430400878 0 -222436.24430400878 -124546.81467131525 0 0 0 0 28145033.016995687 -42465656.857225418 0 -42465656.857225418 50802646.660703659 0 0 0 0 57419065.21256876 -22813430.18110466 0 -22813430.18110466 9009697.7383499146 0 0 0 0 8173776.608428508 5395998.1033935547 0 5395998.1033935547 18516768.157702446 0 0 0 0 -4831698.9014788866 17275006.826524734 0 17275006.826524734 93689942.983436584 0 0 0 0 -1127455.998512432 9618250.9529037476 0 9618250.9529037476 30882602.095184326 0 0 0 0 7376373.7478702366 9329439.4168968201 0 9329439.4168968201 30889515.294570923 0 0 0 0 3133706.7023423314 -1546679.8225078583 0 -1546679.8225078583 40504012.157009125 0 0 0 0 20061697.033401728 -6973954.8213748932 0 -6973954.8213748932 31340806.577066422 0 0 0 0 244228.47314924048 -791334.70337059349 0 -791334.70337059349 314950.17503406107 0 0 0 0 20028796.177457571 -4614698.2124843597 0 -4614698.2124843597 46839662.570134163 0 0 0 0 26471424.587099314 66653097.943874359 0 66653097.943874359 87906898.32746315 0 0 0 0 7780703.4370516539 -12353038.769072533 0 -12353038.769072533 52072315.636356354 0 0 0 0 252885.12579351384 -495793.3007773459 0 -495793.3007773459 228183.72227509692 0 0 0 0 -134107.01945245266 -34864304.20435524 0 -34864304.20435524 127031847.105896 0 0 0 0 79696322.60203886 -66168159.714115143 0 -66168159.714115143 35543290.779324532 0 0 0 0 12816251.480793476 -110748147.24219894 0 -110748147.24219894 200271336.45536804 0 0 0 0 76731133.397468567 -23688564.205947876 0 -23688564.205947876 2008482.8036327362 0 0 0 0 96412942.113023281 97009538.756767273 0 97009538.756767273 175857163.65072632 0 0 0 0 82237665.539076805 85009936.086900711 0 85009936.086900711 143385947.6203289 0 0 0 0 26343991.10178256 58960594.956058502 0 58960594.956058502 170786866.85092926 0 0 0 0 52441764.356306583 75894806.908550739 0 75894806.908550739 142479985.47067642 0 0 0 0 18928290.69603157 71325771.592126846 0 71325771.592126846 153989939.11007118 0 0 0 0 63164800.246557131 48667022.978277683 0 48667022.978277683 137745011.90076447 0 0 0 0 -23929726.334113181 41562368.0629673 0 41562368.0629673 140493155.4716568 0 0 0 0 5956472.7936622798 22782537.83039856 0 22782537.83039856 113496225.57923889 0 0 0 0 48180598.207672298 42570426.268307686 0 42570426.268307686 100875302.52820587 0 0 0 0 13355786.304847538 57129069.441783905 0 57129069.441783905 224559184.04232407 0 0 0 0 17039955.738358736 23833042.689613342 0 23833042.689613342 138432796.25816154 0 0 0 0 2870368.3058205247 51716547.96408844 0 51716547.96408844 85808332.761306763 0 0 0 0 1319100.2358445004 -1896101.1834833622 0 -1896101.1834833622 81733649.857177734 0 0 0 0 -15137412.966464996 73450823.510070801 0 73450823.510070801 182077703.71572113 0 0 0 0 -10380220.87062788 71883581.021694183 0 71883581.021694183 172989939.18198776 0 0 0 0 -10119348.514288902 70304918.287296295 0 70304918.287296295 103354720.17616749 0 0 0 0 23625773.512529135 44515464.789640427 0 44515464.789640427 119850724.98204803 0 0 0 0 90310348.571704924 127057588.37174129 0 127057588.37174129 127358730.63922119 0 0 0 0 -30832094.692725658 138472170.92963409 0 138472170.92963409 200443612.29387474 0 0 0 0 -21762249.128633976 104743692.68412399 0 104743692.68412399 104178811.25555515 0 0 0 0 24582701.044855595 17341693.70104599 0 17341693.70104599 40448814.35918808 0 0 0 0 -7549114.9550771713 91438797.809432983 0 91438797.809432983 140768344.44705772 0 0 0 0 -95237368.713575363 82547044.603557587 0 82547044.603557587 140704671.46356964 0 0 0 0 250417.54634801066 -1608531.6760647744 0 -1608531.6760647744 3027986.746013552 0 0 0 0 -31773626.895273209 -7186324.7295455933 0 -7186324.7295455933 1577611.6406736374 0 0 0 0 16177099.03261137 42941308.096858025 0 42941308.096858025 92811057.242042542 0 0 0 0 23310078.131563663 46554168.76852417 0 46554168.76852417 90371168.041736603 0 0 0 0 -20321916.684378147 95185132.866130829 0 95185132.866130829 192418247.01325989 0 0 0 0 -20246999.811065197 14448534.121887207 0 14448534.121887207 12874986.618034363 0 0 0 0 20674415.0965662 -88263388.554481506 0 -88263388.554481506 41530676.120067596 0 0 0 0 41184103.750168324 24720915.567562103 0 24720915.567562103 -15771117.388938904 0 0 0 0 -78863.326909847558 -471102.89492216706 0 -471102.89492216706 1502864.5231131911 0 0 0 0 83523470.104119778 160275309.01289749 0 160275309.01289749 312097507.13404846 0 0 0 0 57136112.110796928 7585114.8948898315 0 7585114.8948898315 330843999.25446367 0 0 0 0 53748256.006779194 34678373.037376404 0 34678373.037376404 196773070.01216125 0 0 0 0 157278369.82955027 19536760.282707214 0 19536760.282707214 168660037.86133575 0 0 0 0 -3332774.8852782249 67469020.338142395 0 67469020.338142395 178033002.08665657 0 0 0 0 83061605.361275122 108709451.89935014 0 108709451.89935014 154080934.72744751 0 0 0 0 -4478061.948527813 71967976.258728027 0 71967976.258728027 277677909.41590118 0 0 0 0 5622669.8132333159 42566766.42011261 0 42566766.42011261 198637523.24992371 0 0 0 0 -135206.02463185787 21665142.777134895 0 21665142.777134895 163133865.11171341 0 0 0 0 69124307.861804008 29863705.094118118 0 29863705.094118118 149740590.1146965 0 0 0 0 49855048.917609692 56500313.888160706 0 56500313.888160706 171984190.54612875 0 0 0 0 -4613731.6912033558 36323127.184028625 0 36323127.184028625 150226312.2351284 0 0 0 0 -16017606.06487751 -10250829.578626633 0 -10250829.578626633 113939209.8167038 0 0 0 0 -13025688.386295795 27718279.575086594 0 27718279.575086594 161108396.34217834 0 0 0 0 -11215696.822496265 13479118.134872079 0 13479118.134872079 105742943.24911499 0 0 0 0 -15944459.332819223 19235653.877099991 0 19235653.877099991 124149713.67259598 0 0 0 0 -7931022.065882206 7618391.5161800385 0 7618391.5161800385 106169226.59874976 0 0 0 0 -3137322.6820135117 33829579.819156647 0 33829579.819156647 105723920.52595139 0 0 0 0 5445123.4845762253 32606232.166172028 0 32606232.166172028 83840122.499816895 0 0 0 0 -30829855.988573551 25579137.169552326 0 25579137.169552326 170763626.82155228 0 0 0 0 -26489996.416964531 11075826.502840042 0 11075826.502840042 112225449.67825317 0 0 0 0 -14693248.427684307 18714466.567686081 0 18714466.567686081 116134997.33296299 0 0 0 0 -8976381.5739524364 3267963.2833585739 0 3267963.2833585739 68225301.845947266 0 0 0 0 -20125934.88284111 4177473.270067215 0 4177473.270067215 115100209.34138298 0 0 0 0 -18243358.430758953 1456930.864276886 0 1456930.864276886 95854959.597011566 0 0 0 0 6657396.5187690426 3191102.6050299779 0 3191102.6050299779 1680848.6619292125 0 0 0 0 64955503.884539902 51930964.429710865 0 51930964.429710865 20910658.437789917 0 0 0 0 2246248.5943357199 990428.11239586025 0 990428.11239586025 734961.16430515051 0 0 0 0 -94010765.950170875 -13144997.526800156 0 -13144997.526800156 154011015.25830841 0 0 0 0 -18947139.199548006 30791017.575834274 0 30791017.575834274 114520398.62910461 0 0 0 0 24206071.845023155 -63486290.912708282 0 -63486290.912708282 214858229.1143322 0 0 0 0 39026856.689828634 -12836014.311296463 0 -12836014.311296463 120419799.79961395 0 0 0 0 -52178924.020587921 -15160153.12260437 0 -15160153.12260437 126327052.00224495 0 0 0 0 720343103.47079849 -8099808.2849349976 0 -8099808.2849349976 94277976.958000183 0 0 0 0 10971734.3868981 4871333.771170862 0 4871333.771170862 2252779.6582220793 0 0 0 0 -146229590.731848 57922823.389911652 0 57922823.389911652 109785514.47371292 0 0 0 0 -49743667.774336442 77789511.679450691 0 77789511.679450691 349185772.40596771 0 0 0 0 183026646.61492062 175009663.62639999 0 175009663.62639999 165027487.62075615 0 0 0 0 510365.89056011988 -1558713.0778558124 0 -1558713.0778558124 5623484.5359219164 0 0 0 0 4958907.8034791946 30013629.569776535 0 30013629.569776535 70299624.101276398 0 0 0 0 31899283.415271759 73510908.120248795 0 73510908.120248795 116946938.45684624 0 0 0 0 1281272.8816842614 -2168774.3724037576 0 -2168774.3724037576 17094418.737483785 0 0 0 0 27975583.183909893 29287751.953605652 0 29287751.953605652 60754826.500644684 0 0 0 0 29586509.637099087 39698243.558876395 0 39698243.558876395 45898207.435127258 0 0 0 0 22993704.901373386 1558034.7906293869 0 1558034.7906293869 -89940361.002388 0 0 0 0 1150385.7343616486 28114491.010419846 0 28114491.010419846 321177.29951477051 0 0 0 0 -103431217.09059978 7336418.7144775391 0 7336418.7144775391 170109180.87185669 0 0 0 0 98367694.314480305 294133448.13164139 0 294133448.13164139 305022516.60723495 0 0 0 0 -202853239.59217072 -13286658.501861572 0 -13286658.501861572 583362659.56334305 0 0 0 0 125180108.75165415 -135024014.35232735 0 -135024014.35232735 172103033.47719193 0 0 0 0 23706001.729473263 38252958.392465234 0 38252958.392465234 94491884.655741692 0 0 0 0 66194524.321591377 31971482.443325996 0 31971482.443325996 47984599.763465881 0 0 0 0 13028810.107210755 -80054949.471953392 0 -80054949.471953392 8053237.4190380573 0 0 0 0 -27156478.73538658 -442563701.37530565 0 -442563701.37530565 -228688084.50346756 0 0 0 0 -5286495.6094969055 -25570849.30693553 0 -25570849.30693553 55975831.56259717 0 0 0 0 -444286095.62288564 56780324.253492832 0 56780324.253492832 602282701.42331696 0 0 0 0 696578073.00086117 -81776798.332935333 0 -81776798.332935333 -394694041.37104225 0 0 0 0 28409289.924269166 -2075509.1049601994 0 -2075509.1049601994 38734309.314705849 0 0 0 0 -410380754.34585714 -371653431.7941227 0 -371653431.7941227 100179914.84923935 0 0 0 0 -20132874.864359856 -47007965.305793762 0 -47007965.305793762 -29898230.123205185 0 0 0 0 -9542445.8844623193 -23662852.512504272 0 -23662852.512504272 57086169.61397329 0 0 0 0 -103619061.77747345 103718261.46294403 0 103718261.46294403 207938516.71740723 0 0 0 0 157050518.85891056 222087740.65564346 0 222087740.65564346 205507618.60443878 0 0 0 0 185774226.11148572 145238856.82227325 0 145238856.82227325 245816146.89731598 0 0 0 0 201196151.08239985 225407068.51829052 0 225407068.51829052 140476792.31369781 0 0 0 0 26274751.357138634 67929352.755523682 0 67929352.755523682 252197612.32248878 0 0 0 0 238012418.13208485 157085321.29113197 0 157085321.29113197 147799415.66056824 0 0 0 0 -25183610.370499611 21261121.519710541 0 21261121.519710541 244731716.06015682 0 0 0 0 -73408359.280653954 96784142.92547226 0 96784142.92547226 130959330.61201477 0 0 0 0 -382542651.82986832 -454142337.80139542 0 -454142337.80139542 590439496.63479614 0 0 0 0 -17834614.965957642 -616636542.5223999 0 -616636542.5223999 223333115.35976887 0 0 0 0 -482655760.57371974 -244260371.40655518 0 -244260371.40655518 278659654.02229309 0 0 0 0 -407361374.87598324 6966375.4444885254 0 6966375.4444885254 220041799.95830536 0 0 0 0 813583317.77135754 85366841.493377686 0 85366841.493377686 55541233.911300659 0 0 0 0 6571712.5200123452 2627146.4140574485 0 2627146.4140574485 1472270.9778801352 0 0 0 0 189346040.19570208 170345157.71080208 0 170345157.71080208 334805305.87110901 0 0 0 0 255420477.9796505 279931020.0950737 0 279931020.0950737 269514517.25387001 0 0 0 0 682629851.58272052 -199182666.70874405 0 -199182666.70874405 -54107407.141639709 0 0 0 0 959606.12988757621 -1298312.6258010045 0 -1298312.6258010045 3725778.3970085979 0 0 0 0 251473046.76204777 256240176.56507111 0 256240176.56507111 158986426.12262917 0 0 0 0 21558182.098828316 -54037098.827243805 0 -54037098.827243805 50849590.42969203 0 0 0 0 -53052606.9717381 -84987050.680496216 0 -84987050.680496216 169916723.5774765 0 0 0 0 208427931.19934988 -116686177.6190834 0 -116686177.6190834 52559546.725222588 0 0 0 0 -11776594.141905069 -341250777.5909462 0 -341250777.5909462 262569935.67459106 0 0 0 0 -203958739.57109308 -74380025.144355774 0 -74380025.144355774 192320060.08190155 0 0 0 0 12524254.918221474 -18168082.277921677 0 -18168082.277921677 57840948.330718994 0 0 0 0 -3749978.426320076 -19094156.046920776 0 -19094156.046920776 76223127.68447113 0 0 0 0 16979736.016000867 -60222258.534435272 0 -60222258.534435272 80483298.91941452 0 0 0 0 -875180.29055267572 -17522756.531946182 0 -17522756.531946182 70625048.511749268 0 0 0 0 9896566.7892225981 3767281.8305644989 0 3767281.8305644989 25330133.792610168 0 0 0 0 54485921.097807467 -28258304.191320419 0 -28258304.191320419 35670711.676048279 0 0 0 0 1682766.560995427 -2536365.5657654703 0 -2536365.5657654703 11836821.282517016 0 0 0 0 7374168.5336574167 9193059.4139902033 0 9193059.4139902033 16843463.852371752 0 0 0 0 12896115.698909998 18966004.208265305 0 18966004.208265305 12668518.65445137 0 0 0 0 15182994.880731583 22881727.936688423 0 22881727.936688423 10289189.620166779 0 0 0 0 7247.3674928545952 26205733.481946945 0 26205733.481946945 36631220.890571594 0 0 0 0 1339207.1820087433 29523855.123296738 0 29523855.123296738 30745184.496322632 0 0 0 0 11128244.11055249 18676328.150695924 0 18676328.150695924 23880172.536071554 0 0 0 0 4853982.7117471695 35491490.137905121 0 35491490.137905121 26003026.780901909 0 0 0 0 -28420400.855595589 41441042.316719055 0 41441042.316719055 67420502.011672974 0 0 0 0 5755812.4965775013 37947238.093391418 0 37947238.093391418 23920757.877418518 0 0 0 0 -1708995.0001835823 -2637186.3207015991 0 -2637186.3207015991 72004138.99041748 0 0 0 0 -3073532.0228805542 -4469179.9788894653 0 -4469179.9788894653 79725384.161384583 0 0 0 0 5432614.6897747517 1986091.5014610291 0 1986091.5014610291 22177598.85344696 0 0 0 0 54778836.217305183 186676686.2154789 0 186676686.2154789 217692457.17778063 0 0 0 0 -39625482.448209763 73988999.381767273 0 73988999.381767273 100169927.7158699 0 0 0 0 243345891.81632185 69431659.911081314 0 69431659.911081314 -4362497.3928527832 0 0 0 0 3101731.9836923424 -306205.10810691863 0 -306205.10810691863 764177.61121210456 0 0 0 0 231548.46688231407 1841290.1657317299 0 1841290.1657317299 -833100.60855135322 0 0 0 0 49231241.973116398 40065974.631351471 0 40065974.631351471 35268831.750401497 0 0 0 0 72419964.13062048 55177725.133254051 0 55177725.133254051 16629356.908336639 0 0 0 0 23098154.335936546 77163075.405786514 0 77163075.405786514 98639796.093835831 0 0 0 0 9940880.1427612305 25597824.601669312 0 25597824.601669312 16768594.279732861 0 0 0 0 26423064.616359711 51545777.693074226 0 51545777.693074226 21778114.603229523 0 0 0 0 345236.53741069883 7508563.0465134885 0 7508563.0465134885 -2573371.6298809201 0 0 0 0 37996867.730552793 37630352.553084373 0 37630352.553084373 25877612.063430786 0 0 0 0 36773215.847036123 35677523.094216824 0 35677523.094216824 26124979.278739929 0 0 0 0 -9093106.0375595093 43606151.431007385 0 43606151.431007385 54973483.41847229 0 0 0 0 56598073.64392662 -18069333.469139099 0 -18069333.469139099 -40005981.778793335 0 0 0 0 96704093.964019775 32848676.48242569 0 32848676.48242569 68461101.630149841 0 0 0 0 -3095048.7188422363 -1694256.8369437866 0 -1694256.8369437866 1793531.0338107198 0 0 0 0 -17368207.283167839 66945063.300773621 0 66945063.300773621 97834750.179489136 0 0 0 0 11304711.824026108 65374799.939369202 0 65374799.939369202 68438413.27961731 0 0 0 0 7693687.1973304749 84303128.033766031 0 84303128.033766031 86082875.321807861 0 0 0 0 -38412725.418962955 48253416.491119385 0 48253416.491119385 86448518.785516739 0 0 0 0 135030058.9440937 48837459.200683594 0 48837459.200683594 13411857.239227295 0 0 0 0 -1294708.6722831465 101156.45207597315 0 101156.45207597315 5879490.5960628167 0 0 0 0 41319257.486476898 44796399.317573547 0 44796399.317573547 106548852.27245712 0 0 0 0 -6226816.3036559876 5262.2816415205598 0 5262.2816415205598 34670724.436155796 0 0 0 0 -23385084.195237219 -17657676.261607528 0 -17657676.261607528 49395810.434431076 0 0 0 0 5010495.6039246321 -33708171.387604594 0 -33708171.387604594 54186424.296066284 0 0 0 0 -204096.61935186386 21144748.376525879 0 21144748.376525879 44436960.337982178 0 0 0 0 566024.34307819605 8032047.1100730896 0 8032047.1100730896 13015295.991676331 0 0 0 0 402279.61581369769 11988588.842685103 0 11988588.842685103 14878525.384817041 0 0 0 0 1761758.0648550987 12791462.231204987 0 12791462.231204987 14667526.352355957 0 0 0 0 -1735808.7816325733 13262645.946303438 0 13262645.946303438 23167679.57884039 0 0 0 0 8754350.1354594231 31232943.937728882 0 31232943.937728882 31791789.820671082 0 0 0 0 2664603.4639692311 15933267.097606257 0 15933267.097606257 16431924.92598933 0 0 0 0 224454.52476946218 8816594.8308313638 0 8816594.8308313638 8109573.2616158426 0 0 0 0 -44722876.001963139 34256613.766704559 0 34256613.766704559 42628940.058639526 0 0 0 0 11765460.940263271 19777382.479810715 0 19777382.479810715 28991265.463699341 0 0 0 0 -2090634.3161020279 24842235.53572464 0 24842235.53572464 37322529.877916336 0 0 0 0 -9272741.0806283951 20443710.228870392 0 20443710.228870392 44669831.623809814 0 0 0 0 -6713929.8823001385 38418661.489593506 0 38418661.489593506 51733285.083263397 0 0 0 0 -2707624.2697966099 27372941.110935211 0 27372941.110935211 44156211.532611847 0 0 0 0 6672582.849565506 17629367.443965912 0 17629367.443965912 52151748.150524139 0 0 0 0 54979.261630567489 -1019394.8596715294 0 -1019394.8596715294 611590.49007169087 0 0 0 0 -3047469.3297428619 1817493.9401201792 0 1817493.9401201792 5305193.7711970732 0 0 0 0 -11172618.446339607 14602224.19934082 0 14602224.19934082 60724767.225179672 0 0 0 0 2217465.8091595173 27534656.205896378 0 27534656.205896378 -33955303.915941238 0 0 0 0 -39831105.665006369 27511339.764812708 0 27511339.764812708 72647890.116142273 0 0 0 0 -22486945.277858257 20745280.076095581 0 20745280.076095581 54695407.017211914 0 0 0 0 -81724146.000895977 43338767.647735596 0 43338767.647735596 49639247.135242462 0 0 0 0 15647952.555574417 -2528048.3616333008 0 -2528048.3616333008 24709420.651275635 0 0 0 0 -531419.5858086925 1097398.6185661554 0 1097398.6185661554 3088851.3291082513 0 0 0 0 -1726540.999688423 7736892.9724269286 0 7736892.9724269286 5872155.7112548416 0 0 0 0 2141793.9389225561 8591664.5853158757 0 8591664.5853158757 3696268.5202179141 0 0 0 0 -1053394.2186906338 2293139.384185791 0 2293139.384185791 15842177.907424927 0 0 0 0 -4127170.2552155354 11027041.169742767 0 11027041.169742767 14725570.068941146 0 0 0 0 -5190848.1286133435 4298689.1423357446 0 4298689.1423357446 18239775.137908213 0 0 0 0 279864.1934093833 11657911.70955658 0 11657911.70955658 22509775.734344482 0 0 0 0 9527307.8182277679 21749577.155948639 0 21749577.155948639 41939343.024581909 0 0 0 0 2282826.7716802359 7173173.6000061035 0 7173173.6000061035 26317362.415863037 0 0 0 0 1827207.4594667123 8084112.534396939 0 8084112.534396939 11159773.062892243 0 0 0 0 282756.41891372204 12089202.640078068 0 12089202.640078068 20948382.492740631 0 0 0 0 43765.990225791931 1234685.4892730713 0 1234685.4892730713 52733143.99971962 0 0 0 0 -1957967.970991075 9168303.986415863 0 9168303.986415863 6755639.9230804443 0 0 0 0 1994949.4444313049 4515604.6201095581 0 4515604.6201095581 52986381.559520721 0 0 0 0 289730.19804729708 11527939.137939334 0 11527939.137939334 20480379.988212585 0 0 0 0 2393546.7365849689 15163569.396890212 0 15163569.396890212 11863832.511228479 0 0 0 0 29287.019712111447 1597680.2473072186 0 1597680.2473072186 11074765.334848139 0 0 0 0 1283209.8220957092 812927.51783156395 0 812927.51783156395 -2592281.5494113714 0 0 0 0 12562300.008682966 103747205.13989639 0 103747205.13989639 59514846.627604485 0 0 0 0 2379805.0678906636 8416049.1824480221 0 8416049.1824480221 13342768.14962168 0 0 0 0 -1509826.5608509779 10629899.90987587 0 10629899.90987587 10642772.232803345 0 0 0 0 156503729.54791927 -21926738.841506958 0 -21926738.841506958 -141241427.62362671 0 0 0 0 -317177729.18954659 -179429225.69101715 0 -179429225.69101715 -80526789.443130493 0 0 0 0 427109.23515820876 945549.19751091301 0 945549.19751091301 686072.25061535835 0 0 0 0 12993964.345718384 32067778.718238831 0 32067778.718238831 11794110.65032196 0 0 0 0 3304710.3988910606 10268554.272860453 0 10268554.272860453 5961920.3486773744 0 0 0 0 479494.17863637302 1618946.1573413536 0 1618946.1573413536 352274.69647757709 0 0 0 0 -23432302.931646347 39344008.351825714 0 39344008.351825714 55145735.29826355 0 0 0 0 24021805.045176983 67078273.881160736 0 67078273.881160736 67189558.852180481 0 0 0 0 -8949674.1602182388 50159490.540756226 0 50159490.540756226 66108609.391784668 0 0 0 0 99068838.328491211 83486135.85383606 0 83486135.85383606 41623554.353302002 0 0 0 0 362946.52510118484 7756907.0146141052 0 7756907.0146141052 24430838.677108765 0 0 0 0 -3825744.4845214784 2794009.1091506481 0 2794009.1091506481 -6146766.8683624268 0 0 0 0 17773145.364643097 27879340.042602539 0 27879340.042602539 -8260206.3084259033 0 0 0 0 -2608841.2015991947 11068377.365923502 0 11068377.365923502 24932184.625414323 0 0 0 0 3853354.5215200549 12915811.253133219 0 12915811.253133219 10812288.024503112 0 0 0 0 4281615.3945918083 -1666585.3216133118 0 -1666585.3216133118 40397700.611038208 0 0 0 0 5231745.1920955181 10846344.742163658 0 10846344.742163658 19777367.688541412 0 0 0 0 2971503.7751533324 9315370.8366605341 0 9315370.8366605341 10746666.849382032 0 0 0 0 -968191.57312759478 75088.201650157571 0 75088.201650157571 1758092.0959164575 0 0 0 0 -910487.45427730959 6636122.753166385 0 6636122.753166385 11357296.282738313 0 0 0 0 -25912533.462245464 -20796303.151390076 0 -20796303.151390076 -11821251.182216644 0 0 0 0 36114593.593178272 37574930.541675568 0 37574930.541675568 -106688649.77722549 0 0 0 0 -8128982.8132561445 1509829.1015224457 0 1509829.1015224457 20106027.55033493 0 0 0 0 -17529613.591489792 114371655.14780426 0 114371655.14780426 -13114445.835983276 0 0 0 0 -62501514.374679327 96244449.131076813 0 96244449.131076813 107196289.30700684 0 0 0 0 -51193239.847647667 -7725613.6487731934 0 -7725613.6487731934 179596771.75868225 0 0 0 0 -14472568.780270576 11399092.273097992 0 11399092.273097992 22854945.350255966 0 0 0 0 43257069.550519466 6118857.0645446777 0 6118857.0645446777 63581898.368015289 0 0 0 0 30408726.893664837 -78917159.095104218 0 -78917159.095104218 105532307.32022858 0 0 0 0 4487678.0509185791 32032200.073524475 0 32032200.073524475 38360286.846183777 0 0 0 0 -19040985.574922085 -2023567.1236572266 0 -2023567.1236572266 68304578.901290894 0 0 0 0 -12259542.274680138 14513361.292480469 0 14513361.292480469 69024874.737342834 0 0 0 0 26487344.350577831 17786374.6873703 0 17786374.6873703 69265695.620251656 0 0 0 0 9728291.1775941849 13451340.364784241 0 13451340.364784241 94469061.105834961 0 0 0 0 42611295.534538269 15376564.061103821 0 15376564.061103821 94531779.05222559 0 0 0 0 23118040.137460232 -41329046.182853699 0 -41329046.182853699 39480615.582672119 0 0 0 0 69341011.851443768 3528522.1899223328 0 3528522.1899223328 93200079.478897095 0 0 0 0 89081523.752198219 16426155.175863266 0 16426155.175863266 76456561.332557678 0 0 0 0 -8039339.0155434608 -36511932.203556061 0 -36511932.203556061 409893585.81503105 0 0 0 0 41949452.351602793 -41572393.60569191 0 -41572393.60569191 216029909.71685791 0 0 0 0 43166372.110906363 40065940.398694038 0 40065940.398694038 168770380.5517807 0 0 0 0 33626961.937628984 -11019775.635075092 0 -11019775.635075092 158428638.45597839 0 0 0 0 6492786.5501613617 -6443669.4523639679 0 -6443669.4523639679 180577045.93549347 0 0 0 0 6719042.9422066212 20342410.138057709 0 20342410.138057709 158366535.97676086 0 0 0 0 11581540.513647079 -15965547.025009155 0 -15965547.025009155 134097431.23704147 0 0 0 0 -2014870.1511849165 13521094.706154823 0 13521094.706154823 131024096.07188416 0 0 0 0 -27968617.765417576 9734115.74766922 0 9734115.74766922 146244504.23080826 0 0 0 0 -27306343.513644218 -14721067.173225403 0 -14721067.173225403 128136477.11689758 0 0 0 0 -3845789.6488661766 -8681143.3730545044 0 -8681143.3730545044 129682784.01952362 0 0 0 0 -870483.81462872028 -18899537.634168625 0 -18899537.634168625 91279660.074157715 0 0 0 0 -11230238.60302186 2411638.1389083862 0 2411638.1389083862 117736430.23394775 0 0 0 0 29603512.987372555 46912305.81645304 0 46912305.81645304 108158769.08207703 0 0 0 0 -29895470.90997076 20106050.06829071 0 20106050.06829071 113814553.15075207 0 0 0 0 30846478.132719994 -4139970.8097381592 0 -4139970.8097381592 84881551.097328186 0 0 0 0 -396186.09848189354 4447724.8795032501 0 4447724.8795032501 95221463.31388855 0 0 0 0 -10561286.704776525 8497219.0030460358 0 8497219.0030460358 111543885.4289093 0 0 0 0 16675278.402483702 78537266.182010651 0 78537266.182010651 56137307.290245056 0 0 0 0 93501849.960472107 41569840.867935181 0 41569840.867935181 12893606.893370628 0 0 0 0 -154764376.01272917 10367403.124897003 0 10367403.124897003 126427296.13717651 0 0 0 0 -18019842.426328659 24420086.263771057 0 24420086.263771057 -13715050.650314331 0 0 0 0 2059022.7823186419 1643421.7179817893 0 1643421.7179817893 -1066281.7600717992 0 0 0 0 -79787964.296014547 -118246383.12129784 0 -118246383.12129784 -24536544.351486206 0 0 0 0 16700106.063122749 -13714803.765396118 0 -13714803.765396118 74992627.069656372 0 0 0 0 32624793.895718575 23121786.539726257 0 23121786.539726257 1269428.6478767395 0 0 0 0 35037524.837145805 38938069.525497437 0 38938069.525497437 66845711.49621582 0 0 0 0 9896488.991910696 36164349.316907883 0 36164349.316907883 83155292.402824402 0 0 0 0 15037075.087938547 5750973.6698303223 0 5750973.6698303223 92017966.762367249 0 0 0 0 5826999.9769210815 15080063.44562912 0 15080063.44562912 115555968.56168747 0 0 0 0 -4016585.2241728306 -4875745.9112567902 0 -4875745.9112567902 76458516.818878174 0 0 0 0 -56611.463163176923 -12869402.360574722 0 -12869402.360574722 66031367.512325287 0 0 0 0 -38088472.471079223 8995516.2683982849 0 8995516.2683982849 211635989.85713196 0 0 0 0 -59455.630888544387 699197.70003261045 0 699197.70003261045 4092343.7095938325 0 0 0 0 -80936604.715829968 -85920714.313831329 0 -85920714.313831329 77061255.536417007 0 0 0 0 329848892.30421311 146641100.44272232 0 146641100.44272232 -55339232.518363953 0 0 0 0 81154890.008922338 15450254.229120255 0 15450254.229120255 68806849.731971741 0 0 0 0 -19203180.025337253 15192825.101345062 0 15192825.101345062 474667.74100112915 0 0 0 0 -136001546.19896063 -20760904.496271133 0 -20760904.496271133 65002569.132408142 0 0 0 0 26236331.67912662 46185108.297771454 0 46185108.297771454 35525070.066161156 0 0 0 0 -368637.43005663686 730064.23856214806 0 730064.23856214806 11887810.254143596 0 0 0 0 107246598.12863237 80401059.531206608 0 80401059.531206608 15496084.991401672 0 0 0 0 -85608800.80950141 32920889.841838837 0 32920889.841838837 51952287.549247742 0 0 0 0 -580373.64380829607 1296914.3342747875 0 1296914.3342747875 19288306.393096894 0 0 0 0 -7345958.2455204278 26661202.100124359 0 26661202.100124359 51899733.945724487 0 0 0 0 -30717651.005916119 47982368.361820221 0 47982368.361820221 36091580.790374756 0 0 0 0 -25134776.618933111 49754589.820865631 0 49754589.820865631 9263116.9478149414 0 0 0 0 23603018.837453038 118105209.31577682 0 118105209.31577682 144508898.270895 0 0 0 0 -4603040.5516876578 20579887.973197937 0 20579887.973197937 46391977.036758423 0 0 0 0 -12461995.035519749 -10810809.126127243 0 -10810809.126127243 97487847.70173645 0 0 0 0 168995366.74443668 126153377.37496948 0 126153377.37496948 62442493.552482605 0 0 0 0 613434.55458894849 130732085.41440296 0 130732085.41440296 982319242.11090088 0 0 0 0 160320351.9361693 17602754.824472904 0 17602754.824472904 87139880.902038574 0 0 0 0 -280064290.00168419 651381788.06620407 0 651381788.06620407 2199417200.9811974 0 0 0 0 -116243397.06348848 96862700.114532471 0 96862700.114532471 817656333.98847198 0 0 0 0 818175925.97833192 1229728546.6464386 0 1229728546.6464386 1049436429.5073433 0 0 0 0 297259542.48869926 -460401070.00910664 0 -460401070.00910664 527834942.60851288 0 0 0 0 967670.00954211364 480614.25496883132 0 480614.25496883132 12633729.021596551 0 0 0 0 100952128.96989906 153832980.81430054 0 153832980.81430054 425132475.38800049 0 0 0 0 -891931.8876895525 -69186.565599543974 0 -69186.565599543974 29830491.999592543 0 0 0 0 -81195313.915270835 64519810.351798058 0 64519810.351798058 -7708761.4976501465 0 0 0 0 3488278.6343659759 -7637898.4163627625 0 -7637898.4163627625 41172534.726556256 0 0 0 0 -20628833.438537985 -43688494.001190186 0 -43688494.001190186 575425012.56548309 0 0 0 0 120643440.55081189 16228302.9009552 0 16228302.9009552 -168411479.7532959 0 0 0 0 -1004874.6788213665 48134.243311107159 0 48134.243311107159 8736643.8563286811 0 0 0 0 -28408326.146871358 40786862.974571943 0 40786862.974571943 -18091058.847946167 0 0 0 0 -23750728.909086108 84712169.311065674 0 84712169.311065674 87061278.631145477 0 0 0 0 -2882750.0407505035 8185018.3079071045 0 8185018.3079071045 26950216.130203247 0 0 0 0 760794.79322154797 4815719.2353413552 0 4815719.2353413552 18378953.824085288 0 0 0 0 -82223311.152972221 -63266752.391120911 0 -63266752.391120911 -18967939.261993408 0 0 0 0 628221561.26047039 37474165.256950378 0 37474165.256950378 -69752352.215393066 0 0 0 0 -1487324.9332701406 17169997.380786002 0 17169997.380786002 1928539.965772893 0 0 0 0 -153626543.63391495 292421259.45463562 0 292421259.45463562 189710590.20782471 0 0 0 0 -157106290.68336678 85762960.254238129 0 85762960.254238129 135140225.2807312 0 0 0 0 -417396821.36693287 -115599458.15170288 0 -115599458.15170288 1589168.306427002 0 0 0 0 -4325104.4178763423 3330199.4355433285 0 3330199.4355433285 7968555.3192391992 0 0 0 0 -24359733.040527105 -204269067.31243515 0 -204269067.31243515 149009492.48529053 0 0 0 0 -15118598.349676847 51698038.45806694 0 51698038.45806694 73843457.668945312 0 0 0 0 4782383.4659645976 -8668321.3792100698 0 -8668321.3792100698 20776273.978006691 0 0 0 0 -58970161.534105062 2153948.4599952698 0 2153948.4599952698 64391597.75860364 0 0 0 0 4490482.0055596828 13113867.318336487 0 13113867.318336487 -95916187.592300415 0 0 0 0 81832481.397788942 176828090.04452324 0 176828090.04452324 -13318775.69657135 0 0 0 0 222397936.02325356 29922110.346218109 0 29922110.346218109 -113170779.24033737 0 0 0 0 -180432772.39021486 -70023483.062156677 0 -70023483.062156677 54941149.477897644 0 0 0 0 4704371.9243357619 -9133897.9619066939 0 -9133897.9619066939 15237914.460225776 0 0 0 0 -40958072.927183621 -202654169.12392616 0 -202654169.12392616 563113481.60050964 0 0 0 0 3111384.2582756663 681454310.23553085 0 681454310.23553085 2203109576.1200562 0 0 0 0 -109526029.36282115 117908833.20478821 0 117908833.20478821 526166617.78996181 0 0 0 0 -224864811.42012215 -235700226.80351257 0 -235700226.80351257 2200501715.4760513 0 0 0 0 25255460.804951116 -702188849.32654953 0 -702188849.32654953 1523156370.8846436 0 0 0 0 -435270633.73860937 -305276395.23810196 0 -305276395.23810196 2200231296.7868462 0 0 0 0 441262299.23455626 -504177864.95075989 0 -504177864.95075989 41354371.884677887 0 0 0 0 2211749.5663239742 -3273525.0017560199 0 -3273525.0017560199 7715803.7599138916 0 0 0 0 -76672198.481596708 111013400.68071747 0 111013400.68071747 315597367.17084694 0 0 0 0 11018707.469777644 -371809520.79965973 0 -371809520.79965973 825896893.52874756 0 0 0 0 218399015.45057359 111184795.28043938 0 111184795.28043938 44539268.099487305 0 0 0 0 138859395.33703482 -108163163.7515707 0 -108163163.7515707 88176545.087112427 0 0 0 0 8708957.9278399348 66988831.589601517 0 66988831.589601517 6220400.2569580078 0 0 0 0 -23016063.132017553 42932565.110599518 0 42932565.110599518 27041965.496440887 0 0 0 0 -19474697.012746334 32785717.686859131 0 32785717.686859131 40927585.588638127 0 0 0 0 3443278.3494332186 18787254.93784301 0 18787254.93784301 -205438.93149125623 0 0 0 0 -33854863.987683535 25536148.073913574 0 25536148.073913574 77007778.429443359 0 0 0 0 -3515899.5746676326 122129452.46637535 0 122129452.46637535 139708231.95054626 0 0 0 0 6056459.0198143497 17592167.374824882 0 17592167.374824882 1121874.3335847575 0 0 0 0 282201736.17251205 -137269720.67736816 0 -137269720.67736816 113280607.75621033 0 0 0 0 66889041.537407398 143584835.27938843 0 143584835.27938843 93838908.346672058 0 0 0 0 111335328.93727565 9007909.3695373535 0 9007909.3695373535 -84798683.987792969 0 0 0 0 -74240950.508946002 -72290473.663497001 0 -72290473.663497001 -52555751.382217407 0 0 0 0 754883.66034193616 -1053504.1626280993 0 -1053504.1626280993 803371.45824691653 0 0 0 0 59361661.45475173 -29425396.978683472 0 -29425396.978683472 -1174210.2997665405 0 0 0 0 157318.87184657855 -1034371.4215860404 0 -1034371.4215860404 4530689.7726769745 0 0 0 0 5731320.536636591 23504201.183914185 0 23504201.183914185 -49834593.696220398 0 0 0 0 60982826.309712648 319612237.05183029 0 319612237.05183029 54260396.619277954 0 0 0 0 16883556.563323975 -82300711.021728516 0 -82300711.021728516 52748241.43611145 0 0 0 0 8563552.2363724709 -79797666.797206879 0 -79797666.797206879 143233613.53140259 0 0 0 0 -88429261.359511346 -98851689.170674324 0 -98851689.170674324 39138336.838401794 0 0 0 0 217954.45492613129 -607608.84976161271 0 -607608.84976161271 6352849.5508874953 0 0 0 0 -94580528.78733778 -33986162.265506744 0 -33986162.265506744 39811460.554466248 0 0 0 0 -11975369.713625431 6115327.548204422 0 6115327.548204422 59272161.114608765 0 0 0 0 85218901.314591765 59816826.16900444 0 59816826.16900444 53990372.619018555 0 0 0 0 -78358567.894876719 22609349.289306641 0 22609349.289306641 85392185.151245117 0 0 0 0 1288055.3770098756 1895616.8980448842 0 1895616.8980448842 2837206.1151262224 0 0 0 0 256984010.50477147 148473253.59564972 0 148473253.59564972 -16765118.152832031 0 0 0 0 64377421.702902079 67949869.144512177 0 67949869.144512177 6432136.4566345215 0 0 0 0 32355075.983556271 125960047.01445007 0 125960047.01445007 107877156.98250961 0 0 0 0 25345470.051364422 36981281.31419754 0 36981281.31419754 2691443.7646608353 0 0 0 0 509092.69139504433 15434678.190849304 0 15434678.190849304 58193985.771714211 0 0 0 0 -34973551.293311536 54972447.751681328 0 54972447.751681328 43742310.439315796 0 0 0 0 645774.87754620286 4072214.3476281166 0 4072214.3476281166 9647873.1400996149 0 0 0 0 -4535886.2827077629 4462408.6432734951 0 4462408.6432734951 3249403.3247618377 0 0 0 0 -101246057.52909875 -22970904.404819489 0 -22970904.404819489 30697651.181060314 0 0 0 0 -22039663.637874246 124985444.37127495 0 124985444.37127495 92625709.970481873 0 0 0 0 -11859098.243943989 30894781.977396011 0 30894781.977396011 22007752.540466309 0 0 0 0 -26090745.56097436 24292607.504936218 0 24292607.504936218 -14757945.306991577 0 0 0 0 -90689629.106871128 60579865.03537178 0 60579865.03537178 52335210.068557739 0 0 0 0 -2117941.9757987866 2198229.7559548914 0 2198229.7559548914 22429841.539328486 0 0 0 0 -52988571.271607637 -171348832.04585838 0 -171348832.04585838 56760579.652282715 0 0 0 0 -493217.29469680786 54268923.49665451 0 54268923.49665451 20216174.140106201 0 0 0 0 -4763071.8937808704 1359691.7648266256 0 1359691.7648266256 29633883.160047531 0 0 0 0 -112229265.67764091 -36051083.749980927 0 -36051083.749980927 -2772170.5367279053 0 0 0 0 132846495.22443938 146934164.99507141 0 146934164.99507141 179760109.19509888 0 0 0 0 -22895716.460214138 12742121.570899963 0 12742121.570899963 65125258.833335876 0 0 0 0 533765556.88491917 -337604293.17645264 0 -337604293.17645264 -15997452.530151367 0 0 0 0 -33298261.980952263 -20383303.751533508 0 -20383303.751533508 244176615.82766724 0 0 0 0 -24148710.208879471 -1985389.2102890015 0 -1985389.2102890015 128862088.63332367 0 0 0 0 -44383309.012623787 68562848.625946045 0 68562848.625946045 35834233.921386719 0 0 0 0 -40851756.153736591 -48898014.989112854 0 -48898014.989112854 -1985662.8984375 0 0 0 0 4212192.492099762 14539328.504211426 0 14539328.504211426 32949579.090332031 0 0 0 0 -19451617.817866564 25117052.160652161 0 25117052.160652161 47455434.123631477 0 0 0 0 -1346079.3915205237 1542581.5702506602 0 1542581.5702506602 3777654.8960980177 0 0 0 0 -31847399.131537855 -29683564.491178513 0 -29683564.491178513 -14211315.653060913 0 0 0 0 -3697989.0437267721 22352990.96736145 0 22352990.96736145 25241560.340026855 0 0 0 0 -4367391.60712111 17138438.823547363 0 17138438.823547363 49080067.565078735 0 0 0 0 -9004502.5416977406 -6846754.6138839722 0 -6846754.6138839722 24246385.569671631 0 0 0 0 7004616.2472587824 15946213.273101807 0 15946213.273101807 26165398.971832275 0 0 0 0 -38198916.023089051 -6867342.1709518433 0 -6867342.1709518433 32994044.585990906 0 0 0 0 -42758613.365844846 -1269819.8689117432 0 -1269819.8689117432 27124381.447067261 0 0 0 0 -90876150.058367729 -20221969.680145264 0 -20221969.680145264 32626157.862743378 0 0 0 0 -98809502.97222352 -32866484.234436035 0 -32866484.234436035 25916063.851837158 0 0 0 0 -69019902.836176157 -30145888.824596405 0 -30145888.824596405 20587907.09236145 0 0 0 0 -100547329.4459877 -28598403.15562439 0 -28598403.15562439 16841457.75604248 0 0 0 0 -109536284.88864279 -28299756.936317444 0 -28299756.936317444 19402462.534660339 0 0 0 0 -100841052.19952822 -39820626.38066864 0 -39820626.38066864 1324170.7518310547 0 0 0 0 -83675292.606584311 -24806966.058311462 0 -24806966.058311462 21551028.523893356 0 0 0 0 -83689950.584070683 -25901365.548721313 0 -25901365.548721313 11674860.017669678 0 0 0 0 -88169334.179315805 -49674417.562812805 0 -49674417.562812805 -17130281.127745628 0 0 0 0 -2966425.0466535091 51801603.484230042 0 51801603.484230042 30934674.342115402 0 0 0 0 25163695.96444279 48093553.338729858 0 48093553.338729858 30180860.435333252 0 0 0 0 -1614284.8148186959 -174928.3011482954 0 -174928.3011482954 1047217.4717719257 0 0 0 0 -106607271.71634626 -36084761.798927307 0 -36084761.798927307 -938336.11111450195 0 0 0 0 -107628979.84430504 -28430258.203781128 0 -28430258.203781128 -26016863.515533447 0 0 0 0 6154985.5991797447 32618584.462924957 0 32618584.462924957 18167068.88898468 0 0 0 0 25433136.870772861 20239018.994365931 0 20239018.994365931 23557729.141540527 0 0 0 0 50918201.643872261 -37477538.291122437 0 -37477538.291122437 -57380476.516361237 0 0 0 0 -20751112.729692817 35915338.038389206 0 35915338.038389206 36673668.016906738 0 0 0 0 202984.97014730447 256851.64452910423 0 256851.64452910423 500674.41214479506 0 0 0 0 81194518.702226639 -131437960.44095325 0 -131437960.44095325 -56228823.708877563 0 0 0 0 -69100130.300078154 -31862820.567218781 0 -31862820.567218781 -14114643.453956604 0 0 0 0 -77547532.527137518 -5949240.5213432312 0 -5949240.5213432312 -93602403.45690918 0 0 0 0 -4814791.9092918634 -8844466.9619235992 0 -8844466.9619235992 8108443.378326416 0 0 0 0 -86310206.189532876 -3277681.1414775848 0 -3277681.1414775848 18310440.676513672 0 0 0 0 -12025805.265553474 -355877.41847991943 0 -355877.41847991943 836831.31579208374 0 0 0 0 -45617085.192042351 -5038946.0252342224 0 -5038946.0252342224 10306195.177322388 0 0 0 0 -803776.43971456937 2242608.0493855206 0 2242608.0493855206 34716755.080247819 0 0 0 0 -2045722.9336573971 -1428759.976499036 0 -1428759.976499036 4624026.4143889993 0 0 0 0 -3818322.2019143105 -5746803.1492843628 0 -5746803.1492843628 -5269635.6300964355 0 0 0 0 -54161207.538102329 -30308684.161870956 0 -30308684.161870956 62039505.970527649 0 0 0 0 -29710033.090104818 23233568.418863297 0 23233568.418863297 46903825.830505371 0 0 0 0 13085401.74503231 -9755505.9923400879 0 -9755505.9923400879 6597766.2201538086 0 0 0 0 187346.36523019522 1309825.5763598308 0 1309825.5763598308 3772206.1896678507 0 0 0 0 3150924.5156331062 18192675.972808838 0 18192675.972808838 37382315.190185547 0 0 0 0 5324702.7289800644 8062571.6250457764 0 8062571.6250457764 32149738.514801025 0 0 0 0 9998869.4913654327 12485260.636657715 0 12485260.636657715 29986173.301574707 0 0 0 0 1522010.6953291893 12095920.841850281 0 12095920.841850281 28229268.057144165 0 0 0 0 7200366.5033187866 6249777.6318969727 0 6249777.6318969727 38252009.717071533 0 0 0 0 7065225.6440090835 4585540.661737442 0 4585540.661737442 18380400.121826172 0 0 0 0 12019022.610664368 12949950.315322876 0 12949950.315322876 33581095.701568604 0 0 0 0 -1876050.5147356754 342998.13982834015 0 342998.13982834015 17393637.102092534 0 0 0 0 16941196.045710564 10423102.912521362 0 10423102.912521362 31954427.498413086 0 0 0 0 -16234276.990064383 -2371832.7055454254 0 -2371832.7055454254 10004394.835021973 0 0 0 0 -1017133.8932017097 11192657.887543343 0 11192657.887543343 33615348.608521074 0 0 0 0 10015979.055731535 12828286.357889175 0 12828286.357889175 35618016.210876465 0 0 0 0 -1442264.2534187436 9429092.5301672965 0 9429092.5301672965 23462730.425964952 0 0 0 0 -4422211.5831460329 -6549747.0318957828 0 -6549747.0318957828 15771557.133159727 0 0 0 0 -1250270.3056212231 1079379.5599899963 0 1079379.5599899963 2051830.1844711155 0 0 0 0 -14389219.952525966 13303371.485050201 0 13303371.485050201 20107941.106391907 0 0 0 0 1183369.5394339859 -6476722.3313541412 0 -6476722.3313541412 -308543.87197875977 0 0 0 0 6498310.7141685486 -4756292.5332794189 0 -4756292.5332794189 31195353.546142578 0 0 0 0 6042112.4143247604 -6874963.6590423584 0 -6874963.6590423584 22026840.288543701 0 0 0 0 1304366.8498363495 4979080.9375915527 0 4979080.9375915527 21213455.441101074 0 0 0 0 -5790226.7799901962 11679923.876022339 0 11679923.876022339 15994940.134624481 0 0 0 0 -945916.45627593831 -309027.27997481078 0 -309027.27997481078 6000250.1520104706 0 0 0 0 9780744.3155066967 15084265.171966553 0 15084265.171966553 16712415.185241699 0 0 0 0 -27217354.506685495 -6458982.3269271851 0 -6458982.3269271851 9248051.0722007751 0 0 0 0 -9515866.4246991873 -8757236.0606994629 0 -8757236.0606994629 3769077.0562591553 0 0 0 0 -14036911.0997715 3136424.8287963867 0 3136424.8287963867 18324284.123279572 0 0 0 0 9141328.9869275093 -15482269.34082222 0 -15482269.34082222 5246099.4577178955 0 0 0 0 172178.54105601739 -306538.05225706846 0 -306538.05225706846 -527312.18599392474 0 0 0 0 6411318.2182776928 9950848.9588432312 0 9950848.9588432312 27025693.748001099 0 0 0 0 15938694.800983399 25312599.881788492 0 25312599.881788492 -22243664.106918335 0 0 0 0 16164765.406864375 22486434.090486526 0 22486434.090486526 3261896.2712478638 0 0 0 0 7795952.5394080877 8101241.7962493896 0 8101241.7962493896 19492326.728832245 0 0 0 0 729563.12011905713 -93200.187503829598 0 -93200.187503829598 2666105.3859499842 0 0 0 0 -8198171.1074997783 7012379.7180099487 0 7012379.7180099487 19466670.613906384 0 0 0 0 -4279023.8752553016 34217106.696933746 0 34217106.696933746 8239427.0959320068 0 0 0 0 5460061.6776818037 387197.81538772583 0 387197.81538772583 -45918964.545394897 0 0 0 0 479991.3664811583 234554.70004394185 0 234554.70004394185 12684123.387676775 0 0 0 0 -29090742.34937638 28861859.205230713 0 28861859.205230713 20563253.180679321 0 0 0 0 26199473.075275898 -4806056.4718818665 0 -4806056.4718818665 7443398.201461792 0 0 0 0 -36764213.798168004 12695504.851512909 0 12695504.851512909 27695223.508583069 0 0 0 0 953519.28425534768 1315333.6049311273 0 1315333.6049311273 8218662.2733853012 0 0 0 0 -3543728.2166391462 -14725800.265172958 0 -14725800.265172958 8968088.7771148682 0 0 0 0 -5265074.3365223408 55153386.891067505 0 55153386.891067505 47152218.716888428 0 0 0 0 -178040220.86530665 -941271.05899047852 0 -941271.05899047852 86334873.754858017 0 0 0 0 -161991848.50520924 -16657338.571350098 0 -16657338.571350098 71339623.227416992 0 0 0 0 -92848524.199369431 31242706.739212036 0 31242706.739212036 93269933.085796356 0 0 0 0 -68729705.139891148 5930792.2122650146 0 5930792.2122650146 24544436.61126709 0 0 0 0 -71415243.106252432 8636189.5659332275 0 8636189.5659332275 28567387.477828979 0 0 0 0 -115350195.37704426 -6413884.4637908936 0 -6413884.4637908936 30680856.219604492 0 0 0 0 34678559.130995274 19920833.310243607 0 19920833.310243607 4268957.5940856934 0 0 0 0 -16394134.011053801 23568014.338424683 0 23568014.338424683 17355778.852573395 0 0 0 0 -13231374.837342978 314564.04299163818 0 314564.04299163818 11406820.912078857 0 0 0 0 -4867869.0323181152 8594710.225227356 0 8594710.225227356 11199122.023610115 0 0 0 0 -24630306.163149476 -4247292.0475921631 0 -4247292.0475921631 21568355.721679688 0 0 0 0 -65916859.390223309 2406464.327545166 0 2406464.327545166 21596976.592285156 0 0 0 0 -67319262.612546682 7331332.5196609497 0 7331332.5196609497 4309149.4584655762 0 0 0 0 -28794941.405299187 6706198.2747650146 0 6706198.2747650146 15246827.639556885 0 0 0 0 -65878683.615359426 5662658.7013626099 0 5662658.7013626099 26340680.888977051 0 0 0 0 -26659253.032546759 -3056906.4195556641 0 -3056906.4195556641 22753359.209747314 0 0 0 0 -75153204.690303296 -14293986.912532806 0 -14293986.912532806 30012795.636917114 0 0 0 0 -79522735.869372725 -4010283.8068618774 0 -4010283.8068618774 30567451.408187866 0 0 0 0 -54713597.683559209 -16201871.438064575 0 -16201871.438064575 25754857.284713745 0 0 0 0 -47688419.943280756 3122994.6477603912 0 3122994.6477603912 30905896.096435547 0 0 0 0 -6144888.4814286232 572192.49969482422 0 572192.49969482422 21985448.093460083 0 0 0 0 -20398293.257102966 9288741.5655288696 0 9288741.5655288696 23575350.665313721 0 0 0 0 7251065.5549646616 -42552674.243340492 0 -42552674.243340492 41156110.68977356 0 0 0 0 -5001258.7628294677 1694768.8639877439 0 1694768.8639877439 33839599.736961454 0 0 0 0 -135260273.25679362 -27188757.218414307 0 -27188757.218414307 41704475.855430603 0 0 0 0 -110146500.0323534 -38721399.605354309 0 -38721399.605354309 30486020.113548279 0 0 0 0 -120024165.41616774 -14919244.300117493 0 -14919244.300117493 41959032.801361084 0 0 0 0 -92198764.946382999 -30552388.010215759 0 -30552388.010215759 32969665.289593458 0 0 0 0 -110757980.72934175 -6676512.4663543701 0 -6676512.4663543701 34931335.631690979 0 0 0 0 -119458021.01157671 8142241.7500286102 0 8142241.7500286102 10509973.692138672 0 0 0 0 -85933323.248436689 -7409191.2383346558 0 -7409191.2383346558 29619258.406524658 0 0 0 0 1176132.2373254886 280113.10775148496 0 280113.10775148496 15810626.604800016 0 0 0 0 29101379.366972685 60300410.043563843 0 60300410.043563843 44847081.63538301 0 0 0 0 -3647859.4432981112 1106722.7830791548 0 1106722.7830791548 32263520.727501184 0 0 0 0 -181496088.82416475 -68646574.175811768 0 -68646574.175811768 59705472.875488281 0 0 0 0 -146759119.08328342 -67074212.517601013 0 -67074212.517601013 12238636.353225708 0 0 0 0 -98117699.797876 -22428940.058746338 0 -22428940.058746338 -22148102.918052673 0 0 0 0 10138328.374886751 9324581.5348186493 0 9324581.5348186493 31896016.266906738 0 0 0 0 -74044409.770163804 -191551798.70364195 0 -191551798.70364195 140447252.8883667 0 0 0 0 -184167199.23104304 -63228153.501068115 0 -63228153.501068115 48903837.309188843 0 0 0 0 11629042.741010195 2721849.5619348586 0 2721849.5619348586 11950905.912814992 0 0 0 0 23869196.190592527 3618253.1119613647 0 3618253.1119613647 14028116.827904761 0 0 0 0 43739348.124650836 -60105447.563367844 0 -60105447.563367844 112376312.3444519 0 0 0 0 840505.57058342895 1379212.7141265012 0 1379212.7141265012 1489403.0897887796 0 0 0 0 -15646760.923962712 -51384870.503227234 0 -51384870.503227234 -347169323.41772461 0 0 0 0 -210257217.42656845 -25639691.323425293 0 -25639691.323425293 68254988.349266052 0 0 0 0 -193902548.66774225 -102568390.59491539 0 -102568390.59491539 -76596456.721740723 0 0 0 0 -174121.35353395739 1125584.1001598239 0 1125584.1001598239 3676638.3583366312 0 0 0 0 -177864846.36641407 284416691.58311462 0 284416691.58311462 -995466204.91617978 0 0 0 0 -249881339.86213362 -174942370.67353439 0 -174942370.67353439 411092262.46386719 0 0 0 0 1162049.1516277534 -2510492.4287197106 0 -2510492.4287197106 25096100.943172082 0 0 0 0 -13043853.285847127 -18889869.852191925 0 -18889869.852191925 13017076.245464325 0 0 0 0 -315207779.76158583 24483407.899765015 0 24483407.899765015 149783574.85648727 0 0 0 0 -134567568.83768475 -43626947.874427795 0 -43626947.874427795 174337083.87075806 0 0 0 0 20877339.460432604 -30213191.553129196 0 -30213191.553129196 -4399331.8930206299 0 0 0 0 -57807124.87702167 -12301049.980350494 0 -12301049.980350494 45844651.334587097 0 0 0 0 3154875.720886128 5374775.6068224423 0 5374775.6068224423 -4790798.6817740798 0 0 0 0 38734762.369567871 2090527.2064437866 0 2090527.2064437866 -3784566.9323425293 0 0 0 0 -67600836.46350348 199080320.05740738 0 199080320.05740738 607243454.19195938 0 0 0 0 86842394.766503811 -164618.80803394318 0 -164618.80803394318 -36134290.901901245 0 0 0 0 135.00794383790344 349549.02706958726 0 349549.02706958726 -1770406.4106520414 0 0 0 0 215409.76807589689 -1831387.7212962843 0 -1831387.7212962843 10923186.520987332 0 0 0 0 441059549.52266431 791838969.36614132 0 791838969.36614132 1492545208.3712769 0 0 0 0 422523666.17599833 684189280.81101227 0 684189280.81101227 876084383.37698364 0 0 0 0 32630872.343353376 214044058.71451569 0 214044058.71451569 1145966589.5540009 0 0 0 0 -46673399.076309025 98500039.910942078 0 98500039.910942078 2206497694.7404251 0 0 0 0 87820805.140576139 493541783.48274803 0 493541783.48274803 2422347729.9714508 0 0 0 0 1152224559.6519969 -967198450.89282227 0 -967198450.89282227 3097107267.2303543 0 0 0 0 -483296663.41091383 30337461.40605545 0 30337461.40605545 1313956712.3430481 0 0 0 0 -584607170.20855558 -29115046.880054474 0 -29115046.880054474 2226562847.2733269 0 0 0 0 -303681014.14085722 -233031034.38282967 0 -233031034.38282967 1758928722.9984818 0 0 0 0 -317915960.15835917 -179629480.06416988 0 -179629480.06416988 1623786630.9796143 0 0 0 0 10609886.902518649 -611942403.09939194 0 -611942403.09939194 2204612124.7685571 0 0 0 0 778264961.29500961 22016684.197461128 0 22016684.197461128 2504314171.2803955 0 0 0 0 429096.89088700182 -1290819.6208018698 0 -1290819.6208018698 4252606.9482026696 0 0 0 0 135087957.25511017 -961908348.60995388 0 -961908348.60995388 1315114635.7614059 0 0 0 0 188089202.92516679 111932644.97332573 0 111932644.97332573 -107434431.26736832 0 0 0 0 303557208.38195074 -629501080.58940315 0 -629501080.58940315 743329930.01975632 0 0 0 0 -256133631.12874144 -410141446.68186951 0 -410141446.68186951 1785662528.3207302 0 0 0 0 -258713865.30890778 -364412020.5253371 0 -364412020.5253371 1628225125.9712524 0 0 0 0 314384367.06180006 -229148977.76959229 0 -229148977.76959229 71151563.606449127 0 0 0 0 111236746.77020288 124116049.74995804 0 124116049.74995804 7192705.549577713 0 0 0 0 -195602256.69981652 132345106.0785923 0 132345106.0785923 63012970.075149536 0 0 0 0 -43198015.11452508 100298226.33046341 0 100298226.33046341 68872131.042778015 0 0 0 0 51885.989418131969 -1181482.4498270839 0 -1181482.4498270839 10095613.874401242 0 0 0 0 31795005.0631923 45694824.098952293 0 45694824.098952293 84898599.950317383 0 0 0 0 -116288452.2825008 19408676.330913067 0 19408676.330913067 11454566.67049408 0 0 0 0 20329088.841479421 8538258.5558166504 0 8538258.5558166504 -5473479.5071983337 0 0 0 0 -21610215.954188973 112601198.85969543 0 112601198.85969543 34361481.799812317 0 0 0 0 69824677.606302977 16481301.877250671 0 16481301.877250671 -60123658.818435669 0 0 0 0 244301.27755106566 583005.12866067141 0 583005.12866067141 1491022.4596276879 0 0 0 0 -699251.88549361378 -2372784.3001622632 0 -2372784.3001622632 6538176.5122743547 0 0 0 0 21532.199106931686 -109777995.05477524 0 -109777995.05477524 -109126101.90141678 0 0 0 0 -25037959.590293884 -29106003.384056091 0 -29106003.384056091 -40401751.65196228 0 0 0 0 -3702318.6921201944 -298498.48617935181 0 -298498.48617935181 39261668.448982239 0 0 0 0 47918479.555759668 -26497543.310951233 0 -26497543.310951233 -66175519.237243652 0 0 0 0 104911879.91613626 -54358304.297492981 0 -54358304.297492981 -99406609.315475464 0 0 0 0 104519266.1792531 -12636509.018096924 0 -12636509.018096924 -205611118.09968567 0 0 0 0 -25395345.298080683 86364228.389698029 0 86364228.389698029 -130851664.93830872 0 0 0 0 32346223.130915165 -45463072.459632874 0 -45463072.459632874 117433236.49378967 0 0 0 0 76417826.094924927 35693295.218906403 0 35693295.218906403 16220014.461418152 0 0 0 0 -131021.36179198697 -267267.64874921739 0 -267267.64874921739 261264.41550439596 0 0 0 0 -1883598.5857129097 9525355.2222595215 0 9525355.2222595215 54703800.326551437 0 0 0 0 -84335650.530564666 -74685515.023790359 0 -74685515.023790359 -56705173.470977783 0 0 0 0 4968400.1003637314 -21320630.674316406 0 -21320630.674316406 6996994.1978912354 0 0 0 0 23564013.854135275 -4828913.7201766968 0 -4828913.7201766968 -100728.99142456055 0 0 0 0 -16132235.667211652 11482167.323766708 0 11482167.323766708 54448189.650772095 0 0 0 0 -37010343.783973336 -7152515.8510398865 0 -7152515.8510398865 48205219.954139709 0 0 0 0 2501822.0177652836 8109404.0264892578 0 8109404.0264892578 -27313811.665550232 0 0 0 0 -91311221.073753923 -148570726.01434422 0 -148570726.01434422 244624610.15984344 0 0 0 0 -803295.29897041759 -2524059.1800488159 0 -2524059.1800488159 8442965.1595164835 0 0 0 0 -129804239.67753494 112341186.18405151 0 112341186.18405151 106406915.04158783 0 0 0 0 55218256.98943378 -108621017.96891212 0 -108621017.96891212 174229639.66316986 0 0 0 0 186713030.63373813 -86819964.781505585 0 -86819964.781505585 93670967.277793884 0 0 0 0 -123564316.66325235 62274250.909610748 0 62274250.909610748 235984393.11386108 0 0 0 0 25735271.163995266 -62963184.634719849 0 -62963184.634719849 314976297.71247864 0 0 0 0 15050712.730458483 124430316.71318388 0 124430316.71318388 606305298.88858032 0 0 0 0 -16947816.952883601 -293772243.57677078 0 -293772243.57677078 732677371.49568939 0 0 0 0 3294825.7864003181 51048808.781772614 0 51048808.781772614 467435789.73595428 0 0 0 0 -293428446.23262751 -169754271.41069794 0 -169754271.41069794 1533661648.2201281 0 0 0 0 -110888784.04476047 43640344.294029236 0 43640344.294029236 1006271238.1560669 0 0 0 0 -197017902.8078779 -191585722.67950058 0 -191585722.67950058 1103644271.8233547 0 0 0 0 -93893357.822811604 -42032518.151893616 0 -42032518.151893616 680295230.43995285 0 0 0 0 45935397.975197792 252640512.436203 0 252640512.436203 389345942.23581696 0 0 0 0 -378060249.89038813 150828506.2433033 0 150828506.2433033 1905116912.863987 0 0 0 0 -85248490.569412947 396548677.96736526 0 396548677.96736526 1386718404.4484634 0 0 0 0 154049005.38264269 707631957.55266333 0 707631957.55266333 1408525346.2188721 0 0 0 0 -31005159.068120956 170097820.80428696 0 170097820.80428696 1505719569.8718805 0 0 0 0 -194261669.65483454 -130605370.01016808 0 -130605370.01016808 1849677041.0102882 0 0 0 0 -1004483.0212115026 -50124.462218090892 0 -50124.462218090892 3071334.0334189627 0 0 0 0 -550982901.68514347 -216751115.1554985 0 -216751115.1554985 2204812513.3418565 0 0 0 0 -25610691.625055779 133685163.06846619 0 133685163.06846619 2205402624.7136955 0 0 0 0 484859601.76241922 46945663.351364136 0 46945663.351364136 1995586708.579423 0 0 0 0 -14002145.945446771 141545290.35420036 0 141545290.35420036 2208649909.8032684 0 0 0 0 -2484556.5346253449 442162.70406076312 0 442162.70406076312 4263534.0677084504 0 0 0 0 6750271.4990201313 136830613.87351227 0 136830613.87351227 2204673325.9272614 0 0 0 0 -763612.57616489043 -646188.10045096278 0 -646188.10045096278 5084444.0928224325 0 0 0 0 140567227.16572392 751932885.96565914 0 751932885.96565914 1858130124.5751419 0 0 0 0 44014.702692835126 -961776.25773080345 0 -961776.25773080345 4476636.6716450155 0 0 0 0 401779757.47996569 239524486.92337036 0 239524486.92337036 2105827538.5437775 0 0 0 0 -498910649.61111546 -24677694.762069702 0 -24677694.762069702 2670756804.5552063 0 0 0 0 -327867408.51356077 -96466000.16443634 0 -96466000.16443634 221515627.15570068 0 0 0 0 24729508.550628304 -410847832.33353996 0 -410847832.33353996 695614768.00591278 0 0 0 0 -91604587.516732574 111340318.52245522 0 111340318.52245522 412075159.27024841 0 0 0 0 -34574525.698320106 252545616.77614027 0 252545616.77614027 2233496662.5783463 0 0 0 0 -98075439.832782507 155023580.11812592 0 155023580.11812592 2017166769.9143295 0 0 0 0 -88102177.972831845 -314021768.6689949 0 -314021768.6689949 1523444351.9990692 0 0 0 0 -22859043.757983923 -79420449.994792938 0 -79420449.994792938 1311918670.2398224 0 0 0 0 -56489022.666086674 -177024249.56026459 0 -177024249.56026459 1326864081.8268576 0 0 0 0 69424077.21056962 -266987670.09945869 0 -266987670.09945869 592913505.63385773 0 0 0 0 120612104.16801834 -133118818.63490677 0 -133118818.63490677 599548254.96734929 0 0 0 0 248946599.77897325 -125546140.23293018 0 -125546140.23293018 -169311649.56230164 0 0 0 0 54623886.476099968 190694059.28823471 0 190694059.28823471 -131364889.37674475 0 0 0 0 10237358.159476042 7227663.5718011856 0 7227663.5718011856 -133859442.86706543 0 0 0 0 -103685375.64615893 -100634288.60648346 0 -100634288.60648346 -55333482.055721283 0 0 0 0 -101548107.98831737 37502839.819034576 0 37502839.819034576 -81831048.816448212 0 0 0 0 -188369.75871960842 -1072609.2296530753 0 -1072609.2296530753 8799368.7980614752 0 0 0 0 -170569401.4067139 91797459.05141449 0 91797459.05141449 -26880695.4283638 0 0 0 0 -166476193.06140435 -70610173.580862045 0 -70610173.580862045 30938479.913368225 0 0 0 0 -141554709.22681135 -36231501.109361649 0 -36231501.109361649 -10048471.799118042 0 0 0 0 141569298.95967758 -18775395.188510895 0 -18775395.188510895 -38323377.263458252 0 0 0 0 13511707.796711445 21861607.539966583 0 21861607.539966583 -124763683.63275814 0 0 0 0 1467869.1466722665 -189107.29592061788 0 -189107.29592061788 -1068925.361554414 0 0 0 0 13979700.54290475 11943797.234255672 0 11943797.234255672 -6082228.8011016846 0 0 0 0 -11825623.903924122 -35369046.73910141 0 -35369046.73910141 -1720157.0397415161 0 0 0 0 -5115041.109719649 -5558402.9925098419 0 -5558402.9925098419 -10122939.655791283 0 0 0 0 462847.8069303488 -1340850.9771011528 0 -1340850.9771011528 8108615.9629328549 0 0 0 0 1043173.2108416345 91216.056231290102 0 91216.056231290102 -1426.2622041255236 0 0 0 0 -10407910.849396884 12523182.87946701 0 12523182.87946701 5182991.5715713501 0 0 0 0 -47722825.146775156 -27001897.432039738 0 -27001897.432039738 -12894525.420707703 0 0 0 0 -64952145.090824604 -16973728.13161087 0 -16973728.13161087 -15872535.83070755 0 0 0 0 -31163753.366956949 -40788770.823234558 0 -40788770.823234558 -48905237.722841263 0 0 0 0 -67904704.411958694 -43316157.689815521 0 -43316157.689815521 -12981756.407989502 0 0 0 0 214657.12140100449 -328022.6967446357 0 -328022.6967446357 979527.57743158191 0 0 0 0 -25127789.505227089 -13576660.740028381 0 -13576660.740028381 -5872527.1477890015 0 0 0 0 8828196.3883349895 5902302.751947403 0 5902302.751947403 4924887.1713485718 0 0 0 0 2267897.138584137 1843707.761756897 0 1843707.761756897 7338940.8032073975 0 0 0 0 -17910269.148609519 -17221572.944652557 0 -17221572.944652557 -18598089.357460022 0 0 0 0 -1854325.1813906915 -1024964.9288171679 0 -1024964.9288171679 1936432.8215148598 0 0 0 0 -38410050.040007114 -24323123.851287842 0 -24323123.851287842 9207649.2996711731 0 0 0 0 -19448145.149610043 -19033723.364807129 0 -19033723.364807129 -5113068.6752185822 0 0 0 0 -37727329.018139467 -29064724.890222549 0 -29064724.890222549 -5667709.8679733276 0 0 0 0 -23274271.792609274 -20972148.447935581 0 -20972148.447935581 865819.235206604 0 0 0 0 -56827728.065561533 -30848583.613092422 0 -30848583.613092422 -1834239.334564209 0 0 0 0 -46067531.983013153 -35708452.657150269 0 -35708452.657150269 -10530819.266448975 0 0 0 0 -45470460.408902168 -33098786.149326324 0 -33098786.149326324 -6734815.6683139801 0 0 0 0 4233781.0590183735 -5791094.1111564636 0 -5791094.1111564636 27315765.251495361 0 0 0 0 1814958.4879645444 -3089299.9310826957 0 -3089299.9310826957 4947394.2562517524 0 0 0 0 -49481639.417153358 -32121570.187791824 0 -32121570.187791824 -1790438.1076717377 0 0 0 0 -49675386.18338573 -31496113.690559387 0 -31496113.690559387 -2376959.1489925385 0 0 0 0 -46561520.720420659 -54997330.675750732 0 -54997330.675750732 -35742910.787021637 0 0 0 0 -41275293.24729383 -28210410.39468956 0 -28210410.39468956 -16968491.951992035 0 0 0 0 -46134453.114664316 -33988505.185272217 0 -33988505.185272217 473740.72184753418 0 0 0 0 22736840.392856419 1779227.2105093002 0 1779227.2105093002 17095581.989982605 0 0 0 0 -110030710.06430078 -67620887.852725983 0 -67620887.852725983 -24933658.594430923 0 0 0 0 1519866.4892018526 -2731944.2367417067 0 -2731944.2367417067 3471727.5540420264 0 0 0 0 -2209314.1149448901 32579374.702119827 0 32579374.702119827 61443781.551177979 0 0 0 0 -5721119.8892739713 12125171.706806183 0 12125171.706806183 23869559.925773621 0 0 0 0 -17928985.607778907 22912335.221382141 0 22912335.221382141 100495170.22978973 0 0 0 0 -15455621.852292106 9045430.1676278114 0 9045430.1676278114 52205521.42338562 0 0 0 0 -20541634.059646994 21118946.70318222 0 21118946.70318222 95054791.286151886 0 0 0 0 -11447452.037397757 10488692.655857086 0 10488692.655857086 105302811.25130653 0 0 0 0 -11928165.349391758 -50798.819442749023 0 -50798.819442749023 11713505.368870735 0 0 0 0 -10879343.235424146 -15803807.333646774 0 -15803807.333646774 64916595.501655579 0 0 0 0 -39580376.425028771 -3530404.9691562653 0 -3530404.9691562653 51958467.289283752 0 0 0 0 826838.63024243864 -586105.14651454892 0 -586105.14651454892 -205952.92285101116 0 0 0 0 -43557235.177827328 43941014.295295715 0 43941014.295295715 153903519.97318554 0 0 0 0 -39956183.579189263 28956276.675226212 0 28956276.675226212 163092136.57476425 0 0 0 0 -37669267.338181794 38173391.479997635 0 38173391.479997635 105376016.18676233 0 0 0 0 24535967.461103201 51947004.12859726 0 51947004.12859726 60297811.027997732 0 0 0 0 -32088555.733865976 49908282.559012413 0 49908282.559012413 120768159.35406494 0 0 0 0 65939283.542194605 38620027.188676834 0 38620027.188676834 -6605979.5377120972 0 0 0 0 23606278.016905427 92220190.826931 0 92220190.826931 67059453.475254059 0 0 0 0 19246529.911474109 53104946.24335289 0 53104946.24335289 77590936.18573761 0 0 0 0 49679945.084246278 86681627.66337204 0 86681627.66337204 84233154.665454865 0 0 0 0 1055990.0254365206 61969088.913528442 0 61969088.913528442 142911179.46727753 0 0 0 0 50345771.307022214 25282399.468984514 0 25282399.468984514 140218084.89122772 0 0 0 0 117767865.70886135 114916496.56452942 0 114916496.56452942 163982699.84910583 0 0 0 0 165331677.70276615 -29094781.47473526 0 -29094781.47473526 158386744.71040344 0 0 0 0 23825468.033237457 21200854.918441772 0 21200854.918441772 140525039.97365952 0 0 0 0 -2358285.2083544731 85381497.132648468 0 85381497.132648468 155046702.40255356 0 0 0 0 -50933096.183193684 33130828.530891418 0 33130828.530891418 174367559.99289608 0 0 0 0 -19498612.040176541 98246120.438755989 0 98246120.438755989 249518620.39949036 0 0 0 0 -19461725.742108345 -11035125.655590057 0 -11035125.655590057 110531987.47509766 0 0 0 0 298873.67624070297 552845.96599925519 0 552845.96599925519 2606174.8218739033 0 0 0 0 239575536.36975786 134472791.58306956 0 134472791.58306956 55822777.008728027 0 0 0 0 -17716985.874575496 -47467645.393226624 0 -47467645.393226624 141617833.73794174 0 0 0 0 6017999.4124207497 702674.49487876892 0 702674.49487876892 10466357.402248383 0 0 0 0 5004871.3300682306 11372548.404079437 0 11372548.404079437 7254150.3990764618 0 0 0 0 -65739255.535666525 56190079.304641724 0 56190079.304641724 13043988.38753891 0 0 0 0 3250892.6475719213 14957679.955348969 0 14957679.955348969 5394260.899324894 0 0 0 0 -60141493.829512447 53556271.916675568 0 53556271.916675568 136070395.06494904 0 0 0 0 -65527258.74820777 15244812.002479553 0 15244812.002479553 118249050.28263092 0 0 0 0 -127415054.09604494 22231721.748792648 0 22231721.748792648 122443143.15328979 0 0 0 0 -54840087.220722795 -56040701.091117859 0 -56040701.091117859 -11695694.981649399 0 0 0 0 -18004901.442679346 53537153.462619781 0 53537153.462619781 -45963893.158737183 0 0 0 0 -170924819.82929105 5599900.2142925262 0 5599900.2142925262 174577197.75726318 0 0 0 0 -84666030.622965336 -79421623.209695816 0 -79421623.209695816 -20333025.065284729 0 0 0 0 -1864104.5802239997 616831.93911926448 0 616831.93911926448 -446651.11186090112 0 0 0 0 -18870480.330560923 31514299.931749344 0 31514299.931749344 35178893.35427475 0 0 0 0 15220683.501211047 21063822.565732956 0 21063822.565732956 20619110.856868744 0 0 0 0 20639143.091370344 115957313.576931 0 115957313.576931 70461908.599863052 0 0 0 0 -102125754.50869274 -122829569.97912598 0 -122829569.97912598 -20106826.181762695 0 0 0 0 -102196355.84096569 -106950907.24186134 0 -106950907.24186134 -61638231.407478333 0 0 0 0 -11363768.341596842 4109314.5010108948 0 4109314.5010108948 24714411.924163818 0 0 0 0 -685131.7826135878 34628.418580204248 0 34628.418580204248 1713299.3067593575 0 0 0 0 -152458057.38636899 -78043009.973308563 0 -78043009.973308563 -6116053.2191734314 0 0 0 0 -45087792.151629686 -11198828.648468018 0 -11198828.648468018 86420896.439561844 0 0 0 0 -106752.42701386428 -621496.14367116243 0 -621496.14367116243 227116.01751662791 0 0 0 0 -5413086.2255722284 17150625.210138321 0 17150625.210138321 36118227.176460266 0 0 0 0 -62740477.488852859 -4895360.151676178 0 -4895360.151676178 85298354.843486786 0 0 0 0 -964614.11862976779 -265758.9619263038 0 -265758.9619263038 3274830.8311249912 0 0 0 0 -105247947.07505858 -13681831.861314297 0 -13681831.861314297 70112497.801826477 0 0 0 0 -87423999.785834074 39041985.177951813 0 39041985.177951813 8230790.4286384583 0 0 0 0 -32723047.251006126 -3945728.4846115112 0 -3945728.4846115112 22105144.562797546 0 0 0 0 -71363683.019611597 -6297122.3801422119 0 -6297122.3801422119 54718525.285488129 0 0 0 0 -16343759.074174881 36948227.848571777 0 36948227.848571777 61935041.88225174 0 0 0 0 -28700546.857764661 35995708.611579895 0 35995708.611579895 122161909.38022614 0 0 0 0 47975096.062386036 -44814631.457983017 0 -44814631.457983017 110114619.76804352 0 0 0 0 130353724.65409231 58695849.276590347 0 58695849.276590347 26934797.204971313 0 0 0 0 42561989.355057716 86504834.052513123 0 86504834.052513123 118237447.48240662 0 0 0 0 39624869.672160149 40985983.951194763 0 40985983.951194763 26897690.325210571 0 0 0 0 2235394.6086435318 37009228.477954865 0 37009228.477954865 -31781832.571246147 0 0 0 0 -38825962.548854351 36977375.943145752 0 36977375.943145752 80066079.888442993 0 0 0 0 -108436372.62370372 -25614883.977075577 0 -25614883.977075577 58146944.331008911 0 0 0 0 -34132529.869576931 25143852.01499939 0 25143852.01499939 51400411.908554077 0 0 0 0 -105637612.94567704 37222619.038219452 0 37222619.038219452 88913110.579116821 0 0 0 0 -55716406.850262165 16084266.515449524 0 16084266.515449524 41537021.815856934 0 0 0 0 -34938575.536969185 42002201.613479614 0 42002201.613479614 55676653.624629974 0 0 0 0 -20424169.42692852 32264694.332511902 0 32264694.332511902 35037756.930541992 0 0 0 0 29682531.144416809 37470790.287132263 0 37470790.287132263 26471396.818572998 0 0 0 0 32931118.508000374 21186992.754180908 0 21186992.754180908 8046669.3602905273 0 0 0 0 39688146.813423157 60232078.004753113 0 60232078.004753113 40314400.355316162 0 0 0 0 19302924.3601017 41069889.561752319 0 41069889.561752319 26110540.371788025 0 0 0 0 7592021.1345124245 58317128.431438446 0 58317128.431438446 53744030.402709961 0 0 0 0 14362807.964346409 91983096.283344269 0 91983096.283344269 123673973.20739746 0 0 0 0 86099553.532954767 -86130842.066391647 0 -86130842.066391647 65066031.458648682 0 0 0 0 179439157.65781403 38449361.54825592 0 38449361.54825592 11130845.858215332 0 0 0 0 -64678.997843256235 -140089.27940099686 0 -140089.27940099686 697748.25272995234 0 0 0 0 156900106.27404785 88415991.133102417 0 88415991.133102417 42063743.981887817 0 0 0 0 -4653474.2002440747 -5389063.5299023464 0 -5389063.5299023464 3215463.1055284888 0 0 0 0 142659823.0595665 23546279.874526978 0 23546279.874526978 -24130810.822906494 0 0 0 0 -315667.22664897982 -177169.93774566054 0 -177169.93774566054 454851.3821182847 0 0 0 0 -3284481.425436181 1766566.0989943459 0 1766566.0989943459 6691094.2121541202 0 0 0 0 -10268759.582274016 603277.00310993195 0 603277.00310993195 13934362.638656616 0 0 0 0 -11298274.869356632 6421892.8114433289 0 6421892.8114433289 11830031.257457733 0 0 0 0 28735046.682133675 22922315.820552826 0 22922315.820552826 12255152.86655426 0 0 0 0 -4466544.5231719716 6179160.1853275299 0 6179160.1853275299 11340494.177718341 0 0 0 0 21011585.386922359 17231126.003013611 0 17231126.003013611 13493464.192352295 0 0 0 0 -2255969.2234830856 26914084.501865387 0 26914084.501865387 23124213.336719513 0 0 0 0 -25437815.053714275 25084754.32611084 0 25084754.32611084 39244473.339387894 0 0 0 0 -4491761.2858871222 35432999.046812057 0 35432999.046812057 31561349.000366211 0 0 0 0 -23311315.57147646 24519921.549232483 0 24519921.549232483 29029635.974487305 0 0 0 0 -31033055.961831808 14953674.021697998 0 14953674.021697998 31932005.305315971 0 0 0 0 -31530574.499623299 20853403.669937134 0 20853403.669937134 38514933.774465561 0 0 0 0 -21861333.200005174 25904462.853187561 0 25904462.853187561 34568934.647781372 0 0 0 0 74417977.559110656 49932837.053725362 0 49932837.053725362 -8213825.6926727295 0 0 0 0 -1049483.1513692467 1659718.5103114359 0 1659718.5103114359 7736250.2687256038 0 0 0 0 -4419691.3311492391 3505268.8806829005 0 3505268.8806829005 568495.37472157925 0 0 0 0 -14257639.425486799 12652313.831478044 0 12652313.831478044 15363086.254497528 0 0 0 0 8322203.7726689186 23323646.438914232 0 23323646.438914232 47329799.623460561 0 0 0 0 2861065.6499269009 35719060.540260315 0 35719060.540260315 -7505405.5828511715 0 0 0 0 19712062.945077419 78280470.045257568 0 78280470.045257568 -9096172.4164402485 0 0 0 0 28347078.726170659 73084052.178546906 0 73084052.178546906 -5733262.7019329071 0 0 0 0 45156771.737261772 1900733.4303340912 0 1900733.4303340912 30849071.091094971 0 0 0 0 -56336276.629393101 107986022.86734009 0 107986022.86734009 144619513.36547852 0 0 0 0 286484621.85637361 175198322.66202545 0 175198322.66202545 47583499.80519104 0 0 0 0 -86880880.292784691 8304078.9119033813 0 8304078.9119033813 55329188.751312256 0 0 0 0 -102128511.75776196 2141815.0232925415 0 2141815.0232925415 88267924.382030487 0 0 0 0 -22963078.874099225 210606676.70235825 0 210606676.70235825 255928053.58163452 0 0 0 0 -66120495.633536339 69628832.515597343 0 69628832.515597343 58000266.560333252 0 0 0 0 -31259318.708766222 68781803.848838806 0 68781803.848838806 8243747.9346160889 0 0 0 0 -21843647.200600147 7963035.2082595825 0 7963035.2082595825 53126675.785858154 0 0 0 0 2192213.5651187897 7624972.310382843 0 7624972.310382843 27262172.879089355 0 0 0 0 -16734631.482118487 33122933.419212341 0 33122933.419212341 48940317.274593353 0 0 0 0 -5392209.8840346197 10280347.847352777 0 10280347.847352777 12723891.188540116 0 0 0 0 -99355622.049548149 -3562991.1921157837 0 -3562991.1921157837 71296975.139154434 0 0 0 0 -7033343.8704420775 233414.3696828261 0 233414.3696828261 38870214.127616316 0 0 0 0 -6034624.4073047731 -166254.79075737298 0 -166254.79075737298 40244977.305176601 0 0 0 0 -5444402.3526175022 6688626.0989341736 0 6688626.0989341736 28286713.298751831 0 0 0 0 -6711041.5921656955 906437.20133926719 0 906437.20133926719 36205357.318243682 0 0 0 0 -3467776.4274806976 -36214993.41558075 0 -36214993.41558075 23301835.361251831 0 0 0 0 -2733767.3968961239 -40108811.247246742 0 -40108811.247246742 35755158.026306152 0 0 0 0 11203169.41299057 -28016164.185035706 0 -28016164.185035706 26147638.639003754 0 0 0 0 -93994514.192290545 -106304110.8836441 0 -106304110.8836441 -16909886.698493958 0 0 0 0 -977722.42700195312 -2525941.5391387939 0 -2525941.5391387939 172137003.0121994 0 0 0 0 170545.58046317101 -79877429.119458199 0 -79877429.119458199 46380589.700866699 0 0 0 0 -5792826.14681077 -25967788.755184174 0 -25967788.755184174 58636092.003921509 0 0 0 0 -6736279.1152505875 -12258839.869018555 0 -12258839.869018555 22195012.551164627 0 0 0 0 -69790217.207904339 -38113035.87153244 0 -38113035.87153244 41266693.400802612 0 0 0 0 -8220740.7258174447 -12907460.207038164 0 -12907460.207038164 61356449.837858289 0 0 0 0 -1701144.9049493866 5915339.2298183292 0 5915339.2298183292 13581530.503999248 0 0 0 0 -173351691.35098195 -177004291.58525085 0 -177004291.58525085 -27314371.759572983 0 0 0 0 -226065177.80350184 88207335.22064209 0 88207335.22064209 119635937.33765411 0 0 0 0 -334485620.73626363 -28852084.361650467 0 -28852084.361650467 224278747.68389893 0 0 0 0 -238861505.4390302 -303658475.29936981 0 -303658475.29936981 123307039.53421021 0 0 0 0 -86844703.507648945 -189372523.41482544 0 -189372523.41482544 25893066.548904419 0 0 0 0 -350113135.91722238 -9464851.3031616211 0 -9464851.3031616211 200195580.650177 0 0 0 0 -189297474.09213161 411557445.37057495 0 411557445.37057495 124655442.64553452 0 0 0 0 393423.55868434906 101178804.46537018 0 101178804.46537018 21857865.494300842 0 0 0 0 10378991.165489197 79229411.976409912 0 79229411.976409912 37181715.302387238 0 0 0 0 39204616.565003037 66987642.769287109 0 66987642.769287109 10414017.981201172 0 0 0 0 -29188462.487717628 -78715850.265968323 0 -78715850.265968323 -113343428.5296936 0 0 0 0 58470203.130600452 92642722.18611908 0 92642722.18611908 -235140988.49927521 0 0 0 0 264604462.808052 253817698.995224 0 253817698.995224 424656863.96076202 0 0 0 0 69207706.970860943 24980891.750143051 0 24980891.750143051 165443589.97538757 0 0 0 0 154364657.3880288 137772507.87384796 0 137772507.87384796 89776624.258560181 0 0 0 0 125527374.9983148 -163984482.37924957 0 -163984482.37924957 20374526.774778366 0 0 0 0 27377433.206114739 -366457427.93908119 0 -366457427.93908119 242150597.7265625 0 0 0 0 516625897.75432432 -64322127.79750061 0 -64322127.79750061 39407958.028541565 0 0 0 0 241097394.70954978 179728093.12707901 0 179728093.12707901 81254298.086784363 0 0 0 0 -53321965.882763058 208623791.30488586 0 208623791.30488586 598770895.09947968 0 0 0 0 -78998679.528506041 29847769.509487152 0 29847769.509487152 -86565665.046577454 0 0 0 0 -91687599.558820963 270543024.36526489 0 270543024.36526489 259751466.7833786 0 0 0 0 1044761.2884039851 2021882.1155346185 0 2021882.1155346185 6085419.3126908541 0 0 0 0 286796670.19914269 -273936740.70540619 0 -273936740.70540619 168333598.13925171 0 0 0 0 23424946.622484624 -60462708.750205994 0 -60462708.750205994 535160089.05455971 0 0 0 0 106173178.731457 -76730227.307014465 0 -76730227.307014465 -44446950.957929611 0 0 0 0 -65565558.820688248 41963016.671169281 0 41963016.671169281 13983522.160438538 0 0 0 0 -44459894.152321398 -126939408.38981628 0 -126939408.38981628 -28158232.034866333 0 0 0 0 -187160.8415443736 949921.51762382593 0 949921.51762382593 1326064.344633162 0 0 0 0 -236630656.15222919 70367207.512168884 0 70367207.512168884 66620004.58757019 0 0 0 0 46372522.120305642 253198355.60679626 0 253198355.60679626 151763042.8494873 0 0 0 0 -6552795.7302591689 37844678.56427002 0 37844678.56427002 14243037.731620789 0 0 0 0 -71572155.883359671 39231072.034984589 0 39231072.034984589 -8069616.2218170166 0 0 0 0 -98587251.121130764 3145452.4835090637 0 3145452.4835090637 -13105048.308128357 0 0 0 0 958099.98148955056 8164127.7519873735 0 8164127.7519873735 4743299.638790071 0 0 0 0 -81895229.410301924 41590422.877876282 0 41590422.877876282 9819470.6370849609 0 0 0 0 -68879676.248796821 30888113.679477692 0 30888113.679477692 9735125.2385101318 0 0 0 0 -44347379.66005373 19416040.648044586 0 19416040.648044586 937408.07483673096 0 0 0 0 2026996.5207623742 6084005.363120351 0 6084005.363120351 17753405.872346997 0 0 0 0 -83105245.788693428 28482231.691879272 0 28482231.691879272 381479016.31958008 0 0 0 0 -67769016.077861309 34500199.660064697 0 34500199.660064697 21369167.751548767 0 0 0 0 -56329070.997968197 42477251.429466248 0 42477251.429466248 14765647.775260925 0 0 0 0 -66003106.883357763 35022233.926784515 0 35022233.926784515 12737650.185379028 0 0 0 0 -64072915.755069256 39498229.364067078 0 39498229.364067078 12064456.703653336 0 0 0 0 -60760716.990450442 26126146.843841553 0 26126146.843841553 10927137.516746521 0 0 0 0 -72486029.607491255 28515690.804855347 0 28515690.804855347 -1415241.7354431152 0 0 0 0 -58283038.284446239 48630411.065793991 0 48630411.065793991 11059800.639091492 0 0 0 0 -56251143.392078571 44331446.490339279 0 44331446.490339279 -34753964.554481506 0 0 0 0 685889.092131629 -338771.95556341857 0 -338771.95556341857 7641906.3035706878 0 0 0 0 -43744609.631903768 -42321963.372077942 0 -42321963.372077942 60552357.648361206 0 0 0 0 -74027880.757118016 33342045.522001266 0 33342045.522001266 14497249.581382751 0 0 0 0 -78260150.82539916 37062589.101873398 0 37062589.101873398 15008421.868858337 0 0 0 0 -72363372.877036214 41727462.614967346 0 41727462.614967346 12948391.876995087 0 0 0 0 5941309.4489394724 18849335.53966938 0 18849335.53966938 47211990.602246016 0 0 0 0 -71502779.951467633 107497665.36752892 0 107497665.36752892 21751922.444190979 0 0 0 0 26609736.506530523 85317944.202594757 0 85317944.202594757 10780740.720258713 0 0 0 0 17391054.9370507 61174300.141969681 0 61174300.141969681 37088826.840309143 0 0 0 0 51688467.58385098 10139866.529884338 0 10139866.529884338 30369781.162059784 0 0 0 0 -242504024.21358514 137128033.59594536 0 137128033.59594536 104211095.18171692 0 0 0 0 -135262572.4607923 23216824.059314728 0 23216824.059314728 153707184.85643387 0 0 0 0 -186549.66803155764 5069620.8506989647 0 5069620.8506989647 51935675.174292088 0 0 0 0 -147279178.34250998 -273035689.42037964 0 -273035689.42037964 345626373.10651398 0 0 0 0 47259184.572563171 -128554.1485710144 0 -128554.1485710144 -214766491.25923157 0 0 0 0 35606738.269556642 44856567.627840042 0 44856567.627840042 38942570.7003479 0 0 0 0 52322324.01009798 -22940993.86713028 0 -22940993.86713028 312693249.36136246 0 0 0 0 53504034.153396368 -43606431.098602295 0 -43606431.098602295 263024298.29013157 0 0 0 0 19678586.4347139 -81686859.315361977 0 -81686859.315361977 254531288.55899811 0 0 0 0 31770864.514318585 33203768.00818634 0 33203768.00818634 213010971.27334595 0 0 0 0 610132.75665947516 -1160245.193439804 0 -1160245.193439804 1555329.9262243807 0 0 0 0 -16978302.383874416 -143990257.51214981 0 -143990257.51214981 -105258119.97952271 0 0 0 0 -58381850.739938021 -105881173.66514587 0 -105881173.66514587 -13966445.771903992 0 0 0 0 -291392294.6059792 -71665334.008106232 0 -71665334.008106232 123620882.05090332 0 0 0 0 -171399862.31764579 -58994652.207759857 0 -58994652.207759857 -31384575.085388184 0 0 0 0 -868685.7672806168 1168585.7723666392 0 1168585.7723666392 45671258.714434028 0 0 0 0 -113326296.85315919 15176979.31892395 0 15176979.31892395 -50637044.644441605 0 0 0 0 -102378231.36541657 13380954.913154602 0 13380954.913154602 90212691.263801575 0 0 0 0 -7224526.1873654872 6681535.3865623474 0 6681535.3865623474 19634530.426453114 0 0 0 0 -2626758.6532252133 26929333.646923065 0 26929333.646923065 70692213.143096924 0 0 0 0 -7829318.660020113 78428211.767864227 0 78428211.767864227 117543517.51923752 0 0 0 0 -71835015.370189667 9786750.4651794434 0 9786750.4651794434 61801778.849411011 0 0 0 0 59539489.969298124 29848907.835597992 0 29848907.835597992 43994839.552734375 0 0 0 0 -12014487.998012006 -32778907.526657104 0 -32778907.526657104 200681898.00019455 0 0 0 0 -68198123.722851038 82373152.097557068 0 82373152.097557068 -18376929.773170471 0 0 0 0 70536399.8649351 -117577100.5704422 0 -117577100.5704422 136044571.91331482 0 0 0 0 2198132.6680107079 1404079.9419155717 0 1404079.9419155717 -919681.42581236362 0 0 0 0 57281330.10485369 -47891120.981285095 0 -47891120.981285095 27893221.62789917 0 0 0 0 -36744274.793072224 45896500.862960815 0 45896500.862960815 74857860.119369507 0 0 0 0 -55496176.442042232 14395094.794197083 0 14395094.794197083 18986420.135417938 0 0 0 0 -68649382.762508005 83973129.720817327 0 83973129.720817327 45356749.828140259 0 0 0 0 -4696372.9123949464 8377247.3960744217 0 8377247.3960744217 25481635.7819556 0 0 0 0 -127527251.1334424 -29978391.193582535 0 -29978391.193582535 114072237.77029419 0 0 0 0 -72685868.115826607 -68505788.616973877 0 -68505788.616973877 134988453.30722809 0 0 0 0 -36957533.204191208 -14458547.050437927 0 -14458547.050437927 -36719094.876689911 0 0 0 0 -3228396.5522654513 1371989.4334495068 0 1371989.4334495068 24742594.686248958 0 0 0 0 -22821553.429682732 20963563.488399506 0 20963563.488399506 -15086707.841845274 0 0 0 0 -45309159.828549564 27044944.333166122 0 27044944.333166122 27487103.190284729 0 0 0 0 -23876713.060792208 8663925.396774292 0 8663925.396774292 20227327.055109501 0 0 0 0 29506349.361426711 27432819.556297302 0 27432819.556297302 -1265992.1808319092 0 0 0 0 29671926.068945754 29489267.000540495 0 29489267.000540495 -8731023.2823944092 0 0 0 0 -1385166.1764655067 -1061525.2036587894 0 -1061525.2036587894 3974654.7497830391 0 0 0 0 94242123.803614318 55299235.402591705 0 55299235.402591705 -8342300.7746353149 0 0 0 0 29872765.391955286 36722163.286338806 0 36722163.286338806 -13230735.780960083 0 0 0 0 -47984632.126351595 65502723.638877869 0 65502723.638877869 22749103.102844238 0 0 0 0 28644976.858585477 36274157.342895508 0 36274157.342895508 -1037089.2891731262 0 0 0 0 -78126785.557444096 103488501.8114624 0 103488501.8114624 -526503.69888305664 0 0 0 0 11961556.787343264 38868512.079948425 0 38868512.079948425 1160526.873966217 0 0 0 0 13688311.616428047 50978110.516373634 0 50978110.516373634 77385196.568138123 0 0 0 0 165765933.52000844 20271820.176418304 0 20271820.176418304 58727106.309057236 0 0 0 0 -40801543.766823873 -61980029.119141579 0 -61980029.119141579 -63073930.148200989 0 0 0 0 -10564908.045639127 39175802.459078789 0 39175802.459078789 268051391.72972107 0 0 0 0 146409725.82624885 105932345.82629395 0 105932345.82629395 170935568.64781189 0 0 0 0 168823629.69919491 72068462.183753967 0 72068462.183753967 -3007332.0715332031 0 0 0 0 13518321.852153778 35366438.113412857 0 35366438.113412857 -34658360.241470337 0 0 0 0 -162674568.5557369 21981924.432395935 0 21981924.432395935 47328727.770576477 0 0 0 0 -270183.42891989369 2643566.2238071635 0 2643566.2238071635 9536489.4288644493 0 0 0 0 1994989.9157734711 10766041.206130914 0 10766041.206130914 32440235.134727657 0 0 0 0 -68035893.09129715 53689295.455410004 0 53689295.455410004 12431765.256515503 0 0 0 0 -45114467.061788797 29680328.312351227 0 29680328.312351227 7248742.4546051025 0 0 0 0 4024691.2717451928 10295811.01723171 0 10295811.01723171 25263097.931344658 0 0 0 0 -40893019.468061209 11854187.008728027 0 11854187.008728027 -10112303.010311127 0 0 0 0 -112649925.93042004 171244546.56473541 0 171244546.56473541 89823105.275222778 0 0 0 0 11776776.38363564 95587052.000534058 0 95587052.000534058 -84965284.066871643 0 0 0 0 -9990136.8985065222 -401218028.12329865 0 -401218028.12329865 254973586.47195816 0 0 0 0 -163580065.93054795 -54572984.676456451 0 -54572984.676456451 748144123.42945862 0 0 0 0 32769019.235350654 -25893766.971588135 0 -25893766.971588135 261530426.98397827 0 0 0 0 162670313.48401129 181667516.22080326 0 181667516.22080326 341155738.95999146 0 0 0 0 -14778.997995824611 -1042447.5122150294 0 -1042447.5122150294 2700942.9253765047 0 0 0 0 -9131673.861305356 46686056.3697052 0 46686056.3697052 454687428.8377986 0 0 0 0 21279273.284057975 47578373.237892151 0 47578373.237892151 454708906.63232422 0 0 0 0 -77772256.087636054 108635953.25875854 0 108635953.25875854 599942389.87846375 0 0 0 0 -41633587.012963772 -16771999.72895813 0 -16771999.72895813 -230453518.74979019 0 0 0 0 -40027575.493485689 -111043652.08975983 0 -111043652.08975983 -1163217.146446228 0 0 0 0 -108047969.19730961 -60603054.778249741 0 -60603054.778249741 -26208800.997467041 0 0 0 0 2014248.1861476214 -1726431.87296772 0 -1726431.87296772 1004708.3946599886 0 0 0 0 73986084.423340321 -195819059.56472778 0 -195819059.56472778 -328829276.12484741 0 0 0 0 -41488637.771454275 -240676948.59535217 0 -240676948.59535217 -61571474.755187988 0 0 0 0 34181330.128034115 -237606908.44171143 0 -237606908.44171143 -250602507.94987488 0 0 0 0 102379723.42529607 -205136161.20745087 0 -205136161.20745087 -101736576.55065918 0 0 0 0 -28458416.817887068 -74820918.591850281 0 -74820918.591850281 134630851.55567932 0 0 0 0 -29270559.430124849 -97778547.909238338 0 -97778547.909238338 -13298694.442047119 0 0 0 0 19568759.43125385 -121014731.40496254 0 -121014731.40496254 178703666.88417053 0 0 0 0 -90489276.388161361 -63935654.119258642 0 -63935654.119258642 35080055.630783081 0 0 0 0 -87767517.268604517 -22627715.312870026 0 -22627715.312870026 151828862.95943451 0 0 0 0 -55821287.016745925 14018496.161636353 0 14018496.161636353 82536743.96055603 0 0 0 0 -52073129.011012077 9178775.4221763611 0 9178775.4221763611 88577971.03036499 0 0 0 0 -25430313.789746761 25728134.849117279 0 25728134.849117279 130912326.07830048 0 0 0 0 -29513121.254776597 37724183.658203125 0 37724183.658203125 98720658.213100433 0 0 0 0 32041756.307200044 122982110.58288574 0 122982110.58288574 291168938.55348206 0 0 0 0 -18859636.326192617 -20767391.710506439 0 -20767391.710506439 20262219.398605347 0 0 0 0 -37739965.740017235 -38714772.744462729 0 -38714772.744462729 10423573.057144165 0 0 0 0 -59881691.016192913 -23294144.250293732 0 -23294144.250293732 36624403.999649048 0 0 0 0 -36762408.38393259 -25274952.945838928 0 -25274952.945838928 23677369.625991821 0 0 0 0 -15858056.599471807 -43442957.829174042 0 -43442957.829174042 -63825745.888221741 0 0 0 0 -67984083.513005733 -65158090.137929916 0 -65158090.137929916 2758335.8193206787 0 0 0 0 -57534286.223150492 -50058871.659328461 0 -50058871.659328461 -25444685.757148743 0 0 0 0 -8879843.8982973099 -21025589.470933914 0 -21025589.470933914 -12608767.047668457 0 0 0 0 -12130576.39091754 1292749.4876747131 0 1292749.4876747131 40976399.068862915 0 0 0 0 3871179.6890460253 -3963710.9588224441 0 -3963710.9588224441 1693253.4537656158 0 0 0 0 -43118987.748450041 -81248821.423736572 0 -81248821.423736572 -81721951.644195557 0 0 0 0 -918846.33985638618 -58698910.721260071 0 -58698910.721260071 311206807.87850189 0 0 0 0 212467164.87778819 19304875.996276855 0 19304875.996276855 140265445.36618042 0 0 0 0 -191312597.98699576 -186330181.83609772 0 -186330181.83609772 201168558.71128845 0 0 0 0 -147840660.7169579 -100551220.87380409 0 -100551220.87380409 302908574.03005981 0 0 0 0 -47630482.592280626 -179767862.32746887 0 -179767862.32746887 341280666.02671814 0 0 0 0 32326825.342279315 -140343220.01104546 0 -140343220.01104546 180221571.75319672 0 0 0 0 -35258991.138319731 172737687.36119843 0 172737687.36119843 612544472.39666748 0 0 0 0 1553229.5537985819 -1472037.1895985305 0 -1472037.1895985305 1503111.753219381 0 0 0 0 4446739.7200136185 -37061101.54227829 0 -37061101.54227829 -103911258.75537872 0 0 0 0 -6052915.37715209 -80261940.937950134 0 -80261940.937950134 347474697.37219238 0 0 0 0 -18279991.163292885 104423087.66834259 0 104423087.66834259 441025854.40482712 0 0 0 0 -17093807.515603542 24164995.725097656 0 24164995.725097656 49819482.220985413 0 0 0 0 4300479.657991861 -4091259.8386369795 0 -4091259.8386369795 3193624.0273378938 0 0 0 0 28596106.135220051 -91854356.936983109 0 -91854356.936983109 -39331312.432662964 0 0 0 0 53188388.355112076 32279391.947425842 0 32279391.947425842 31395835.931396484 0 0 0 0 -31932096.208376884 20822509.179954529 0 20822509.179954529 61248240.706214905 0 0 0 0 -42339541.135972738 4155971.2253646851 0 4155971.2253646851 84138075.490188599 0 0 0 0 19923005.852352142 -20471735.41532135 0 -20471735.41532135 93625665.99546814 0 0 0 0 3316111.3454691879 -4465078.4450487643 0 -4465078.4450487643 3629065.7283116654 0 0 0 0 -12823125.167245626 -20157066.76442337 0 -20157066.76442337 3521109.7457942963 0 0 0 0 260445.80646180431 -787805.97823805548 0 -787805.97823805548 143816.09263589978 0 0 0 0 -534205.31349515915 17180831.024940491 0 17180831.024940491 34699809.701553345 0 0 0 0 199996.4217786321 -5069907.855802007 0 -5069907.855802007 18957049.336644202 0 0 0 0 -52477142.23473075 15502096.506988525 0 15502096.506988525 27185939.883239746 0 0 0 0 -9711030.182012409 48771463.97984314 0 48771463.97984314 44739776.041416883 0 0 0 0 -26496804.673844814 -19644659.437927246 0 -19644659.437927246 15774566.393432617 0 0 0 0 -8611969.9843441546 -15656949.245056629 0 -15656949.245056629 7878076.1494140625 0 0 0 0 1902369.8703276366 -13242134.247085571 0 -13242134.247085571 41108756.941040039 0 0 0 0 10507331.930850018 -19185391.768520355 0 -19185391.768520355 33607730.302947998 0 0 0 0 -90183.08375743404 -21405198.209960938 0 -21405198.209960938 56597911.113250732 0 0 0 0 -338441.84217877372 685871.5298820585 0 685871.5298820585 27450.361925840378 0 0 0 0 21528892.269833088 11902021.454990387 0 11902021.454990387 1173943.0001678467 0 0 0 0 15699384.62059129 -34987100.851966858 0 -34987100.851966858 68559331.139621735 0 0 0 0 -7392957.3339520097 9128665.2257385254 0 9128665.2257385254 3327104.3463821411 0 0 0 0 -6298535.9347545588 4263083.5354686528 0 4263083.5354686528 763536.97863421589 0 0 0 0 -21855224.573678493 10720395.271446228 0 10720395.271446228 33677842.738176346 0 0 0 0 -2289181.3478676081 2292995.1728820801 0 2292995.1728820801 -91963.659828186035 0 0 0 0 -38112504.215745926 11184647.272460938 0 11184647.272460938 47210453.812240601 0 0 0 0 -43870308.415532112 -9432969.6345977783 0 -9432969.6345977783 22137090.408432007 0 0 0 0 -4688659.2185125351 9044947.7944869995 0 9044947.7944869995 27209504.831958771 0 0 0 0 -3929421.181116743 100280.71929444373 0 100280.71929444373 7259323.3257277608 0 0 0 0 2096966.0485747959 -1433579.246383667 0 -1433579.246383667 12069798.584716797 0 0 0 0 8668297.864618063 -9089922.7210941315 0 -9089922.7210941315 2170558.2907714844 0 0 0 0 -4237.3273310830928 -7180853.3960914612 0 -7180853.3960914612 23006892.601043701 0 0 0 0 5130772.4235460032 -10758893.224235535 0 -10758893.224235535 7295513.2220153809 0 0 0 0 6323703.043478759 -4453562.9826278687 0 -4453562.9826278687 13269578.222198486 0 0 0 0 -1476779.6881099811 2137216.8482547104 0 2137216.8482547104 -487825.63172909617 0 0 0 0 851441.2623781485 -9325466.7712898254 0 -9325466.7712898254 18581481.226104736 0 0 0 0 -1176318.5881204433 -180934.19507841766 0 -180934.19507841766 4027917.6870795786 0 0 0 0 1993.9647145880497 -2338395.7610778809 0 -2338395.7610778809 5950537.7859649658 0 0 0 0 4513690.537641488 -4237922.1198101044 0 -4237922.1198101044 67709615.120231628 0 0 0 0 1342926.4419353572 -1648633.8959631994 0 -1648633.8959631994 1560894.5404575765 0 0 0 0 84148820.581144452 56170436.680732727 0 56170436.680732727 64361731.50929141 0 0 0 0 5418084.4828623477 -5587931.3671813607 0 -5587931.3671813607 4548730.969678551 0 0 0 0 -14278072.578194141 -25706398.44002533 0 -25706398.44002533 -39360.628949165344 0 0 0 0 -57401874.468928337 -3242703.320892334 0 -3242703.320892334 43826393.509782791 0 0 0 0 -51753200.554064751 -17984089.053817749 0 -17984089.053817749 29419935.09954071 0 0 0 0 -23077.30026063948 -2767969.7862567902 0 -2767969.7862567902 202653469.71392822 0 0 0 0 12167350.78646289 -36618106.816465378 0 -36618106.816465378 -41623321.761951447 0 0 0 0 277008.12461461732 -948667.8926635161 0 -948667.8926635161 2464583.4050114155 0 0 0 0 -6865057.9034479856 129516805.09636688 0 129516805.09636688 421163868.57390213 0 0 0 0 89495373.285201102 -101071600.56190491 0 -101071600.56190491 435423501.42660522 0 0 0 0 111671577.57401347 79980172.51348877 0 79980172.51348877 22069574.834815979 0 0 0 0 403360.1995097269 -2277640.215722844 0 -2277640.215722844 5008379.8299074769 0 0 0 0 24811684.009998322 -58667262.214256287 0 -58667262.214256287 34046860.941689014 0 0 0 0 -74879291.828545406 -178855729.82496071 0 -178855729.82496071 -133137834.39662933 0 0 0 0 -123477710.01083112 74120728.663608611 0 74120728.663608611 394580392.73762512 0 0 0 0 -128596751.04065004 -192290349.84896469 0 -192290349.84896469 -39522636.433792114 0 0 0 0 189075154.22494057 19716777.032878876 0 19716777.032878876 -156430244.13336706 0 0 0 0 18369445.880224876 124162380.29654884 0 124162380.29654884 190509589.00402832 0 0 0 0 -7703589.6123063415 -901658.42732954025 0 -901658.42732954025 30856144.675022125 0 0 0 0 -41391346.395810507 -10723333.988564968 0 -10723333.988564968 110293527.38343811 0 0 0 0 -843375.65624308272 72038605.335445404 0 72038605.335445404 73028275.930221558 0 0 0 0 -36038877.430157155 -1250043.7537574768 0 -1250043.7537574768 29349728.50112915 0 0 0 0 10694.546884396244 23510.787250909954 0 23510.787250909954 755659.34399232268 0 0 0 0 30445419.962289229 9984127.8715057373 0 9984127.8715057373 17478943.270980835 0 0 0 0 22696345.845245212 -22155664.153274536 0 -22155664.153274536 57955994.142578125 0 0 0 0 -22953574.332593292 19178244.45791626 0 19178244.45791626 38535004.313735962 0 0 0 0 330410.1073616147 26658371.345550537 0 26658371.345550537 35220551.486862183 0 0 0 0 -8404305.2122673392 -9476810.476436615 0 -9476810.476436615 -4873754.1318511963 0 0 0 0 2017998.8825640678 6270490.5498504639 0 6270490.5498504639 15544915.644577026 0 0 0 0 537583.18021203578 -4487271.6680374146 0 -4487271.6680374146 18239101.312225342 0 0 0 0 15707183.572818011 -4009601.796207428 0 -4009601.796207428 2103370.4898681641 0 0 0 0 12076236.846675787 -6295482.0325546265 0 -6295482.0325546265 17010871.519805908 0 0 0 0 23059081.697514348 -5172186.8938598633 0 -5172186.8938598633 -313157.30778503418 0 0 0 0 17782486.755464476 6417770.3639678955 0 6417770.3639678955 23300065.701301575 0 0 0 0 23117695.77448146 1929714.6069488525 0 1929714.6069488525 9485585.3992462158 0 0 0 0 26185.81099043223 441855.74114990234 0 441855.74114990234 88431039.732940674 0 0 0 0 2981834.5865575988 -31963159.844520569 0 -31963159.844520569 21234707.919534683 0 0 0 0 -8321425.3249793323 -20749001.598655701 0 -20749001.598655701 193253286.91239929 0 0 0 0 9182801.4019172005 -4603891.9060592651 0 -4603891.9060592651 73209675.426818848 0 0 0 0 8638431.3748373166 -31286626.242729187 0 -31286626.242729187 192727616.80525151 0 0 0 0 -11421575.942813009 -130986063.2065773 0 -130986063.2065773 138108248.25466919 0 0 0 0 11017293.747571707 -48782357.186012268 0 -48782357.186012268 192755160.02185059 0 0 0 0 63979235.496999025 -23727387.591720581 0 -23727387.591720581 40387618.881790161 0 0 0 0 155009374.14886731 -87761818.740104675 0 -87761818.740104675 -49594728.299865723 0 0 0 0 177398059.06184107 205150236.8516922 0 205150236.8516922 214667844.48374939 0 0 0 0 -30643.1961863826 192959.4499733597 0 192959.4499733597 2691346.9695894718 0 0 0 0 104514596.4860709 156315460.77338982 0 156315460.77338982 124215575.90994263 0 0 0 0 38430097.413853616 82658162.790725708 0 82658162.790725708 92405040.929931641 0 0 0 0 86818677.209291041 42050480.7684021 0 42050480.7684021 -6002973.9405517578 0 0 0 0 117031388.30599329 101016275.46867371 0 101016275.46867371 55716464.655151367 0 0 0 0 -5954742.0594523549 159451400.6329422 0 159451400.6329422 294596022.86388397 0 0 0 0 13680799.457255483 113574315.10890198 0 113574315.10890198 150041012.71836853 0 0 0 0 46432821.270251527 93205027.06186676 0 93205027.06186676 90355345.161376953 0 0 0 0 -45829287.255443513 77536206.131767273 0 77536206.131767273 201920517.67694855 0 0 0 0 -46387579.492263198 84408383.103149414 0 84408383.103149414 187891814.29790878 0 0 0 0 -14519349.799975038 44836667.946372986 0 44836667.946372986 86737858.389984131 0 0 0 0 4949718.1317118108 46316819.732582092 0 46316819.732582092 62671704.48336792 0 0 0 0 -1258849.1669844389 69953839.891296387 0 69953839.891296387 130885064.31268692 0 0 0 0 14687699.4090105 40263748.842540741 0 40263748.842540741 66358628.117095947 0 0 0 0 2992537.8527969122 16055953.731880188 0 16055953.731880188 33397180.95476532 0 0 0 0 308140.29223120213 14989984.43372345 0 14989984.43372345 36820162.793548584 0 0 0 0 -1712053.7851853371 37105802.501121521 0 37105802.501121521 88404141.847105026 0 0 0 0 -72287359.799336419 -35333016.029279709 0 -35333016.029279709 55824134.418273926 0 0 0 0 37649847.780338645 164937403.48793411 0 164937403.48793411 -30220624.699241161 0 0 0 0 -87341.759129477461 -161057.86797134951 0 -161057.86797134951 5639937.5940167606 0 0 0 0 -45914050.850425497 4901898.2694168091 0 4901898.2694168091 41138165.916992188 0 0 0 0 4260199.4483487308 -15655060.652931213 0 -15655060.652931213 22982835.503715515 0 0 0 0 -33098904.382274855 -10904473.999572754 0 -10904473.999572754 -514095.61787033081 0 0 0 0 -1963333.415844311 1850360.3425753266 0 1850360.3425753266 6457597.2217878997 0 0 0 0 26636471.438518792 45572144.348976135 0 45572144.348976135 -35697672.61428833 0 0 0 0 -4078921.01084131 13872803.93711853 0 13872803.93711853 -2954948.7178039551 0 0 0 0 -4841825.8583174944 -12390424.734733582 0 -12390424.734733582 -8725589.6375274658 0 0 0 0 -8011514.5431008488 15256333.308840752 0 15256333.308840752 36880952.301879883 0 0 0 0 -9776760.3108156621 19110970.628276825 0 19110970.628276825 34521550.422698975 0 0 0 0 -14633217.899676859 -8782768.3520202637 0 -8782768.3520202637 14191535.097549438 0 0 0 0 -6440106.6910263058 9086634.272634849 0 9086634.272634849 282460.13729864825 0 0 0 0 -20329215.747348785 -3247974.6533966064 0 -3247974.6533966064 35384286.297637939 0 0 0 0 636110.0996838212 983887.50801277161 0 983887.50801277161 -29989697.169364929 0 0 0 0 -23065529.35109853 2277169.9104003906 0 2277169.9104003906 24064737.473709106 0 0 0 0 -3450038.2480405066 3718266.6837085187 0 3718266.6837085187 4347814.5940734148 0 0 0 0 -2092651.7738690621 3186965.8281007204 0 3186965.8281007204 9268488.6160267591 0 0 0 0 -17319828.941277951 -5976674.9981384277 0 -5976674.9981384277 -9103120.6900634766 0 0 0 0 -10086412.793325244 8048289.3645724207 0 8048289.3645724207 12917247.714960262 0 0 0 0 -5347610.259522438 6866747.5914916992 0 6866747.5914916992 13894544.640014648 0 0 0 0 -12172247.568932874 12439051.087100418 0 12439051.087100418 12900506.965126067 0 0 0 0 -3406686.2991280481 3781224.7356231809 0 3781224.7356231809 3635474.581940813 0 0 0 0 -2521825.0488883406 4488473.9368515015 0 4488473.9368515015 11050635.876800537 0 0 0 0 -6543259.7116508763 4398350.2262062728 0 4398350.2262062728 10895610.867527515 0 0 0 0 -1235856.8526092153 2926559.7534542084 0 2926559.7534542084 10355619.705551147 0 0 0 0 -3338458.0877366737 -5834600.4642868042 0 -5834600.4642868042 20915771.987509489 0 0 0 0 -67542.780154405598 -463594.50636963546 0 -463594.50636963546 5323862.7747705877 0 0 0 0 -2398509.2196822874 965001.49954986572 0 965001.49954986572 17609176.885320663 0 0 0 0 152058.94967513194 5165077.9027986526 0 5165077.9027986526 9822295.5531311035 0 0 0 0 -2320.3125336386947 557506.72097027674 0 557506.72097027674 2644244.6614278853 0 0 0 0 -176979.62454784347 797692.00288948417 0 797692.00288948417 1207203.1100604981 0 0 0 0 -6682614.4390103668 9056404.2480697632 0 9056404.2480697632 1173616.1464309692 0 0 0 0 70733.959264712175 -713104.50942230225 0 -713104.50942230225 9446410.8303184509 0 0 0 0 -2071803.721793165 4089075.0548210144 0 4089075.0548210144 7630084.2360229492 0 0 0 0 3795414.0977760255 5749950.6177101135 0 5749950.6177101135 -996644.33856201172 0 0 0 0 4475796.4230699241 5334687.5610733032 0 5334687.5610733032 -8716853.189163208 0 0 0 0 5535.3246146503097 1292778.3823204041 0 1292778.3823204041 8078132.6973419189 0 0 0 0 -937970.54642029875 1210415.2917098999 0 1210415.2917098999 12852699.586568832 0 0 0 0 -969448.95142372837 -2480495.7953491211 0 -2480495.7953491211 2248141.6177749634 0 0 0 0 50093.935804180452 122415.65871685743 0 122415.65871685743 -139644.45116755366 0 0 0 0 11159471.532089964 -6564225.2769775391 0 -6564225.2769775391 -192987.09569740295 0 0 0 0 -36681.144294974758 30978.526935398579 0 30978.526935398579 122945.99853507336 0 0 0 0 -1408076.8544084558 1557911.1331138611 0 1557911.1331138611 14327333.052131653 0 0 0 0 1503503.2483794009 1265281.9555702209 0 1265281.9555702209 9111669.2705688477 0 0 0 0 135047.67211866751 -8400289.8443756104 0 -8400289.8443756104 8406080.2818574905 0 0 0 0 -5265.9404402197688 -10772196.71157074 0 -10772196.71157074 13942960.653045654 0 0 0 0 -4225877.9326437041 -6939734.4938621521 0 -6939734.4938621521 19547954.259567261 0 0 0 0 125982.35409007408 -7437749.5588512421 0 -7437749.5588512421 17455244.024139404 0 0 0 0 -4959449.7174816579 -10806495.085922241 0 -10806495.085922241 15844255.874408722 0 0 0 0 -4470254.1470888574 -7560898.1937618256 0 -7560898.1937618256 21075986.102539062 0 0 0 0 -121647.34467503428 -13032683.753410339 0 -13032683.753410339 16175420.648109436 0 0 0 0 -13338833.692262746 -9962874.3458690643 0 -9962874.3458690643 21005643.656448364 0 0 0 0 -7363208.775894843 -17315453.651268005 0 -17315453.651268005 14631299.3487854 0 0 0 0 7758.2136291068173 -10937711.77186203 0 -10937711.77186203 15720868.869884491 0 0 0 0 -241911.03066039272 -10170859.467315674 0 -10170859.467315674 14830517.046470642 0 0 0 0 3621545.4067873098 -3103757.8822288513 0 -3103757.8822288513 28472537.676681519 0 0 0 0 -5349064.2190492153 -23085347.288608551 0 -23085347.288608551 7474633.6222915649 0 0 0 0 6347165.964152541 -11463789.179981232 0 -11463789.179981232 11817994.667005539 0 0 0 0 -2380129.3903445657 -116276.73007202148 0 -116276.73007202148 78242134.480875015 0 0 0 0 11506035.438603163 1455382.1629085541 0 1455382.1629085541 22639671.519744873 0 0 0 0 -1951.595839681426 -8220214.6566313691 0 -8220214.6566313691 33269699.198532104 0 0 0 0 -663034.86997516453 1700331.6759986877 0 1700331.6759986877 53875828.183291435 0 0 0 0 -21876996.11113441 -25756317.461120605 0 -25756317.461120605 19676087.270011902 0 0 0 0 -9089377.1628382206 -7829647.9637107849 0 -7829647.9637107849 20476466.605880737 0 0 0 0 786956.35419770028 -5497523.9444233151 0 -5497523.9444233151 21698323.948222131 0 0 0 0 -45738879.895820856 -26708154.404178619 0 -26708154.404178619 23860819.461593628 0 0 0 0 -49848679.949471064 -48672363.323951721 0 -48672363.323951721 48766619.463992238 0 0 0 0 -22124438.245900869 -26491439.044868469 0 -26491439.044868469 6189063.7934494019 0 0 0 0 -32711923.089079857 3996975.6274185181 0 3996975.6274185181 24377981.597923279 0 0 0 0 -7418286.1730302572 -9750083.2799491882 0 -9750083.2799491882 29437437.741958618 0 0 0 0 10199989.425696373 35741102.972503662 0 35741102.972503662 73853384.72694397 0 0 0 0 -106040946.192662 -53462222.30122757 0 -53462222.30122757 49205623.390861511 0 0 0 0 -25335949.053904526 -18501361.026069641 0 -18501361.026069641 22378839.171928406 0 0 0 0 871111.43688130949 -5776972.2470455365 0 -5776972.2470455365 23622643.577039152 0 0 0 0 47445809.406140208 -71346613.742389679 0 -71346613.742389679 -3792395.2273254395 0 0 0 0 -7284973.3075022697 -1246514.1143798828 0 -1246514.1143798828 10314225.755029798 0 0 0 0 -1707975.7954640379 2030291.5903387163 0 2030291.5903387163 1625784.4728079438 0 0 0 0 -73428708.027713299 69923670.326881409 0 69923670.326881409 76608665.291427612 0 0 0 0 11589680.89501214 14621060.148612976 0 14621060.148612976 -1325382.3181651831 0 0 0 0 -676907.04328489699 -4537221.8482458945 0 -4537221.8482458945 24510545.945860833 0 0 0 0 -677842.25789188966 388670.26481805742 0 388670.26481805742 3804306.5038746595 0 0 0 0 -7265753.1638838351 -2630067.7811255455 0 -2630067.7811255455 45746811.462013245 0 0 0 0 -2937236.6264772415 29145690.789871216 0 29145690.789871216 80833350.749980927 0 0 0 0 788796.87078281119 -6408.8689585626125 0 -6408.8689585626125 -611983.541920349 0 0 0 0 9822678.398604393 10981316.382644653 0 10981316.382644653 11791930.139651299 0 0 0 0 -14709612.924994946 -36408007.612823486 0 -36408007.612823486 4666238.5895748138 0 0 0 0 -7757857.5710965693 -11579783.440579414 0 -11579783.440579414 56324628.193908691 0 0 0 0 3057538.0250842571 -1497524.2834472656 0 -1497524.2834472656 43412966.887180328 0 0 0 0 -2813632.0019295216 6605980.3172302246 0 6605980.3172302246 67731853.263679504 0 0 0 0 4574567.6038501859 48678007.098888397 0 48678007.098888397 98877293.383171082 0 0 0 0 -10697213.203398257 12710394.838321686 0 12710394.838321686 96613539.09954834 0 0 0 0 7539666.4616081715 -9833537.053188324 0 -9833537.053188324 42741358.641624451 0 0 0 0 -15850222.744747639 -8192999.608089447 0 -8192999.608089447 42650783.696322441 0 0 0 0 10430425.175614178 14527784.498716354 0 14527784.498716354 42877437.015625 0 0 0 0 -14883816.736228704 11113738.376060486 0 11113738.376060486 42440702.353732109 0 0 0 0 -26651828.323025703 6188714.7609052658 0 6188714.7609052658 58868321.672363281 0 0 0 0 -14731453.351488829 10319600.172904968 0 10319600.172904968 40207182.768997192 0 0 0 0 -33780400.754538953 -14433685.007728577 0 -14433685.007728577 32921090.629264832 0 0 0 0 -3279053.0881342888 2812271.2729110718 0 2812271.2729110718 38004629.148048401 0 0 0 0 14018462.887882829 44249923.256164551 0 44249923.256164551 30424857.976051331 0 0 0 0 -8445529.7537643909 58055478.938301086 0 58055478.938301086 27315802.738746643 0 0 0 0 16549876.902195692 116370713.55499268 0 116370713.55499268 123698359.99257803 0 0 0 0 -9244333.4617137909 50832056.582878113 0 50832056.582878113 71332889.076742172 0 0 0 0 -14657862.081026534 33153538.967573412 0 33153538.967573412 44420321.240615845 0 0 0 0 7275052.3904839754 5446142.2995109558 0 5446142.2995109558 28384097.801196098 0 0 0 0 1970298.7625977993 32986663.73122406 0 32986663.73122406 24093593.208358765 0 0 0 0 -20716527.226451248 -33278873.321895599 0 -33278873.321895599 -23504766.164306641 0 0 0 0 51948102.642787635 35335480.471897125 0 35335480.471897125 -66864505.292320251 0 0 0 0 8407673.4097895622 3206532.1117553711 0 3206532.1117553711 17765154.49810791 0 0 0 0 -27605948.492999017 -8588593.3229904175 0 -8588593.3229904175 45919270.609085083 0 0 0 0 -4042238.8711600304 -442232.71385192871 0 -442232.71385192871 47258851.170578003 0 0 0 0 -2679642.7931075096 8440017.991443634 0 8440017.991443634 39311102.6456604 0 0 0 0 2601739.3832848072 4822325.40209198 0 4822325.40209198 62332586.040473938 0 0 0 0 -1548648.5932382345 -5862155.3500595093 0 -5862155.3500595093 52102059.407180786 0 0 0 0 -5558817.9418703467 5923559.9981184006 0 5923559.9981184006 60784847.654060364 0 0 0 0 9132490.6773892641 3300331.1556510925 0 3300331.1556510925 61089815.681472778 0 0 0 0 -11676286.49470067 29885396.430595398 0 29885396.430595398 22728120.021781921 0 0 0 0 18939537.090536356 54142273.810592651 0 54142273.810592651 55119288.838272095 0 0 0 0 5017277.3493027687 28493156.751731873 0 28493156.751731873 22825992.881607056 0 0 0 0 49330055.056968451 20878335.980583191 0 20878335.980583191 9199802.5676164627 0 0 0 0 -16034962.701861739 29970650.899089813 0 29970650.899089813 9977577.8400115967 0 0 0 0 11568046.046711951 9756612.3860039711 0 9756612.3860039711 56967098.405410767 0 0 0 0 29191637.885026515 21907250.270303726 0 21907250.270303726 -57809960.249435425 0 0 0 0 992950.24825069355 9649732.2432356328 0 9649732.2432356328 377477.68418139219 0 0 0 0 -3890041.470330596 98198.401973724365 0 98198.401973724365 73925315.746147156 0 0 0 0 -2485782.4665344702 9055158.7482037693 0 9055158.7482037693 275448.14578406839 0 0 0 0 3251590.0273935795 -24980833.020278931 0 -24980833.020278931 -6682421.7749938965 0 0 0 0 -10179535.103856564 2603603.7127990723 0 2603603.7127990723 57989713.082389832 0 0 0 0 23362822.896932602 13415726.494369507 0 13415726.494369507 -68321021.733724833 0 0 0 0 -21618491.8843261 -10800162.990131378 0 -10800162.990131378 3173605.1723327637 0 0 0 0 12529685.41171217 991401.73224639893 0 991401.73224639893 2988940.7630778551 0 0 0 0 -15016297.541739821 -12948347.335025787 0 -12948347.335025787 64251439.579277039 0 0 0 0 21099265.5616045 9742495.0221786499 0 9742495.0221786499 6052432.5497360229 0 0 0 0 -1238856.581140995 -4823466.9901008606 0 -4823466.9901008606 68577796.127220154 0 0 0 0 37681180.961981535 -6766420.1402359009 0 -6766420.1402359009 68467843.662658691 0 0 0 0 -11579430.812398069 -17689661.021281719 0 -17689661.021281719 149231437.20169067 0 0 0 0 -8987416.2513425052 4359281.2174119949 0 4359281.2174119949 132533619.60502625 0 0 0 0 27932929.442038536 -29952901.388374329 0 -29952901.388374329 148057295.79315186 0 0 0 0 -3130091.3777695894 15977757.400817871 0 15977757.400817871 74665505.210166931 0 0 0 0 -12236275.540377676 13121754.44393158 0 13121754.44393158 107654536.49861145 0 0 0 0 -29005530.235077143 12620763.124328613 0 12620763.124328613 150379406.83099031 0 0 0 0 -19735823.751437783 52734753.733360291 0 52734753.733360291 137467074.32524109 0 0 0 0 -66483175.553273827 63533532.920909882 0 63533532.920909882 245228844.44871521 0 0 0 0 -42240521.949209929 34578355.916740417 0 34578355.916740417 160783406.17055511 0 0 0 0 -42718818.968049943 30662025.098415375 0 30662025.098415375 218449335.93667603 0 0 0 0 -73254016.464372396 49412462.44833374 0 49412462.44833374 216089626.36728287 0 0 0 0 -25410343.975660086 18862956.497612 0 18862956.497612 230223484.69094849 0 0 0 0 -23125865.95511198 -11667562.244758606 0 -11667562.244758606 246352791.77670288 0 0 0 0 -59312371.926206946 20986856.117980957 0 20986856.117980957 268540040.10316467 0 0 0 0 -26648155.068303779 29423417.903469563 0 29423417.903469563 355130066.11114502 0 0 0 0 150500608.05153346 -30811009.346138 0 -30811009.346138 84989204.960098267 0 0 0 0 -32860088.575282574 -19417350.141990662 0 -19417350.141990662 459480046.33914185 0 0 0 0 70601302.677414894 -123928503.28066254 0 -123928503.28066254 351603283.81884766 0 0 0 0 67467771.774314642 -74713336.283958435 0 -74713336.283958435 199828141.38932037 0 0 0 0 13896179.868533492 39385533.520973206 0 39385533.520973206 66674891.670318604 0 0 0 0 -34058206.471239567 -234489498.48242188 0 -234489498.48242188 -41427165.450767517 0 0 0 0 20809707.114984751 39490624.420825958 0 39490624.420825958 106483201.15150452 0 0 0 0 13908227.839060545 18945314.159660339 0 18945314.159660339 62751489.583312988 0 0 0 0 91316403.265079498 24978737.266708374 0 24978737.266708374 58740277.318557739 0 0 0 0 39332983.460032701 -34395563.065021515 0 -34395563.065021515 131251470.53987122 0 0 0 0 21718163.187116057 -7967796.914522171 0 -7967796.914522171 156361201.95065308 0 0 0 0 -14002120.31183219 7272774.5780181885 0 7272774.5780181885 32259426.194595337 0 0 0 0 -6173277.0486786366 10111856.720146179 0 10111856.720146179 29652622.087524414 0 0 0 0 -8802279.0175091028 37741842.979801178 0 37741842.979801178 73476985.020828247 0 0 0 0 -31406788.035351515 16265073.696296692 0 16265073.696296692 53086739.648364067 0 0 0 0 -24635049.120325208 -25153674.837770462 0 -25153674.837770462 5297336.2125778198 0 0 0 0 1033126.4114092812 -2173878.2762003243 0 -2173878.2762003243 879897.66656855494 0 0 0 0 -60457901.090425014 -8142620.5858268738 0 -8142620.5858268738 76125284.806945801 0 0 0 0 -4961426.8874080181 340908.70478057861 0 340908.70478057861 34139284.453123093 0 0 0 0 175923.70681329258 -1069757.3099302351 0 -1069757.3099302351 3076855.829274714 0 0 0 0 -5303217.9887627959 2961003.9907884598 0 2961003.9907884598 20133342.757888794 0 0 0 0 241942420.54696989 122441509.22857285 0 122441509.22857285 190932034.54063988 0 0 0 0 464612809.80891228 383471600.77004242 0 383471600.77004242 324131181.96871948 0 0 0 0 364320588.52862197 390829968.60074615 0 390829968.60074615 597721313.44720459 0 0 0 0 625420270.0724014 521711785.96041107 0 521711785.96041107 442844609.57472229 0 0 0 0 894386.76815164986 388813.82557730377 0 388813.82557730377 2731273.4367902875 0 0 0 0 -164599459.14099979 155060799.47995758 0 155060799.47995758 -65237335.45331955 0 0 0 0 3172508.7205988416 85573.507939487696 0 85573.507939487696 2629379.7547526881 0 0 0 0 177801488.69246852 629321779.50878525 0 629321779.50878525 -870010628.58707428 0 0 0 0 -82450483.21873641 78317744.68819046 0 78317744.68819046 -68803543.462554932 0 0 0 0 1879625.9643290797 7173677.8523993101 0 7173677.8523993101 17193939.279922724 0 0 0 0 17195925.640650272 241634306.9713974 0 241634306.9713974 188117409.08746338 0 0 0 0 -7549972.1118716821 350787839.73525238 0 350787839.73525238 1081504059.6970673 0 0 0 0 -3804247.6715245247 7327004.8745956421 0 7327004.8745956421 24652443.616531372 0 0 0 0 -3926451.782651186 7299145.6630973816 0 7299145.6630973816 24866017.223083496 0 0 0 0 -3926993.3530025482 7197409.4162063599 0 7197409.4162063599 25178787.235565186 0 0 0 0 -3782586.0815176964 7135418.4616851807 0 7135418.4616851807 24789589.943649292 0 0 0 0 1293931.5160877043 9172039.2275304124 0 9172039.2275304124 27688379.441198736 0 0 0 0 -1562660.3563277721 10997526.680404663 0 10997526.680404663 23638323.507669449 0 0 0 0 5751853.1420609951 16831890.022403717 0 16831890.022403717 28270796.637985229 0 0 0 0 -122605701.27093172 -30818541.194009781 0 -30818541.194009781 90815497.511024475 0 0 0 0 176401346.90984142 191080954.86777496 0 191080954.86777496 292040527.60102844 0 0 0 0 430423439.59989548 481095863.51554871 0 481095863.51554871 471543655.83169556 0 0 0 0 113100115.48301888 -2649515.9073181152 0 -2649515.9073181152 310363326.42339706 0 0 0 0 27996059.08513236 -207491005.82348633 0 -207491005.82348633 142740465.62522888 0 0 0 0 598183843.76197004 138106491.42268372 0 138106491.42268372 -270485580.10884094 0 0 0 0 -68253109.755182832 7753173.8266372681 0 7753173.8266372681 240109361.12207031 0 0 0 0 139286964.12645113 -21787181.309539795 0 -21787181.309539795 -48325653.720870972 0 0 0 0 88110837.488502055 71952542.172866821 0 71952542.172866821 182526489.63980103 0 0 0 0 5331012.9731291942 1530437.4560856521 0 1530437.4560856521 -9961103.0432644337 0 0 0 0 -2222910.2898400575 60513643.377286911 0 60513643.377286911 -78170684.458129883 0 0 0 0 34085545.125448823 6060650.8408374786 0 6060650.8408374786 -70711339.81842041 0 0 0 0 5855189.3776265346 17106921.882459015 0 17106921.882459015 20883523.597529292 0 0 0 0 -1198152.925299535 6186624.8382736892 0 6186624.8382736892 20523880.825033933 0 0 0 0 -1098947.9089255333 21095878.934249878 0 21095878.934249878 9148043.1001836061 0 0 0 0 6982480.7779081771 10574618.092592433 0 10574618.092592433 4947179.5867907377 0 0 0 0 11589089.065429211 24186717.244049072 0 24186717.244049072 60321760.38679266 0 0 0 0 -2052872.23387146 18219443.178501129 0 18219443.178501129 34992156.785232544 0 0 0 0 5382465.8330088137 15539199.638417222 0 15539199.638417222 20625047.40928641 0 0 0 0 -4136717.4732662439 16055379.577278137 0 16055379.577278137 32747810.225967407 0 0 0 0 -392947.53695487976 15520871.668769836 0 15520871.668769836 29723877.756957889 0 0 0 0 -6580759.0249116421 39750811.10848999 0 39750811.10848999 48890102.818966866 0 0 0 0 -3151141.9654048979 25009531.635001898 0 25009531.635001898 25087751.064437866 0 0 0 0 4005028.2766647502 9909839.5298850983 0 9909839.5298850983 -102455.20883771777 0 0 0 0 -8244425.7888507843 12805387.992889404 0 12805387.992889404 83672692.938788891 0 0 0 0 6028207.1606574059 33574507.309593201 0 33574507.309593201 -1061564.0504705906 0 0 0 0 833984.48993976414 6905814.5528297424 0 6905814.5528297424 68153242.666343689 0 0 0 0 -14271444.005287707 17968407.510780334 0 17968407.510780334 62948842.913520813 0 0 0 0 1288869.7524691224 18590672.572650909 0 18590672.572650909 70103630.087158203 0 0 0 0 4041492.065766573 17939793.740390778 0 17939793.740390778 62269869.730575562 0 0 0 0 4780300.008918047 9291147.9829406738 0 9291147.9829406738 53430795.305122375 0 0 0 0 4415069.6973444819 29356654.800231934 0 29356654.800231934 48640292.028900146 0 0 0 0 1964030.9382366352 20721307.13420105 0 20721307.13420105 43274023.804389954 0 0 0 0 -1131908.4434074415 7488232.4213010892 0 7488232.4213010892 8539857.6422145367 0 0 0 0 -14498168.965518951 48462733.234165192 0 48462733.234165192 55432762.333450317 0 0 0 0 9895308.6521873511 22421652.518287629 0 22421652.518287629 37491947.473510563 0 0 0 0 26267.06886395067 16656094.171539307 0 16656094.171539307 54221729.402015686 0 0 0 0 -17105630.522880793 12512140.167610168 0 12512140.167610168 25874512.680389404 0 0 0 0 -36942770.891611338 13483187.883010864 0 13483187.883010864 62460849.164428711 0 0 0 0 -20376358.414918602 -9343713.4226570129 0 -9343713.4226570129 26239184.858886719 0 0 0 0 -64945697.135560572 -15940371.129096985 0 -15940371.129096985 32750399.212646484 0 0 0 0 -40546062.681170613 -44792689.256599426 0 -44792689.256599426 -89650531.360671997 0 0 0 0 -57063191.70875337 17479193.859516144 0 17479193.859516144 26886457.534500122 0 0 0 0 -4757646.1614415497 -3340499.4599333256 0 -3340499.4599333256 10049113.454905674 0 0 0 0 -17312572.918105125 -4085782.9511108398 0 -4085782.9511108398 77514351.409246445 0 0 0 0 -7554023.7574817771 -4212418.4362982586 0 -4212418.4362982586 56020691.635047168 0 0 0 0 -53376472.001304954 -117856354.20141125 0 -117856354.20141125 -75951811.626251221 0 0 0 0 18915225.97275278 -120936333.47779083 0 -120936333.47779083 -91397415.782913208 0 0 0 0 -95546933.654818624 -31620651.298126221 0 -31620651.298126221 -34704787.860443115 0 0 0 0 93106661.600747645 40834175.41891098 0 40834175.41891098 -18529497.275749207 0 0 0 0 -31866978.656624049 26294089.016269684 0 26294089.016269684 -8000898.7172622681 0 0 0 0 68209797.917404622 -43461130.901756287 0 -43461130.901756287 -97122755.278995514 0 0 0 0 -66740582.306073189 -16197101.053443909 0 -16197101.053443909 183084261.82759476 0 0 0 0 -56174586.338214874 -54475701.567653656 0 -54475701.567653656 267455963.51849365 0 0 0 0 -148154754.49723625 159141361.24625397 0 159141361.24625397 167263467.61441803 0 0 0 0 419587.71877080062 1096016.6007178277 0 1096016.6007178277 5703596.9875257462 0 0 0 0 -112798895.35701871 44204861.316363335 0 44204861.316363335 477379338.22472382 0 0 0 0 -7769943.1852441579 -10173989.480438031 0 -10173989.480438031 61837973.70829913 0 0 0 0 -63289181.632430375 -115234488.65367436 0 -115234488.65367436 409511809.34246826 0 0 0 0 104892868.0254097 -333804906.18360901 0 -333804906.18360901 844023058.61627197 0 0 0 0 68814703.212931633 -131799743.04350471 0 -131799743.04350471 190257484.43595505 0 0 0 0 266059024.23193598 95396041.872842789 0 95396041.872842789 -286285606.23081207 0 0 0 0 -17467341.271304265 -6407471.6814923286 0 -6407471.6814923286 104089696.04558563 0 0 0 0 -8412511.6735032797 -34012734.40977478 0 -34012734.40977478 176374944.19684601 0 0 0 0 29879183.478822708 -44154522.91570282 0 -44154522.91570282 428167.70906066895 0 0 0 0 24158193.50029099 18395083.119462967 0 18395083.119462967 10221118.1042099 0 0 0 0 -1796193.4933671951 58156073.870941162 0 58156073.870941162 22322684.396054268 0 0 0 0 -37577936.266387939 36946738.395246506 0 36946738.395246506 30700405.290435791 0 0 0 0 1131041.0947150155 6858802.0402453132 0 6858802.0402453132 16497862.439177886 0 0 0 0 44627086.813508749 35160642.948410034 0 35160642.948410034 10023352.762947083 0 0 0 0 -14845836.554405808 47982441.342630863 0 47982441.342630863 107070653.63075256 0 0 0 0 12890848.487947941 18940929.632110596 0 18940929.632110596 68703347.506103516 0 0 0 0 4952605.2566236947 14404088.517731383 0 14404088.517731383 35879664.917983085 0 0 0 0 2784756.1590397358 9500178.1188144684 0 9500178.1188144684 66289249.134902954 0 0 0 0 4970038.9395799935 16793190.454368591 0 16793190.454368591 57950829.794586182 0 0 0 0 -571093.10206427006 1115360.9278003424 0 1115360.9278003424 15540657.238443688 0 0 0 0 4360279.8417789936 27048981.730314255 0 27048981.730314255 71788969.921409607 0 0 0 0 -3025621.2034287453 22246604.894845963 0 22246604.894845963 14638426.418395996 0 0 0 0 -1615219.0769887492 2825304.7998199612 0 2825304.7998199612 10194297.450452782 0 0 0 0 42181847.493995667 -13137467.591430664 0 -13137467.591430664 27483954.480891228 0 0 0 0 20556867.833377957 31568611.019021988 0 31568611.019021988 68964522.057739258 0 0 0 0 1450624.4627993107 33518325.670106888 0 33518325.670106888 88512600.76521492 0 0 0 0 14595475.55269599 16378706.815992355 0 16378706.815992355 60746698.468273163 0 0 0 0 -1166631.030170803 -71106.130132719874 0 -71106.130132719874 -962100.52640068531 0 0 0 0 -22112950.507358313 -15529618.749319077 0 -15529618.749319077 150752980.37108994 0 0 0 0 -20874682.191394567 71084508.372158051 0 71084508.372158051 204222969.36541939 0 0 0 0 14359920.749021769 113593958.92439461 0 113593958.92439461 169827204.58599091 0 0 0 0 -586353.35130447056 -69526.410246670246 0 -69526.410246670246 1929060.8878369778 0 0 0 0 -61425397.731943607 -125167698.39962196 0 -125167698.39962196 469045.92612361908 0 0 0 0 -40906107.789806843 -36071708.665294647 0 -36071708.665294647 114474134.01659012 0 0 0 0 -41549555.50860665 58678389.138190269 0 58678389.138190269 139425771.50797272 0 0 0 0 -19153605.150205642 60049801.133775711 0 60049801.133775711 139317273.56825638 0 0 0 0 1001413.4825108945 62513573.175197601 0 62513573.175197601 108101139.92390251 0 0 0 0 9864009.6406994164 94588785.542005062 0 94588785.542005062 134545944.76950836 0 0 0 0 -14906480.381777287 50600030.460586548 0 50600030.460586548 71643056.676589966 0 0 0 0 -45084617.579320848 34652383.457395554 0 34652383.457395554 114603021.07901764 0 0 0 0 -47386769.295310736 30801060.635608673 0 30801060.635608673 143117881.13424158 0 0 0 0 23806800.692051917 52118593.090309143 0 52118593.090309143 108269824.80147552 0 0 0 0 -20166328.312169313 58569800.434841156 0 58569800.434841156 101325979.17799568 0 0 0 0 -18070303.941387225 44766022.801875353 0 44766022.801875353 108493534.75470734 0 0 0 0 18202487.630233862 48474233.711163044 0 48474233.711163044 63373040.925079346 0 0 0 0 17638938.022272229 47345898.090690613 0 47345898.090690613 85849922.740348816 0 0 0 0 -565618.31793914782 -344974.62446799129 0 -344974.62446799129 507209.70178551227 0 0 0 0 -1438986.8153367043 -2490168.9083080292 0 -2490168.9083080292 17398595.407352448 0 0 0 0 3406331.28601861 51059449.961925507 0 51059449.961925507 121146868.16059494 0 0 0 0 3338574.9911496639 25990480.874645233 0 25990480.874645233 104705133.00681686 0 0 0 0 16956453.210471869 36554514.582565308 0 36554514.582565308 63356344.555778503 0 0 0 0 6784899.1006338596 29756105.338855743 0 29756105.338855743 60607271.502061844 0 0 0 0 23385017.576769002 40400161.371072769 0 40400161.371072769 69994763.294815063 0 0 0 0 -2372195.0843077013 2639871.9555272385 0 2639871.9555272385 3207072.0824875981 0 0 0 0 26269720.952386737 33307940.776855469 0 33307940.776855469 59260219.700248718 0 0 0 0 -395852.05566291843 -617392.75359559804 0 -617392.75359559804 6421708.3106180429 0 0 0 0 14931973.286463499 31889666.987991333 0 31889666.987991333 77437997.777664185 0 0 0 0 8448069.1792462096 25430621.498593673 0 25430621.498593673 202386.39801486768 0 0 0 0 15121746.380180717 54483560.560919762 0 54483560.560919762 130267446.17593384 0 0 0 0 8197245.6060398817 27447255.666656494 0 27447255.666656494 59714222.636966705 0 0 0 0 9374737.6903455257 -540016.29791259766 0 -540016.29791259766 -5473902.9662475586 0 0 0 0 -3358069.8274445385 7850020.5779939219 0 7850020.5779939219 33914723.455003724 0 0 0 0 13776679.86791873 40643035.2539711 0 40643035.2539711 70112533.259765625 0 0 0 0 -10145246.987050891 21938983.976638794 0 21938983.976638794 235978073.67416382 0 0 0 0 10911331.285015881 31602384.999217033 0 31602384.999217033 150135381.23765564 0 0 0 0 25135224.068281651 -133647.03944396973 0 -133647.03944396973 258120289.46752453 0 0 0 0 -9359601.2773427963 62577019.521713257 0 62577019.521713257 163417509.70663452 0 0 0 0 247259.52639627457 19777112.795157433 0 19777112.795157433 176306117.70724487 0 0 0 0 -17040837.342144966 47957884.806018829 0 47957884.806018829 253179921.94268036 0 0 0 0 36326779.231510162 79452047.793449402 0 79452047.793449402 153493356.08981705 0 0 0 0 8091366.6634684643 23008243.465211093 0 23008243.465211093 2283736.118866371 0 0 0 0 7927099.016079545 34096386.677429199 0 34096386.677429199 35801340.339130402 0 0 0 0 12906659.416131377 12398875.601604462 0 12398875.601604462 122145904.17204285 0 0 0 0 22668034.957816601 34344753.69640255 0 34344753.69640255 30918033.890014648 0 0 0 0 -43021938.855129719 72926621.79901886 0 72926621.79901886 162353970.55929947 0 0 0 0 -46128772.601569176 34988065.745132446 0 34988065.745132446 171956657.77848816 0 0 0 0 -2630744.5598754073 2513358.7690706104 0 2513358.7690706104 13917996.101541311 0 0 0 0 54279018.061694145 88552552.315429688 0 88552552.315429688 50183279.3279953 0 0 0 0 -36131173.116623461 92735600.660257339 0 92735600.660257339 205395561.96185303 0 0 0 0 9238968.8891492225 22099339.627784669 0 22099339.627784669 4141385.488450361 0 0 0 0 28012256.805645466 29409792.961799622 0 29409792.961799622 -16109992.383596182 0 0 0 0 70523211.204811394 -5723419.9664382935 0 -5723419.9664382935 4897168.4470977783 0 0 0 0 13347652.990168452 25538772.387890816 0 25538772.387890816 48611418.414138794 0 0 0 0 -71209893.963448107 25387161.831783295 0 25387161.831783295 597722021.9681778 0 0 0 0 -21741119.09229517 206199691.7691803 0 206199691.7691803 290418831.27625275 0 0 0 0 56524101.595090762 131380477.02970886 0 131380477.02970886 304250418.46225548 0 0 0 0 37926422.033853874 20412122.739608765 0 20412122.739608765 608764710.39454651 0 0 0 0 8125054.6263430119 11425874.020477295 0 11425874.020477295 266619929.03117371 0 0 0 0 83580097.559026718 17289657.830627441 0 17289657.830627441 266007836.50644684 0 0 0 0 3606123.8085569669 7343861.8337259442 0 7343861.8337259442 3941444.1331926584 0 0 0 0 -20969699.854793787 34226679.761898041 0 34226679.761898041 396201114.37519836 0 0 0 0 -58639616.394791842 -60272965.385562897 0 -60272965.385562897 503827701.01147842 0 0 0 0 272315742.67206717 -223004443.293293 0 -223004443.293293 558119799.13878632 0 0 0 0 2652124.5263436832 2246356.1897175461 0 2246356.1897175461 1022526.001967378 0 0 0 0 860504211.96202016 201840586.44557571 0 201840586.44557571 -753551708.9238205 0 0 0 0 -231852622.70433602 -24689500.315734863 0 -24689500.315734863 1169815072.3674545 0 0 0 0 242207504.16408217 85370793.377853394 0 85370793.377853394 174510905.2575531 0 0 0 0 -321569264.47239208 -49500423.17218399 0 -49500423.17218399 193852229.10098267 0 0 0 0 -189704801.58893505 342686699.15678644 0 342686699.15678644 -266255168.752388 0 0 0 0 -127532905.81245041 36050042.732753754 0 36050042.732753754 89972333.541866302 0 0 0 0 2551492.1422101804 9250876.8887097239 0 9250876.8887097239 4743657.5670357943 0 0 0 0 -43673051.133359909 62681032.656471252 0 62681032.656471252 -96360686.479537964 0 0 0 0 -2168693.0834933519 -27961572.896247864 0 -27961572.896247864 302718308.056633 0 0 0 0 -21652000.621804476 45998715.153541565 0 45998715.153541565 269854407.38103485 0 0 0 0 29640113.5696733 -17214628.963569641 0 -17214628.963569641 272961806.49752808 0 0 0 0 24842212.180926323 -89045449.519271851 0 -89045449.519271851 386732947.46542358 0 0 0 0 -132729185.03255916 -4171009.8922042847 0 -4171009.8922042847 114701781.56333542 0 0 0 0 -76280466.558980703 -37382413.257827759 0 -37382413.257827759 133730232.74730682 0 0 0 0 -61796704.45303607 -18754475.91910553 0 -18754475.91910553 94821508.617752075 0 0 0 0 -76616318.109077215 -1617776.7428359985 0 -1617776.7428359985 117556376.56887054 0 0 0 0 -56852355.562398523 21659548.056172371 0 21659548.056172371 95458299.345184326 0 0 0 0 -136716605.18067551 60363427.707382202 0 60363427.707382202 70280988.046218872 0 0 0 0 -75574454.908590794 5081637.5233421326 0 5081637.5233421326 60444148.736679077 0 0 0 0 -219473192.67050922 -17241200.953315735 0 -17241200.953315735 290734298.40934753 0 0 0 0 -180961523.75748038 46839279.090373993 0 46839279.090373993 111667847.72421646 0 0 0 0 -129778643.67026138 -130196561.48231506 0 -130196561.48231506 374888342.63868332 0 0 0 0 68718248.452845335 -88544937.467128754 0 -88544937.467128754 216231463.48968506 0 0 0 0 -64961190.559189796 -78001811.776092529 0 -78001811.776092529 257803859.46447754 0 0 0 0 -67864833.554128245 -115348704.63891125 0 -115348704.63891125 205551252.88726807 0 0 0 0 -43853167.018052578 -117197864.16814423 0 -117197864.16814423 119621620.52803802 0 0 0 0 64608533.681068659 -150375214.67963409 0 -150375214.67963409 144723813.97650909 0 0 0 0 -129286060.77172711 -30392369.60512495 0 -30392369.60512495 196379359.84547424 0 0 0 0 -124591226.33257794 -84044194.268135071 0 -84044194.268135071 193608486.39704132 0 0 0 0 -125552932.1413753 -66386173.948390961 0 -66386173.948390961 138503988.6517334 0 0 0 0 -92446017.837141037 -64443985.498764038 0 -64443985.498764038 129086127.25658417 0 0 0 0 -94638686.42242527 -95998244.088565826 0 -95998244.088565826 78871838.906990051 0 0 0 0 -115606598.81092584 -57456964.522380829 0 -57456964.522380829 74716076.931015015 0 0 0 0 -59754110.094412088 -49732354.348678589 0 -49732354.348678589 43647353.762641907 0 0 0 0 593094.76738810539 85496776.644435883 0 85496776.644435883 2455112.9496154785 0 0 0 0 -101133384.85611486 -13704302.412796021 0 -13704302.412796021 51320731.273006439 0 0 0 0 -40200268.578032494 -44323868.442390442 0 -44323868.442390442 37415308.876281738 0 0 0 0 -78999637.665434599 -39376336.231174469 0 -39376336.231174469 59777389.506851196 0 0 0 0 -238402.29273028998 1383695.3562539592 0 1383695.3562539592 5088507.8523305953 0 0 0 0 -166147760.66103983 98385177.259593964 0 98385177.259593964 20993961.455459595 0 0 0 0 -47135087.207821071 -132620791.18091202 0 -132620791.18091202 -179020720.29839325 0 0 0 0 -302534602.03179264 -37614060.711898804 0 -37614060.711898804 67924944.542524338 0 0 0 0 -41692536.708203241 47154204.108036041 0 47154204.108036041 21760250.76436615 0 0 0 0 -133647082.69570792 -198572181.82058334 0 -198572181.82058334 -157698508.96458435 0 0 0 0 -1442851.4149245354 540787.38159531355 0 540787.38159531355 4213504.4858062044 0 0 0 0 -48450819.325378776 151456086.18444824 0 151456086.18444824 -175850439.45447159 0 0 0 0 -56276497.045932174 -54722302.913167953 0 -54722302.913167953 50798118.809967041 0 0 0 0 -2196064.7608121359 9485550.5632229298 0 9485550.5632229298 3669905.8187481649 0 0 0 0 -3427377.000526947 -7830783.1721929163 0 -7830783.1721929163 4852874.5069143549 0 0 0 0 -982450.65311002731 -1279466.5009002686 0 -1279466.5009002686 50671269.773763657 0 0 0 0 -36934165.024641037 -24192615.525741577 0 -24192615.525741577 80223209.593231201 0 0 0 0 -95123519.914380014 -54013973.806189537 0 -54013973.806189537 120281379.86546326 0 0 0 0 13791742.955242157 35884774.712356567 0 35884774.712356567 84413990.97492218 0 0 0 0 -7395885.5658447109 -7066836.431335941 0 -7066836.431335941 4150081.8328132182 0 0 0 0 -5790688.055226028 45209193.157687187 0 45209193.157687187 143328921.60110474 0 0 0 0 -21437390.105340958 -16931378.764656067 0 -16931378.764656067 114089063.66452026 0 0 0 0 -32438640.958884507 12400042.408516407 0 12400042.408516407 144642717.69804382 0 0 0 0 -2917886.7626876235 1136258.4277114868 0 1136258.4277114868 45103186.147777557 0 0 0 0 -5995832.5993483663 5253959.4398269653 0 5253959.4398269653 52700579.658668518 0 0 0 0 -3365927.6063040886 9005664.7865414619 0 9005664.7865414619 2747034.4080010876 0 0 0 0 -16320295.987231374 8403578.7407236099 0 8403578.7407236099 62292218.163383484 0 0 0 0 -8786982.7329130173 -7956168.413482666 0 -7956168.413482666 87402584.596656799 0 0 0 0 -14506048.93323686 13322185.9792099 0 13322185.9792099 62509244.162567139 0 0 0 0 -102037462.41448002 71780934.150943756 0 71780934.150943756 111907661.45612717 0 0 0 0 -64625204.380125694 -2475091.8036823273 0 -2475091.8036823273 172746728.61329651 0 0 0 0 -64768713.978857756 3039669.4073696136 0 3039669.4073696136 126809335.57636261 0 0 0 0 -39606520.697913408 660245.85213470459 0 660245.85213470459 87226099.778678894 0 0 0 0 -63230483.501796722 11286024.491306305 0 11286024.491306305 119448298.87185669 0 0 0 0 -42535679.895467818 14460127.45583725 0 14460127.45583725 67004006.316730499 0 0 0 0 -41292007.453505754 -6728370.9964866638 0 -6728370.9964866638 79743147.118068695 0 0 0 0 -43487484.593807556 34131826.995143414 0 34131826.995143414 34821958.972808838 0 0 0 0 -6315347.1896095872 50975955.807277679 0 50975955.807277679 21601277.769971848 0 0 0 0 -311433.98878988624 -1022946.316381216 0 -1022946.316381216 18087696.369644165 0 0 0 0 6065070.3639513254 -42984737.615600586 0 -42984737.615600586 102515936.03253937 0 0 0 0 -16645787.29787147 -22963211.90852356 0 -22963211.90852356 72010448.324605942 0 0 0 0 6352851.2711405233 47166257.718686171 0 47166257.718686171 186080344.2698288 0 0 0 0 -815858.48478465155 -126012.7794783935 0 -126012.7794783935 2214744.7471276522 0 0 0 0 99195877.029644489 -194317087.15877342 0 -194317087.15877342 169555212.10225677 0 0 0 0 -109775374.48748553 87795847.37522316 0 87795847.37522316 80125409.678504944 0 0 0 0 -131737694.33413172 79427095.552207947 0 79427095.552207947 78593895.314910889 0 0 0 0 -24289330.381710529 62002912.218238831 0 62002912.218238831 -15794677.735900879 0 0 0 0 -203679893.95792353 132589088.7171402 0 132589088.7171402 44553316.742202759 0 0 0 0 197462574.54547739 -190344577.02401733 0 -190344577.02401733 42819418.838394165 0 0 0 0 13732461.361986756 -80132380.202770233 0 -80132380.202770233 101359981.91691971 0 0 0 0 -199862397.52720451 112333922.51894379 0 112333922.51894379 204587961.9569397 0 0 0 0 -89600.552956974498 -913557.07414953969 0 -913557.07414953969 4907554.9927943945 0 0 0 0 -418212.71582128434 -2038752.3982696254 0 -2038752.3982696254 11880146.278782308 0 0 0 0 -122331803.4082725 -12911286.09551239 0 -12911286.09551239 130133825.14905167 0 0 0 0 27578889.150379896 -74830237.667942047 0 -74830237.667942047 7846722.9548797607 0 0 0 0 -11327136.177921951 13591677.059030056 0 13591677.059030056 -9059185.2388000488 0 0 0 0 80131116.488645077 -182238772.28705597 0 -182238772.28705597 -35081119.982040405 0 0 0 0 -343530492.47692156 38931831.053532839 0 38931831.053532839 212369594.34635162 0 0 0 0 -166736777.73128295 -173872033.34835052 0 -173872033.34835052 156087354.92126465 0 0 0 0 -773627.73492449895 -2477978.8318363321 0 -2477978.8318363321 13214617.384572595 0 0 0 0 -206419099.86496949 -33809583.618608475 0 -33809583.618608475 8462829.95703125 0 0 0 0 -77359462.175364256 28003955.995189667 0 28003955.995189667 21431277.605651855 0 0 0 0 -66622809.217888832 39043507.864997864 0 39043507.864997864 28691929.898162842 0 0 0 0 -24915360.068881989 47942720.862258911 0 47942720.862258911 7936488.7235107422 0 0 0 0 1856077.3923227321 -418848.47467538714 0 -418848.47467538714 2253014.681235401 0 0 0 0 436913095.55381966 -267018853.06470108 0 -267018853.06470108 169197504.76245117 0 0 0 0 195058283.44544125 -36637238.621070862 0 -36637238.621070862 -191551656.90815401 0 0 0 0 215674768.43098259 -352768063.36116791 0 -352768063.36116791 150534432.86299872 0 0 0 0 121477744.03701901 -87440959.7293396 0 -87440959.7293396 157558364.10768807 0 0 0 0 383785975.52490187 150992678.38598633 0 150992678.38598633 226852941.41700363 0 0 0 0 273666473.68609345 -335415492.03297997 0 -335415492.03297997 394815238.33462524 0 0 0 0 96893555.556475401 30546840.693805695 0 30546840.693805695 211005156.50395966 0 0 0 0 93051879.747718573 -1893135.4839782715 0 -1893135.4839782715 -32085209.265266418 0 0 0 0 2728080.1266944408 184372006.05722046 0 184372006.05722046 57534630.329200745 0 0 0 0 302303333.02000451 47536489.621086121 0 47536489.621086121 72322500.582099915 0 0 0 0 132034706.10067165 86008408.535562515 0 86008408.535562515 104962368.42032623 0 0 0 0 130560152.37157607 73395039.329391479 0 73395039.329391479 123698126.55171204 0 0 0 0 180254599.85820389 53275149.563049316 0 53275149.563049316 117254824.3029232 0 0 0 0 125503198.85228944 68707187.327856064 0 68707187.327856064 128153174.13357544 0 0 0 0 123581196.43317246 102670357.69306564 0 102670357.69306564 132096475.55729532 0 0 0 0 38864404.697597742 6030504.1281433105 0 6030504.1281433105 94547125.279174805 0 0 0 0 218677196.65443563 75245884.918571472 0 75245884.918571472 76733697.003466606 0 0 0 0 103856441.19976401 86860015.873008728 0 86860015.873008728 122654096.93022919 0 0 0 0 115265363.60224426 69521251.523803711 0 69521251.523803711 118198014.54483032 0 0 0 0 36716768.971346855 -25912217.707115173 0 -25912217.707115173 271481471.99732208 0 0 0 0 -65465495.379875183 -290575856.20587158 0 -290575856.20587158 224509176.65457916 0 0 0 0 -178480256.25610328 -52008761.270431519 0 -52008761.270431519 127170841.7913208 0 0 0 0 -107716792.33734393 356838575.24396133 0 356838575.24396133 78730986.108097076 0 0 0 0 15492970.451463163 72315083.065002441 0 72315083.065002441 -43566129.388313293 0 0 0 0 1369568.2042891076 3398212.5977614447 0 3398212.5977614447 6176895.7727334797 0 0 0 0 24705268.877595186 -116589743.04669189 0 -116589743.04669189 51217964.554969788 0 0 0 0 175667670.70913863 -27954755.012454987 0 -27954755.012454987 -170810618.05391693 0 0 0 0 1020225.5226111528 1950439.1658954769 0 1950439.1658954769 3146136.919634074 0 0 0 0 -109439533.35652721 112760863.37334919 0 112760863.37334919 507625486.23292542 0 0 0 0 249789451.11921883 288306510.72182465 0 288306510.72182465 -17604729.313606262 0 0 0 0 88633061.076750934 -14849688.418453217 0 -14849688.418453217 -89404855.746932983 0 0 0 0 83606904.385452032 -195262326.08834076 0 -195262326.08834076 153162752.27912903 0 0 0 0 195610378.5519222 45291290.396724701 0 45291290.396724701 283557342.25263977 0 0 0 0 34917263.897482514 -20251795.67672348 0 -20251795.67672348 557287864.49557495 0 0 0 0 240125986.16031289 -73750083.761199951 0 -73750083.761199951 435099894.06776428 0 0 0 0 246483155.75405419 326352807.1766901 0 326352807.1766901 1096842494.1162109 0 0 0 0 217585253.17517185 96476423.467094421 0 96476423.467094421 265563617.43812561 0 0 0 0 233484553.47896734 341102476.38944101 0 341102476.38944101 624660701.22203827 0 0 0 0 -173785520.4625107 99158622.762311459 0 99158622.762311459 857746967.31117249 0 0 0 0 -2370474.7513885498 -38707882.165130615 0 -38707882.165130615 301588530.29789925 0 0 0 0 113335810.81348014 346135144.78059387 0 346135144.78059387 615198723.54065037 0 0 0 0 -64602753.401394606 -53990205.552577972 0 -53990205.552577972 617095792.80036926 0 0 0 0 2386041.1682987213 60796032.825370789 0 60796032.825370789 425921830.6361618 0 0 0 0 -816607.68897604942 45405121.402647018 0 45405121.402647018 357414982.32792664 0 0 0 0 77325014.559104443 82891293.120605469 0 82891293.120605469 204003857.60384369 0 0 0 0 59610406.709758759 136431284.32892609 0 136431284.32892609 371374344.76853561 0 0 0 0 113543190.53674626 83201307.508792877 0 83201307.508792877 203808692.35467529 0 0 0 0 130476834.68494725 123401915.86063766 0 123401915.86063766 193279039.5919342 0 0 0 0 51212322.276921391 178063918.70232391 0 178063918.70232391 202782748.92619324 0 0 0 0 -44107244.272455931 96706964.259075165 0 96706964.259075165 75475135.00031662 0 0 0 0 102661851.61480141 16973669.34462738 0 16973669.34462738 136197200.51890945 0 0 0 0 75098574.048040152 77323133.486480713 0 77323133.486480713 164818161.73689842 0 0 0 0 89487868.228415966 16274660.835380554 0 16274660.835380554 350812391.01631165 0 0 0 0 -19720845.867896318 -7394059.4602813721 0 -7394059.4602813721 523421115.53888702 0 0 0 0 66730959.661583662 -123433918.52884674 0 -123433918.52884674 319371858.61618805 0 0 0 0 483754.26406997349 -790773.61829097569 0 -790773.61829097569 576978.65275829285 0 0 0 0 66333612.131487697 -98329297.854290009 0 -98329297.854290009 -77304872.650894165 0 0 0 0 171127.65487548057 -1144937.2092507184 0 -1144937.2092507184 2250747.5210257769 0 0 0 0 -47602513.820779681 -273115975.99193954 0 -273115975.99193954 135337607.46920776 0 0 0 0 4895902.2504052222 123612346.20595169 0 123612346.20595169 236728450.81744385 0 0 0 0 -5505369.2814388275 148010060.99336243 0 148010060.99336243 384849638.66646004 0 0 0 0 -25653705.199062824 43810865.628898621 0 43810865.628898621 85697294.807806015 0 0 0 0 -81585740.61092338 46396738.706356049 0 46396738.706356049 243899930.38339996 0 0 0 0 385222.77723580785 -2376327.6855857223 0 -2376327.6855857223 4261176.5081045926 0 0 0 0 -114898866.43021601 -88145297.204082489 0 -88145297.204082489 83019041.494133472 0 0 0 0 -109963138.0138458 -33390917.342009544 0 -33390917.342009544 118148871.31325531 0 0 0 0 10650095.066947699 4493431.3722686768 0 4493431.3722686768 110875133.31090641 0 0 0 0 -18544685.403391272 71507487.230376244 0 71507487.230376244 238963922.78070068 0 0 0 0 -19520405.351325274 -52581234.723964691 0 -52581234.723964691 361231547.96514893 0 0 0 0 75880064.320171833 4200502.2953796387 0 4200502.2953796387 231587715.38513184 0 0 0 0 -20164528.839492977 77753494.671607971 0 77753494.671607971 182754639.75930786 0 0 0 0 61265821.502637386 28949186.205013275 0 28949186.205013275 117272283.11373138 0 0 0 0 111941693.8543635 68965522.262605667 0 68965522.262605667 141182101.94600677 0 0 0 0 132371850.25222111 66070567.540328979 0 66070567.540328979 141370290.45313787 0 0 0 0 67015183.277595043 40249712.523049355 0 40249712.523049355 164792673.21867371 0 0 0 0 140951825.30934787 393728.87228393555 0 393728.87228393555 185941526.2635498 0 0 0 0 207403592.69216681 -76290906.827827454 0 -76290906.827827454 195546363.44754028 0 0 0 0 150953307.65643334 -30379374.03212738 0 -30379374.03212738 164333338.5524826 0 0 0 0 91652984.460175753 -90462560.719736099 0 -90462560.719736099 294120659.58631134 0 0 0 0 5329853.2116032243 -73736484.107675552 0 -73736484.107675552 307811649.49001312 0 0 0 0 435959946.66104424 -164547562.85803747 0 -164547562.85803747 172899307.99803162 0 0 0 0 139797248.45133996 -231450303.98098755 0 -231450303.98098755 464573383.37689972 0 0 0 0 -15994967.28687644 66535916.696575165 0 66535916.696575165 479670664.95976949 0 0 0 0 44899582.491856456 -5708603.6894855499 0 -5708603.6894855499 108997637.14214325 0 0 0 0 2701477.2534012301 -1246719.0155888051 0 -1246719.0155888051 2281940.6314644571 0 0 0 0 2302267.3950589187 -2151226.8545676246 0 -2151226.8545676246 3374900.286008656 0 0 0 0 16439594.901900887 -16357539.705680847 0 -16357539.705680847 120776651.42012262 0 0 0 0 3043470.1511004837 -599438.46086812019 0 -599438.46086812019 -51312.077090731822 0 0 0 0 -30180994.227469146 11188866.865867615 0 11188866.865867615 284101509.79118347 0 0 0 0 -13018965.950559556 -75615021.578987122 0 -75615021.578987122 309498302.52150726 0 0 0 0 8415730.0596774817 -79207389.079086304 0 -79207389.079086304 274541026.61412096 0 0 0 0 -16160663.485627413 -14976336.32843399 0 -14976336.32843399 242865096.13832474 0 0 0 0 -11826174.739138126 -76159968.004135132 0 -76159968.004135132 309494238.6397171 0 0 0 0 -6782266.5950721279 -103989993.18634796 0 -103989993.18634796 436375552.64849091 0 0 0 0 72079002.245236248 -16912758.353977203 0 -16912758.353977203 267446267.98526382 0 0 0 0 61948942.888797432 -114869207.01367378 0 -114869207.01367378 312743176.63648605 0 0 0 0 -500330.74556289613 -53185185.465503693 0 -53185185.465503693 249588439.06002808 0 0 0 0 15286410.764067471 -39255934.54123497 0 -39255934.54123497 237630449.77671814 0 0 0 0 -10273730.570570335 10553208.333154678 0 10553208.333154678 171167093.42514801 0 0 0 0 16935239.401663959 -62293094.507305145 0 -62293094.507305145 211347953.56570816 0 0 0 0 3580617.0531902611 1665638.4057888985 0 1665638.4057888985 192899842.06950378 0 0 0 0 1284185.1010143459 -36649747.526222229 0 -36649747.526222229 153139456.12918854 0 0 0 0 -20802139.282771185 11119574.092609406 0 11119574.092609406 125858541.93153381 0 0 0 0 23906341.042877614 -23164412.481479645 0 -23164412.481479645 78425508.164634705 0 0 0 0 2331809.117525694 -907613.91866414249 0 -907613.91866414249 217618.33898362704 0 0 0 0 -7118164.9069415331 -11763321.23135376 0 -11763321.23135376 125238353.68462372 0 0 0 0 -7693656.0177498534 -42064739.209037781 0 -42064739.209037781 103729752.16188812 0 0 0 0 27160724.901196092 -5505750.3234558105 0 -5505750.3234558105 26396661.225114822 0 0 0 0 855283.80954061821 -525720.60535161197 0 -525720.60535161197 193280.32686534058 0 0 0 0 -50990916.294571161 -66358027.041687012 0 -66358027.041687012 207215411.17642021 0 0 0 0 6897453.1473936066 8614641.9067716599 0 8614641.9067716599 129366302.17625427 0 0 0 0 -20181402.478573356 -27004222.604385376 0 -27004222.604385376 201640267.78012848 0 0 0 0 31730.910579963034 -29989103.744468689 0 -29989103.744468689 145187617.31751633 0 0 0 0 11361344.611423671 5576237.4980926514 0 5576237.4980926514 219929946.98255348 0 0 0 0 -43582.533063049588 -36990171.033672333 0 -36990171.033672333 270829787.2868309 0 0 0 0 8695585.0016866326 -18325956.660629272 0 -18325956.660629272 289500656.4081192 0 0 0 0 42261.257418584813 -33243404.728179932 0 -33243404.728179932 299025218.88202477 0 0 0 0 21522833.912212759 -37861953.074264526 0 -37861953.074264526 262523237.0842514 0 0 0 0 1534951.9382167459 -28122029.406019211 0 -28122029.406019211 338111593.47902679 0 0 0 0 44479325.852964118 -109558713.02654552 0 -109558713.02654552 243529943.91119385 0 0 0 0 42864829.036391854 -145148162.50660515 0 -145148162.50660515 -71939322.354633331 0 0 0 0 -20241239.078067873 86810497.392783165 0 86810497.392783165 517022731.1193924 0 0 0 0 189108.96980943298 -1113581.1021577418 0 -1113581.1021577418 2267745.5999795198 0 0 0 0 39803200.800604351 -75979896.600761414 0 -75979896.600761414 328871433.87809467 0 0 0 0 157413843.71186975 -35591927.323699951 0 -35591927.323699951 124046101.14134216 0 0 0 0 -117842556.55144523 11289530.720274329 0 11289530.720274329 213334299.74454498 0 0 0 0 -8223694.5337229669 13488138.801494598 0 13488138.801494598 272406959.78728485 0 0 0 0 -34449718.298283994 64602507.571487427 0 64602507.571487427 174188536.77672195 0 0 0 0 -9772267.536313571 35717157.993309021 0 35717157.993309021 484864081.41981506 0 0 0 0 -24795737.824751999 -53216876.702449799 0 -53216876.702449799 392545451.91179657 0 0 0 0 118844885.09665635 79635412.816963196 0 79635412.816963196 314651247.63760185 0 0 0 0 -27898.254291811489 6355361.0135688782 0 6355361.0135688782 307144281.41278076 0 0 0 0 -251086.54019467905 -61770929.161911011 0 -61770929.161911011 229460940.06999207 0 0 0 0 42109976.678544573 -5170669.0999641418 0 -5170669.0999641418 268315985.77523804 0 0 0 0 2887195.2760620117 24160443.577102661 0 24160443.577102661 -5786516.3964056969 0 0 0 0 3280986.5571966171 37652726.778324127 0 37652726.778324127 14792779.189079285 0 0 0 0 33292162.505275726 35074837.405277252 0 35074837.405277252 14851404.163958728 0 0 0 0 -26301498.734315872 42429254.316753387 0 42429254.316753387 33317718.770629883 0 0 0 0 -26018019.947412014 42714121.526967049 0 42714121.526967049 30902814.339012146 0 0 0 0 -42761000.026877403 33423466.842098236 0 33423466.842098236 27976666.312225342 0 0 0 0 -17775808.300223351 32045130.819734573 0 32045130.819734573 6454124.3688201904 0 0 0 0 -14778783.878118515 34558298.071166992 0 34558298.071166992 6327808.9279937744 0 0 0 0 2576986.2529302686 51067209.425340205 0 51067209.425340205 15645603.801689148 0 0 0 0 -28886465.266441345 28631792.873786926 0 28631792.873786926 4684534.1358413696 0 0 0 0 82737736.918709278 -121682970.19390106 0 -121682970.19390106 -210720545.90937042 0 0 0 0 -10689647.221725559 9296788.0162169188 0 9296788.0162169188 32888.338152982527 0 0 0 0 -13960427.51193428 33180434.659355164 0 33180434.659355164 5880546.3700771332 0 0 0 0 -73200535.497588158 33031299.320350647 0 33031299.320350647 -17449407.229957581 0 0 0 0 -39747842.537207603 -34576452.956380844 0 -34576452.956380844 99704689.435386658 0 0 0 0 122507161.49425507 -536219242.32897186 0 -536219242.32897186 56905342.528865814 0 0 0 0 67081457.639820099 23497533.508174896 0 23497533.508174896 -4242350.4661347866 0 0 0 0 42323516.054742336 -15151811.026491165 0 -15151811.026491165 507463498.99372101 0 0 0 0 53102447.784135818 4044336.7370872498 0 4044336.7370872498 540596972.1072998 0 0 0 0 75420623.653669357 441000605.72244513 0 441000605.72244513 6301881.6563282013 0 0 0 0 -102144072.23145676 108801332.12211609 0 108801332.12211609 1228188450.0443115 0 0 0 0 -26037437.914840698 -728148185.60528564 0 -728148185.60528564 369569156.39697552 0 0 0 0 -251394193.76675034 -667765790.4427948 0 -667765790.4427948 964059754.48209763 0 0 0 0 -23462653.139856339 9763389.6437301636 0 9763389.6437301636 -6148223.6018836498 0 0 0 0 -8987193.3618373871 34530171.171497345 0 34530171.171497345 5366501.7876777649 0 0 0 0 7074027.9435811974 14342640.205729447 0 14342640.205729447 12628825.015992269 0 0 0 0 38011722.996014595 11312940.896844864 0 11312940.896844864 -71473351.667110443 0 0 0 0 -25948507.103344947 -3312015.4143946692 0 -3312015.4143946692 45132352.459276788 0 0 0 0 -84613666.67105484 -30438449.91970253 0 -30438449.91970253 176288484.78582478 0 0 0 0 -4929862.4122753143 23308937.939022064 0 23308937.939022064 60175163.086444855 0 0 0 0 -3197253.7281488739 27272079.699649736 0 27272079.699649736 15720723.754656356 0 0 0 0 -15599778.523309879 -16876810.809049487 0 -16876810.809049487 63531743.836673692 0 0 0 0 31890607.210044503 -115390687.21812308 0 -115390687.21812308 -126887124.58532333 0 0 0 0 45907309.947113514 57713850.03168869 0 57713850.03168869 -8247428.9892311096 0 0 0 0 46110986.998529434 33469875.825393677 0 33469875.825393677 -56209488.308345795 0 0 0 0 8966883.6802253723 31226451.201353073 0 31226451.201353073 48755910.226085663 0 0 0 0 86936145.493195534 52488821.426028252 0 52488821.426028252 52852265.115005493 0 0 0 0 307244652.72141314 -130955751.12832546 0 -130955751.12832546 63989942.749984741 0 0 0 0 -33208911.315505981 -6451494.8795337677 0 -6451494.8795337677 26184845.394578934 0 0 0 0 -53901315.174858093 -61028418.541810989 0 -61028418.541810989 555394666.29115295 0 0 0 0 -17638027.322191238 -25653168.131706238 0 -25653168.131706238 390244701.15587616 0 0 0 0 182528265.99246252 204954296.88634729 0 204954296.88634729 283755227.6143837 0 0 0 0 -23009253.908226967 -61440774.081707001 0 -61440774.081707001 151845272.56155205 0 0 0 0 -29833019.763251305 23230559.015939713 0 23230559.015939713 238438429.83920479 0 0 0 0 1531318.0407500267 70331643.63227272 0 70331643.63227272 56507037.543136597 0 0 0 0 -42838593.048641205 36821128.231672287 0 36821128.231672287 96149733.229879379 0 0 0 0 -25533342.782027006 6130534.6441988945 0 6130534.6441988945 71224485.900440216 0 0 0 0 -49992059.333309174 6725357.4482250214 0 6725357.4482250214 95757747.590953827 0 0 0 0 -58798976.219988823 -20063459.790748596 0 -20063459.790748596 18179805.746007919 0 0 0 0 59474250.390593052 93230076.532833099 0 93230076.532833099 88694742.882730484 0 0 0 0 763757.8495182991 -35920663.274315834 0 -35920663.274315834 60101097.71665597 0 0 0 0 -87828971.676813126 9681362.9426708221 0 9681362.9426708221 41694411.991161346 0 0 0 0 -757296.70962191466 -2220129.1409433335 0 -2220129.1409433335 23286080.013802066 0 0 0 0 -57667914.839847565 31524013.822309494 0 31524013.822309494 36406517.620417595 0 0 0 0 -47136842.776970863 21792956.211072922 0 21792956.211072922 43606358.673797607 0 0 0 0 -7158498.0637030061 9837754.9437025692 0 9837754.9437025692 65735763.706145175 0 0 0 0 -135102198.48880196 191067522.07833862 0 191067522.07833862 150580901.41321182 0 0 0 0 26680141.505922794 -10484468.905769348 0 -10484468.905769348 -15345112.589475632 0 0 0 0 13482781.915138006 -11037113.35011816 0 -11037113.35011816 -41682773.688671112 0 0 0 0 950380.68196353596 -18051.37842445448 0 -18051.37842445448 3032471.8300080672 0 0 0 0 -55125193.288493633 7623916.6699283123 0 7623916.6699283123 69515721.599437118 0 0 0 0 -15367697.544381618 1893506.2538317442 0 1893506.2538317442 63229485.238988578 0 0 0 0 -23940936.366936207 -14697079.230075836 0 -14697079.230075836 65611246.75876832 0 0 0 0 1723174.2604594231 -4242453.7988078594 0 -4242453.7988078594 57999481.830922365 0 0 0 0 -4813223.8039388657 -8971886.5222361088 0 -8971886.5222361088 55480425.410847425 0 0 0 0 -4369025.1343894005 -2732216.311234951 0 -2732216.311234951 62180494.788358212 0 0 0 0 -12533075.716340061 4856192.459136189 0 4856192.459136189 51777847.09870068 0 0 0 0 -54733290.949545383 56042511.185997963 0 56042511.185997963 18686514.711936951 0 0 0 0 1928181.4817030132 -6486083.0815455988 0 -6486083.0815455988 60878600.305142879 0 0 0 0 -15809357.154518604 -7640890.2567913532 0 -7640890.2567913532 73421574.117671728 0 0 0 0 -1743678.9912509378 -1304755.0669252351 0 -1304755.0669252351 11034920.860107137 0 0 0 0 -1445350.904088974 -5106231.2515339851 0 -5106231.2515339851 64055473.069081783 0 0 0 0 -2086032.9588341713 -5104138.8024213314 0 -5104138.8024213314 45967264.927203178 0 0 0 0 -5835093.7983856201 -3064422.8161196709 0 -3064422.8161196709 63277868.492377758 0 0 0 0 -21895760.990086555 -14620667.495149612 0 -14620667.495149612 65417296.237077475 0 0 0 0 -22692590.141108513 -12917447.31450963 0 -12917447.31450963 151242845.62002563 0 0 0 0 -36325743.780031204 18193672.197067261 0 18193672.197067261 27856942.405654907 0 0 0 0 -9349614.5119457245 46497110.384654999 0 46497110.384654999 36838846.775653839 0 0 0 0 -49489418.203080177 19612636.727028847 0 19612636.727028847 11111303.459754944 0 0 0 0 -6954742.2674217597 2638615.2998705283 0 2638615.2998705283 7090615.7323278636 0 0 0 0 -48815063.709535599 37919164.75842762 0 37919164.75842762 39689854.475585938 0 0 0 0 -42116705.14292717 46126105.772979736 0 46126105.772979736 49158301.293471336 0 0 0 0 -8039742.2797152568 10586119.109933864 0 10586119.109933864 9978374.9806889221 0 0 0 0 -30926075.415608406 25437063.75793457 0 25437063.75793457 33652988.798492432 0 0 0 0 -13979921.290037155 18914301.661821365 0 18914301.661821365 6629772.8478164673 0 0 0 0 -8137145.3216072032 5650540.8440594375 0 5650540.8440594375 22822025.128255546 0 0 0 0 -14985370.907560468 9805282.3722023964 0 9805282.3722023964 16835483.592533112 0 0 0 0 -7111449.6413162379 1947297.0223261043 0 1947297.0223261043 31971280.448059075 0 0 0 0 -4983302.4686479568 14079217.378269196 0 14079217.378269196 30644380.291414261 0 0 0 0 -14649200.511342168 8515534.8405380249 0 8515534.8405380249 32697991.481171995 0 0 0 0 -16170467.074322343 6449816.230890274 0 6449816.230890274 37436598.584276199 0 0 0 0 -16161705.006079197 9896691.5248756409 0 9896691.5248756409 42381997.802787781 0 0 0 0 -10864287.072508311 7729187.6172614172 0 7729187.6172614172 15956037.280700795 0 0 0 0 -20185797.324814975 -5865613.7137790918 0 -5865613.7137790918 46891820.0509694 0 0 0 0 -15403098.55355072 3148238.1065406799 0 3148238.1065406799 32558782.155693054 0 0 0 0 -163840742.44408953 43044050.606449127 0 43044050.606449127 -45040363.803459167 0 0 0 0 -10823879.122120839 16162382.217529748 0 16162382.217529748 15582904.049079999 0 0 0 0 -14744528.728419235 9364246.5607965887 0 9364246.5607965887 19026686.343242403 0 0 0 0 -23645745.808969498 13072515.851057053 0 13072515.851057053 20865924.399154663 0 0 0 0 -10895612.942512751 8583298.0831604004 0 8583298.0831604004 15196270.112365723 0 0 0 0 -17496222.938829329 15543301.2263202 0 15543301.2263202 18547383.686793178 0 0 0 0 -122977627.10655642 73086166.33065033 0 73086166.33065033 -42010587.37071228 0 0 0 0 -171746309.98190826 95999472.758202553 0 95999472.758202553 97798254.678512573 0 0 0 0 -6537865.0309797525 8062279.588051796 0 8062279.588051796 12832222.09821701 0 0 0 0 -169422559.34392548 101734699.4088726 0 101734699.4088726 19605481.876224518 0 0 0 0 2208251.6060085609 6948751.0725637302 0 6948751.0725637302 5045148.1342047006 0 0 0 0 21907569.097569108 -17317370.390520096 0 -17317370.390520096 11569079.956731319 0 0 0 0 -6857205.3138849288 -8915661.7280623466 0 -8915661.7280623466 19533830.439876556 0 0 0 0 -8300789.9620251413 4790492.8744471986 0 4790492.8744471986 17971736.436280623 0 0 0 0 -1977660.8646358885 -9232338.3462919407 0 -9232338.3462919407 27502316.697862491 0 0 0 0 -27415503.520508766 12700412.933959961 0 12700412.933959961 28510866.798780441 0 0 0 0 -401880.37625602912 -3784866.3123415876 0 -3784866.3123415876 4010385.7782981396 0 0 0 0 6128460.3417305946 19563185.682668686 0 19563185.682668686 39276553.243833542 0 0 0 0 -6687053.1585488319 -30064038.36609602 0 -30064038.36609602 55187097.553161621 0 0 0 0 -18430621.056301117 11143304.336227417 0 11143304.336227417 40852556.085999489 0 0 0 0 31639892.339101076 5446870.5972614288 0 5446870.5972614288 24553858.131671906 0 0 0 0 31810094.888048887 91970111.797257423 0 91970111.797257423 102800662.60961533 0 0 0 0 -65568714.591977447 17173293.683917046 0 17173293.683917046 234112656.24684525 0 0 0 0 -32234758.804207325 -41554196.135172844 0 -41554196.135172844 337439290.9269619 0 0 0 0 67255965.822630197 -80985936.070068002 0 -80985936.070068002 99587232.78767395 0 0 0 0 -13675955.233301938 -22523920.113164902 0 -22523920.113164902 114147117.08628845 0 0 0 0 -57975980.240981996 49044374.154996872 0 49044374.154996872 103877985.85028839 0 0 0 0 6014206.4826521873 -7052364.7618236542 0 -7052364.7618236542 6698176.0724782944 0 0 0 0 7661380.1555380821 -23412565.697958946 0 -23412565.697958946 23433873.263057709 0 0 0 0 -2344302.75020504 -27468474.698180676 0 -27468474.698180676 70085185.110625982 0 0 0 0 7204899.284034729 -14345178.722270966 0 -14345178.722270966 28991187.875819683 0 0 0 0 -3938865.6711540222 -5380506.337603569 0 -5380506.337603569 35760224.169232845 0 0 0 0 -114169.5982427597 -12882024.7612257 0 -12882024.7612257 40148986.827315569 0 0 0 0 -1571545.1081495285 -8076954.0946002007 0 -8076954.0946002007 34860403.974073648 0 0 0 0 -4903713.1882987022 -18720013.207944632 0 -18720013.207944632 44808314.034925461 0 0 0 0 -509665.26295089722 -5473075.0379838943 0 -5473075.0379838943 16966452.092319489 0 0 0 0 5876621.7419817448 -7063573.1507751942 0 -7063573.1507751942 17118021.648857117 0 0 0 0 -939917.61836508662 -871629.39528208319 0 -871629.39528208319 15315985.31080123 0 0 0 0 4611345.3295812607 -341929.16641807556 0 -341929.16641807556 12802389.568776131 0 0 0 0 5941536.3463945389 -1376115.7214956284 0 -1376115.7214956284 13411870.523572922 0 0 0 0 8701784.395844698 -8660032.0065177083 0 -8660032.0065177083 7025158.164560318 0 0 0 0 194526172.72902918 -142663405.61690998 0 -142663405.61690998 136939608.43469429 0 0 0 0 2837306.1949173901 1158308.2618991584 0 1158308.2618991584 2427536.0539528718 0 0 0 0 92960996.005147934 -117940500.11723638 0 -117940500.11723638 131287827.19655991 0 0 0 0 18753242.692714691 109434437.49942112 0 109434437.49942112 405196129.94392586 0 0 0 0 -6561869.9688425064 25464686.480319977 0 25464686.480319977 8797058.5262422562 0 0 0 0 -31372695.921667039 28269473.63381958 0 28269473.63381958 340936060.35996437 0 0 0 0 3450349.6130588558 800939.85435214452 0 800939.85435214452 1776530.7407372594 0 0 0 0 13457811.142608155 4092000.8472921532 0 4092000.8472921532 2766960.5796005912 0 0 0 0 80644629.676375389 60609105.352653503 0 60609105.352653503 16060039.733615935 0 0 0 0 146148803.14959788 -79779860.403317451 0 -79779860.403317451 211583336.90044689 0 0 0 0 46748731.799631357 40799036.291152 0 40799036.291152 94038741.685069323 0 0 0 0 158732627.83768016 132995431.46403679 0 132995431.46403679 167792462.23629951 0 0 0 0 17518142.704355955 -36848037.863115311 0 -36848037.863115311 369954328.56294155 0 0 0 0 -324466985.64709926 106613504.62315655 0 106613504.62315655 300643609.74280739 0 0 0 0 620694013.38909447 243396604.73243761 0 243396604.73243761 -172052504.66120911 0 0 0 0 339089341.74102473 867232006.39025307 0 867232006.39025307 -155532600.01537943 0 0 0 0 -273121247.71731907 564965366.24439442 0 564965366.24439442 130569288.06166077 0 0 0 0 52589585.825573206 220257484.17717552 0 220257484.17717552 -17348158.241294861 0 0 0 0 -2969526.0639076233 -10214071.795810699 0 -10214071.795810699 22814509.216884613 0 0 0 0 268158297.02638531 -52090995.009825706 0 -52090995.009825706 -20035665.927835464 0 0 0 0 5414773.2713676784 -16354.092326071113 0 -16354.092326071113 -128626.38360109273 0 0 0 0 -93614023.739078283 96739834.43853426 0 96739834.43853426 266831178.03111553 0 0 0 0 -127881939.99329805 -87113196.464524746 0 -87113196.464524746 457143448.10260677 0 0 0 0 511660178.80023038 -382668485.06494331 0 -382668485.06494331 -18736781.977542877 0 0 0 0 -8038227.6108034458 -21808914.917558372 0 -21808914.917558372 50629634.218515232 0 0 0 0 -39751343.627232552 -66413277.080234528 0 -66413277.080234528 -67873528.427951813 0 0 0 0 -32617024.62582469 -27070712.196995497 0 -27070712.196995497 28191480.50743866 0 0 0 0 -9924478.8058571815 4768278.7903251648 0 4768278.7903251648 -48236425.566143036 0 0 0 0 26862886.014647484 14371409.581726074 0 14371409.581726074 16299845.199542999 0 0 0 0 17397409.909414768 28639667.116581917 0 28639667.116581917 68009079.090301514 0 0 0 0 1241759.5666806698 1799448.7246131897 0 1799448.7246131897 57352173.84928894 0 0 0 0 7328128.2846622467 10155067.494138718 0 10155067.494138718 39473748.795970917 0 0 0 0 -20105833.376715124 -9161614.4358855635 0 -9161614.4358855635 47723965.471434109 0 0 0 0 -8169390.3749952316 -11067232.55009079 0 -11067232.55009079 44455540.067853928 0 0 0 0 -50311397.905869007 -44704810.5620718 0 -44704810.5620718 17756240.982904434 0 0 0 0 227403015.50342941 -227563441.86873627 0 -227563441.86873627 293198329.56088257 0 0 0 0 -5903762.9628935736 -11684001.411923928 0 -11684001.411923928 24295804.849872619 0 0 0 0 66350653.847858541 -115253266.97456166 0 -115253266.97456166 215170418.59656143 0 0 0 0 259552258.21291637 115460429.27035999 0 115460429.27035999 -118641850.48771381 0 0 0 0 4328862.1519813444 3263950.2856112961 0 3263950.2856112961 -226393.99546986818 0 0 0 0 -11029976.867763236 -11349814.764971221 0 -11349814.764971221 14062376.138718784 0 0 0 0 -111102204.85498285 198449084.39688587 0 198449084.39688587 -3123657.3010864258 0 0 0 0 259870241.32360744 413995469.78551388 0 413995469.78551388 -337942891.79025269 0 0 0 0 -8813772.195476532 3527261.6755180359 0 3527261.6755180359 60307535.688026428 0 0 0 0 -25945438.20169045 -6750889.338947501 0 -6750889.338947501 44369638.372518703 0 0 0 0 -64504738.057086468 -59360025.867935658 0 -59360025.867935658 -6454706.5211906433 0 0 0 0 29175126.747387409 -47744570.616776943 0 -47744570.616776943 -13393654.406005859 0 0 0 0 444275240.36290836 364653016.865942 0 364653016.865942 397603002.14798737 0 0 0 0 -1843286.6825627401 2867358.2065311968 0 2867358.2065311968 7357775.3160564527 0 0 0 0 402345320.08500051 203475255.86696625 0 203475255.86696625 16028029.73576355 0 0 0 0 -145689967.95560551 58361736.78786087 0 58361736.78786087 141995041.67889404 0 0 0 0 106836372.34873056 138462352.92368317 0 138462352.92368317 -55331757.794548035 0 0 0 0 120735077.4664135 79782992.43897438 0 79782992.43897438 53620568.591281891 0 0 0 0 -19256392.900085926 14758914.169229507 0 14758914.169229507 58262691.089862823 0 0 0 0 -1766235.7178173065 16386715.355140686 0 16386715.355140686 57624483.258016586 0 0 0 0 -5415290.9321212769 14424593.361146927 0 14424593.361146927 56585598.974933624 0 0 0 0 2389868.0156441927 20958000.166864157 0 20958000.166864157 59960123.942062378 0 0 0 0 3431249.1092567444 13586517.445335388 0 13586517.445335388 54772663.979141235 0 0 0 0 6082026.4758395851 19639054.882928491 0 19639054.882928491 62098582.198001862 0 0 0 0 5867033.461771965 15863998.075624466 0 15863998.075624466 65496205.318706512 0 0 0 0 -201209.43564367294 19250195.12191391 0 19250195.12191391 90657479.398601532 0 0 0 0 -497447.47995603085 14187846.438290596 0 14187846.438290596 67217836.39465332 0 0 0 0 1925739.2393324375 15623617.681461334 0 15623617.681461334 59444272.679222107 0 0 0 0 -366408.92915630341 17569852.95124054 0 17569852.95124054 67818456.526906013 0 0 0 0 1357806.4729957581 19067637.599573135 0 19067637.599573135 41383057.698465347 0 0 0 0 -22108567.899007082 2763215.3438282013 0 2763215.3438282013 63756271.401311874 0 0 0 0 -2481564.1038964987 10495097.565900803 0 10495097.565900803 66506605.485534668 0 0 0 0 -772542.03015953582 -107019.67401111871 0 -107019.67401111871 544304.43638591468 0 0 0 0 -20344352.515622854 -21166093.58339119 0 -21166093.58339119 5853248.6582069397 0 0 0 0 14582258.535954714 20773726.420228958 0 20773726.420228958 114410215.26043701 0 0 0 0 -6311167.9295830727 4880820.3566508293 0 4880820.3566508293 25939468.406494141 0 0 0 0 -923546.1122790575 15969613.316026688 0 15969613.316026688 28586142.938801765 0 0 0 0 -12891163.181928158 18950453.289225578 0 18950453.289225578 51124454.613761902 0 0 0 0 468662.81473612785 27727224.484443665 0 27727224.484443665 55224440.77996254 0 0 0 0 -2410059.5054373741 25432610.055446625 0 25432610.055446625 56735502.717288256 0 0 0 0 4813063.8957052231 19057992.407978058 0 19057992.407978058 52008430.507793427 0 0 0 0 -5057861.4851852655 22145597.319842815 0 22145597.319842815 52709652.053916931 0 0 0 0 -80298.137613773346 21397483.716655731 0 21397483.716655731 49230872.988420486 0 0 0 0 80016038.062878266 105978664.41442871 0 105978664.41442871 104776643.22667885 0 0 0 0 27108773.369377293 74556229.711211205 0 74556229.711211205 127297444.45316696 0 0 0 0 -1801039.2547750175 77112413.533977509 0 77112413.533977509 162376084.87860203 0 0 0 0 128606928.65354043 186909502.96355629 0 186909502.96355629 214118103.30885816 0 0 0 0 75094719.475342214 75746919.259260178 0 75746919.259260178 120789027.3019104 0 0 0 0 -3263244.9347389936 12571677.310411453 0 12571677.310411453 72023258.638551712 0 0 0 0 -11625984.030438244 -33460742.694464684 0 -33460742.694464684 -8978482.2687072754 0 0 0 0 -13828417.90621376 36579659.648767471 0 36579659.648767471 55428683.491186142 0 0 0 0 -536736.40963125555 -107832.45903021842 0 -107832.45903021842 1834281.5910589248 0 0 0 0 -1618412.5940005481 219614.04584337771 0 219614.04584337771 500577.61614043266 0 0 0 0 571373.09389275312 21759590.603208542 0 21759590.603208542 41997884.712100983 0 0 0 0 4793450.5171974897 17680332.454582214 0 17680332.454582214 43904781.799768448 0 0 0 0 3341834.2820158601 24161735.634803772 0 24161735.634803772 42874545.396408081 0 0 0 0 8391344.1748514771 18709285.375686646 0 18709285.375686646 45371615.707269669 0 0 0 0 3219690.9758112282 10082222.802479267 0 10082222.802479267 27841599.773136139 0 0 0 0 -2494325.0921159089 640151.85021195561 0 640151.85021195561 357727.01241447031 0 0 0 0 -911238.90467067983 -961490.01229079813 0 -961490.01229079813 3790171.3695759773 0 0 0 0 -19232497.427332208 -30428984.77223146 0 -30428984.77223146 22609216.961231232 0 0 0 0 -3050470.7321326737 819685.19403105974 0 819685.19403105974 133760.69422678649 0 0 0 0 6773047.6123771966 15960874.763662338 0 15960874.763662338 39715909.4296875 0 0 0 0 11476321.46624589 27278815.131217957 0 27278815.131217957 42325370.882055283 0 0 0 0 -9661944.1696959585 40908424.079124451 0 40908424.079124451 22076489.774425507 0 0 0 0 -332057.68061202019 -3015927.3824920654 0 -3015927.3824920654 28314782.873764038 0 0 0 0 57579433.329678148 51151855.515491486 0 51151855.515491486 58206706.593109131 0 0 0 0 -2668049.2339587808 29037440.843595505 0 29037440.843595505 201148797.79816055 0 0 0 0 7357344.7595769167 23841017.962608337 0 23841017.962608337 58693912.871692657 0 0 0 0 -169485.19048213959 30596496.831985474 0 30596496.831985474 163862375.46781158 0 0 0 0 1724085.4198312163 22284130.015197754 0 22284130.015197754 58797037.185260773 0 0 0 0 5611984.4662941005 25255243.755246878 0 25255243.755246878 1106999.6665371116 0 0 0 0 3531085.5508122444 30118466.053642273 0 30118466.053642273 160979899.45137024 0 0 0 0 2257829.6010437608 21766489.049711704 0 21766489.049711704 173838190.90970612 0 0 0 0 -1177779.2114319205 23150445.433418274 0 23150445.433418274 63451820.027183533 0 0 0 0 2837353.5339629068 24882206.211707786 0 24882206.211707786 991351.74079758418 0 0 0 0 -2598719.4023544788 36909116.581745148 0 36909116.581745148 157549130.91359329 0 0 0 0 -2486819.9352998734 23686607.404083252 0 23686607.404083252 139938931.59238052 0 0 0 0 -6053728.2892872095 14050658.625328064 0 14050658.625328064 150986778.48748016 0 0 0 0 387952.17317020893 -358504.22722768784 0 -358504.22722768784 78033346.356155396 0 0 0 0 -3446187.7630090714 -13603733.29032135 0 -13603733.29032135 110798053.27093315 0 0 0 0 -188405.82436144352 -1178998.6535148621 0 -1178998.6535148621 147854959.56295776 0 0 0 0 12507868.822916746 -12369976.209663391 0 -12369976.209663391 119062504.24591827 0 0 0 0 5223606.2107436657 26924484.033033371 0 26924484.033033371 165227664.50489807 0 0 0 0 1176957.1787276268 -6134143.8663711548 0 -6134143.8663711548 156493947.03444481 0 0 0 0 4274909.8246335983 2267153.6508407593 0 2267153.6508407593 175788278.79473877 0 0 0 0 3645266.3661320806 -851528.11101341248 0 -851528.11101341248 189600476.9670105 0 0 0 0 15035628.513617516 -26867650.887527466 0 -26867650.887527466 154087459.07514954 0 0 0 0 12955854.314844489 -29052187.161306381 0 -29052187.161306381 186814533.48930359 0 0 0 0 6168687.9668918848 -22473484.290489197 0 -22473484.290489197 210465227.2331543 0 0 0 0 2670821.357706531 8639352.33390899 0 8639352.33390899 8522679.2021053359 0 0 0 0 10318825.562549591 -8128733.4417724609 0 -8128733.4417724609 194841775.39544582 0 0 0 0 12396605.606230974 -6397658.3452568054 0 -6397658.3452568054 196283997.82761383 0 0 0 0 -20213766.443812847 -15835871.377792358 0 -15835871.377792358 106343033.45425415 0 0 0 0 15876472.062123775 24704551.924350739 0 24704551.924350739 113677121.94873047 0 0 0 0 -5836328.5327906609 19695917.121711731 0 19695917.121711731 164535256.5192337 0 0 0 0 -779833.03153514862 22751639.042125702 0 22751639.042125702 56452018.979617596 0 0 0 0 -18925298.789760828 14107458.910411835 0 14107458.910411835 190731029.33237839 0 0 0 0 -1602821.8497432461 23440112.554306149 0 23440112.554306149 -640781.78589808755 0 0 0 0 -4393165.664552331 24331173.729984283 0 24331173.729984283 66956492.956790924 0 0 0 0 -6118220.9917286634 22050168.647472382 0 22050168.647472382 65309774.404624939 0 0 0 0 353122.12498033419 24758023.096642748 0 24758023.096642748 1210728.1523763353 0 0 0 0 -4491151.8106033802 11517755.72990036 0 11517755.72990036 178544977.21564257 0 0 0 0 -3040956.8798751831 33704602.564922333 0 33704602.564922333 140831163.09890366 0 0 0 0 3496304.5727757215 -482332.91407775879 0 -482332.91407775879 129717072.34172058 0 0 0 0 -16739847.196235418 -5366477.3872489929 0 -5366477.3872489929 123099218.03476715 0 0 0 0 -8871454.6055269241 -27773604.552230835 0 -27773604.552230835 57439098.97183609 0 0 0 0 -12281037.162587404 11266007.209032059 0 11266007.209032059 94073499.401966095 0 0 0 0 -18464480.760047428 -19494303.806208007 0 -19494303.806208007 58441443.592389762 0 0 0 0 -155709198.22769451 -96418119.015518188 0 -96418119.015518188 45444583.766025543 0 0 0 0 970695.92613935471 19986405.99136734 0 19986405.99136734 103273609.42611313 0 0 0 0 -27401751.64199543 -26511345.420805931 0 -26511345.420805931 73460127.505142212 0 0 0 0 -102797779.30352926 -311312936.34979439 0 -311312936.34979439 -24409773.983047485 0 0 0 0 -15995154.347078402 -21169268.267168924 0 -21169268.267168924 57354068.866061285 0 0 0 0 -177405084.77113819 -10566029.465768814 0 -10566029.465768814 318565679.36435318 0 0 0 0 -27900707.934425354 12729482.856342316 0 12729482.856342316 38232647.822257996 0 0 0 0 113159509.75091124 16183772.390095711 0 16183772.390095711 90456108.466491699 0 0 0 0 30443373.245179176 109426282.13405418 0 109426282.13405418 168702342.587883 0 0 0 0 -199979968.52036953 -143137733.82487297 0 -143137733.82487297 318648773.13790894 0 0 0 0 66050821.148019314 154126930.96269035 0 154126930.96269035 81647359.787820816 0 0 0 0 910547.98470166419 -4310410.4606546536 0 -4310410.4606546536 15037124.397839695 0 0 0 0 6829937.435292244 64357057.647975922 0 64357057.647975922 178636320.45110703 0 0 0 0 599832.17205929756 102951853.94266462 0 102951853.94266462 7308305.5651473999 0 0 0 0 -101102941.35871315 19632770.730140686 0 19632770.730140686 93555301.4561584 0 0 0 0 -88275914.502854347 118249011.93997574 0 118249011.93997574 118130099.97881317 0 0 0 0 -40001653.933334351 59586814.187234879 0 59586814.187234879 189250778.67738724 0 0 0 0 -129780795.75199381 121887020.11927164 0 121887020.11927164 156184584.20326996 0 0 0 0 -135132260.33984756 26814406.774353027 0 26814406.774353027 145215312.1187973 0 0 0 0 -36038386.183447599 -44975696.901866913 0 -44975696.901866913 65147339.352270126 0 0 0 0 -2052884.8274678886 1710874.1678261012 0 1710874.1678261012 19231881.554625265 0 0 0 0 -21578571.443902168 -18412010.976465389 0 -18412010.976465389 54559561.821530849 0 0 0 0 -43226065.126206398 15706155.292646408 0 15706155.292646408 78127967.305820465 0 0 0 0 -20793566.131833076 -15913167.187604904 0 -15913167.187604904 87747237.239196777 0 0 0 0 4191023.1264848709 19321387.684513092 0 19321387.684513092 145525887.26832199 0 0 0 0 -2843755.2881441303 5033189.2637673095 0 5033189.2637673095 14837169.6908773 0 0 0 0 -11452185.820314482 -12822561.128921665 0 -12822561.128921665 38290572.919986099 0 0 0 0 -31036257.544902802 35502156.666934967 0 35502156.666934967 83983592.083229065 0 0 0 0 12777702.255350947 33022342.568559647 0 33022342.568559647 60869970.244537354 0 0 0 0 -43672992.597634315 -11000090.48131752 0 -11000090.48131752 69621456.215587616 0 0 0 0 28048488.259693146 66603259.448905945 0 66603259.448905945 160607500.92950535 0 0 0 0 -17451077.055160522 29070121.163581848 0 29070121.163581848 213942623.22492218 0 0 0 0 -2279594.3388403766 -1594059.52006872 0 -1594059.52006872 -882925.16606445238 0 0 0 0 8701007.7884197235 -7511513.5630455017 0 -7511513.5630455017 55621419.367336273 0 0 0 0 -6018160.610326767 14102003.386611938 0 14102003.386611938 41985038.452861786 0 0 0 0 14723496.200880051 16098696.997583389 0 16098696.997583389 37196271.329223633 0 0 0 0 14141378.360284805 7845460.6671876907 0 7845460.6671876907 -21302417.941375732 0 0 0 0 -74084.133687973022 38722329.350242615 0 38722329.350242615 12145845.268280029 0 0 0 0 -20617270.763321877 -32652653.891260147 0 -32652653.891260147 111423826.64516068 0 0 0 0 708448.65531600267 3756883.5320066549 0 3756883.5320066549 17364749.890200078 0 0 0 0 -35098105.576172352 23145984.557977676 0 23145984.557977676 80451783.621208191 0 0 0 0 -43069705.051467896 -4523023.8917884827 0 -4523023.8917884827 44180185.374013901 0 0 0 0 -83882800.167942047 -157242576.50324631 0 -157242576.50324631 298702304.384655 0 0 0 0 182080597.76356506 -19436120.71428299 0 -19436120.71428299 19359124.104347229 0 0 0 0 -1190242.5054383278 -475713.49740318209 0 -475713.49740318209 -440587.25627970695 0 0 0 0 -119218242.42705536 60123300.941062927 0 60123300.941062927 112534433.71718597 0 0 0 0 117989.84024940431 65152790.174614519 0 65152790.174614519 91215974.433319092 0 0 0 0 24908173.150634766 101625223.82169724 0 101625223.82169724 94998803.028953552 0 0 0 0 -244667682.00437546 -311448540.27889252 0 -311448540.27889252 306284536.45751953 0 0 0 0 18758559.372182846 75765513.651382446 0 75765513.651382446 -7315133.807844162 0 0 0 0 4038658.2017764635 1923775.5657843463 0 1923775.5657843463 -173636.73412960768 0 0 0 0 -102888719.36841202 -3724683.3367843628 0 -3724683.3367843628 210412171.75054932 0 0 0 0 116226103.93077087 295205280.15605927 0 295205280.15605927 601724938.31040192 0 0 0 0 369981003.30872726 -297236130.73440552 0 -297236130.73440552 281339402.66893864 0 0 0 0 -39181525.9116745 101176328.62505722 0 101176328.62505722 307804202.46430969 0 0 0 0 -597606.62190756202 -7389817.2659771033 0 -7389817.2659771033 20269229.692468092 0 0 0 0 -131518670.8133173 17246084.455799103 0 17246084.455799103 217523133.23654938 0 0 0 0 -131126131.48645878 -39871706.171131134 0 -39871706.171131134 121218397.36842346 0 0 0 0 -71574883.701032758 -12868252.651812553 0 -12868252.651812553 36730539.40789032 0 0 0 0 -55554423.859294415 37479686.556756973 0 37479686.556756973 89046806.007751465 0 0 0 0 3432826.9435281754 52755368.610757828 0 52755368.610757828 -44047212.65952301 0 0 0 0 -45420158.038845062 55676593.144207001 0 55676593.144207001 8799243.4484901428 0 0 0 0 -22066986.587936163 27081155.705440521 0 27081155.705440521 38206575.308414459 0 0 0 0 10358537.049699783 -59603079.630092621 0 -59603079.630092621 -65230410.193123817 0 0 0 0 65477832.743174076 81046006.550905228 0 81046006.550905228 47628792.756271362 0 0 0 0 8690000.8492364883 25185099.24206543 0 25185099.24206543 42347236.112770081 0 0 0 0 -19797738.902101994 29810419.760974884 0 29810419.760974884 59412976.208076477 0 0 0 0 -17065724.166294098 44255610.751972198 0 44255610.751972198 92796772.237574577 0 0 0 0 -30499947.998438835 33317865.061668396 0 33317865.061668396 58965254.110313416 0 0 0 0 -19030988.534317017 2655950.3219680786 0 2655950.3219680786 30390383.729690552 0 0 0 0 -46762184.602143764 -2468793.0151062012 0 -2468793.0151062012 112888598.81274414 0 0 0 0 -22448664.814057827 3704394.7528762817 0 3704394.7528762817 104123871.59998322 0 0 0 0 -37522269.691286504 42512097.437205315 0 42512097.437205315 159432089.43774414 0 0 0 0 -19520117.413172483 10012872.305721283 0 10012872.305721283 40047022.583328247 0 0 0 0 -33678829.592475772 19388887.822938919 0 19388887.822938919 42154175.978187561 0 0 0 0 14797246.972786903 -3891279.876953125 0 -3891279.876953125 -110650673.64315414 0 0 0 0 143084530.45229578 -89206382.825874329 0 -89206382.825874329 61369547.239820719 0 0 0 0 18249917.074539721 249916654.41497993 0 249916654.41497993 -41385778.90763855 0 0 0 0 -89606879.82588768 -32524997.398666382 0 -32524997.398666382 62399254.097198486 0 0 0 0 -41259305.771668911 26330555.779335022 0 26330555.779335022 252499111.0217514 0 0 0 0 77710929.671653748 94073903.536754608 0 94073903.536754608 120298861.71281433 0 0 0 0 -2796331.9535688083 -3674896.6586352959 0 -3674896.6586352959 5610384.6399096847 0 0 0 0 -26662846.851631641 -14034937.409843445 0 -14034937.409843445 100386984.48012924 0 0 0 0 114700344.54388928 -168470843.57866669 0 -168470843.57866669 134385483.18778992 0 0 0 0 -175164646.65535253 52981716.931179047 0 52981716.931179047 151093634.94248962 0 0 0 0 -100825017.01197982 -140415691.89057159 0 -140415691.89057159 233144149.45944977 0 0 0 0 5657246.3575106114 -2249476.1940279305 0 -2249476.1940279305 -99096.673863701522 0 0 0 0 17018945.926933289 -15546933.88841629 0 -15546933.88841629 46449000.562072754 0 0 0 0 -5804406.6360795721 8860637.3070096672 0 8860637.3070096672 19744639.072432607 0 0 0 0 248489365.21868932 220401301.95464611 0 220401301.95464611 -71727519.924728394 0 0 0 0 -14214039.530227277 -6351429.7847571522 0 -6351429.7847571522 12191166.80697199 0 0 0 0 -6625413.5273610353 -8557040.8990325928 0 -8557040.8990325928 53920711.006019592 0 0 0 0 -12222481.193754435 -12310941.928237915 0 -12310941.928237915 59692339.166980743 0 0 0 0 -7757301.0131523712 12067251.035150126 0 12067251.035150126 42961086.662491828 0 0 0 0 -12937665.508374453 -6444096.2928962708 0 -6444096.2928962708 55502591.372493744 0 0 0 0 -14009056.550637722 -10416970.100734711 0 -10416970.100734711 58748263.030517578 0 0 0 0 -8104156.5310260961 -8602649.0520836636 0 -8602649.0520836636 28061433.095104277 0 0 0 0 -13695204.32314074 4053230.9416739941 0 4053230.9416739941 57655303.440151215 0 0 0 0 -3005744.7619075775 6117351.6123046875 0 6117351.6123046875 48796369.496368408 0 0 0 0 -3757416.4463195875 1690256.0532065108 0 1690256.0532065108 13726895.729511946 0 0 0 0 -56957498.727306366 26134457.97064209 0 26134457.97064209 306663791.93234253 0 0 0 0 76867084.775640488 -231766853.73170853 0 -231766853.73170853 -41102484.573989868 0 0 0 0 -269767519.04797411 216116997.81828117 0 216116997.81828117 198884158.129776 0 0 0 0 135012419.66832542 103267218.69831467 0 103267218.69831467 -135968883.51577759 0 0 0 0 162480411.70893288 21841970.663555145 0 21841970.663555145 43813278.364463806 0 0 0 0 -3348180.9587302208 10683252.425909042 0 10683252.425909042 39666855.197811127 0 0 0 0 411086.28742003348 10836880.516140101 0 10836880.516140101 41588992.245824501 0 0 0 0 58027882.68813324 10113023.920196533 0 10113023.920196533 90375930.76675415 0 0 0 0 1457951.5405755043 4702399.2055644989 0 4702399.2055644989 54075350.533233643 0 0 0 0 -18969421.27965644 -499661.53453040123 0 -499661.53453040123 45639231.548428059 0 0 0 0 -14150863.785190582 2096276.0905303955 0 2096276.0905303955 23838452.561676025 0 0 0 0 -12321045.382834107 852529.82587169111 0 852529.82587169111 53377666.261822321 0 0 0 0 -2555637.3717355672 3352841.0033654198 0 3352841.0033654198 38471218.101049393 0 0 0 0 -6755026.860606065 -3902896.3182040378 0 -3902896.3182040378 27486668.055309474 0 0 0 0 -8562320.5233259201 2108034.7432174683 0 2108034.7432174683 49273460.413772583 0 0 0 0 -5193190.5895223618 5373363.0155792236 0 5373363.0155792236 50629024.381706238 0 0 0 0 -9831695.2048109006 -11399002.891443416 0 -11399002.891443416 25994807.051115014 0 0 0 0 6293375.937962532 4740117.6816711426 0 4740117.6816711426 19892752.225820541 0 0 0 0 -5102448.3870004406 3838239.767642647 0 3838239.767642647 13189290.444707133 0 0 0 0 -5265681.946550197 -8450625.9749673307 0 -8450625.9749673307 7718342.5425815582 0 0 0 0 -7971928.1137282848 -10116784.155731201 0 -10116784.155731201 39925824.937545776 0 0 0 0 20851906.619799376 32595286.26241684 0 32595286.26241684 72270196.371246338 0 0 0 0 -7128261.5471229553 8348536.6229171753 0 8348536.6229171753 57931101.231750488 0 0 0 0 -4669639.0561037976 2241426.9075986445 0 2241426.9075986445 28268518.310190469 0 0 0 0 -6305145.3603664041 5474989.8989582062 0 5474989.8989582062 46851097.884605408 0 0 0 0 -302040.25570903346 971455.08538882434 0 971455.08538882434 5134226.1155722141 0 0 0 0 -10061934.477815628 43652772.78086853 0 43652772.78086853 155450872.94381332 0 0 0 0 -29432353.759833574 29931315.457698822 0 29931315.457698822 197465221.56473541 0 0 0 0 -17802156.660846233 -31781851.904884338 0 -31781851.904884338 134357331.67298889 0 0 0 0 23731710.508541107 -24640104.314689636 0 -24640104.314689636 73821397.555496216 0 0 0 0 -2608332.9200031757 -2787547.5914115906 0 -2787547.5914115906 45626536.759811401 0 0 0 0 -1994491.821062088 2093103.6433563232 0 2093103.6433563232 50265608.049507141 0 0 0 0 -4772965.3586453497 9326825.4078777879 0 9326825.4078777879 5763548.533651229 0 0 0 0 1280169.6803331375 -22831642.340011597 0 -22831642.340011597 74204796.710655212 0 0 0 0 31076243.129733086 27879953.455978394 0 27879953.455978394 23886677.781925201 0 0 0 0 -17938277.870806694 7791886.4368591309 0 7791886.4368591309 16609384.636474609 0 0 0 0 -3516752.1911406126 2660769.571378395 0 2660769.571378395 8568576.3801970184 0 0 0 0 19956325.811793327 33088030.248771667 0 33088030.248771667 26552329.744949341 0 0 0 0 122817003.61340284 1052789.3296699524 0 1052789.3296699524 32387129.097167969 0 0 0 0 28924769.647701263 -36043551.139644623 0 -36043551.139644623 98439029.790496826 0 0 0 0 123631324.35041857 -93414958.95703125 0 -93414958.95703125 114867035.16928864 0 0 0 0 22391336.945943356 108795794.19203377 0 108795794.19203377 62154815.972473145 0 0 0 0 -68932246.992921829 79931321.239559174 0 79931321.239559174 71115033.258346558 0 0 0 0 25657679.598661423 46445667.338148117 0 46445667.338148117 27230270.359474182 0 0 0 0 1839281.2969767526 20316157.667937413 0 20316157.667937413 24025879.04343744 0 0 0 0 47851154.849543571 51350720.672863007 0 51350720.672863007 23140905.198028564 0 0 0 0 -367422797.19382858 -159711341.80556488 0 -159711341.80556488 226084729.82125473 0 0 0 0 -62540095.165683746 23358874.224336624 0 23358874.224336624 106303267.73843384 0 0 0 0 -8916707.132995531 1695706.208942838 0 1695706.208942838 19983324.298461564 0 0 0 0 -28348513.234825134 -22973610.395452499 0 -22973610.395452499 81541723.083885193 0 0 0 0 3518962.0760670081 23377493.882178724 0 23377493.882178724 79421948.528282434 0 0 0 0 4461802.1033206414 19518365.682406161 0 19518365.682406161 77587405.046795696 0 0 0 0 -181591200.55559587 47615811.771357536 0 47615811.771357536 114669372.1065979 0 0 0 0 -132145126.24485898 120374603.26503181 0 120374603.26503181 -36020268.558052063 0 0 0 0 174282043.21352339 33318158.105823517 0 33318158.105823517 -93346019.176855087 0 0 0 0 195504104.90817976 -76044518.136127472 0 -76044518.136127472 -159548125.64171982 0 0 0 0 168843418.54393005 101723897.89459229 0 101723897.89459229 53701912.417724609 0 0 0 0 2437476.0720410347 -66949683.328224182 0 -66949683.328224182 166832884.56323242 0 0 0 0 -10245475.504943609 -52677040.717739105 0 -52677040.717739105 230907848.60483551 0 0 0 0 1363496.4357210388 -1793990.994878903 0 -1793990.994878903 1810537.5262317359 0 0 0 0 -5278229.4470536709 55837830.962097168 0 55837830.962097168 172785082.87641525 0 0 0 0 130276922.48079395 -115190833.69545174 0 -115190833.69545174 -117434602.05600357 0 0 0 0 -40227301.206020117 -16026924.770511627 0 -16026924.770511627 15162062.550312042 0 0 0 0 -5117693.9577777386 40557667.448631287 0 40557667.448631287 61029628.886184692 0 0 0 0 -29544991.450334549 -5379711.765335083 0 -5379711.765335083 124170492.33200836 0 0 0 0 -60549881.343604177 -4824413.8067846298 0 -4824413.8067846298 144923976.48191071 0 0 0 0 30417244.12566185 -97110449.046672821 0 -97110449.046672821 119176724.22578049 0 0 0 0 50103059.403556824 -23042301.094501495 0 -23042301.094501495 11557925.18062973 0 0 0 0 87930.971994914114 -1636258.1902069151 0 -1636258.1902069151 1671530.8323633149 0 0 0 0 -10409842.09295642 2216929.2015221938 0 2216929.2015221938 2474092.8387402222 0 0 0 0 -10453537.995557785 4944404.5638465881 0 4944404.5638465881 9288047.8204689026 0 0 0 0 -15221763.057032585 3739673.2567558289 0 3739673.2567558289 15157944.249717712 0 0 0 0 -12379105.404314995 8952325.1954927444 0 8952325.1954927444 23025485.741386414 0 0 0 0 -16720241.153102875 5607941.2893886566 0 5607941.2893886566 19640149.171447754 0 0 0 0 -13482175.023154955 5606999.6504355222 0 5606999.6504355222 1491983.0907507837 0 0 0 0 -11586058.052192688 6119425.2245407104 0 6119425.2245407104 14370703.779481888 0 0 0 0 -13762576.825611115 5843912.867351532 0 5843912.867351532 28496082.766624451 0 0 0 0 -13477943.266627906 4658155.6270545498 0 4658155.6270545498 2307621.4959582686 0 0 0 0 -10474097.888526917 -4705164.5327987671 0 -4705164.5327987671 15929213.261241913 0 0 0 0 -13535767.59043026 -3554152.9655513763 0 -3554152.9655513763 32962302.007827759 0 0 0 0 -3989914.2724571228 16074935.418785095 0 16074935.418785095 39148324.108985901 0 0 0 0 -1894866.0964513049 -646108.18269959092 0 -646108.18269959092 -141054.75221046805 0 0 0 0 203149778.72034073 -155133137.28279877 0 -155133137.28279877 -233336379.12622833 0 0 0 0 -7518746.6813659668 -7331499.0596189499 0 -7331499.0596189499 26873601.727508545 0 0 0 0 -4661122.3673620224 2224573.0970039368 0 2224573.0970039368 26874146.718357086 0 0 0 0 -7229405.5628765821 3490648.4035725296 0 3490648.4035725296 5045984.9418829829 0 0 0 0 -6307066.8131184727 -8725116.0607139766 0 -8725116.0607139766 6782547.3570438921 0 0 0 0 51643850.903515816 51871307.060596466 0 51871307.060596466 -69576874.209976196 0 0 0 0 -194489649.65850925 75301641.502296448 0 75301641.502296448 210604902.03060913 0 0 0 0 76058148.349000931 -45652846.476987839 0 -45652846.476987839 62822407.284843445 0 0 0 0 200517713.456707 -273250895.21290588 0 -273250895.21290588 270984681.45818329 0 0 0 0 -413033.02456372231 -1978906.7674624845 0 -1978906.7674624845 1127054.7176788822 0 0 0 0 -136191221.49897766 -81651761.373497009 0 -81651761.373497009 111871556.63650131 0 0 0 0 75740072.356909752 152840046.5496273 0 152840046.5496273 13012039.585594177 0 0 0 0 -315783440.34529114 81182224.686401367 0 81182224.686401367 39639149.695831299 0 0 0 0 43987287.18264389 45915144.673130035 0 45915144.673130035 -116539810.56178474 0 0 0 0 -21549967.216384888 28155211.433410645 0 28155211.433410645 -60536723.796478271 0 0 0 0 -3022241.254807815 -352200.85276226699 0 -352200.85276226699 392346.26904090121 0 0 0 0 -5780927.1345590167 -1709372.9924527109 0 -1709372.9924527109 1738255.5413947329 0 0 0 0 -156100538.31288147 115020057.48097229 0 115020057.48097229 142923144.68255615 0 0 0 0 294000425.43753338 581796770.73797417 0 581796770.73797417 -272133256.71002197 0 0 0 0 -361934774.58044434 37875560.828048706 0 37875560.828048706 132048290.3866272 0 0 0 0 -63493807.142948151 -67109393.165504456 0 -67109393.165504456 96150749.363441467 0 0 0 0 -79719319.981296539 -929694.7334651947 0 -929694.7334651947 73950259.990764618 0 0 0 0 -134461971.84563828 -35583834.030487061 0 -35583834.030487061 121217199.92331696 0 0 0 0 -72075047.110172272 14519679.375007629 0 14519679.375007629 133794831.98441124 0 0 0 0 -92749176.90054512 -32180131.477510452 0 -32180131.477510452 133749681.10269165 0 0 0 0 -101309174.57054138 -7166728.4298591614 0 -7166728.4298591614 124039432.79794812 0 0 0 0 19871284.705234528 -68871673.527317047 0 -68871673.527317047 91581174.402862549 0 0 0 0 -29559627.90337944 -29625170.719512939 0 -29625170.719512939 112788830.2015419 0 0 0 0 -44695715.996011734 -34168105.13187027 0 -34168105.13187027 120466181.48416901 0 0 0 0 -59794582.216121674 -19513549.350868225 0 -19513549.350868225 119464708.34980631 0 0 0 0 -62666224.305387497 -40388517.277191162 0 -40388517.277191162 126947327.49786377 0 0 0 0 -37433800.275793076 63098413.067752838 0 63098413.067752838 142868274.51524782 0 0 0 0 -82402545.752755165 -732935.94355010986 0 -732935.94355010986 52336367.993602753 0 0 0 0 55068940.855569839 54634133.432632446 0 54634133.432632446 48359446.399688721 0 0 0 0 -17062581.471488476 -3101655.5330643654 0 -3101655.5330643654 96144740.716152191 0 0 0 0 -28876909.593775094 -47698540.668667912 0 -47698540.668667912 269926914.18173981 0 0 0 0 96374092.614074707 81896500.803726196 0 81896500.803726196 159150748.69864273 0 0 0 0 -30010495.281201839 -18338051.479168892 0 -18338051.479168892 404429382.31267548 0 0 0 0 59370921.579955339 -39516953.710407734 0 -39516953.710407734 249747729.66172791 0 0 0 0 -53711795.178934097 49361437.238304138 0 49361437.238304138 394827488.14663696 0 0 0 0 18373955.40814209 -27939115.042715073 0 -27939115.042715073 -28421772.237300158 0 0 0 0 6702908.8083705902 -8077417.3063659668 0 -8077417.3063659668 40862567.436658859 0 0 0 0 27417882.564069271 62451425.699466348 0 62451425.699466348 -36974275.229370117 0 0 0 0 23981664.771183014 88957736.011299133 0 88957736.011299133 108216156.26896667 0 0 0 0 -5475897.9693107605 6264842.7409896851 0 6264842.7409896851 19285890.881320953 0 0 0 0 198059.03151702881 -4665258.6803016663 0 -4665258.6803016663 15393149.80147934 0 0 0 0 8866297.3917484283 11286426.64276123 0 11286426.64276123 14932680.118368149 0 0 0 0 8338110.7233695984 383569471.10769653 0 383569471.10769653 124691854.09423828 0 0 0 0 1983361.3237401843 -3254812.5968235508 0 -3254812.5968235508 4514184.6757867038 0 0 0 0 -36733932.463470459 -37266934.139678955 0 -37266934.139678955 -19568653.236846924 0 0 0 0 128912584.97455788 136655624.15360641 0 136655624.15360641 275847121.27107239 0 0 0 0 -94266382.295196533 86971378.892501831 0 86971378.892501831 349281245.83131409 0 0 0 0 -1602690.1136946604 -1423093.7566411719 0 -1423093.7566411719 1882130.5719409734 0 0 0 0 -289941898.94960308 658938232.49551773 0 658938232.49551773 -127200782.04344177 0 0 0 0 4667662.2450447083 -201522783.74510956 0 -201522783.74510956 415308134.44173431 0 0 0 0 299254105.04555511 -453572394.04971313 0 -453572394.04971313 496119046.81253052 0 0 0 0 -115207199.96097565 168789095.40209961 0 168789095.40209961 217645313.2508049 0 0 0 0 -149207017.85474777 155869083.86198902 0 155869083.86198902 681805672.96356964 0 0 0 0 -54037400.471603394 -9625694.6703186035 0 -9625694.6703186035 64222889.827312469 0 0 0 0 -43606458.655500412 -52647706.21705246 0 -52647706.21705246 19403031.897777557 0 0 0 0 -47433237.56504631 -24755837.319068909 0 -24755837.319068909 7242682.6433181763 0 0 0 0 -57064913.884828568 -39227325.882774353 0 -39227325.882774353 54762899.277626038 0 0 0 0 -15503277.781451225 -11719040.133077621 0 -11719040.133077621 5657310.2438411713 0 0 0 0 3502553.2659027576 -6081361.5250554085 0 -6081361.5250554085 -275841.46967315674 0 0 0 0 673447.0537776947 4559832.276058197 0 4559832.276058197 2764977.6204910278 0 0 0 0 -6292133.8706493378 3400400.269859314 0 3400400.269859314 22525068.585746765 0 0 0 0 57385655.774288177 -67377746.392162323 0 -67377746.392162323 78651791.261325836 0 0 0 0 -6592364.1889286041 7338015.5007419586 0 7338015.5007419586 14349074.417064667 0 0 0 0 -1311118.1010795794 -324936.49728765339 0 -324936.49728765339 1174011.68876132 0 0 0 0 3571565.2766656876 -3284878.2978200912 0 -3284878.2978200912 13950101.563667297 0 0 0 0 -699409.64274767414 -1130246.2299747616 0 -1130246.2299747616 3327311.8018755764 0 0 0 0 -1232358.83097299 -1735527.0368650854 0 -1735527.0368650854 5606449.5065538883 0 0 0 0 -8970232.338239491 -5810278.7938990593 0 -5810278.7938990593 11568786.235816956 0 0 0 0 -7345564.9992818832 14463242.914649963 0 14463242.914649963 31507243.340438843 0 0 0 0 -2638638.7482492179 539026.74670573324 0 539026.74670573324 1077487.2790389881 0 0 0 0 -13859090.628206253 57202756.116275787 0 57202756.116275787 275500465.54350281 0 0 0 0 -33553758.328125954 63270422.324584961 0 63270422.324584961 327739451.88682556 0 0 0 0 -56542009.978988647 87664720.688011169 0 87664720.688011169 308731834.03477478 0 0 0 0 -34246643.10092926 55343767.353656769 0 55343767.353656769 362887350.64781189 0 0 0 0 -64491450.566383362 41021046.610397339 0 41021046.610397339 318202008.99093628 0 0 0 0 -52214171.110053062 85085769.785797119 0 85085769.785797119 278713885.11811829 0 0 0 0 -9707034.6764564514 170197421.05514145 0 170197421.05514145 415126599.55179596 0 0 0 0 122014175.77437973 181912064.60591125 0 181912064.60591125 262520870.5880661 0 0 0 0 -101181217.11284447 35620063.394920349 0 35620063.394920349 454326326.86838531 0 0 0 0 98413826.071376801 294486068.25774002 0 294486068.25774002 469938722.9797287 0 0 0 0 -6029019.071603775 52147333.493629456 0 52147333.493629456 544839503.57061005 0 0 0 0 137194976.31501961 -57714362.091773987 0 -57714362.091773987 273295544.36506653 0 0 0 0 -122387120.74897766 39493390.392635345 0 39493390.392635345 238171467.40169525 0 0 0 0 14706663.055761337 171502689.54630661 0 171502689.54630661 30426521.509132385 0 0 0 0 15495736.189212799 82433836.419689178 0 82433836.419689178 188733838.69239426 0 0 0 0 -77307680.974149704 -28605838.161247253 0 -28605838.161247253 97184263.684341431 0 0 0 0 64836202.359016418 -19589887.341356277 0 -19589887.341356277 -102731566.11415768 0 0 0 0 9022290.748292923 139190707.81233597 0 139190707.81233597 232269995.88058472 0 0 0 0 23579793.843788147 72754324.919052124 0 72754324.919052124 68244364.081047058 0 0 0 0 28663374.106369019 782118.28079223633 0 782118.28079223633 53486661.145633698 0 0 0 0 -13012204.108699799 -20705688.842201233 0 -20705688.842201233 139462753.86787224 0 0 0 0 13663901.031323433 85460346.175236702 0 85460346.175236702 152543700.97561646 0 0 0 0 6266811.4962215424 29709095.19437027 0 29709095.19437027 239846949.53494644 0 0 0 0 -2303964.864081962 3053697.0243871417 0 3053697.0243871417 5277009.3187472224 0 0 0 0 68301928.814083099 -143650199.82658386 0 -143650199.82658386 67382852.384887695 0 0 0 0 -14895171.468538761 1921053.1130719185 0 1921053.1130719185 6746341.4685211182 0 0 0 0 -10062345.579015955 5024094.6999094635 0 5024094.6999094635 3204636.7739184275 0 0 0 0 -1190683.5438139103 745160.32097940892 0 745160.32097940892 311045.88862095028 0 0 0 0 88974423.627305984 4410561.0799751282 0 4410561.0799751282 -2102192.834903717 0 0 0 0 -27691255.563211441 -83013641.077625275 0 -83013641.077625275 166753309.94561005 0 0 0 0 199842118.61477423 206025785.5749979 0 206025785.5749979 91143926.620864868 0 0 0 0 56256297.576656342 119405744.88562775 0 119405744.88562775 41022543.220200896 0 0 0 0 22869867.485816956 11206045.472881317 0 11206045.472881317 216197152.31326294 0 0 0 0 -46438765.034140587 175115640.01992607 0 175115640.01992607 370017091.30262756 0 0 0 0 30730620.467123508 -102925975.47685242 0 -102925975.47685242 45427017.91513443 0 0 0 0 -7813063.1217146628 2977951.1463698968 0 2977951.1463698968 1690273.5671570003 0 0 0 0 -10065427.921470642 9948441.3626213074 0 9948441.3626213074 18856819.996730804 0 0 0 0 -9578508.0577936172 10109177.066825867 0 10109177.066825867 15497611.82623291 0 0 0 0 -8262393.0249443054 7927943.9997406006 0 7927943.9997406006 19094640.57004261 0 0 0 0 -5527400.2584396526 4333251.7573513398 0 4333251.7573513398 10829132.125879526 0 0 0 0 -17085412.199718475 7421658.2015190125 0 7421658.2015190125 14661642.288669586 0 0 0 0 -10997909.677950859 11199571.991546631 0 11199571.991546631 17199470.554615021 0 0 0 0 37456361.548926353 18441062.279003143 0 18441062.279003143 -11086533.694530487 0 0 0 0 -24705697.594674826 5504457.9773173332 0 5504457.9773173332 27027335.553592682 0 0 0 0 -3853277.8145358237 2153595.2027049884 0 2153595.2027049884 5065252.6976642907 0 0 0 0 -70798.291217970196 53046.220287925564 0 53046.220287925564 1884212.9473116696 0 0 0 0 24766445.076059341 -88134936.789182663 0 -88134936.789182663 149938515.4587822 0 0 0 0 8631131.9574432373 -35848415.749404907 0 -35848415.749404907 34111289.168054581 0 0 0 0 9486702.4838266373 -7288032.6886787415 0 -7288032.6886787415 14880879.976890564 0 0 0 0 -35779143.362134933 -19516549.293708801 0 -19516549.293708801 95549329.090946198 0 0 0 0 -1696987.8733594418 -49441801.421560287 0 -49441801.421560287 87090981.492889404 0 0 0 0 -9052746.0939769745 -14809955.696388245 0 -14809955.696388245 59731455.371917725 0 0 0 0 -4708606.4398341179 -22961366.983304977 0 -22961366.983304977 71837249.219394684 0 0 0 0 -10911169.144671973 2984457.2879130319 0 2984457.2879130319 1299338.5775639601 0 0 0 0 -18227978.938047409 11178947.921194077 0 11178947.921194077 36968650.320812225 0 0 0 0 -67111.310012340546 -3353555.4999504089 0 -3353555.4999504089 22305782.18340683 0 0 0 0 -7673030.3419876099 8181115.2413482666 0 8181115.2413482666 14948542.241533279 0 0 0 0 -6043710.5199890137 6077954.1044654846 0 6077954.1044654846 17404516.13908577 0 0 0 0 -5048962.6341210082 1195710.3512697071 0 1195710.3512697071 -485522.4989817217 0 0 0 0 -4593865.0269823074 11081529.790072441 0 11081529.790072441 34668879.8881073 0 0 0 0 4527999.8197059631 23255648.287117004 0 23255648.287117004 37095071.809959412 0 0 0 0 12838604.29062748 12172923.065044403 0 12172923.065044403 16515951.069221497 0 0 0 0 -23784210.014852524 77937549.398853302 0 77937549.398853302 -28686962.427501678 0 0 0 0 -2489640.7443616539 43919.232471048832 0 43919.232471048832 85492.538826756179 0 0 0 0 39852711.247034073 35252048.818050385 0 35252048.818050385 8711228.2216186523 0 0 0 0 -70156221.014694214 -68383834.49694252 0 -68383834.49694252 244473091.42874241 0 0 0 0 -93424705.619909763 -18979571.220186234 0 -18979571.220186234 278574108.1741333 0 0 0 0 -279397018.79518223 171558555.48294449 0 171558555.48294449 216237058.98786163 0 0 0 0 -165120833.27744007 74437959.505130768 0 74437959.505130768 168307854.04114532 0 0 0 0 -22355794.959653854 14331099.622005463 0 14331099.622005463 48302198.006568909 0 0 0 0 -24289616.424054146 2780082.8349208832 0 2780082.8349208832 92583009.738769531 0 0 0 0 -37714166.114333153 -17328607.284255981 0 -17328607.284255981 106018488.96784782 0 0 0 0 -33063388.894987106 -37448067.517225266 0 -37448067.517225266 92711263.75629425 0 0 0 0 -59693303.130103111 -23142278.054958344 0 -23142278.054958344 108476125.74571609 0 0 0 0 15543061.159369469 -105102903.68067932 0 -105102903.68067932 87867356.968383789 0 0 0 0 -60981842.686310768 -120652880.8620491 0 -120652880.8620491 146467570.03568649 0 0 0 0 -23498263.85157609 -101568935.93624496 0 -101568935.93624496 136003025.13554764 0 0 0 0 9033058.2999949455 -96310230.057777405 0 -96310230.057777405 90507084.629863739 0 0 0 0 -25330176.79543972 -103831032.25173855 0 -103831032.25173855 179756867.26825714 0 0 0 0 16855035.529903889 -137941872.64781952 0 -137941872.64781952 238119646.97654533 0 0 0 0 266786215.6392765 316461123.18002319 0 316461123.18002319 350996945.5888319 0 0 0 0 66973681.612627983 -131912638.50100136 0 -131912638.50100136 -136191976.14685059 0 0 0 0 66094863.741848111 -132109098.58270407 0 -132109098.58270407 17235233.889129639 0 0 0 0 563623.24370438047 -1627980.8292937241 0 -1627980.8292937241 5632562.0631023496 0 0 0 0 -38663635.670427322 219167462.32633209 0 219167462.32633209 -110789909.09410048 0 0 0 0 -26686014.051868439 52908324.261932373 0 52908324.261932373 254257230.62767029 0 0 0 0 -23103447.271351337 40430843.617324352 0 40430843.617324352 68367521.279335022 0 0 0 0 -6147991.3528418541 678727.01197052002 0 678727.01197052002 133928246.30875969 0 0 0 0 -5958421.8767132759 -21756046.95582962 0 -21756046.95582962 90808768.618663788 0 0 0 0 -22204348.386444569 -8480252.8741760254 0 -8480252.8741760254 198819396.05367851 0 0 0 0 -29801348.097984135 19768822.297308445 0 19768822.297308445 112822623.74926376 0 0 0 0 62077611.732597351 98282915.84209919 0 98282915.84209919 119366329.31825256 0 0 0 0 -78119455.938478947 7440097.3992595673 0 7440097.3992595673 128799506.04617119 0 0 0 0 -72374148.694063663 46355201.817722321 0 46355201.817722321 49297992.064855576 0 0 0 0 -7556189.2155361176 59784654.006465912 0 59784654.006465912 74417677.590892792 0 0 0 0 -175126054.46813035 89299771.390496254 0 89299771.390496254 93723779.752872467 0 0 0 0 -135658644.01215613 -10899390.797269344 0 -10899390.797269344 63950095.624420166 0 0 0 0 86141051.920042038 83787855.576687813 0 83787855.576687813 30623933.94437027 0 0 0 0 6963013.1558597088 29309386.00654459 0 29309386.00654459 33339963.982078552 0 0 0 0 85501109.914415836 60777643.058773041 0 60777643.058773041 50619601.277860641 0 0 0 0 318100.09494762588 -2384547.5480932072 0 -2384547.5480932072 15146607.058937773 0 0 0 0 26647871.710240364 58051720.560590744 0 58051720.560590744 57521077.071586609 0 0 0 0 -144180195.44519091 -30814205.594452858 0 -30814205.594452858 70575103.849521637 0 0 0 0 -34321698.857609749 -13154307.802625656 0 -13154307.802625656 -7501902.9440975189 0 0 0 0 184849.543368035 -545167.8922017552 0 -545167.8922017552 5621202.9652519971 0 0 0 0 -44059610.72223413 -196222460.0579443 0 -196222460.0579443 421406699.15016937 0 0 0 0 110345755.68408966 -188589255.16767693 0 -188589255.16767693 81812333.315272331 0 0 0 0 237398590.05831957 216295708.07796478 0 216295708.07796478 207031613.44594574 0 0 0 0 -22619044.202981472 -32311387.638416767 0 -32311387.638416767 153176506.78542328 0 0 0 0 -60653213.494602323 44824766.518260956 0 44824766.518260956 463842928.01605225 0 0 0 0 660341575.08076477 -81281043.207401276 0 -81281043.207401276 44685565.617534637 0 0 0 0 278330435.12929344 -172229308.3847847 0 -172229308.3847847 28408536.614973068 0 0 0 0 -103408727.98295212 76146056.915054321 0 76146056.915054321 439802164.72907162 0 0 0 0 29971448.763263702 15563536.837654114 0 15563536.837654114 36045528.120815277 0 0 0 0 -1258955.9313783385 -168260.44257707894 0 -168260.44257707894 174637.60210754722 0 0 0 0 -134650228.46678162 -92020146.589359283 0 -92020146.589359283 -16074742.51815033 0 0 0 0 46848798.305618763 34363712.542284966 0 34363712.542284966 67701401.413902283 0 0 0 0 35220970.473230362 72044419.865379333 0 72044419.865379333 -52532779.051639557 0 0 0 0 -75652486.241678238 97135436.979469299 0 97135436.979469299 63966059.641906738 0 0 0 0 144060235.85424805 -29726988.093248367 0 -29726988.093248367 75011664.010974884 0 0 0 0 95871965.67546463 -70189526.007072449 0 -70189526.007072449 138269703.28640747 0 0 0 0 119912356.73184109 15044966.373348236 0 15044966.373348236 -1589047.630531311 0 0 0 0 23506678.129863739 -23849742.510454178 0 -23849742.510454178 168605004.61061096 0 0 0 0 -6951684.7664518356 -55072348.489048004 0 -55072348.489048004 150539092.59743404 0 0 0 0 16841906.024187088 -60360492.569408417 0 -60360492.569408417 168455485.4726162 0 0 0 0 6124143.7677264214 -9501682.7251424789 0 -9501682.7251424789 127101512.40659332 0 0 0 0 -41112810.92291832 -21239554.897594452 0 -21239554.897594452 139325511.42741776 0 0 0 0 -61339340.544579506 12946008.880177498 0 12946008.880177498 116584780.16162872 0 0 0 0 -58887705.457859039 11406406.226802826 0 11406406.226802826 97281418.399208069 0 0 0 0 -41740967.48877573 -25736760.156936646 0 -25736760.156936646 131520116.24218941 0 0 0 0 1330547.982884407 -68532128.646897316 0 -68532128.646897316 139191187.9996109 0 0 0 0 -21085352.195255756 -28911448.164381027 0 -28911448.164381027 107133650.21557999 0 0 0 0 -17540138.287687778 -85243896.229148865 0 -85243896.229148865 130466860.07322216 0 0 0 0 285190.38709592819 -126468724.03533363 0 -126468724.03533363 201834604.91912842 0 0 0 0 13795740.355775833 -11349211.937641144 0 -11349211.937641144 266386981.42184448 0 0 0 0 -20238763.670243263 -72574890.46569252 0 -72574890.46569252 156357588.46589565 0 0 0 0 -1008758.1019539516 -1185716.8876289129 0 -1185716.8876289129 678353.96472827345 0 0 0 0 -25629772.618617058 -92533517.26839447 0 -92533517.26839447 -143226927.42345524 0 0 0 0 -102207659.38443458 -91263251.760264635 0 -91263251.760264635 10710006.997749329 0 0 0 0 -90990039.573469639 -24043401.781352997 0 -24043401.781352997 153605571.08888245 0 0 0 0 -86736321.71001339 -43821017.847694397 0 -43821017.847694397 323660758.64041138 0 0 0 0 37478616.178227425 107728403.67663574 0 107728403.67663574 147369347.55025101 0 0 0 0 -92554005.892391205 -12113416.7753582 0 -12113416.7753582 176494528.33655548 0 0 0 0 -8604065.3788642883 78940549.189929962 0 78940549.189929962 240312802.77748871 0 0 0 0 51846730.039761543 47192526.267982483 0 47192526.267982483 161222316.82666016 0 0 0 0 8346178.9649019241 28696989.917819977 0 28696989.917819977 119434128.54006195 0 0 0 0 -25100324.601098299 67289175.212506771 0 67289175.212506771 156613585.18891144 0 0 0 0 47242090.499286652 75159246.867668152 0 75159246.867668152 63124003.242552757 0 0 0 0 20496828.86091423 55045527.582195282 0 55045527.582195282 224570116.59906006 0 0 0 0 33169459.081924438 87865019.086071014 0 87865019.086071014 199968602.57107925 0 0 0 0 61717576.895851612 30819667.406084061 0 30819667.406084061 161819834.20425415 0 0 0 0 64481268.789280891 18750020.123638153 0 18750020.123638153 91446506.781153679 0 0 0 0 4244757.6647377014 71406053.631595612 0 71406053.631595612 344634114.94415474 0 0 0 0 2311081.2130388021 38424593.144414067 0 38424593.144414067 260380861.59295654 0 0 0 0 -2338386.458241934 -1951536.5373083726 0 -1951536.5373083726 2300345.5614972822 0 0 0 0 -3694501.8574981689 -5615060.0258407593 0 -5615060.0258407593 322831504.83282638 0 0 0 0 5258423.2305412292 84274082.573925018 0 84274082.573925018 325671980.84305191 0 0 0 0 -20815298.447439194 -36902862.67250061 0 -36902862.67250061 -25163881.329790115 0 0 0 0 79509312.414505005 40465039.065971375 0 40465039.065971375 286293581.44432068 0 0 0 0 33953706.786716461 113992295.23822784 0 113992295.23822784 310896663.33382416 0 0 0 0 -1428429.723193394 8697.5111046209931 0 8697.5111046209931 1284125.6448269337 0 0 0 0 84123100.635704041 209475304.85040283 0 209475304.85040283 463255416.64128113 0 0 0 0 30934224.208627701 76114813.564464569 0 76114813.564464569 292348523.95419312 0 0 0 0 21421165.21919632 28109125.124984741 0 28109125.124984741 437116864.75919247 0 0 0 0 23263763.347408295 97273995.177810669 0 97273995.177810669 246145067.37968826 0 0 0 0 57528844.943843842 19499486.854820251 0 19499486.854820251 291291026.15541077 0 0 0 0 -13563239.371135235 -22478742.290810585 0 -22478742.290810585 -10990752.073036194 0 0 0 0 -28703510.10180378 -23336167.163059235 0 -23336167.163059235 13554734.456748962 0 0 0 0 -49269720.756887436 -33014792.763725281 0 -33014792.763725281 21102544.74820137 0 0 0 0 -44956631.00809288 -37876588.078731537 0 -37876588.078731537 23217143.20791626 0 0 0 0 -37172692.511785507 -39006983.974903107 0 -39006983.974903107 -9334914.2761993408 0 0 0 0 -37837471.458720207 -39511004.068104744 0 -39511004.068104744 -2064148.1135864258 0 0 0 0 -46696237.811881065 -48643609.386047363 0 -48643609.386047363 3622083.0414619446 0 0 0 0 -38614054.834328651 -34189266.463384628 0 -34189266.463384628 -8391307.8912658691 0 0 0 0 -53206955.777611732 -36450147.120609283 0 -36450147.120609283 22970534.019348145 0 0 0 0 -46435644.195588112 -36243565.360334396 0 -36243565.360334396 -1537973.3304023743 0 0 0 0 -58628260.996526718 -36419016.010253906 0 -36419016.010253906 28063164.247356415 0 0 0 0 -32318552.309868813 -24933137.060033798 0 -24933137.060033798 19771952.905910492 0 0 0 0 -28442382.00345993 -46209384.615436554 0 -46209384.615436554 -99109461.01342535 0 0 0 0 -33390250.665922642 -21957131.791812897 0 -21957131.791812897 64930118.269817352 0 0 0 0 -19328565.794010162 124453617.08261108 0 124453617.08261108 -61761173.13117218 0 0 0 0 -52620883.411123276 112665689.18642044 0 112665689.18642044 59614941.45664978 0 0 0 0 -61109110.759549141 57135591.445701599 0 57135591.445701599 123761203.94566345 0 0 0 0 -23948587.537242889 70063170.528676987 0 70063170.528676987 23725909.669418335 0 0 0 0 -26337720.561259985 72635813.137569427 0 72635813.137569427 46388485.957809448 0 0 0 0 35916033.540183067 -17618746.064483643 0 -17618746.064483643 2003598.1657776833 0 0 0 0 -50761129.436439037 -53344250.68646431 0 -53344250.68646431 42948897.026107788 0 0 0 0 4285292.8501644135 47547181.919757843 0 47547181.919757843 -20319157.88319397 0 0 0 0 273262.4536746731 -4083319.1385388598 0 -4083319.1385388598 -2677088.5496119708 0 0 0 0 -37486161.439283818 -127938067.26792169 0 -127938067.26792169 -11633704.818201065 0 0 0 0 -28404982.722430229 -13728590.717102051 0 -13728590.717102051 32381863.363782883 0 0 0 0 4695233.684796216 -28185971.908235788 0 -28185971.908235788 37674316.356814593 0 0 0 0 55813312.682415485 -43621939.060939789 0 -43621939.060939789 -52076013.273330688 0 0 0 0 63873623.268620491 -106267198.67549706 0 -106267198.67549706 -85288838.58942461 0 0 0 0 -23761699.888175517 -146472330.8584857 0 -146472330.8584857 -90181072.767957687 0 0 0 0 7393909.1533859167 -28340846.901792109 0 -28340846.901792109 33461258.090590995 0 0 0 0 -15090664.874525666 -105763766.8498764 0 -105763766.8498764 -122589618.98452759 0 0 0 0 -46778331.293729298 -45370655.756818771 0 -45370655.756818771 67409534.749195099 0 0 0 0 6406136.9053497314 -12911000.624586105 0 -12911000.624586105 -263957292.52095413 0 0 0 0 22748730.982031584 -150353708.47750282 0 -150353708.47750282 133440168.47977257 0 0 0 0 -23595798.930627242 -878616.63427615166 0 -878616.63427615166 223452033.11757469 0 0 0 0 -92070986.894438386 -108299392.57019711 0 -108299392.57019711 63129722.074893951 0 0 0 0 -53350136.024477243 -50286008.337221146 0 -50286008.337221146 41717817.714549065 0 0 0 0 -5315057.8185831308 -81668153.171297073 0 -81668153.171297073 59984365.861988068 0 0 0 0 -29745541.535224766 -14153686.899445295 0 -14153686.899445295 128812557.10225677 0 0 0 0 -16498307.825598598 -58710620.182878017 0 -58710620.182878017 -957036.11522293091 0 0 0 0 119907101.60780072 85948928.281800747 0 85948928.281800747 155035651.58361816 0 0 0 0 19293619.543781072 -18551390.355660439 0 -18551390.355660439 106835068.53437614 0 0 0 0 -42802274.779510498 -17923889.158143997 0 -17923889.158143997 -50335899.743270874 0 0 0 0 -68502917.654387474 -33105392.430641174 0 -33105392.430641174 -1807146.0678520203 0 0 0 0 -172586178.03309536 134145046.46371269 0 134145046.46371269 -31131466.427375793 0 0 0 0 5928086.6992488187 -24584700.885159843 0 -24584700.885159843 56360111.404686645 0 0 0 0 -50364256.603264809 -50154586.100605011 0 -50154586.100605011 -13924571.55979538 0 0 0 0 -10375206.712325711 3938879.8441368341 0 3938879.8441368341 5317492.3779335171 0 0 0 0 -64966801.890759945 6425320.8276863098 0 6425320.8276863098 76029647.437633514 0 0 0 0 48987510.394422531 74543243.545383453 0 74543243.545383453 -196533001.37273026 0 0 0 0 251465366.87659645 -218707835.27444839 0 -218707835.27444839 -103661477.48212433 0 0 0 0 -3562385.6042499542 -42907413.480291367 0 -42907413.480291367 32062314.76121521 0 0 0 0 146311566.97082472 -173225298.88284683 0 -173225298.88284683 63780991.119163513 0 0 0 0 -367420312.19287157 -167246407.5112257 0 -167246407.5112257 -674031384.67917252 0 0 0 0 124306811.50495052 301028678.13372612 0 301028678.13372612 365572017.70413971 0 0 0 0 -130321625.96492767 190199798.13463974 0 190199798.13463974 682749674.18771029 0 0 0 0 50200730.547289848 -289338003.06812668 0 -289338003.06812668 629151215.97276306 0 0 0 0 5482829.167781584 -17853330.942392915 0 -17853330.942392915 49764987.762798578 0 0 0 0 -709161562.99629784 -463972825.4629097 0 -463972825.4629097 1216006968.8534775 0 0 0 0 -122975738.43928075 -84853247.29689312 0 -84853247.29689312 63506578.23588562 0 0 0 0 -2117116.4492211342 -40934814.324399948 0 -40934814.324399948 -4450534.8056583405 0 0 0 0 44948603.113881111 50326759.626732826 0 50326759.626732826 50329688.095176697 0 0 0 0 17354852.574082851 72256385.737084389 0 72256385.737084389 181971799.15369797 0 0 0 0 -25536231.354691982 -6369787.7697544098 0 -6369787.7697544098 93138702.455955505 0 0 0 0 -82539686.308209419 39835459.211898804 0 39835459.211898804 93517481.398532867 0 0 0 0 -27649867.141359329 60583168.74148941 0 60583168.74148941 53675147.332771301 0 0 0 0 -442481405.85750103 -334781914.86593437 0 -334781914.86593437 -232317294.8528595 0 0 0 0 1310869.0182941463 -3792478.2220982909 0 -3792478.2220982909 8848646.0918239951 0 0 0 0 3925361.933773106 -12484260.826341253 0 -12484260.826341253 31635358.585923992 0 0 0 0 -96327957.957165539 -89768150.838261604 0 -89768150.838261604 62301166.677696228 0 0 0 0 108450272.08442134 140596242.25953019 0 140596242.25953019 258967773.4335556 0 0 0 0 130309378.88483199 80076295.103884697 0 80076295.103884697 125113501.08158112 0 0 0 0 46845020.708105803 73359880.584804535 0 73359880.584804535 159810827.81080627 0 0 0 0 -1382206.7110738754 -24314133.477592468 0 -24314133.477592468 68080034.627368927 0 0 0 0 -10192690.998126328 36770633.265669942 0 36770633.265669942 130269662.64489746 0 0 0 0 170863923.76499915 154590696.8720417 0 154590696.8720417 173166199.95730209 0 0 0 0 80717613.599666804 116110816.29837584 0 116110816.29837584 207341037.09959412 0 0 0 0 98908329.133503675 58535866.853116989 0 58535866.853116989 97677732.671114922 0 0 0 0 137896211.58252558 168534888.44430256 0 168534888.44430256 301087314.54454803 0 0 0 0 259618558.98670721 193194641.97052097 0 193194641.97052097 283845127.47154617 0 0 0 0 272653931.54633409 115447030.68827605 0 115447030.68827605 452428519.64274979 0 0 0 0 181382812.15819132 194348515.59360981 0 194348515.59360981 386760394.50032997 0 0 0 0 209475938.9469043 137368694.84774017 0 137368694.84774017 303994390.41915703 0 0 0 0 100850832.38457352 83906551.873838425 0 83906551.873838425 487042863.95740128 0 0 0 0 99940770.5184443 114758013.09289169 0 114758013.09289169 315389830.2285347 0 0 0 0 124743821.51918602 135816329.47378159 0 135816329.47378159 150802293.42064571 0 0 0 0 58389403.029055834 65131666.134634018 0 65131666.134634018 210192572.75251007 0 0 0 0 76270508.747065544 92675550.308914185 0 92675550.308914185 115185239.07778835 0 0 0 0 64025087.544779778 177070244.68227196 0 177070244.68227196 305316176.14178276 0 0 0 0 37857522.77341938 10902275.073371887 0 10902275.073371887 56939203.533836365 0 0 0 0 99825429.080804825 -38150511.721256256 0 -38150511.721256256 -86481451.988540649 0 0 0 0 133616956.41628075 115048097.66552353 0 115048097.66552353 -48850194.940525055 0 0 0 0 103296183.65169525 182756326.75249863 0 182756326.75249863 162548203.60468483 0 0 0 0 63229078.550507545 116130501.60546875 0 116130501.60546875 283555950.69555664 0 0 0 0 135399024.88011932 224410819.47250938 0 224410819.47250938 220621044.11260986 0 0 0 0 135229209.79516333 226930426.10382223 0 226930426.10382223 442739275.21697998 0 0 0 0 49880125.264818192 125345565.20406342 0 125345565.20406342 472464567.00370026 0 0 0 0 24793175.475285292 177147443.94990873 0 177147443.94990873 406102846.71077728 0 0 0 0 53273745.610589981 107744434.09740257 0 107744434.09740257 459628145.9118042 0 0 0 0 39559405.916044235 130504488.37921143 0 130504488.37921143 482706749.04269409 0 0 0 0 30574779.734931946 119122620.73339462 0 119122620.73339462 534991876.30986786 0 0 0 0 81850211.737630844 69164755.677577972 0 69164755.677577972 541733687.27021313 0 0 0 0 49720262.784156039 118335002.92023337 0 118335002.92023337 683640650.44794464 0 0 0 0 58439919.216069996 138522667.58803272 0 138522667.58803272 548349687.97089767 0 0 0 0 101294018.57479668 111304455.01575089 0 111304455.01575089 353955140.52057838 0 0 0 0 26570443.631043673 135709341.58228874 0 135709341.58228874 492501336.54870605 0 0 0 0 86354514.081813812 109802220.92147827 0 109802220.92147827 501271471.6637125 0 0 0 0 54701875.466087818 162199359.16066647 0 162199359.16066647 637002859.28195572 0 0 0 0 101241175.15329731 147608327.16648388 0 147608327.16648388 543173150.81771088 0 0 0 0 101403519.3436985 173233064.79245758 0 173233064.79245758 522011207.78208208 0 0 0 0 114309625.69187939 257917092.71088684 0 257917092.71088684 312690674.45975876 0 0 0 0 95468087.864028454 75714092.339387894 0 75714092.339387894 419483235.24402618 0 0 0 0 52002798.309436798 95304480.983520508 0 95304480.983520508 527484223.51042938 0 0 0 0 11580857.804202557 148435835.20407963 0 148435835.20407963 807198428.29978752 0 0 0 0 -32779893.976242542 259844082.49977112 0 259844082.49977112 584616973.09407902 0 0 0 0 151862616.74461162 27827344.636208534 0 27827344.636208534 1014697301.1010308 0 0 0 0 222414247.38729435 455782266.87366486 0 455782266.87366486 816167705.07661915 0 0 0 0 543254875.69688296 83591725.761780739 0 83591725.761780739 430432839.68702698 0 0 0 0 145183982.69518805 105023152.16742039 0 105023152.16742039 582291957.60947418 0 0 0 0 -55270244.832307816 111759993.60181713 0 111759993.60181713 -140759200.11605835 0 0 0 0 86624941.709680796 19517934.95796442 0 19517934.95796442 15561013.624206543 0 0 0 0 12303863.184030533 -38184255.674591064 0 -38184255.674591064 -9753902.7140693665 0 0 0 0 90429334.497695923 53732985.836772919 0 53732985.836772919 -48111183.127916336 0 0 0 0 90621561.264764786 32622524.337554932 0 32622524.337554932 9703456.6791992188 0 0 0 0 123349599.64302063 23585884.747879028 0 23585884.747879028 2483026.0877685547 0 0 0 0 121730144.623546 -15192944.541702628 0 -15192944.541702628 110751761.09700775 0 0 0 0 101296856.85869598 -50545972.422405243 0 -50545972.422405243 113639396.27244568 0 0 0 0 112387399.1274662 -45456236.101119995 0 -45456236.101119995 115973590.24348068 0 0 0 0 79158693.245981216 -131323712.82124329 0 -131323712.82124329 345973375.33153534 0 0 0 0 91537720.709453583 -66012032.639886856 0 -66012032.639886856 311947668.0834198 0 0 0 0 6059481.3026647568 -132240065.56079292 0 -132240065.56079292 670359800.27778625 0 0 0 0 8419677.0692710876 -113614905.32852173 0 -113614905.32852173 469397029.0063324 0 0 0 0 36891619.044483185 -18308625.777389526 0 -18308625.777389526 364416430.8080368 0 0 0 0 75285940.073955536 -163731396.72679901 0 -163731396.72679901 338434479.53623199 0 0 0 0 22659785.06452471 -149437421.09343392 0 -149437421.09343392 -170244140.41387939 0 0 0 0 71941281.238861084 -236014606.68119812 0 -236014606.68119812 294560579.18153572 0 0 0 0 -314354363.74775887 -449468389.04525185 0 -449468389.04525185 387350162.00946426 0 0 0 0 21210361.718761444 -174799033.13751221 0 -174799033.13751221 330849997.8853035 0 0 0 0 104660521.90199566 -132730999.40510368 0 -132730999.40510368 55283384.41178894 0 0 0 0 472753284.38055229 618758215.98083496 0 618758215.98083496 466691553.32265091 0 0 0 0 -218865.33028401621 -2149729.3703286722 0 -2149729.3703286722 13305006.95957768 0 0 0 0 238914681.37508106 289679800.2900238 0 289679800.2900238 94659014.634849548 0 0 0 0 9639469.9836130142 352363614.82870865 0 352363614.82870865 588349435.05475235 0 0 0 0 119922801.37374115 434125976.21499443 0 434125976.21499443 537133027.97891712 0 0 0 0 -542231259.85003471 -32373957.194602966 0 -32373957.194602966 398527296.63926697 0 0 0 0 -249012910.4930191 612355975.99902058 0 612355975.99902058 697018517.92258453 0 0 0 0 315486321.99798203 105357455.59542465 0 105357455.59542465 407562069.86840057 0 0 0 0 -7920.7380935139954 -7906660.1535437964 0 -7906660.1535437964 30547389.422548771 0 0 0 0 -341390644.04156721 -131592602.5707438 0 -131592602.5707438 12627514.606697083 0 0 0 0 -320556000.60240555 53500386.983903885 0 53500386.983903885 32504369.596847534 0 0 0 0 -58975845.366912842 31586891.027240753 0 31586891.027240753 -34977080.076076508 0 0 0 0 -126938845.57816172 -66309470.114308357 0 -66309470.114308357 -73966115.914497375 0 0 0 0 -161446355.33803844 -32614053.444459915 0 -32614053.444459915 70493738.731735229 0 0 0 0 419727520.72978783 -849321430.06534195 0 -849321430.06534195 -912757324.55113983 0 0 0 0 1273131269.7067871 1380461775.9857559 0 1380461775.9857559 666550983.46405029 0 0 0 0 175815179.72178268 -69143809.735191345 0 -69143809.735191345 594036258.27857971 0 0 0 0 -910310343.01298523 -510338097.32281876 0 -510338097.32281876 81137276.34437561 0 0 0 0 1042257.4276914503 -3798506.3860484213 0 -3798506.3860484213 10915005.092186205 0 0 0 0 -179236742.89375973 -80912633.971164703 0 -80912633.971164703 77162362.966205597 0 0 0 0 1767802.8987015784 -9486733.8561266176 0 -9486733.8561266176 26096612.644754991 0 0 0 0 -146121946.52806854 4044251.3027038574 0 4044251.3027038574 44379229.946411133 0 0 0 0 -83657283.789838791 -1040497.6740493774 0 -1040497.6740493774 123064312.93305969 0 0 0 0 -91584323.614658356 25989758.19342041 0 25989758.19342041 49479910.472261429 0 0 0 0 -142413965.7795639 -20585780.91097641 0 -20585780.91097641 116897180.14673615 0 0 0 0 -76940078.114082336 26188278.802108765 0 26188278.802108765 108105764.09293652 0 0 0 0 -100863634.39917183 38183573.172492981 0 38183573.172492981 186837694.13092804 0 0 0 0 -56074482.956893921 48181969.680633545 0 48181969.680633545 135634606.24460411 0 0 0 0 -19355631.468910217 29829920.606090546 0 29829920.606090546 143081034.34717941 0 0 0 0 -58406398.796535492 49008598.728633881 0 49008598.728633881 209339442.54960632 0 0 0 0 68713118.283542633 3551169.3409996033 0 3551169.3409996033 109794340.91893768 0 0 0 0 -19357182.775838852 32904086.140491486 0 32904086.140491486 243562048.22982788 0 0 0 0 47339472.135807037 -9690852.5332794189 0 -9690852.5332794189 114092085.87179565 0 0 0 0 -72723099.874971867 38761210.851672173 0 38761210.851672173 145603083.18252563 0 0 0 0 -55144165.004389763 12144074.766697884 0 12144074.766697884 47864455.890884399 0 0 0 0 26353059.39262867 33551398.347970963 0 33551398.347970963 29729452.660339355 0 0 0 0 151615671.23855877 -2757544.4956951141 0 -2757544.4956951141 -8679225.3488960266 0 0 0 0 124066025.25674629 25676912.392532349 0 25676912.392532349 -15879680.707740784 0 0 0 0 48605691.463737488 5837386.0129890442 0 5837386.0129890442 125984798.1896286 0 0 0 0 66357434.091623306 18692458.637443542 0 18692458.637443542 122084313.35360527 0 0 0 0 77974170.651857376 -41967659.908901215 0 -41967659.908901215 232912485.7014389 0 0 0 0 66128576.404870033 -11236188.848731041 0 -11236188.848731041 455577601.18066406 0 0 0 0 118957629.1329155 112064074.89573669 0 112064074.89573669 311887577.30698395 0 0 0 0 236372477.28440666 229601698.40489197 0 229601698.40489197 397919922.68510437 0 0 0 0 58580623.856740952 130044855.57678604 0 130044855.57678604 322279288.98037148 0 0 0 0 23067036.378562927 116903284.82795715 0 116903284.82795715 377356784.64570236 0 0 0 0 -5550958.767824173 87752110.827510834 0 87752110.827510834 225925703.85955048 0 0 0 0 -2007413.6044635773 61560503.412106514 0 61560503.412106514 294112302.15816498 0 0 0 0 -61661325.790023804 71730516.853710175 0 71730516.853710175 253008549.4307785 0 0 0 0 -12106781.283981323 63559749.39251709 0 63559749.39251709 204675345.85464287 0 0 0 0 -14861876.878094673 101140264.867733 0 101140264.867733 242134357.00164032 0 0 0 0 -13554519.818608284 95679275.143911362 0 95679275.143911362 257935651.5482254 0 0 0 0 57455554.120944977 143051696.72952271 0 143051696.72952271 270966960.98508072 0 0 0 0 87316760.306522369 128466666.24217606 0 128466666.24217606 224469376.65152168 0 0 0 0 12974631.51787281 82533020.479951859 0 82533020.479951859 196333710.54512024 0 0 0 0 -1003024.0047424808 214906.75159476697 0 214906.75159476697 743298.41479465365 0 0 0 0 95371691.733259201 180789566.97303391 0 180789566.97303391 276030541.17205811 0 0 0 0 -7217309.3071727753 -18489882.485157013 0 -18489882.485157013 -21265828.914970398 0 0 0 0 17375141.249369621 -1549346.8541736603 0 -1549346.8541736603 1566248.3007965088 0 0 0 0 786625.46156271547 -929184.73346418142 0 -929184.73346418142 995791.90973792225 0 0 0 0 -558246.06937399879 405320.83743371069 0 405320.83743371069 1071365.4763006419 0 0 0 0 108305086.24937248 153785229.58835983 0 153785229.58835983 159274116.05182648 0 0 0 0 -50855762.119207859 153535843.07550526 0 153535843.07550526 360880639.30042267 0 0 0 0 42234284.388381958 60474565.185783386 0 60474565.185783386 31515490.200532913 0 0 0 0 -33618215.053562164 -50157444.542362213 0 -50157444.542362213 -5012841.1179656982 0 0 0 0 -66400857.409854889 103302309.75704193 0 103302309.75704193 245352437.58322525 0 0 0 0 -62303239.438310623 90013772.810394287 0 90013772.810394287 238761056.97714233 0 0 0 0 -47669373.037061691 64824368.393001556 0 64824368.393001556 240771222.08754539 0 0 0 0 -86687741.110193253 69741048.674480438 0 69741048.674480438 240253323.14525604 0 0 0 0 -106107051.02228355 22782606.350698471 0 22782606.350698471 160075788.18685913 0 0 0 0 -61086162.2638731 64748976.39068222 0 64748976.39068222 141089320.31015015 0 0 0 0 -50436906.04404068 69258341.468364716 0 69258341.468364716 178428017.66887283 0 0 0 0 -59310120.965854645 74861974.524795532 0 74861974.524795532 245371639.00662231 0 0 0 0 -5929788.495513916 78608422.193466187 0 78608422.193466187 244206056.49558544 0 0 0 0 -39463381.728998184 26575432.982269287 0 26575432.982269287 266555791.40801239 0 0 0 0 -103965471.29319859 41174164.277332306 0 41174164.277332306 265174948.78516388 0 0 0 0 -105086252.29387856 -51770986.402744293 0 -51770986.402744293 206125752.69093704 0 0 0 0 -121393665.86417389 55356856.81029129 0 55356856.81029129 325027958.37648773 0 0 0 0 -107475128.59698868 79953540.514104843 0 79953540.514104843 360565050.12614441 0 0 0 0 -208588119.32473373 43747101.720191956 0 43747101.720191956 498323853.68737793 0 0 0 0 -202907128.11075783 -34004120.69493866 0 -34004120.69493866 357584417.36064446 0 0 0 0 -73580232.15568924 119558561.11376572 0 119558561.11376572 377229546.74039459 0 0 0 0 -115228538.84856796 83412253.827316284 0 83412253.827316284 375875237.22288513 0 0 0 0 -856763.31435646489 -67359.091946013272 0 -67359.091946013272 184669.6287160553 0 0 0 0 -2526316.383774057 1053369.2011782378 0 1053369.2011782378 -1628442.847166121 0 0 0 0 181212520.44730759 -158693573.50471115 0 -158693573.50471115 8882576.0537796021 0 0 0 0 -647824947.21530533 108162406.21787262 0 108162406.21787262 36774179.566298485 0 0 0 0 -163416395.56919861 -162543443.53722382 0 -162543443.53722382 -97343051.519477844 0 0 0 0 -344215997.29219151 -44726231.066577911 0 -44726231.066577911 24598199.276283264 0 0 0 0 137140297.74370956 11143312.087730408 0 11143312.087730408 -69771435.993228912 0 0 0 0 -96994084.854193211 204190105.16882133 0 204190105.16882133 -90715417.858459473 0 0 0 0 -131819056.41540718 59345536.235969543 0 59345536.235969543 39940107.245153427 0 0 0 0 26282920.101295471 91453278.601623535 0 91453278.601623535 15336575.306598663 0 0 0 0 -958466.64867966995 -792366.2737242803 0 -792366.2737242803 4199506.4059537351 0 0 0 0 -98969583.067281723 -111533879.94469452 0 -111533879.94469452 -112681298.99946594 0 0 0 0 -60598584.488752365 32437307.971759796 0 32437307.971759796 -5643834.1052370071 0 0 0 0 -35346912.866504669 -52120703.649814606 0 -52120703.649814606 -21362045.485206604 0 0 0 0 -3005461.2021780014 1066012.8342514038 0 1066012.8342514038 3788075.1642951965 0 0 0 0 -4712472.3137378693 -732378.49604034424 0 -732378.49604034424 10751760.202674866 0 0 0 0 -7988263.5651597977 -13199373.784135818 0 -13199373.784135818 -808005.24328613281 0 0 0 0 -797113.30603149161 -678515.56056448817 0 -678515.56056448817 3487770.7394155562 0 0 0 0 116136974.24969959 -26697651.091268539 0 -26697651.091268539 11699927.401551247 0 0 0 0 -7569789.5299992561 3748960.767868042 0 3748960.767868042 7420778.7469100952 0 0 0 0 5220811.5745239258 -11125.052406311035 0 -11125.052406311035 -3355926.3146400452 0 0 0 0 8564808.5025243759 -5197479.4134292603 0 -5197479.4134292603 4682630.6232185364 0 0 0 0 12007853.694448948 14233161.283961535 0 14233161.283961535 14011689.2292099 0 0 0 0 2595072.2661448903 -2894815.0169461295 0 -2894815.0169461295 3139481.5612334758 0 0 0 0 17617833.384098053 13079257.118650436 0 13079257.118650436 11380586.609672546 0 0 0 0 -21153851.888271332 -4485206.1414642334 0 -4485206.1414642334 23933774.797441483 0 0 0 0 54320225.501581192 18157843.076116562 0 18157843.076116562 7956387.023475647 0 0 0 0 17570418.063635468 11398516.746524811 0 11398516.746524811 64464283.236930847 0 0 0 0 771854.8381549269 -969311.40583420545 0 -969311.40583420545 1279492.7476872355 0 0 0 0 -22233022.233600616 682366.6724395752 0 682366.6724395752 11470750.609516144 0 0 0 0 -40140588.872621536 72725626.516384125 0 72725626.516384125 57513367.111914635 0 0 0 0 -255175111.08342743 4205652.5619754791 0 4205652.5619754791 76260287.225406647 0 0 0 0 3147783.7857788857 17688506.367435064 0 17688506.367435064 71323871.548789993 0 0 0 0 -5629846.0380773544 -17026644.273868561 0 -17026644.273868561 56890000.561141968 0 0 0 0 -1429652.6963005066 21209947.038883209 0 21209947.038883209 -37482814.114341736 0 0 0 0 -351861262.94720268 68951786.544384003 0 68951786.544384003 158651669.36786079 0 0 0 0 946242.08582810499 12615442.305659974 0 12615442.305659974 59735944.244913235 0 0 0 0 -553041383.23646832 205179979.16865158 0 205179979.16865158 372409325.1423111 0 0 0 0 42268324.382539749 -357093612.94272518 0 -357093612.94272518 123526652.4520874 0 0 0 0 -386697.88866929896 6012785.4364875965 0 6012785.4364875965 38036342.570247024 0 0 0 0 -9360383.6772379875 -353085108.97393703 0 -353085108.97393703 401839940.3105011 0 0 0 0 -276441998.80336952 221020777.56326675 0 221020777.56326675 15466125.478782654 0 0 0 0 -512807739.18812561 180797604.76286316 0 180797604.76286316 157671910.7416687 0 0 0 0 -110868987.85506058 -26197254.424560547 0 -26197254.424560547 96214078.099212646 0 0 0 0 -40826249.036657333 41899064.138637543 0 41899064.138637543 112700595.68458366 0 0 0 0 -22019720.260075092 -27911729.892858505 0 -27911729.892858505 214373258.78387451 0 0 0 0 97019767.842710495 -153632377.79210663 0 -153632377.79210663 152090436.16000557 0 0 0 0 59935828.340639114 -73866494.196201324 0 -73866494.196201324 233727414.71377373 0 0 0 0 61123455.23197937 -46567252.458007812 0 -46567252.458007812 325513195.69830322 0 0 0 0 476513271.80043793 -11939407.623031616 0 -11939407.623031616 200185024.08995056 0 0 0 0 192611943.85258102 -184624649.73381042 0 -184624649.73381042 469480336.53979492 0 0 0 0 178340594.23289108 23322262.928249359 0 23322262.928249359 205372058.10374451 0 0 0 0 156698056.79985809 -176444872.97240448 0 -176444872.97240448 208500485.50981903 0 0 0 0 370556.95500449091 -848581.23774041235 0 -848581.23774041235 299470.82032698765 0 0 0 0 82786311.734399796 -146186411.47895432 0 -146186411.47895432 160731832.11902618 0 0 0 0 41176265.137674332 -18565263.452209473 0 -18565263.452209473 -59942001.702888489 0 0 0 0 115530182.1954422 -133873891.07555199 0 -133873891.07555199 165134978.72824097 0 0 0 0 -17039614.259904861 -49505812.674945831 0 -49505812.674945831 216019715.60696411 0 0 0 0 92486654.162424088 -101592667.26192856 0 -101592667.26192856 72101372.842971802 0 0 0 0 -838568.33498564363 -118628346.85985449 0 -118628346.85985449 152579184.05430603 0 0 0 0 77806717.969602585 -81645936.56167984 0 -81645936.56167984 42799891.645219803 0 0 0 0 -197187974.06074083 -329611129.74701691 0 -329611129.74701691 169847755.71575928 0 0 0 0 1269254.0767009926 -3073273.0800567418 0 -3073273.0800567418 5445370.9613057971 0 0 0 0 -81828276.194181681 -4613723.3806495667 0 -4613723.3806495667 12194483.993255615 0 0 0 0 97564623.531124949 10642037.388669968 0 10642037.388669968 -80812347.229049683 0 0 0 0 -32315995.631084919 28761150.495861053 0 28761150.495861053 51905357.037947655 0 0 0 0 592158869.05131865 -335474529.35408401 0 -335474529.35408401 155145082.53639603 0 0 0 0 613444319.12239623 312099663.44546127 0 312099663.44546127 -23503761.49533844 0 0 0 0 78325520.618570328 25247847.435520172 0 25247847.435520172 -32049342.546695709 0 0 0 0 -217717776.57947898 477169040.328866 0 477169040.328866 22973862.827850342 0 0 0 0 -112951575.78433228 -172189632.48896408 0 -172189632.48896408 141230040.81775379 0 0 0 0 -6767534.756819725 152645008.14943504 0 152645008.14943504 1126999299.4486389 0 0 0 0 123297970.18204176 -268801547.10004807 0 -268801547.10004807 176938492.49429321 0 0 0 0 108590413.49615097 -255936752.55821609 0 -255936752.55821609 277069720.8784256 0 0 0 0 -5161039.7788253818 -2753787.0460091876 0 -2753787.0460091876 23146910.038223654 0 0 0 0 220950099.3955996 -212508722.49596786 0 -212508722.49596786 209264977.21635818 0 0 0 0 11744066.141569138 64169151.172782898 0 64169151.172782898 186794239.89874649 0 0 0 0 257679591.71352467 496520091.28438473 0 496520091.28438473 604151594.2973175 0 0 0 0 329312.3826171977 -1823179.5799213597 0 -1823179.5799213597 8338481.4842177033 0 0 0 0 789197265.36451864 -602305782.01665115 0 -602305782.01665115 343903246.03560257 0 0 0 0 -21607407.67624259 -70772197.127437592 0 -70772197.127437592 965199604.77908325 0 0 0 0 -22753769.209816605 123571633.7457962 0 123571633.7457962 593899598.31142426 0 0 0 0 576922.84401774406 64319851.07403183 0 64319851.07403183 189424703.23604965 0 0 0 0 -9097524.4262218252 3640787.2815730721 0 3640787.2815730721 1821263.691760689 0 0 0 0 -94590115.15326786 206525039.90788269 0 206525039.90788269 -204803577.83562088 0 0 0 0 -114325777.66580749 26245629.848003387 0 26245629.848003387 491833733.57328033 0 0 0 0 -161627371.88035393 272699498.6978302 0 272699498.6978302 509515701.23329163 0 0 0 0 -71715600.308462024 60309114.367864609 0 60309114.367864609 330716793.48839569 0 0 0 0 -26554816.351843834 79133182.50735569 0 79133182.50735569 45663583.863067627 0 0 0 0 51940296.37430048 89610115.33430481 0 89610115.33430481 -150911210.85845947 0 0 0 0 -93424622.907438278 75405968.452507019 0 75405968.452507019 46252029.72933197 0 0 0 0 -80504487.702963114 90456410.710811615 0 90456410.710811615 -40656089.2292099 0 0 0 0 -17285707.811516702 800418.09263435006 0 800418.09263435006 11165968.483445145 0 0 0 0 -157474602.14497757 53283466.88319397 0 53283466.88319397 86978605.428966522 0 0 0 0 -4866152.8048716113 -6184332.8316773586 0 -6184332.8316773586 44258652.376333803 0 0 0 0 -136682757.25190821 -101549008.58600807 0 -101549008.58600807 -16039319.405006409 0 0 0 0 85222820.297545433 -193009914.40611649 0 -193009914.40611649 293776404.84062386 0 0 0 0 -12008104.487692351 -4419274.326679945 0 -4419274.326679945 9846533.2181200236 0 0 0 0 119889959.56140709 -173032166.9197731 0 -173032166.9197731 203085365.79575729 0 0 0 0 -32783511.295874596 -170752312.54130936 0 -170752312.54130936 -641756.51055908203 0 0 0 0 -129814818.47602844 -169418249.69908142 0 -169418249.69908142 5651077.1200313568 0 0 0 0 -488042507.54816031 -125465516.89749438 0 -125465516.89749438 132140739.69069672 0 0 0 0 -31441271.484500885 -214260112.8156929 0 -214260112.8156929 956893.22505187988 0 0 0 0 -490412.75499748916 -5875282.3164273575 0 -5875282.3164273575 40589277.343297988 0 0 0 0 -208978272.39576691 -31060036.235835791 0 -31060036.235835791 199789900.96773529 0 0 0 0 -57087313.225886345 -55264280.16852951 0 -55264280.16852951 240360650.73301697 0 0 0 0 -79067148.048770905 29540986.39806366 0 29540986.39806366 30785869.554735184 0 0 0 0 94431092.466433048 -159756296.21329498 0 -159756296.21329498 54150564.194618225 0 0 0 0 107945398.33527136 -372305380.33040237 0 -372305380.33040237 362821389.72473907 0 0 0 0 -70290183.722246408 -30132704.882255554 0 -30132704.882255554 334591956.45000839 0 0 0 0 -153498694.73371124 153944804.70933151 0 153944804.70933151 -61163057.574523926 0 0 0 0 -61084882.77261734 141760872.0281868 0 141760872.0281868 -70954725.335550308 0 0 0 0 128703958.00456619 29105069.214379311 0 29105069.214379311 -35932895.409324646 0 0 0 0 50159169.137062073 67353904.654876709 0 67353904.654876709 -15212846.176282883 0 0 0 0 107714970.10229111 282221636.71084785 0 282221636.71084785 373892389.04179239 0 0 0 0 113611873.19543648 -66819696.042701721 0 -66819696.042701721 61221777.79523468 0 0 0 0 380753.25508046523 -1401230.6068855375 0 -1401230.6068855375 4704430.2649854869 0 0 0 0 119319820.42152786 267290164.53655338 0 267290164.53655338 22246354.47227478 0 0 0 0 -27138710.611534119 194236066.45108032 0 194236066.45108032 334216837.95611572 0 0 0 0 -72894362.33214283 76667340.500806808 0 76667340.500806808 39605583.02293396 0 0 0 0 111538690.51849365 242443703.23868561 0 242443703.23868561 -54602226.867507935 0 0 0 0 -164152634.89867592 166797067.41178131 0 166797067.41178131 120396949.34343624 0 0 0 0 -283364852.15536785 2155712.362405777 0 2155712.362405777 -72621593.923950195 0 0 0 0 -82953351.313297272 248828899.07849312 0 248828899.07849312 -86772961.972312927 0 0 0 0 32410957.206819534 -156020420.47419739 0 -156020420.47419739 -581311703.3007412 0 0 0 0 -100786014.92773914 -250196107.83388519 0 -250196107.83388519 536413291.95544434 0 0 0 0 -4800404.1852522306 105308.12935740501 0 105308.12935740501 253818.48998436332 0 0 0 0 -206030966.43857193 -409424720.98880386 0 -409424720.98880386 427671134.74710846 0 0 0 0 -137248924.0440836 -132850311.95427322 0 -132850311.95427322 259017265.69778824 0 0 0 0 77077888.873937607 -555970331.82221222 0 -555970331.82221222 28589461.137302399 0 0 0 0 -177712860.77468681 228983467.39229965 0 228983467.39229965 -51298051.492416382 0 0 0 0 796253815.36425447 -525989597.10886288 0 -525989597.10886288 168823167.83242798 0 0 0 0 244054429.30105972 255997133.16860199 0 255997133.16860199 -300128715.08326721 0 0 0 0 195042.40381845087 1427226.4167873859 0 1427226.4167873859 12094503.638157547 0 0 0 0 149197640.56583118 68570180.450326443 0 68570180.450326443 862118470.95323181 0 0 0 0 372482785.4262619 834709972.89963531 0 834709972.89963531 -275656464.91292477 0 0 0 0 112760548.34452581 -107868226.71874189 0 -107868226.71874189 75108675.24105835 0 0 0 0 432198111.21647954 -323278590.32760501 0 -323278590.32760501 269990383.94540024 0 0 0 0 -15963440.932793617 -13593206.005731583 0 -13593206.005731583 122981066.05924416 0 0 0 0 478871517.7149868 -52013061.347644806 0 -52013061.347644806 -305111055.31946093 0 0 0 0 72208858.095499843 215404919.61142829 0 215404919.61142829 673801820.32654572 0 0 0 0 2328817.4885818474 -3224631.603292048 0 -3224631.603292048 5735303.0694360584 0 0 0 0 72208300.825900078 214733602.33065796 0 214733602.33065796 291748067.31705475 0 0 0 0 12147309.79540062 232804416.57905197 0 232804416.57905197 476144952.04160309 0 0 0 0 -54422579.140628815 101693382.92206097 0 101693382.92206097 696248156.66785431 0 0 0 0 127692254.76853371 154893828.37288666 0 154893828.37288666 -1817255.577911377 0 0 0 0 66887713.487512589 83814131.671451569 0 83814131.671451569 275341213.63180542 0 0 0 0 1821735.5707063675 -4803506.4702460617 0 -4803506.4702460617 10534363.580027699 0 0 0 0 140662596.67853546 -32238334.284244537 0 -32238334.284244537 -48692380.512051582 0 0 0 0 -39416265.860215187 -71269554.744348526 0 -71269554.744348526 35901027.202888489 0 0 0 0 -228658972.39049149 -438715582.768116 0 -438715582.768116 1060335958.6850891 0 0 0 0 120377886.86340332 38433804.37197113 0 38433804.37197113 19149279.13477993 0 0 0 0 108007676.16069984 19058565.935321808 0 19058565.935321808 21580877.699699402 0 0 0 0 31135312.301181793 -6319924.4525222778 0 -6319924.4525222778 127416855.93460846 0 0 0 0 101497670.02544403 17510616.583488464 0 17510616.583488464 115523611.9933567 0 0 0 0 102217747.22799683 -936126.9849281311 0 -936126.9849281311 114364471.80574226 0 0 0 0 56407400.907096863 2189849.356464386 0 2189849.356464386 293245680.52336121 0 0 0 0 37643443.875034332 42297396.962417603 0 42297396.962417603 308894860.99014664 0 0 0 0 68784176.560141802 110667848.85519266 0 110667848.85519266 273116983.991745 0 0 0 0 -27041138.005077362 87885247.612255096 0 87885247.612255096 445367317.78933525 0 0 0 0 16680737.391048431 34786125.253189087 0 34786125.253189087 420395904.42539215 0 0 0 0 19408800.25702095 -39958745.032958984 0 -39958745.032958984 454034434.01329041 0 0 0 0 -28155730.569576263 1272445.5317001343 0 1272445.5317001343 474169721.52500916 0 0 0 0 -70652561.557559967 -15576.169483184814 0 -15576.169483184814 695380134.70607758 0 0 0 0 -92598369.53420639 1188040.8162918091 0 1188040.8162918091 774288891.42558289 0 0 0 0 -80238097.113750458 30617790.369865417 0 30617790.369865417 640985896.90082455 0 0 0 0 -50486080.637797356 28161467.604923248 0 28161467.604923248 640795251.73339844 0 0 0 0 -100590358.92883968 82889547.007196426 0 82889547.007196426 717867049.47759247 0 0 0 0 -63724000.503534317 74986799.425815582 0 74986799.425815582 717065903.92528534 0 0 0 0 -108967745.07751846 91938555.351528168 0 91938555.351528168 773922080.42326272 0 0 0 0 -39875382.699354172 212899494.33171844 0 212899494.33171844 577947006.07568359 0 0 0 0 -12386427.872913361 127155336.7204628 0 127155336.7204628 736898334.08259773 0 0 0 0 -17835947.479967117 97101386.995359421 0 97101386.995359421 654802115.36078835 0 0 0 0 227078790.03258038 69521765.041361809 0 69521765.041361809 478776124.73278046 0 0 0 0 49791929.970173836 59793658.827312469 0 59793658.827312469 673136143.88708878 0 0 0 0 -30922241.101735592 22189106.780729294 0 22189106.780729294 682366585.40118408 0 0 0 0 103721640.55493927 -87988182.384529114 0 -87988182.384529114 819913911.89912605 0 0 0 0 129286623.54089928 400041472.43701363 0 400041472.43701363 582398048.93824387 0 0 0 0 512985589.68099976 105896080.47926712 0 105896080.47926712 480775115.26534271 0 0 0 0 184394248.19612694 207876480.11661911 0 207876480.11661911 451730245.85124969 0 0 0 0 199654233.48618221 165386941.92011261 0 165386941.92011261 350293536.87572098 0 0 0 0 106093310.12480164 174955957.25393677 0 174955957.25393677 439422782.70752907 0 0 0 0 60101205.190804482 140470953.82952309 0 140470953.82952309 461960787.29206467 0 0 0 0 111710934.22472 80818423.835510254 0 80818423.835510254 520322932.78512955 0 0 0 0 117214176.25309277 56921566.115785599 0 56921566.115785599 346688073.65823841 0 0 0 0 156269302.45553708 106239987.77521992 0 106239987.77521992 208331802.52845383 0 0 0 0 102960603.68465424 20034341.054244995 0 20034341.054244995 148349738.66482162 0 0 0 0 47284643.959476471 198677520.11091995 0 198677520.11091995 296735059.45626068 0 0 0 0 55238053.835241318 312392120.90223694 0 312392120.90223694 536032503.60783768 0 0 0 0 113083715.63419819 125201466.34025002 0 125201466.34025002 343806667.77837372 0 0 0 0 66469822.464673996 158451567.18622208 0 158451567.18622208 456604439.40003586 0 0 0 0 273754045.79230595 -461293929.5053215 0 -461293929.5053215 329743446.54059029 0 0 0 0 162371065.64077115 -322574534.2007494 0 -322574534.2007494 232290587.41687775 0 0 0 0 63505788.340219975 -310823310.38167381 0 -310823310.38167381 278725504.59667969 0 0 0 0 224645266.30734921 -255026856.49312401 0 -255026856.49312401 180294442.97215652 0 0 0 0 255395.68657074112 -2317814.8184100278 0 -2317814.8184100278 12395916.029470265 0 0 0 0 56560175.479820251 -214299061.73965645 0 -214299061.73965645 209744138.03593063 0 0 0 0 -752160.72257045377 -4581351.5676902365 0 -4581351.5676902365 31408169.469732434 0 0 0 0 -667826550.95555115 138406117.30105782 0 138406117.30105782 348242887.36301041 0 0 0 0 -162717605.33903217 555000809.83172607 0 555000809.83172607 529669671.6269455 0 0 0 0 7027919.6050889492 17220665.746053219 0 17220665.746053219 53830245.71471405 0 0 0 0 125308796.32945395 -85863221.702623844 0 -85863221.702623844 1187119071.0837669 0 0 0 0 700785040.46744347 -309960303.26173782 0 -309960303.26173782 375368496.14414215 0 0 0 0 679600826.19865799 322147570.31227493 0 322147570.31227493 632722343.3803196 0 0 0 0 806163455.85669541 -761304286.72297072 0 -761304286.72297072 597069945.82677078 0 0 0 0 -21482581.765735626 -268908694.6111927 0 -268908694.6111927 1189703467.6713829 0 0 0 0 106457424.00220156 -51918940.194223404 0 -51918940.194223404 416293096.18035507 0 0 0 0 33135056.101273537 167858034.30365753 0 167858034.30365753 232566550.84403229 0 0 0 0 -153277586.23402119 -84911313.940063477 0 -84911313.940063477 606073536.06159592 0 0 0 0 -27642946.314328104 -141933678.2585299 0 -141933678.2585299 486019003.12815857 0 0 0 0 26066165.570335865 -289159334.04281235 0 -289159334.04281235 637966754.35472488 0 0 0 0 62497020.089726806 -15973315.072834492 0 -15973315.072834492 -46613603.578842163 0 0 0 0 2363014.7518795189 407686.47886760347 0 407686.47886760347 -1445214.8810978085 0 0 0 0 7452639.3470925093 134734914.26410198 0 134734914.26410198 40984253.838256836 0 0 0 0 -316485016.19247246 -36452397.874283791 0 -36452397.874283791 1128801.0069961548 0 0 0 0 -282010900.22251892 91572367.112506866 0 91572367.112506866 258599301.50241089 0 0 0 0 153922407.82014608 -58588147.871547699 0 -58588147.871547699 188958560.6541748 0 0 0 0 42231015.214034557 75762351.466150284 0 75762351.466150284 -76579516.109237671 0 0 0 0 88888971.080540657 191039036.40121841 0 191039036.40121841 178046159.64574301 0 0 0 0 -211207063.4388752 232530694.55968285 0 232530694.55968285 65499721.889875412 0 0 0 0 172205429.35859108 -40703713.856447697 0 -40703713.856447697 46501230.500095367 0 0 0 0 213826028.73859406 121793607.12491226 0 121793607.12491226 12910939.796067238 0 0 0 0 465511977.08015728 176991915.42253494 0 176991915.42253494 202843490.170681 0 0 0 0 347757597.17215443 -105098222.52356529 0 -105098222.52356529 307334243.00471497 0 0 0 0 465469274.23508281 -182892176.6482136 0 -182892176.6482136 91679099.373641968 0 0 0 0 370762378.5646534 -43949032.254508972 0 -43949032.254508972 37299053.874754906 0 0 0 0 287262293.79142809 -124629063.51347709 0 -124629063.51347709 -36198545.145282745 0 0 0 0 311059659.79998684 -30509686.443012238 0 -30509686.443012238 -85801044.965156555 0 0 0 0 1104499.3719063066 459163.74833373725 0 459163.74833373725 118603.50160017237 0 0 0 0 110130159.77600956 -104226362.76793861 0 -104226362.76793861 -52120643.940769196 0 0 0 0 13535376.618778229 -26503825.451803207 0 -26503825.451803207 -53020520.82257843 0 0 0 0 1044033.5410756748 3980654.1863783076 0 3980654.1863783076 5306867.7607067078 0 0 0 0 -4516721.9347114563 6307223.1847686768 0 6307223.1847686768 3412525.5317230225 0 0 0 0 4773284.4129494634 9607371.8940508999 0 9607371.8940508999 9569961.0261089802 0 0 0 0 -5197144.7623639107 25079716.667431831 0 25079716.667431831 25235680.519939423 0 0 0 0 6678799.0724420547 123592149.85743141 0 123592149.85743141 -81263819.977867126 0 0 0 0 12927454.420743108 23910201.416772842 0 23910201.416772842 17312384.240066528 0 0 0 0 4099773.8763366342 17111756.974457741 0 17111756.974457741 12329492.631450653 0 0 0 0 4483618.1160834432 25219370.86107254 0 25219370.86107254 7830731.6544647217 0 0 0 0 9191229.4492455237 12081461.305831481 0 12081461.305831481 12041288.630793482 0 0 0 0 -55635526.58615303 -60621952.582292557 0 -60621952.582292557 57364108.299043655 0 0 0 0 -11270800.593540192 84625093.600294113 0 84625093.600294113 117920917.91862869 0 0 0 0 117809469.96936297 -15260100.749543667 0 -15260100.749543667 4685835.3592758179 0 0 0 0 116561446.72227454 -49164150.358049393 0 -49164150.358049393 210120754.03934097 0 0 0 0 347472274.58734882 -230106474.92336968 0 -230106474.92336968 336751672.28543472 0 0 0 0 236338867.46431732 -60627403.496181488 0 -60627403.496181488 185604122.72967911 0 0 0 0 349422882.00912189 -176517663.13208961 0 -176517663.13208961 89530291.572050095 0 0 0 0 256083140.19099617 -111952673.25603867 0 -111952673.25603867 59352205.75889039 0 0 0 0 239036695.23640537 -44487928.612007141 0 -44487928.612007141 62835558.219528198 0 0 0 0 294134448.88951588 -83674871.843769073 0 -83674871.843769073 -20604398.262191772 0 0 0 0 319137678.69818306 -100842226.2150116 0 -100842226.2150116 -26373617.087739944 0 0 0 0 333772867.64765215 -100767444.22561407 0 -100767444.22561407 -54256797.481887817 0 0 0 0 341102901.69923782 -103346643.54600906 0 -103346643.54600906 -53628782.385025024 0 0 0 0 297592632.43410349 -61481227.479489088 0 -61481227.479489088 -56793590.97983551 0 0 0 0 339466465.8959322 -83252378.693721771 0 -83252378.693721771 -72049454.229927063 0 0 0 0 294633649.22437286 -79360382.470788956 0 -79360382.470788956 -44848089.246360779 0 0 0 0 234377951.00883102 -51415523.813381195 0 -51415523.813381195 -47095383.489322662 0 0 0 0 189449975.62849236 7116598.7891578674 0 7116598.7891578674 -29234620.928787231 0 0 0 0 171089648.3334713 -47037059.087425232 0 -47037059.087425232 11168996.542175293 0 0 0 0 171071630.13952667 -48333327.84463954 0 -48333327.84463954 -35732576.531028748 0 0 0 0 776189.16015322041 -4286695.1059045754 0 -4286695.1059045754 12975777.412505805 0 0 0 0 32725970.625069618 -46574488.919036865 0 -46574488.919036865 8299516.1933879852 0 0 0 0 193692138.8025589 4931183.2536239624 0 4931183.2536239624 -62822321.090515137 0 0 0 0 -27320478.425973415 -1242526.5949554443 0 -1242526.5949554443 23564683.453910828 0 0 0 0 -18030394.539744616 -2828863.4942157269 0 -2828863.4942157269 21064950.196582794 0 0 0 0 -20470907.010167122 8731428.4738426208 0 8731428.4738426208 31254606.085346222 0 0 0 0 -18934222.151381493 5552064.6221618652 0 5552064.6221618652 24048131.400259018 0 0 0 0 -10302592.857820034 3549507.5697879791 0 3549507.5697879791 6668714.9063568115 0 0 0 0 -27112219.039038658 143935.25325584412 0 143935.25325584412 29744980.582126617 0 0 0 0 -22151008.006251812 -5216122.214630127 0 -5216122.214630127 9388396.8681526184 0 0 0 0 -26805691.935959816 24862821.540565491 0 24862821.540565491 16032695.97800827 0 0 0 0 -66601059.772150993 -11176034.725866318 0 -11176034.725866318 23436854.386514664 0 0 0 0 2037894.453182782 -6255300.4197663777 0 -6255300.4197663777 17582881.632263809 0 0 0 0 110130706.22812748 -134134985.89498901 0 -134134985.89498901 42678729.499515533 0 0 0 0 745506.75013655424 1535796.0252535511 0 1535796.0252535511 -51673.064444437623 0 0 0 0 -8300691.758964777 -1436746.1927623749 0 -1436746.1927623749 6988462.3147277832 0 0 0 0 59001408.759615898 23621145.907079697 0 23621145.907079697 -20618198.792128563 0 0 0 0 2917134.4194005989 -7484298.6268186159 0 -7484298.6268186159 20073347.527038276 0 0 0 0 -35440802.290694237 -82538134.033306122 0 -82538134.033306122 56816316.410359383 0 0 0 0 5967866.1997560617 -8913396.0643903688 0 -8913396.0643903688 -11183485.974487588 0 0 0 0 -4680185.3014221191 -30387835.102592468 0 -30387835.102592468 -68497151.274806023 0 0 0 0 -23567961.614720345 -45895379.728988647 0 -45895379.728988647 75856067.894447327 0 0 0 0 7465469.6830968857 -121023116.71651077 0 -121023116.71651077 103278920.10272598 0 0 0 0 27244574.82439661 7950659.5982723236 0 7950659.5982723236 -12474855.52016449 0 0 0 0 92472147.944406509 -53675784.323860168 0 -53675784.323860168 10318996.906887054 0 0 0 0 63865688.00655365 -62987070.841264725 0 -62987070.841264725 30241967.124685287 0 0 0 0 72534496.485044479 -48041121.731374741 0 -48041121.731374741 5598880.6043519974 0 0 0 0 -382577.19441182353 -2078193.6478089765 0 -2078193.6478089765 -20176.74985435605 0 0 0 0 -1056841.4090914726 -37086572.218068123 0 -37086572.218068123 25268360.083473206 0 0 0 0 19813001.919717222 -27197448.077199571 0 -27197448.077199571 26011582.211696539 0 0 0 0 -60801719.079946995 86847836.071878433 0 86847836.071878433 28613203.686256409 0 0 0 0 53201803.257996321 -145057028.12735176 0 -145057028.12735176 -36155191.37490654 0 0 0 0 178905807.02112865 -244548042.90135956 0 -244548042.90135956 45186221.537133217 0 0 0 0 -49875334.514995575 -117290161.09845829 0 -117290161.09845829 60568655.735176086 0 0 0 0 22817835.547898967 -34005784.500109956 0 -34005784.500109956 41687335.166919187 0 0 0 0 98517846.68039608 -6520555.2509384155 0 -6520555.2509384155 -71396936.310012817 0 0 0 0 -47446185.843729973 -42492166.334795952 0 -42492166.334795952 56845621.707946777 0 0 0 0 1232886.8765583038 -12761262.596457481 0 -12761262.596457481 26299437.941051483 0 0 0 0 -46272676.297626495 -25351936.715190887 0 -25351936.715190887 114834249.45463562 0 0 0 0 3830378.3223026777 -5091354.9869431686 0 -5091354.9869431686 8660474.7584840059 0 0 0 0 -12936860.475768175 -4462005.0954387113 0 -4462005.0954387113 24553691.167447276 0 0 0 0 -14142217.718214989 -3025140.9327545166 0 -3025140.9327545166 39665857.867530823 0 0 0 0 -19072410.525238037 3882448.0897521973 0 3882448.0897521973 42755732.546504974 0 0 0 0 -18876598.991517022 -4939289.9496760182 0 -4939289.9496760182 50205900.680931635 0 0 0 0 3908282.2410182953 -84242047.398000717 0 -84242047.398000717 135112454.78241062 0 0 0 0 87944816.729537815 -81294588.553850472 0 -81294588.553850472 51438788.233970642 0 0 0 0 90145973.71043992 -130718756.91731226 0 -130718756.91731226 106566792.95547485 0 0 0 0 -58426365.037826538 -40476988.600845337 0 -40476988.600845337 67451810.518051744 0 0 0 0 -77262301.19944191 -1060597.6189632416 0 -1060597.6189632416 114181520.5613327 0 0 0 0 -74667077.849002838 -5675974.9725904465 0 -5675974.9725904465 121088657.93011284 0 0 0 0 -124433902.21668434 75236485.313146591 0 75236485.313146591 239242873.54122341 0 0 0 0 -35369654.268214226 -97169782.764162064 0 -97169782.764162064 206783398.77468491 0 0 0 0 -132374110.41949558 18069758.921585083 0 18069758.921585083 231380286.0300827 0 0 0 0 49383885.671556473 -193268394.10505581 0 -193268394.10505581 298284663.03973389 0 0 0 0 73481495.58820343 -189015600.35425186 0 -189015600.35425186 287738760.69921112 0 0 0 0 -114266485.85608864 -10211286.299045563 0 -10211286.299045563 433874493.14737511 0 0 0 0 -58683531.857027054 -26032587.850505829 0 -26032587.850505829 234996476.69935608 0 0 0 0 270327429.23526573 -248514136.38872147 0 -248514136.38872147 232558601.41389465 0 0 0 0 65920580.092749357 82521983.93066597 0 82521983.93066597 266576373.64209223 0 0 0 0 282474722.30331349 -84093434.249379337 0 -84093434.249379337 24959903.108459473 0 0 0 0 2451480.3512318237 -3443487.6410171012 0 -3443487.6410171012 2999389.8383789845 0 0 0 0 219298743.11870098 447208942.48620224 0 447208942.48620224 388162417.22266197 0 0 0 0 -55205931.380824089 -138422760.2355957 0 -138422760.2355957 685443642.46731567 0 0 0 0 106798693.49849319 -293005313.72471237 0 -293005313.72471237 515621179.52862167 0 0 0 0 199792618.04211235 -133098010.92603111 0 -133098010.92603111 74524714.079544067 0 0 0 0 71164143.068229198 71766410.754058838 0 71766410.754058838 80480577.343616486 0 0 0 0 50800540.276601791 -136744184.26740837 0 -136744184.26740837 416589094.58503342 0 0 0 0 31984892.492706776 -49051558.429839134 0 -49051558.429839134 136430450.74704552 0 0 0 0 26271090.46745646 -914491.30633068085 0 -914491.30633068085 72518492.319636345 0 0 0 0 21794192.367068112 1797883.8269548416 0 1797883.8269548416 91478765.919628143 0 0 0 0 31097123.49226892 -29095677.422533035 0 -29095677.422533035 192021545.48775482 0 0 0 0 23161421.9253482 32908158.808104515 0 32908158.808104515 30589292.524127483 0 0 0 0 45196072.583837733 43940215.759985805 0 43940215.759985805 35462832.483561516 0 0 0 0 29196263.463066578 10358345.366654396 0 10358345.366654396 22436923.839532852 0 0 0 0 50192380.509872243 14909797.90998584 0 14909797.90998584 16819157.431369781 0 0 0 0 4821931.3809130453 -6994907.017704891 0 -6994907.017704891 10989125.295473896 0 0 0 0 -22348573.848212004 2165239.918674469 0 2165239.918674469 58971105.911893845 0 0 0 0 2458770.4564395421 1652904.6092896499 0 1652904.6092896499 1822172.9320666827 0 0 0 0 119816935.48570967 -45184180.640087128 0 -45184180.640087128 -26241902.041358948 0 0 0 0 147739373.83322361 -3232865.8608980179 0 -3232865.8608980179 -38434872.024101257 0 0 0 0 197931977.23033667 -61948615.650976181 0 -61948615.650976181 -23480915.561843872 0 0 0 0 189440297.71553475 -6569750.4619877338 0 -6569750.4619877338 -38170402.924568176 0 0 0 0 46180246.210074425 34494169.093232393 0 34494169.093232393 14988096.544401869 0 0 0 0 19371963.423222929 10635674.504533708 0 10635674.504533708 31210823.846373558 0 0 0 0 44571877.064711273 12684605.615360066 0 12684605.615360066 9790085.9920482635 0 0 0 0 20868869.336950615 18937556.87234297 0 18937556.87234297 27756488.114511974 0 0 0 0 18345757.984398834 2976787.0909956098 0 2976787.0909956098 79905348.950136185 0 0 0 0 20486321.213270709 30795694.266860984 0 30795694.266860984 46506951.579470932 0 0 0 0 57013815.798798084 33097978.71932435 0 33097978.71932435 74799703.363832474 0 0 0 0 53817251.459320068 18682105.495517731 0 18682105.495517731 18634151.698256135 0 0 0 0 70194945.843236923 46429346.907952309 0 46429346.907952309 75045539.854961395 0 0 0 0 54842369.64679718 63762643.672051668 0 63762643.672051668 105988004.87976265 0 0 0 0 46052147.334112167 56457693.504769325 0 56457693.504769325 144261569.75835991 0 0 0 0 13537306.550613999 63144115.640385717 0 63144115.640385717 110781321.81832314 0 0 0 0 10290468.679708481 32488015.776168346 0 32488015.776168346 88043499.34515667 0 0 0 0 35830805.663696289 62587439.380034208 0 62587439.380034208 110725127.13738823 0 0 0 0 44579458.670420647 -7828503.3258132935 0 -7828503.3258132935 -122310939.28905201 0 0 0 0 -538949.93101560185 -1446974.8413439319 0 -1446974.8413439319 487623.4066959545 0 0 0 0 -36627841.173679635 -32383671.096920192 0 -32383671.096920192 63285185.993878886 0 0 0 0 53826859.765041351 38240151.894741058 0 38240151.894741058 130241815.91262436 0 0 0 0 56904451.060304165 99485720.793717384 0 99485720.793717384 235927553.86473894 0 0 0 0 45991199.316434383 29646234.306085825 0 29646234.306085825 166438325.66282845 0 0 0 0 -2159474.0972603108 -12448194.298478842 0 -12448194.298478842 24369593.834653363 0 0 0 0 -8799717.5480563641 -14925651.473320007 0 -14925651.473320007 19866678.662315369 0 0 0 0 -17295712.851816177 -37156630.336788177 0 -37156630.336788177 -19511919.036947906 0 0 0 0 -4486171.2823237181 -20186839.358985901 0 -20186839.358985901 13359456.286331177 0 0 0 0 -38808829.014515162 -28396399.6033535 0 -28396399.6033535 -19425994.576457977 0 0 0 0 -2748412.6162457829 -12940145.499252476 0 -12940145.499252476 15670107.435295664 0 0 0 0 21736860.855917566 4517061.0886182785 0 4517061.0886182785 22028430.479938507 0 0 0 0 9072985.4395919144 6264738.376543548 0 6264738.376543548 22186864.008211177 0 0 0 0 -21268342.245107651 -25108835.277011871 0 -25108835.277011871 -3793355.2356872559 0 0 0 0 -36076773.014070034 -33660541.102092743 0 -33660541.102092743 -25809936.717124939 0 0 0 0 -1407698.1700531445 -15155508.541674795 0 -15155508.541674795 7121865.6804568842 0 0 0 0 -17865311.548103333 -13692451.443595886 0 -13692451.443595886 25851875.696746826 0 0 0 0 -21608131.533989634 -37621568.261610284 0 -37621568.261610284 15709506.081863891 0 0 0 0 -8189490.0731550585 -22705885.681632612 0 -22705885.681632612 14575354.534165859 0 0 0 0 -28912.581981190015 -2983999.0730944648 0 -2983999.0730944648 4361787.1975283176 0 0 0 0 -223017.95890963078 -22482749.583442688 0 -22482749.583442688 9404205.811126709 0 0 0 0 -13741826.231113493 -14148962.642868042 0 -14148962.642868042 7773610.9291381836 0 0 0 0 -3487274.7680182108 -2928853.9574170522 0 -2928853.9574170522 7081469.7066807747 0 0 0 0 -49645211.328200817 -107329607.3623085 0 -107329607.3623085 -72583643.465393066 0 0 0 0 -16128765.798024476 -15560163.653060913 0 -15560163.653060913 9477563.4789505005 0 0 0 0 -8080420.7425959706 -14217147.942882538 0 -14217147.942882538 -2604999.5503845215 0 0 0 0 -55793.145232451847 -13150618.809710417 0 -13150618.809710417 -12850183.530847013 0 0 0 0 49009.946495443932 -8512979.4413455538 0 -8512979.4413455538 3525367.0399641469 0 0 0 0 5748456.8794884169 -14784670.102212228 0 -14784670.102212228 23326024.162389591 0 0 0 0 -14147927.197975993 -18298806.690547943 0 -18298806.690547943 18744041.43116188 0 0 0 0 -13112824.151624322 -22039789.099241257 0 -22039789.099241257 17190676.980163574 0 0 0 0 -1196961.8862611353 -89339747.097526789 0 -89339747.097526789 -70804023.436576843 0 0 0 0 -12506451.063695222 -16377712.471574783 0 -16377712.471574783 8000949.9573135376 0 0 0 0 -14789187.807180882 -18708909.727798462 0 -18708909.727798462 19177956.362791061 0 0 0 0 -99263697.288150787 -30888772.901922226 0 -30888772.901922226 21220720.971260071 0 0 0 0 16124987.47861433 -57333751.935396194 0 -57333751.935396194 -98054699.669181824 0 0 0 0 -57886312.448504031 -26847007.83795166 0 -26847007.83795166 55742850.035106659 0 0 0 0 -14730493.115249395 -16911169.271053314 0 -16911169.271053314 9259576.0742797852 0 0 0 0 -48752710.182586968 -43279941.395370483 0 -43279941.395370483 21921611.779985428 0 0 0 0 -15473911.26582443 -5981528.0308508873 0 -5981528.0308508873 14470202.147201538 0 0 0 0 5248815.1126648197 -11614752.501834378 0 -11614752.501834378 23426378.873244792 0 0 0 0 15703845.008811951 -42127308.076553345 0 -42127308.076553345 -88604147.871706009 0 0 0 0 -130527286.83223724 -191181917.18265343 0 -191181917.18265343 19058012.319381714 0 0 0 0 -38049836.259805679 -70565158.625621796 0 -70565158.625621796 222400150.2450943 0 0 0 0 28360581.74230957 -11001056.067648888 0 -11001056.067648888 118253163.58940125 0 0 0 0 -16923310.826864243 -111935681.07208443 0 -111935681.07208443 93377170.371166229 0 0 0 0 54195176.361268759 -54681023.277340889 0 -54681023.277340889 -128668906.77466965 0 0 0 0 -30670367.6739178 -41174512.860988602 0 -41174512.860988602 70721341.767865807 0 0 0 0 -124004614.05932248 -257045802.44765282 0 -257045802.44765282 -77611790.458772659 0 0 0 0 -8867663.9722642899 -7577625.5335254669 0 -7577625.5335254669 19460630.646419525 0 0 0 0 67463608.870545387 -20784983.664028168 0 -20784983.664028168 7916973.4993972778 0 0 0 0 -31182.97702753474 -44532.058847280219 0 -44532.058847280219 2117700.8577253819 0 0 0 0 5485371.8437815905 67458863.75053978 0 67458863.75053978 -78310707.360969543 0 0 0 0 152092616.60066795 -26446707.554336548 0 -26446707.554336548 -27714996.783737183 0 0 0 0 126921001.60744286 -87054474.559677124 0 -87054474.559677124 -28223454.038007736 0 0 0 0 57657903.621869504 -102070308.23179531 0 -102070308.23179531 -13080238.201389313 0 0 0 0 15963965.595315576 -37427762.377336025 0 -37427762.377336025 -27474108.42552948 0 0 0 0 23383212.133425146 -1908867.5934529305 0 -1908867.5934529305 125684082.74864578 0 0 0 0 162483839.67773438 21399339.448572159 0 21399339.448572159 -5000307.013759613 0 0 0 0 89663906.059811831 83113450.630306244 0 83113450.630306244 -36851280.316087723 0 0 0 0 3070171.2937360834 -8343471.0699674934 0 -8343471.0699674934 18433297.380860686 0 0 0 0 -16461694.344411135 76258397.680124283 0 76258397.680124283 48599206.723384857 0 0 0 0 39620577.588866472 -158365360.97057724 0 -158365360.97057724 127973934.997509 0 0 0 0 213074065.86666459 383629365.21108317 0 383629365.21108317 434182577.81869888 0 0 0 0 644527.06765232608 -2429791.5349756777 0 -2429791.5349756777 8220079.8188832104 0 0 0 0 262348909.92070973 -71522453.223847389 0 -71522453.223847389 20277903.48809433 0 0 0 0 -55896481.087846756 55237899.891540527 0 55237899.891540527 475375004.72887772 0 0 0 0 -25664554.483019829 128378696.22982407 0 128378696.22982407 234653727.78858185 0 0 0 0 -108575295.83795595 7285718.7490367889 0 7285718.7490367889 256747399.69656372 0 0 0 0 -78718036.663970947 112667048.68108368 0 112667048.68108368 143682692.87997055 0 0 0 0 -51042955.106175303 34039470.550216675 0 34039470.550216675 287915285.86480713 0 0 0 0 31991852.632153511 222789573.11751556 0 222789573.11751556 393901905.97630119 0 0 0 0 18348275.096793175 82361623.98875618 0 82361623.98875618 175965578.89494324 0 0 0 0 -18050253.663523674 261267634.94974899 0 261267634.94974899 574513699.54896545 0 0 0 0 -18516402.212966561 334446015.88166642 0 334446015.88166642 671836554.90468216 0 0 0 0 -67865802.134962559 223870388.72128487 0 223870388.72128487 590501161.80600739 0 0 0 0 -25847560.606669426 222225345.40699768 0 222225345.40699768 473505943.62760288 0 0 0 0 -75970966.753946304 184470521.67381859 0 184470521.67381859 668789928.58446121 0 0 0 0 38787741.932145119 433328391.85979271 0 433328391.85979271 801851394.15444183 0 0 0 0 -51829369.422039032 127360367.25392914 0 127360367.25392914 1037280946.4285431 0 0 0 0 -45454036.282556534 200199119.58355522 0 200199119.58355522 644641007.75553894 0 0 0 0 -26869602.790283203 3705384.8071594238 0 3705384.8071594238 652340459.41765928 0 0 0 0 543346.2147808075 -15436757.466581345 0 -15436757.466581345 829532271.71954346 0 0 0 0 30166890.144003868 108783671.1344223 0 108783671.1344223 764752647.18026733 0 0 0 0 20882908.691124916 40776631.628541946 0 40776631.628541946 546532659.25012207 0 0 0 0 133834542.04442406 -138932522.04650116 0 -138932522.04650116 388075224.53767014 0 0 0 0 -19825121.426277161 93625212.473993301 0 93625212.473993301 392964845.0851593 0 0 0 0 112025635.20387459 -180919498.25750732 0 -180919498.25750732 547151126.88220215 0 0 0 0 269458974.12827301 -223894745.437397 0 -223894745.437397 213784022.93156433 0 0 0 0 103886149.44478035 -165890294.76915359 0 -165890294.76915359 603800242.95629883 0 0 0 0 158067595.74828529 -75864569.3971138 0 -75864569.3971138 497199824.26952362 0 0 0 0 145268010.51133347 -15696652.3332901 0 -15696652.3332901 943267589.14481735 0 0 0 0 144290478.79844666 -259586826.0820694 0 -259586826.0820694 863108791.22845459 0 0 0 0 274684925.13430786 -384258206.47943115 0 -384258206.47943115 986576578.38509369 0 0 0 0 262268330.47606754 -110507641.92946625 0 -110507641.92946625 574130116.31851196 0 0 0 0 51017039.416969299 10159918.588554382 0 10159918.588554382 1487532450.6196136 0 0 0 0 407620670.92644119 -251044362.24460602 0 -251044362.24460602 1660147994.5522423 0 0 0 0 13977994.335143089 306247107.59129906 0 306247107.59129906 1926731065.545723 0 0 0 0 536629556.04764009 927111160.16708374 0 927111160.16708374 1228328840.0475006 0 0 0 0 126215961.96431732 392837192.876194 0 392837192.876194 1038571800.8530312 0 0 0 0 -15089790.658485413 3939895.9901390076 0 3939895.9901390076 1277273612.9586029 0 0 0 0 14840606.625389099 441553194.93013 0 441553194.93013 1207564470.9101486 0 0 0 0 -241726756.78408813 -206845609.94281578 0 -206845609.94281578 1178171478.3989258 0 0 0 0 120806612.96080017 309109067.53471375 0 309109067.53471375 1740588599.8016815 0 0 0 0 -136273773.51360989 -118898966.74946213 0 -118898966.74946213 1366846696.820282 0 0 0 0 64577857.604919434 405627084.11820221 0 405627084.11820221 1722509899.4763451 0 0 0 0 1113581938.1230736 721028679.56784058 0 721028679.56784058 1596713097.3398285 0 0 0 0 1437682759.5390434 421105809.50382614 0 421105809.50382614 1336879076.5993347 0 0 0 0 -99071542.60150528 -15652491.427940369 0 -15652491.427940369 937436127.35040283 0 0 0 0 -43552314.511951447 -66967692.743423462 0 -66967692.743423462 691358749.27218628 0 0 0 0 36265940.550452232 -272271368.27859306 0 -272271368.27859306 699122856.0929718 0 0 0 0 -40275755.29624939 -193240845.21823883 0 -193240845.21823883 710367248.34582901 0 0 0 0 -19606490.169586182 -113293646.90814209 0 -113293646.90814209 896847063.28471375 0 0 0 0 -90560882.018463135 212437209.06037903 0 212437209.06037903 1148537741.868187 0 0 0 0 -92167896.027919769 43425597.60533905 0 43425597.60533905 1375071964.757782 0 0 0 0 -63320361.5641222 -205122627.96276665 0 -205122627.96276665 967707457.7056427 0 0 0 0 7565431.1538925171 148235284.32210541 0 148235284.32210541 1174408730.2264938 0 0 0 0 -109044155.75012875 -52301102.622049332 0 -52301102.622049332 1003235449.8752747 0 0 0 0 -124150996.64812899 106645674.94699001 0 106645674.94699001 952953922.87704468 0 0 0 0 -103509595.79855156 -38062443.257148743 0 -38062443.257148743 824454995.11935425 0 0 0 0 280929248.91092014 402210249.69019508 0 402210249.69019508 399711077.05533981 0 0 0 0 -111517896.77365303 138217464.20446396 0 138217464.20446396 905737441.72644043 0 0 0 0 -38014278.78453064 307380997.23065948 0 307380997.23065948 978257321.91437531 0 0 0 0 -85984504.185483932 174475440.87704849 0 174475440.87704849 1295369664.4482269 0 0 0 0 437798315.06368065 696975457.53477478 0 696975457.53477478 896855441.42912483 0 0 0 0 -768950.25428343192 1216405.435847424 0 1216405.435847424 4030376.6273326725 0 0 0 0 474297155.67246437 860828221.5733223 0 860828221.5733223 1314295412.0362711 0 0 0 0 -306825711.07610798 -313027469.11611366 0 -313027469.11611366 671794157.09357452 0 0 0 0 57078137.940963745 173252947.48432159 0 173252947.48432159 1312741507.8530874 0 0 0 0 291592827.21338844 256885598.68131638 0 256885598.68131638 1559972120.459198 0 0 0 0 176422962.62691498 -199965216.58538818 0 -199965216.58538818 -44552663.490219116 0 0 0 0 885783.86025719345 574599.38763844222 0 574599.38763844222 5580296.4375025481 0 0 0 0 54719998.381062508 162072447.44649124 0 162072447.44649124 -74367828.498947144 0 0 0 0 -196832139.12216568 31768314.851524353 0 31768314.851524353 346439.54744338989 0 0 0 0 27431499.849891663 83969653.638050079 0 83969653.638050079 330912628.81391525 0 0 0 0 134605511.36275887 159218761.81074429 0 159218761.81074429 277028288.02794266 0 0 0 0 641554.00601745397 -1704323.9481968284 0 -1704323.9481968284 3573047.2315534502 0 0 0 0 72695431.670710325 125348826.0827961 0 125348826.0827961 -31823017.104133606 0 0 0 0 -122392589.44093275 -44660682.408356667 0 -44660682.408356667 87576588.705924988 0 0 0 0 18794872.299615383 76837589.697033882 0 76837589.697033882 -47632818.088417053 0 0 0 0 9128775.3655597866 -4581074.7641603872 0 -4581074.7641603872 -9676998.2009504214 0 0 0 0 79292770.913493156 -49080814.880357742 0 -49080814.880357742 -35979972.790958405 0 0 0 0 15043104.623396397 76894960.973795891 0 76894960.973795891 -18868815.364822388 0 0 0 0 69971710.682445526 -22755980.263698578 0 -22755980.263698578 -69268087.981397152 0 0 0 0 12513952.304448128 -66124999.828075409 0 -66124999.828075409 -21260892.39012146 0 0 0 0 93881725.408117294 -49899740.255187988 0 -49899740.255187988 -30326667.875716209 0 0 0 0 64392335.792053223 -6294387.3362846375 0 -6294387.3362846375 44977997.592636108 0 0 0 0 33529635.678449631 -101228347.26156235 0 -101228347.26156235 305299793.10989761 0 0 0 0 58029371.574406385 -7523934.6986436844 0 -7523934.6986436844 299797048.91056824 0 0 0 0 177509859.99866104 -115392042.69091034 0 -115392042.69091034 99283913.19858551 0 0 0 0 128617758.28045464 3202719.0984954834 0 3202719.0984954834 175022216.94597244 0 0 0 0 162716261.49415541 -48835976.17940712 0 -48835976.17940712 -6261257.7557067871 0 0 0 0 884707059.62006879 -1174594347.2212968 0 -1174594347.2212968 2307395373.5307999 0 0 0 0 832348612.0923624 -1354106544.6391449 0 -1354106544.6391449 2018481164.8495483 0 0 0 0 3008741.7184326407 -1622597024.5522404 0 -1622597024.5522404 2356311759.8792648 0 0 0 0 1095824472.7710695 -2106648494.5776443 0 -2106648494.5776443 2569796903.3393631 0 0 0 0 1822000359.1976686 -1922150544.2013454 0 -1922150544.2013454 2601886700.7914124 0 0 0 0 1112084427.3496256 -1898014182.1008835 0 -1898014182.1008835 3411708826.7058182 0 0 0 0 -1629705.0408146391 -4208665716.9751968 0 -4208665716.9751968 3604810462.6500549 0 0 0 0 1594431398.2033386 -1882381899.0836182 0 -1882381899.0836182 2403133154.210289 0 0 0 0 1014393655.5425267 -1428283735.1432114 0 -1428283735.1432114 2334836159.6232452 0 0 0 0 698323046.89985752 -994002474.46266556 0 -994002474.46266556 1972496087.2746887 0 0 0 0 1199761950.810257 -1214224389.1772461 0 -1214224389.1772461 1590864290.7402878 0 0 0 0 651638715.23260999 -560210136.38860035 0 -560210136.38860035 1337194576.3107452 0 0 0 0 206206810.51431751 -574781454.85049438 0 -574781454.85049438 1690541697.5928917 0 0 0 0 742825670.25586796 -736540007.87690353 0 -736540007.87690353 1595152415.7593079 0 0 0 0 552571.1302781105 -76192040.466331482 0 -76192040.466331482 1640254053.4044647 0 0 0 0 525781877.16817045 -769154113.03003693 0 -769154113.03003693 1497473142.6715546 0 0 0 0 67742748.412353516 87564338.115158081 0 87564338.115158081 891763899.65282631 0 0 0 0 525356591.3210001 -498289218.28842354 0 -498289218.28842354 959775552.54032135 0 0 0 0 190932135.05701876 -55600249.992702484 0 -55600249.992702484 461278672.71895599 0 0 0 0 22387005.47648716 106598723.37527466 0 106598723.37527466 539968845.47080994 0 0 0 0 79591818.74441433 -48207978.084171295 0 -48207978.084171295 583563032.55757904 0 0 0 0 -41946380.125393867 -4196560.7481307983 0 -4196560.7481307983 655742562.33875179 0 0 0 0 379775598.35541534 -160079026.82481575 0 -160079026.82481575 646600971.25301361 0 0 0 0 117327696.87086606 158318795.51416779 0 158318795.51416779 588917516.51132965 0 0 0 0 378931462.96315384 -103887326.75421524 0 -103887326.75421524 185498307.5909729 0 0 0 0 196952355.19697189 -872819594.71393204 0 -872819594.71393204 1874821082.6028938 0 0 0 0 476751676.13392031 -1354729613.4805746 0 -1354729613.4805746 2320121159.1980591 0 0 0 0 -27699.786627928694 -23953269.541382845 0 -23953269.541382845 -2893010.9661865234 0 0 0 0 -256413245.98505306 -75879687.2564888 0 -75879687.2564888 2807765354.863554 0 0 0 0 2046471.19468103 -4585757.7099590153 0 -4585757.7099590153 9119727.1206587255 0 0 0 0 -8022669.4969293699 -20954167.480594635 0 -20954167.480594635 5802059.4644355774 0 0 0 0 -127201188.08773708 -182448617.59354019 0 -182448617.59354019 216876686.07979584 0 0 0 0 8099566.9717444023 -11682994.282651238 0 -11682994.282651238 15547071.829059958 0 0 0 0 -7907237.7360841725 -26586451.397547245 0 -26586451.397547245 7719224.4445266724 0 0 0 0 -1032952.3625449389 -19429329.243190765 0 -19429329.243190765 12331393.500999451 0 0 0 0 10595.357803406561 -29461186.750247955 0 -29461186.750247955 13396481.970710754 0 0 0 0 -13919812.971292265 -29331852.18082428 0 -29331852.18082428 29278169.712471008 0 0 0 0 -16236421.519751579 -18191307.617858887 0 -18191307.617858887 16735989.888771057 0 0 0 0 -1115032.6563678384 -10354676.216068268 0 -10354676.216068268 20206992.670120239 0 0 0 0 -28833608.295698918 -563058.72922515869 0 -563058.72922515869 16750880.391281128 0 0 0 0 -658419.08592244121 -341413.1639098376 0 -341413.1639098376 -378415.01599930227 0 0 0 0 7945592.7330040932 -41251298.648872375 0 -41251298.648872375 153519605.00587273 0 0 0 0 -182465703.59904623 -177141049.90441895 0 -177141049.90441895 135865064.07296753 0 0 0 0 -32893912.321692035 -21311292.353744507 0 -21311292.353744507 30162556.489124775 0 0 0 0 -10278.474138741032 -25818866.064048767 0 -25818866.064048767 107927234.92845535 0 0 0 0 90443759.602847844 -59468811.494094849 0 -59468811.494094849 -13340583.028503418 0 0 0 0 25746415.260181665 -34498593.600128174 0 -34498593.600128174 49342291.087178707 0 0 0 0 32141896.184982538 -44947776.421470642 0 -44947776.421470642 63148050.429603577 0 0 0 0 21130019.075455487 -30393777.599128723 0 -30393777.599128723 66876558.281272888 0 0 0 0 16195340.016165018 -32860077.503265381 0 -32860077.503265381 160337612.00085449 0 0 0 0 10043327.105125189 -18140996.055835724 0 -18140996.055835724 59726088.207138062 0 0 0 0 2542541.120727092 -17719697.679059029 0 -17719697.679059029 11801410.709449768 0 0 0 0 97265.286078986945 -3389065.7822936475 0 -3389065.7822936475 1289812.5336928368 0 0 0 0 8139775.8586939871 -25581969.596244812 0 -25581969.596244812 95703100.15536499 0 0 0 0 55396207.877820969 -2557269.6633415222 0 -2557269.6633415222 -11965504.487861633 0 0 0 0 2501761.7542451918 -637505.00463214517 0 -637505.00463214517 -2886834.114162147 0 0 0 0 40465461.487300098 38207417.740979671 0 38207417.740979671 -86141531.293045044 0 0 0 0 12438640.093486983 -7809841.5729023367 0 -7809841.5729023367 -11877584.690117523 0 0 0 0 -10630056.607225418 -20891701.805358887 0 -20891701.805358887 7570594.4932823181 0 0 0 0 -291335.03558553755 -17500138.313774109 0 -17500138.313774109 11784465.084990501 0 0 0 0 31262339.058884829 -115695797.46207833 0 -115695797.46207833 -110340379.50119019 0 0 0 0 11679188.922588306 -15095863.813369669 0 -15095863.813369669 14057127.8654477 0 0 0 0 192303733.43108273 77790363.291641235 0 77790363.291641235 -88096624.475912094 0 0 0 0 106064031.57133818 82605483.800588608 0 82605483.800588608 56626056.577819824 0 0 0 0 40465450.718842506 19344500.234313965 0 19344500.234313965 240368684.42350769 0 0 0 0 182941377.08151865 31338174.521499634 0 31338174.521499634 238178492.76802826 0 0 0 0 24545923.265029907 112014.85073852539 0 112014.85073852539 270164147.97088051 0 0 0 0 -10889358.192426682 18958287.486724854 0 18958287.486724854 273929444.36486435 0 0 0 0 -96199014.067516327 -24913291.726341248 0 -24913291.726341248 317002545.18340302 0 0 0 0 -91249800.1948843 -47173352.373081207 0 -47173352.373081207 38659484.743988037 0 0 0 0 4476500.646167716 -1195139.7466093823 0 -1195139.7466093823 -4100281.8375227451 0 0 0 0 9362253.4266986847 93877920.74798584 0 93877920.74798584 160638544.37135315 0 0 0 0 -96650110.912576675 74456864.231021881 0 74456864.231021881 16271003.220870972 0 0 0 0 -21577611.293073654 82439925.342330933 0 82439925.342330933 313203625.54417229 0 0 0 0 -18680457.794267654 69343278.962722778 0 69343278.962722778 309229657.93447304 0 0 0 0 1562062.5820127726 -2392591.5082526505 0 -2392591.5082526505 3102430.9448185563 0 0 0 0 11566603.313407898 -32130136.501464844 0 -32130136.501464844 291162044.51062775 0 0 0 0 -80431275.100279808 -25215745.04391098 0 -25215745.04391098 284453506.18841553 0 0 0 0 -127745308.86364746 -86493836.205272675 0 -86493836.205272675 82753899.270118713 0 0 0 0 5570284.5007670522 -41377692.476446629 0 -41377692.476446629 5227442.047088623 0 0 0 0 7974297.9425010793 -13095348.52515275 0 -13095348.52515275 16606880.602837414 0 0 0 0 -11777510.767115593 99955642.33997345 0 99955642.33997345 3090533.1396350861 0 0 0 0 11548562.899957597 -7086431.4863669872 0 -7086431.4863669872 -11660781.672675177 0 0 0 0 8666512.330496639 -26288238.178217888 0 -26288238.178217888 -1193656.7929534912 0 0 0 0 24931727.547929764 -29353960.388618469 0 -29353960.388618469 -616336.49176025391 0 0 0 0 1767627.8145024776 -31010865.658584595 0 -31010865.658584595 71641549.596328735 0 0 0 0 41640457.205795646 -49733880.416080475 0 -49733880.416080475 24221549.66633606 0 0 0 0 -19449722.405773163 -24754480.617500305 0 -24754480.617500305 23171451.893348694 0 0 0 0 -4976599.8426651955 -11838280.425605774 0 -11838280.425605774 22763525.075790405 0 0 0 0 15542172.982931256 -44183295.172412872 0 -44183295.172412872 5890872.8945159912 0 0 0 0 2908200.2382885218 1678967.411813736 0 1678967.411813736 21888973.404449463 0 0 0 0 16738054.174406201 18720855.679317474 0 18720855.679317474 47198863.404380798 0 0 0 0 4297308.0798411369 210022.12435913086 0 210022.12435913086 22330583.744781017 0 0 0 0 -119512184.22085094 -102068310.12851334 0 -102068310.12851334 -25490933.244987488 0 0 0 0 71446491.753634453 -51557508.934379578 0 -51557508.934379578 -53385968.02954483 0 0 0 0 5745644.9392872714 -7352462.0713604689 0 -7352462.0713604689 10514437.13518697 0 0 0 0 -6681265.6776514053 -5089020.2189254761 0 -5089020.2189254761 20615247.184448242 0 0 0 0 5979692.4879362378 -9957507.2205395103 0 -9957507.2205395103 15633031.481763989 0 0 0 0 -147332889.49974108 -149342229.45035172 0 -149342229.45035172 -13927174.033432007 0 0 0 0 -104386583.04550469 -18339941.846037865 0 -18339941.846037865 72137633.883224487 0 0 0 0 38072747.295647621 -50133276.214120865 0 -50133276.214120865 228141243.67056274 0 0 0 0 8626965.4954147339 39643354.772731781 0 39643354.772731781 24411930.649074554 0 0 0 0 -53119811.828773499 656495.61422729492 0 656495.61422729492 -17484212.776320934 0 0 0 0 -27695897.109881401 -75430512.887043953 0 -75430512.887043953 144366919.98509216 0 0 0 0 24539871.868339539 -14383347.196624756 0 -14383347.196624756 332106171.19929504 0 0 0 0 4661691.751616478 53852155.313819885 0 53852155.313819885 161908043.61523342 0 0 0 0 65595156.732589245 93702329.848938942 0 93702329.848938942 230779730.96047211 0 0 0 0 24119367.488334179 38194460.005535126 0 38194460.005535126 439786539.02818036 0 0 0 0 86042670.975816727 941094.49785995483 0 941094.49785995483 437797267.92024231 0 0 0 0 66336269.398534775 -91061726.355781555 0 -91061726.355781555 221529700.27750397 0 0 0 0 -41495592.313138485 98999446.095088005 0 98999446.095088005 943096422.98459625 0 0 0 0 836051.47914119437 -304738.02335001528 0 -304738.02335001528 1022234.7555849925 0 0 0 0 40797916.173848152 74319918.05194664 0 74319918.05194664 528297390.83460999 0 0 0 0 -69268098.905533791 69448386.045894623 0 69448386.045894623 533494427.47200012 0 0 0 0 -113546755.66326237 10228103.942481995 0 10228103.942481995 464702693.16532898 0 0 0 0 -42765573.875167847 101972384.0407753 0 101972384.0407753 516744280.19934082 0 0 0 0 -13217926.403091431 110879945.646698 0 110879945.646698 664565091.05395126 0 0 0 0 917972.13330352306 124150264.46721983 0 124150264.46721983 437047937.96429443 0 0 0 0 -73868171.6039505 -4927381.6604232788 0 -4927381.6604232788 540340796.2062149 0 0 0 0 -73392501.438513756 3269655.7899589539 0 3269655.7899589539 733351178.6177578 0 0 0 0 -45160733.965945244 -29874313.980558395 0 -29874313.980558395 673689824.70988464 0 0 0 0 2177157.3858608827 -2027601.371447131 0 -2027601.371447131 2204375.387552157 0 0 0 0 -95302678.453123093 62356206.32207489 0 62356206.32207489 807364897.53549957 0 0 0 0 59299474.505628109 -170889376.77319336 0 -170889376.77319336 673815028.8929348 0 0 0 0 283504441.62159586 -614747350.55645752 0 -614747350.55645752 1665658709.3386097 0 0 0 0 1463372.1575408615 -1326796.3155080825 0 -1326796.3155080825 1873600.0798207521 0 0 0 0 116974351.41564214 -83260128.693571091 0 -83260128.693571091 784371383.23886108 0 0 0 0 121002975.2838335 -288559315.57139206 0 -288559315.57139206 554072009.80316734 0 0 0 0 -9482805.6883829236 -64077953.373707294 0 -64077953.373707294 422464487.65787506 0 0 0 0 -26344321.703390121 -111641710.28375244 0 -111641710.28375244 630690941.91419029 0 0 0 0 -7462879.7735209465 -92889674.127990723 0 -92889674.127990723 403860647.17641449 0 0 0 0 14669917.422540307 19058140.168898106 0 19058140.168898106 420698832.05895233 0 0 0 0 -40942461.528897762 -34868863.936328888 0 -34868863.936328888 423551927.61441422 0 0 0 0 -20733720.488861561 -88404280.8938694 0 -88404280.8938694 505399492.92585754 0 0 0 0 9169238.1891889572 -101143551.31460571 0 -101143551.31460571 461936418.010849 0 0 0 0 10593349.705709457 -93160053.278526306 0 -93160053.278526306 358664209.55620193 0 0 0 0 -112463004.21462297 5200517.2688426971 0 5200517.2688426971 385744080.10092354 0 0 0 0 -55079635.681916177 -94443990.158887863 0 -94443990.158887863 446828299.47716522 0 0 0 0 -50275486.894785374 -81155032.836883545 0 -81155032.836883545 458453422.52083588 0 0 0 0 -67627137.695631981 -89002800.268051147 0 -89002800.268051147 467203606.93190765 0 0 0 0 8860478.274374485 -70208614.777297974 0 -70208614.777297974 467947956.47677994 0 0 0 0 -60929906.745055676 -74413458.813867569 0 -74413458.813867569 482211543.96812439 0 0 0 0 36887992.09027189 -156948917.55558324 0 -156948917.55558324 388111160.05268097 0 0 0 0 44557525.898535132 -101788233.49075294 0 -101788233.49075294 430494342.64672089 0 0 0 0 42387745.82290554 -66286497.553085327 0 -66286497.553085327 393417987.43001175 0 0 0 0 56198290.71998167 -22616308.090461731 0 -22616308.090461731 439108581.45217133 0 0 0 0 -22518963.660006166 -26322895.714235306 0 -26322895.714235306 442274170.13072968 0 0 0 0 9505630.1889200211 31986535.683437347 0 31986535.683437347 546772964.54570198 0 0 0 0 78345462.908226013 47682954.374828339 0 47682954.374828339 268583952.22962189 0 0 0 0 86780047.86995101 15749517.244009018 0 15749517.244009018 385027753.35849762 0 0 0 0 104823363.64086476 -51429024.15230608 0 -51429024.15230608 335489777.65380096 0 0 0 0 123575033.92636132 -27412249.147220612 0 -27412249.147220612 294530978.53560257 0 0 0 0 103434898.58553553 -62221594.878986359 0 -62221594.878986359 274262718.68269968 0 0 0 0 81388700.451002598 -96338534.02967453 0 -96338534.02967453 112163255.68193436 0 0 0 0 95038567.454012752 10607802.397432327 0 10607802.397432327 79200681.437309265 0 0 0 0 159625881.82311511 -127759593.30961227 0 -127759593.30961227 167086792.97594833 0 0 0 0 158849947.33317137 -258761712.48497009 0 -258761712.48497009 230015707.93576813 0 0 0 0 263389740.35509205 -234680745.46470642 0 -234680745.46470642 81855711.460586548 0 0 0 0 114161036.23981449 -260322419.6900425 0 -260322419.6900425 83321611.784011841 0 0 0 0 225814687.0367173 -130075232.72982597 0 -130075232.72982597 -57019709.412734985 0 0 0 0 435520903.06059241 -237179934.95547295 0 -237179934.95547295 -39144937.129692078 0 0 0 0 -2494976.8526590597 2722611.0929423273 0 2722611.0929423273 5681390.7353372127 0 0 0 0 -27407505.119400024 33506715.351959229 0 33506715.351959229 -18355013.335006714 0 0 0 0 -51211427.430379391 23276992.873565674 0 23276992.873565674 -13585910.237823486 0 0 0 0 -786172.68539862661 -225392.5718870312 0 -225392.5718870312 2680301.7940179855 0 0 0 0 129202613.77354093 -126525140.98388958 0 -126525140.98388958 -73613773.682861328 0 0 0 0 239495015.1547184 -312142066.92050934 0 -312142066.92050934 29407234.24464035 0 0 0 0 100775001.94748163 -64071691.651420593 0 -64071691.651420593 88259707.304290771 0 0 0 0 416048929.36822766 -259402431.98815525 0 -259402431.98815525 112113348.84344482 0 0 0 0 -159338.78756104124 -180801.76016575797 0 -180801.76016575797 2002524.0077531338 0 0 0 0 169174885.85684204 -191742091.89495087 0 -191742091.89495087 562932216.1047821 0 0 0 0 12972461.794721538 59541487.16413933 0 59541487.16413933 248570675.46520996 0 0 0 0 12473741.56566155 -195259363.80115509 0 -195259363.80115509 363497132.53200912 0 0 0 0 154276368.1952498 -154580286.56027222 0 -154580286.56027222 366190725.10951996 0 0 0 0 214009142.47521532 -72734636.385047913 0 -72734636.385047913 311764322.6910553 0 0 0 0 127580954.27805972 -67554164.788158417 0 -67554164.788158417 346574288.14579391 0 0 0 0 103059993.54844347 -83570271.794846058 0 -83570271.794846058 368457446.03678894 0 0 0 0 97410234.157168135 -126796576.80192852 0 -126796576.80192852 362257238.96162415 0 0 0 0 70587396.645576179 -88877271.822990417 0 -88877271.822990417 381115138.75650406 0 0 0 0 83271298.937493622 -49190639.136188507 0 -49190639.136188507 339197419.339077 0 0 0 0 69504836.154657066 -74445943.055114746 0 -74445943.055114746 401877026.1913147 0 0 0 0 92990683.852512091 -73428012.244693756 0 -73428012.244693756 391516355.74390411 0 0 0 0 113192636.42903614 -110274838.42939663 0 -110274838.42939663 386709544.41693878 0 0 0 0 65717059.355234921 -132623668.80764771 0 -132623668.80764771 364891964.69782639 0 0 0 0 33734553.642713487 -76588935.930183411 0 -76588935.930183411 398250328.7527771 0 0 0 0 -2422214.4014553139 2781623.3712080717 0 2781623.3712080717 3839303.9631896913 0 0 0 0 -9999912.5852604508 48080553.185077667 0 48080553.185077667 -54522794.61749649 0 0 0 0 -26604046.48521781 23333413.530304909 0 23333413.530304909 -39426689.008216858 0 0 0 0 -15556885.578147911 28996906.536621094 0 28996906.536621094 -12701310.025169373 0 0 0 0 -30829239.701372787 30369075.957906723 0 30369075.957906723 -12073375.67199707 0 0 0 0 -55451524.709172249 348052.34735488892 0 348052.34735488892 7962528.8464698792 0 0 0 0 -39312838.981040716 45495710.325054169 0 45495710.325054169 -12513035.149749756 0 0 0 0 -47106022.502906442 19325123.933544159 0 19325123.933544159 -40800319.902168274 0 0 0 0 -106102640.6030302 -9242009.7857246399 0 -9242009.7857246399 -48899301.792269707 0 0 0 0 -177214287.32125938 230787867.9630518 0 230787867.9630518 803411766.76771545 0 0 0 0 490680.11176076531 -1392984.4614244401 0 -1392984.4614244401 3357516.2653593719 0 0 0 0 -134714830.82218933 -237066111.93205261 0 -237066111.93205261 480572332.71800232 0 0 0 0 -1402120.373469858 1083957.4435022175 0 1083957.4435022175 2278178.5202780515 0 0 0 0 -74690460.182323217 62996624.998176575 0 62996624.998176575 -69999645.743549347 0 0 0 0 -170465131.1798985 -111137848.30285645 0 -111137848.30285645 1105180424.7582016 0 0 0 0 -109699879.98718333 172979025.81407547 0 172979025.81407547 60411172.064674377 0 0 0 0 -311154159.32464027 -142791858.82757568 0 -142791858.82757568 1204038161.6598434 0 0 0 0 117736318.56492853 259645354.29134369 0 259645354.29134369 -492843632.09042358 0 0 0 0 139798204.98738956 14800078.354705811 0 14800078.354705811 1194643468.5936031 0 0 0 0 -129671821.78086567 -184788514.72130585 0 -184788514.72130585 1048196111.516674 0 0 0 0 -2705197.5108974921 2083772.7107036263 0 2083772.7107036263 1655383.1262637004 0 0 0 0 -124229206.13917327 59062353.574033737 0 59062353.574033737 162515379.91409302 0 0 0 0 64162777.093573093 146117099.14633942 0 146117099.14633942 -53639529.520278931 0 0 0 0 -56300821.696264088 -33456463.382401943 0 -33456463.382401943 -145447057.65922546 0 0 0 0 161430342.98583031 -36507210.12871933 0 -36507210.12871933 170417096.65655184 0 0 0 0 154223244.17692381 -179948638.0027523 0 -179948638.0027523 171080264.87530518 0 0 0 0 122580607.5156945 -135801733.15676498 0 -135801733.15676498 260397483.07798386 0 0 0 0 182051780.12020186 -195933959.92583466 0 -195933959.92583466 296416096.76277733 0 0 0 0 136750048.54295415 -104058077.84569931 0 -104058077.84569931 253859272.335495 0 0 0 0 122394640.98242116 -150045356.49111176 0 -150045356.49111176 379448379.29056549 0 0 0 0 -117843249.57710713 -173252795.19211578 0 -173252795.19211578 541344474.06001663 0 0 0 0 124490434.91118431 -258912275.18020248 0 -258912275.18020248 476259661.14245987 0 0 0 0 504878491.18217349 -355291238.38807487 0 -355291238.38807487 352653100.70585632 0 0 0 0 15875492.388684735 -363645994.40050316 0 -363645994.40050316 798421317.14189148 0 0 0 0 -210825043.64823568 110856234.71427536 0 110856234.71427536 730766003.1891284 0 0 0 0 4154048.9669560893 -5594406.0537836105 0 -5594406.0537836105 7132705.5944420993 0 0 0 0 240920511.64796388 -608110526.20157433 0 -608110526.20157433 722656320.36936522 0 0 0 0 133469455.72143167 -377123812.25953865 0 -377123812.25953865 237617203.63220596 0 0 0 0 30610258.828493834 -106588876.96572876 0 -106588876.96572876 349759393.50141907 0 0 0 0 23606813.586520977 -62849026.204813957 0 -62849026.204813957 821140645.58637238 0 0 0 0 255090632.32262066 125813643.98140907 0 125813643.98140907 421945338.69634247 0 0 0 0 200526728.15493357 -176188163.59725571 0 -176188163.59725571 45985483.47869873 0 0 0 0 168048622.9986248 -288141603.66476059 0 -288141603.66476059 323147761.83176804 0 0 0 0 172221341.83639836 -357196203.29978752 0 -357196203.29978752 224226985.37908936 0 0 0 0 537832899.99164128 -389304501.3676281 0 -389304501.3676281 6898802.6695480347 0 0 0 0 -32950019.13960129 -56247638.838319778 0 -56247638.838319778 71035152.089103699 0 0 0 0 -270614734.67161322 -141012748.39343834 0 -141012748.39343834 130483618.54193497 0 0 0 0 7701938.3547517145 -13086823.313088745 0 -13086823.313088745 19781407.95786804 0 0 0 0 -182211926.41529107 -238441069.28869534 0 -238441069.28869534 -32176508.684207916 0 0 0 0 -53173762.915903807 -6953792.3873920441 0 -6953792.3873920441 -3557222.6464006901 0 0 0 0 -39029055.148627877 -7927183.5659332275 0 -7927183.5659332275 -129939372.28369141 0 0 0 0 -44076043.494273514 -7228635.6912250519 0 -7228635.6912250519 145976384.04392242 0 0 0 0 -136136433.79617786 150243575.07681656 0 150243575.07681656 61784637.178192139 0 0 0 0 -212900898.17722273 116142629.41607952 0 116142629.41607952 236554977.25825882 0 0 0 0 -193056096.78259122 41193326.139526367 0 41193326.139526367 311605273.12400818 0 0 0 0 -182152323.90059042 15960055.180643082 0 15960055.180643082 361232938.1289978 0 0 0 0 -88523285.267587602 78025755.248214722 0 78025755.248214722 198647337.05284882 0 0 0 0 -108223556.10110569 31110916.314193726 0 31110916.314193726 191238884.57463837 0 0 0 0 -126600011.0031867 74990403.567157745 0 74990403.567157745 217543530.43045807 0 0 0 0 -97280437.45985508 33859288.644363403 0 33859288.644363403 261122328.10070038 0 0 0 0 5574395.7455881834 58084031.856357574 0 58084031.856357574 283423873.890625 0 0 0 0 6593642.0880399942 51340430.791072845 0 51340430.791072845 196171737.50113297 0 0 0 0 100090699.36806107 97837129.140117645 0 97837129.140117645 223386172.37554932 0 0 0 0 73147727.280491114 -2619065.4839344025 0 -2619065.4839344025 181847219.10652161 0 0 0 0 30007973.661542058 46908622.342861176 0 46908622.342861176 125372020.32904053 0 0 0 0 55643935.26792407 -12157932.62305069 0 -12157932.62305069 416267142.03992462 0 0 0 0 45564754.009647325 -193557845.2960875 0 -193557845.2960875 250183147.81941223 0 0 0 0 -141148603.05485335 116990363.80641508 0 116990363.80641508 331683531.48789978 0 0 0 0 105152913.53877378 199664195.03305817 0 199664195.03305817 325450125.04500961 0 0 0 0 182954106.95854712 73481059.251773834 0 73481059.251773834 221255633.0778389 0 0 0 0 41125073.394257545 120051230.56564713 0 120051230.56564713 379110588.33541489 0 0 0 0 2744297.6652604127 1951115.244718045 0 1951115.244718045 -1393153.0074586868 0 0 0 0 306848506.23020256 149365735.98976517 0 149365735.98976517 31788878.987442017 0 0 0 0 538144.25294156047 570493.98347830772 0 570493.98347830772 816012.11481657624 0 0 0 0 83910610.595742285 195342165.96204758 0 195342165.96204758 380500280.80786324 0 0 0 0 106352721.27539957 5563726.7972621918 0 5563726.7972621918 292512168.8862915 0 0 0 0 19071267.232853055 72575795.665161133 0 72575795.665161133 148923814.68855286 0 0 0 0 111170567.7841083 128119482.78794301 0 128119482.78794301 118544944.02352905 0 0 0 0 59412115.090769768 61131850.013460159 0 61131850.013460159 31866847.432315826 0 0 0 0 15194414.497993946 16708878.121030807 0 16708878.121030807 512615.35403060913 0 0 0 0 5466453.5151330428 2026194.2979358658 0 2026194.2979358658 -8360743.7413504124 0 0 0 0 118751084.74556506 32512589.89749527 0 32512589.89749527 28629876.158418417 0 0 0 0 9198004.3492305856 9474145.0787996463 0 9474145.0787996463 7653532.1164434999 0 0 0 0 15877728.934745193 16201660.963077545 0 16201660.963077545 596831.33762979507 0 0 0 0 19607157.827766538 19260809.747587204 0 19260809.747587204 2264439.8782310486 0 0 0 0 76220960.259005785 98296572.819261551 0 98296572.819261551 36436326.128986359 0 0 0 0 989842.26141104149 4695146.4595101476 0 4695146.4595101476 -14810706.590573326 0 0 0 0 23983333.520440221 25403006.019813538 0 25403006.019813538 3036137.9813594818 0 0 0 0 15378594.047916573 29207538.56602037 0 29207538.56602037 21620487.865913391 0 0 0 0 10871634.677742183 22288821.35667038 0 22288821.35667038 28512051.515766144 0 0 0 0 2821446.0230354993 14745285.241267242 0 14745285.241267242 41165910.505352646 0 0 0 0 -9454040.0469369888 59841698.459604263 0 59841698.459604263 -31337103.440673828 0 0 0 0 28649182.559850216 2419271.3817710876 0 2419271.3817710876 24027420.594596863 0 0 0 0 -14530077.142144203 93124617.953907013 0 93124617.953907013 40485906.796232224 0 0 0 0 1262291.3080063807 14574156.008293606 0 14574156.008293606 -12294458.684708476 0 0 0 0 14891101.223525885 20346778.554655552 0 20346778.554655552 16672825.158836365 0 0 0 0 33144785.288981915 24370012.710292816 0 24370012.710292816 3183285.8621730804 0 0 0 0 2500407.7954595587 7982790.1233637109 0 7982790.1233637109 26252986.213129923 0 0 0 0 40639878.375257969 26338030.116384506 0 26338030.116384506 71988748.378753662 0 0 0 0 -13250133.386086464 38231977.032810211 0 38231977.032810211 -6268705.585647583 0 0 0 0 -133915769.46144521 80800307.996107101 0 80800307.996107101 54055284.654090881 0 0 0 0 -5076912.9155855179 77195072.307712555 0 77195072.307712555 145928327.50624084 0 0 0 0 -74458507.712043285 16913469.458972931 0 16913469.458972931 140095877.35719585 0 0 0 0 -77435660.964396715 7457327.2223491669 0 7457327.2223491669 241635822.10999298 0 0 0 0 -14315434.987825155 98342561.117562294 0 98342561.117562294 250217345.17922211 0 0 0 0 1158780.0424272744 2824121.7370259091 0 2824121.7370259091 9034197.8882626444 0 0 0 0 -93987878.027490139 -94269746.297002792 0 -94269746.297002792 250241628.30665588 0 0 0 0 -80512949.149782181 -69895872.660793304 0 -69895872.660793304 88039373.570747375 0 0 0 0 -156459745.4949379 -11753704.613883972 0 -11753704.613883972 267780130.0494957 0 0 0 0 -156989522.2679913 -35594776.595012307 0 -35594776.595012307 362295374.37363434 0 0 0 0 -27191856.908594608 1023367921.2739906 0 1023367921.2739906 225009956.56192017 0 0 0 0 656917968.8646841 152966389.65219498 0 152966389.65219498 -38949431.623783112 0 0 0 0 -342033725.54094315 54173899.791667938 0 54173899.791667938 281870805.35035706 0 0 0 0 5016747.8998842351 -10112779.511511292 0 -10112779.511511292 19148398.75419575 0 0 0 0 21812373.160527498 -135314812.91570663 0 -135314812.91570663 -73435849.647857666 0 0 0 0 36617671.835269928 35384472.821731567 0 35384472.821731567 57580462.696159363 0 0 0 0 36416690.341538429 57888679.853054047 0 57888679.853054047 131148230.15341949 0 0 0 0 -1516601.9051456451 68718957.97719574 0 68718957.97719574 47170040.459243774 0 0 0 0 -612858.7516374588 -13781186.029602051 0 -13781186.029602051 38718682.631183624 0 0 0 0 79989291.094500542 12910082.766792297 0 12910082.766792297 82397406.04882431 0 0 0 0 218041414.56563306 183639210.20186806 0 183639210.20186806 48376081.169952393 0 0 0 0 177071388.09009343 417018263.10111189 0 417018263.10111189 23489643.480644226 0 0 0 0 -277029011.40702629 167515575.32897949 0 167515575.32897949 72503646.128715515 0 0 0 0 -132522864.60289204 444543502.28108406 0 444543502.28108406 94281033.849441528 0 0 0 0 -15317355.892575264 84392663.085536957 0 84392663.085536957 33852970.726539612 0 0 0 0 -22236724.202077866 123694823.68228149 0 123694823.68228149 -186647538.77707863 0 0 0 0 -111807693.9218235 -44256467.91999054 0 -44256467.91999054 -65350805.186004639 0 0 0 0 -5065965.3172713909 2410394.4284487665 0 2410394.4284487665 -698023.47919124365 0 0 0 0 -279034496.23826861 -67834606.156904221 0 -67834606.156904221 307856655.17274475 0 0 0 0 -108900760.02382565 57834583.38007164 0 57834583.38007164 361620085.94174957 0 0 0 0 28015759.376922607 44178337.10250473 0 44178337.10250473 216677072.61081696 0 0 0 0 -181954250.53805637 244709493.24778748 0 244709493.24778748 420370216.70803833 0 0 0 0 326190847.04872966 -215820209.24517059 0 -215820209.24517059 -343757903.76180077 0 0 0 0 -561731078.77120972 104314667.30867767 0 104314667.30867767 693474609.91438293 0 0 0 0 210331809.22262907 131192211.68066025 0 131192211.68066025 -146071205.17456818 0 0 0 0 39453987.214588642 -415260967.82464218 0 -415260967.82464218 -640584117.9477005 0 0 0 0 1008651.5868396228 -1238335.7698012292 0 -1238335.7698012292 3820864.6954662353 0 0 0 0 92079578.845795631 96321417.731342316 0 96321417.731342316 -466781767.26086426 0 0 0 0 -45653489.877988338 207839315.23139572 0 207839315.23139572 -240172695.71986771 0 0 0 0 48142516.656184152 169445308.04100561 0 169445308.04100561 -181435241.15951538 0 0 0 0 44592823.184396617 42202541.902218997 0 42202541.902218997 -104307527.53067017 0 0 0 0 29701350.181892872 21760464.88501358 0 21760464.88501358 -124338239.62083435 0 0 0 0 33300358.80739212 -54622401.419174194 0 -54622401.419174194 6404030.0335731506 0 0 0 0 125801513.70260859 -120543798.72808075 0 -120543798.72808075 -87948420.987758636 0 0 0 0 35331506.786936402 -107304833.2855463 0 -107304833.2855463 -55764152.621589661 0 0 0 0 168868638.15966415 -26305593.37903595 0 -26305593.37903595 -111454782.28700638 0 0 0 0 185021819.82642877 100802625.8016212 0 100802625.8016212 -191485943.6673584 0 0 0 0 145609147.04124165 -58441120.498916626 0 -58441120.498916626 -141924125.95402145 0 0 0 0 303216072.32275695 -124366918.28170192 0 -124366918.28170192 -125722726.98703766 0 0 0 0 153736614.88291121 -141355426.24280167 0 -141355426.24280167 -45006085.730127335 0 0 0 0 152047170.0998826 -126629972.52325439 0 -126629972.52325439 -50444456.013002396 0 0 0 0 245856144.74120474 -251054307.70776176 0 -251054307.70776176 113052947.14903259 0 0 0 0 125939806.90811205 -173829148.7545166 0 -173829148.7545166 28053800.543136597 0 0 0 0 142818868.49387252 -116730696.417943 0 -116730696.417943 -91760533.07774353 0 0 0 0 51095866.984987259 -132812232.21455383 0 -132812232.21455383 -76030163.333164215 0 0 0 0 -139973525.2164675 -85189861.208812714 0 -85189861.208812714 -43600971.418586731 0 0 0 0 40884127.058751196 -103036729.14225864 0 -103036729.14225864 -95388124.153297424 0 0 0 0 8598731.0145341195 -15668739.223601047 0 -15668739.223601047 25220854.61591059 0 0 0 0 265242316.37418985 -769405506.67092133 0 -769405506.67092133 -128679074.63783264 0 0 0 0 -202096157.33606851 -230894848.07608795 0 -230894848.07608795 -18837012.147361755 0 0 0 0 38783228.413961411 -148967377.75259399 0 -148967377.75259399 -71590668.822685242 0 0 0 0 39459492.763262033 -107385334.00024796 0 -107385334.00024796 -22747771.34425354 0 0 0 0 -72450989.930500984 -73271866.534654617 0 -73271866.534654617 68376964.274169922 0 0 0 0 -5325546.2745785713 -133441050.0483017 0 -133441050.0483017 122027647.28862762 0 0 0 0 -56908122.838931203 -119674551.42354202 0 -119674551.42354202 -111334711.33901978 0 0 0 0 -1481449.3011529446 -34317860.064136505 0 -34317860.064136505 134174903.42723846 0 0 0 0 -4571113.3176465034 -36636364.83524704 0 -36636364.83524704 302999233.64463806 0 0 0 0 111161836.34537005 -141074509.80393887 0 -141074509.80393887 113195480.14450073 0 0 0 0 82888892.752793312 -157709659.48670959 0 -157709659.48670959 198120145.02696609 0 0 0 0 21979412.989823103 -80588875.178153038 0 -80588875.178153038 108583187.82955933 0 0 0 0 383318702.1910553 -590955871.60237694 0 -590955871.60237694 532312621.51757812 0 0 0 0 239096032.16128826 -338738956.71102142 0 -338738956.71102142 99086256.792102337 0 0 0 0 182706451.83938742 -272412011.87205887 0 -272412011.87205887 344931398.62060547 0 0 0 0 71829195.060844421 -179115149.00367737 0 -179115149.00367737 317058977.87345886 0 0 0 0 119907177.47043896 -319385568.38384247 0 -319385568.38384247 457771863.51493073 0 0 0 0 574688248.86282349 -697268726.94615936 0 -697268726.94615936 603571796.23207092 0 0 0 0 209408960.08204937 -577484886.93192291 0 -577484886.93192291 1041900502.947382 0 0 0 0 536603409.51848412 -830925720.6234479 0 -830925720.6234479 1183853897.8603516 0 0 0 0 922694935.80064821 -1268100066.0326576 0 -1268100066.0326576 728514874.36991882 0 0 0 0 913141959.25969601 -1176907066.7572861 0 -1176907066.7572861 -128041134.69023895 0 0 0 0 1276265704.2112579 -1132170924.2845612 0 -1132170924.2845612 548075695.98880386 0 0 0 0 549197699.50552368 -939665101.16376495 0 -939665101.16376495 705733138.78616333 0 0 0 0 468691697.3035326 -685290094.05040359 0 -685290094.05040359 -28638419.959884644 0 0 0 0 953751489.06047583 -757416751.2318697 0 -757416751.2318697 -761758907.14954376 0 0 0 0 893023045.87474632 -747089875.63352203 0 -747089875.63352203 -20030406.454964638 0 0 0 0 1902238109.2423201 -1385956610.5564041 0 -1385956610.5564041 -990776948.16706848 0 0 0 0 1738746702.9616909 -792855744.41290474 0 -792855744.41290474 -2554638587.8888779 0 0 0 0 1506366940.3780746 -727720379.97097397 0 -727720379.97097397 -798887002.21335793 0 0 0 0 1173514285.3142042 -358868705.11777496 0 -358868705.11777496 -1198414687.5482712 0 0 0 0 867490823.89379787 -302730651.71790886 0 -302730651.71790886 -434246931.66525269 0 0 0 0 635200020.60866594 -99522833.252534866 0 -99522833.252534866 -529885149.04564667 0 0 0 0 664418857.64665079 -437998363.44404793 0 -437998363.44404793 -410283581.08569336 0 0 0 0 503417758.45849228 -432382197.22218323 0 -432382197.22218323 111227483.38134718 0 0 0 0 310657476.35298991 -205416299.55607319 0 -205416299.55607319 -155003847.33761597 0 0 0 0 527692864.56126404 -212686078.79094315 0 -212686078.79094315 -159601398.20305443 0 0 0 0 303614610.2614038 -54360303.879347548 0 -54360303.879347548 -265662851.61700439 0 0 0 0 480284067.19732118 188078303.97645187 0 188078303.97645187 -447322791.44798279 0 0 0 0 430688864.79188156 25172207.156917572 0 25172207.156917572 -222928944.97904205 0 0 0 0 572845031.55019343 495817880.34350061 0 495817880.34350061 -654862838.80242157 0 0 0 0 930507922.64136505 321519492.29689598 0 321519492.29689598 -618850146.60836029 0 0 0 0 700431925.07439995 82122826.576469421 0 82122826.576469421 -492767140.02484322 0 0 0 0 593628137.4551239 348590797.20357895 0 348590797.20357895 -317880246.3083992 0 0 0 0 156644555.90912342 118474134.93810654 0 118474134.93810654 -170808178.17394638 0 0 0 0 225812658.74093819 378298255.74596024 0 378298255.74596024 -145392366.5582962 0 0 0 0 25120174.171802521 81544055.92218399 0 81544055.92218399 -253060167.5249939 0 0 0 0 44347232.003646851 144341578.1974926 0 144341578.1974926 -78372409.275665283 0 0 0 0 -190088040.60810661 282625418.13362885 0 282625418.13362885 -153259855.88201523 0 0 0 0 -317987710.76369667 45203956.505316734 0 45203956.505316734 -2220615.2697982788 0 0 0 0 1274604.6764392406 -37548.480537358671 0 -37548.480537358671 -1160470.7608991712 0 0 0 0 1730079.5737738609 -1922818.5896377563 0 -1922818.5896377563 3326586.5240936279 0 0 0 0 -15088804.85779929 4603635.8631794751 0 4603635.8631794751 -2292490.3325125463 0 0 0 0 -103497460.74484563 137432488.68668175 0 137432488.68668175 -27340858.650550842 0 0 0 0 -36669515.271526337 99365246.041820526 0 99365246.041820526 276114576.98747826 0 0 0 0 24301253.09292011 139729633.43208182 0 139729633.43208182 95929186.14390564 0 0 0 0 8643647.7291392833 17560045.643323854 0 17560045.643323854 10142748.474940896 0 0 0 0 -709964406.73888016 439705772.69474411 0 439705772.69474411 -190532656.0728054 0 0 0 0 -22613004.496185303 212234171.7894783 0 212234171.7894783 2827162481.8190689 0 0 0 0 5926649.7819193676 13761028.600050271 0 13761028.600050271 8305218.9825187847 0 0 0 0 -21619720.948771764 12280367.465284817 0 12280367.465284817 11408559.590384398 0 0 0 0 22197099.187196732 185687905.02058601 0 185687905.02058601 810972772.36690521 0 0 0 0 -3061314.1103068814 7655335.3490900733 0 7655335.3490900733 12148344.932357565 0 0 0 0 -30347729.196353912 12886133.342418671 0 12886133.342418671 92476461.436252594 0 0 0 0 789847151.66876888 1130010923.5001011 0 1130010923.5001011 41122621.221466064 0 0 0 0 510675486.64154053 1155233898.4712639 0 1155233898.4712639 1107529685.0735531 0 0 0 0 164804456.41119003 2063262961.238245 0 2063262961.238245 2267629980.2428589 0 0 0 0 485613836.22040939 1446318844.3506832 0 1446318844.3506832 21774787.427719116 0 0 0 0 1014732068.2429197 1630818320.8254235 0 1630818320.8254235 -896944262.94004822 0 0 0 0 999508404.09827232 1738328111.6558876 0 1738328111.6558876 -165859360.98354912 0 0 0 0 1136423895.809535 1159515697.4278278 0 1159515697.4278278 -1537417374.6971817 0 0 0 0 921497788.56745529 1014503986.5437622 0 1014503986.5437622 47065594.827841043 0 0 0 0 1509671012.1553392 401515503.56429863 0 401515503.56429863 -1451663574.012825 0 0 0 0 1230161503.4642391 296254284.58853531 0 296254284.58853531 -1223618664.0109854 0 0 0 0 1663743417.1214352 455063684.16467094 0 455063684.16467094 -1998526469.8550491 0 0 0 0 362456459.78839874 3069416612.4801064 0 3069416612.4801064 -2935323413.3728867 0 0 0 0 1974018922.2992802 435462870.59331894 0 435462870.59331894 -4273971435.7341175 0 0 0 0 -1150252897.405612 3030975720.2375369 0 3030975720.2375369 -4594603876.4334373 0 0 0 0 -3659556234.8644981 104466889.34827805 0 104466889.34827805 -5188207974.4335632 0 0 0 0 160835487.87433815 1429195784.4694023 0 1429195784.4694023 230044812.98209763 0 0 0 0 -1384195153.1081009 2320940353.8229504 0 2320940353.8229504 36200255.806640625 0 0 0 0 394551740.15233612 2646675592.674118 0 2646675592.674118 384827292.4475441 0 0 0 0 -1420198365.8787613 1797215364.9295731 0 1797215364.9295731 3052986688.338913 0 0 0 0 -2054065250.8764677 1015209976.9736338 0 1015209976.9736338 2623789723.2030029 0 0 0 0 -2425256054.5445366 1844783227.8161621 0 1844783227.8161621 3063400800.0445175 0 0 0 0 -1032351699.898798 222646829.91085052 0 222646829.91085052 2887395911.5760956 0 0 0 0 -2161438094.6833959 1308118340.3468704 0 1308118340.3468704 3493591809.6312332 0 0 0 0 -993067686.23702621 738950729.94104004 0 738950729.94104004 2219383549.2127914 0 0 0 0 -976241764.50966072 766169542.97161484 0 766169542.97161484 1112054384.5561523 0 0 0 0 -353732210.20660973 2009414698.0858116 0 2009414698.0858116 2025006168.9053192 0 0 0 0 -143276511.02000427 1186324200.2898407 0 1186324200.2898407 567182532.5894928 0 0 0 0 -957096549.52051544 831945036.64839172 0 831945036.64839172 1264540091.057785 0 0 0 0 -1037375676.197987 -1183218791.0453205 0 -1183218791.0453205 5755389757.9871445 0 0 0 0 12057077.380824275 -1711498071.8248405 0 -1711498071.8248405 3199001903.8771896 0 0 0 0 -1158051543.6196346 65844623.519168854 0 65844623.519168854 2874290383.5092163 0 0 0 0 -1625727827.966737 1619499004.0318894 0 1619499004.0318894 6451194412.6234131 0 0 0 0 -1629721082.6068487 1499202301.3680153 0 1499202301.3680153 3030221187.6962891 0 0 0 0 -38138927.392652333 -7142011655.7115631 0 -7142011655.7115631 -3010830364.3408356 0 0 0 0 -13449452.253721125 1117030.7619838864 0 1117030.7619838864 38298513.021288753 0 0 0 0 2130919832.2316256 3656986487.3849525 0 3656986487.3849525 3277826036.9828262 0 0 0 0 61421397.762125045 -6922867784.234333 0 -6922867784.234333 -3192314428.5515938 0 0 0 0 -3588386817.4414234 3624448802.0284176 0 3624448802.0284176 394281053.25988579 0 0 0 0 -3851622068.6185198 359756834.10064507 0 359756834.10064507 1586167301.5506763 0 0 0 0 -37947283.761015639 25764160.209055454 0 25764160.209055454 40518664.48606737 0 0 0 0 -7877427472.4880857 7612161817.6055965 0 7612161817.6055965 38984022928.28009 0 0 0 0 -7340266428.7716141 9533134022.2942829 0 9533134022.2942829 2053876154.6731567 0 0 0 0 -5322494.7454517065 63557958.685912609 0 63557958.685912609 -52799205.056922533 0 0 0 0 2456109792.6636086 31680508642.747913 0 31680508642.747913 -6110616663.0265121 0 0 0 0 6454217736.6373978 12243461469.859049 0 12243461469.859049 1628093171.8006122 0 0 0 0 -5456630351.0265532 -14637225107.790474 0 -14637225107.790474 -28726941737.561878 0 0 0 0 -9244838.3644069359 -63645049.897202037 0 -63645049.897202037 286202993.1537227 0 0 0 0 849119.17310671858 -76240843.174060822 0 -76240843.174060822 209199891.37994385 0 0 0 0 9129880873.6759319 18210859218.891602 0 18210859218.891602 -44555869041.018059 0 0 0 0 2054470717.7224197 -1751188751.6548772 0 -1751188751.6548772 -8742538836.0845776 0 0 0 0 364496107.73707962 -509728331.04798126 0 -509728331.04798126 660665961.75646973 0 0 0 0 7770529.0078012003 -30337756.116306588 0 -30337756.116306588 35685605.591246486 0 0 0 0 17376511.901715681 -38772377.31627655 0 -38772377.31627655 82497118.812381744 0 0 0 0 12435048.785613481 -59125232.886074029 0 -59125232.886074029 193903692.36077318 0 0 0 0 8793055.5543622151 -116189549.89690232 0 -116189549.89690232 26036994.294796959 0 0 0 0 590036799.39472389 -49999271.189426422 0 -49999271.189426422 -275366322.32820129 0 0 0 0 865457415.17855453 -2332462465.2500229 0 -2332462465.2500229 2098670689.3800583 0 0 0 0 1226258220.3451614 -1409190794.9904785 0 -1409190794.9904785 862864663.48478699 0 0 0 0 -269584590.03032303 -1068989791.6317902 0 -1068989791.6317902 1574070548.6983337 0 0 0 0 36995165.38176547 -90610234.699998379 0 -90610234.699998379 -37024752.919999368 0 0 0 0 1022182768.4679565 -540155881.48434448 0 -540155881.48434448 332490877.13157654 0 0 0 0 593052239.21324635 1088342568.4415164 0 1088342568.4415164 -12046710516.333254 0 0 0 0 10196070940.759098 7132205403.2006998 0 7132205403.2006998 -20653021292.550659 0 0 0 0 -7756725.1630618945 26391308.085152186 0 26391308.085152186 -50563101.375137389 0 0 0 0 1499987068.1594982 1192499495.9913349 0 1192499495.9913349 -10936498122.909477 0 0 0 0 -5077827616.6713791 2563102137.6421776 0 2563102137.6421776 -7374020156.4330177 0 0 0 0 -1164206837.0750389 4988347263.9684238 0 4988347263.9684238 -15985661173.322456 0 0 0 0 11033622.865309082 -10980254.042545736 0 -10980254.042545736 -26931347.093691606 0 0 0 0 1565907916.5428486 106398036.90699005 0 106398036.90699005 -3274707368.0862808 0 0 0 0 2513735024.6761913 -960505543.5545578 0 -960505543.5545578 -4727705703.6120338 0 0 0 0 3106504830.480648 -3069829230.9850883 0 -3069829230.9850883 -1700891995.7511368 0 0 0 0 1504822889.2701988 -1636297366.02034 0 -1636297366.02034 1595244344.1327591 0 0 0 0 1490852173.9722385 -1826836659.3010864 0 -1826836659.3010864 -943104273.39595222 0 0 0 0 -1077076110.0296631 -92683820.854949951 0 -92683820.854949951 4021358996.8981628 0 0 0 0 25731499.893599462 -30450270.289873518 0 -30450270.289873518 -29786843.117858291 0 0 0 0 2639064444.676548 -3730917901.3782883 0 -3730917901.3782883 5098386984.9677582 0 0 0 0 3294750608.7284842 -4476624691.041338 0 -4476624691.041338 3712330222.6848755 0 0 0 0 3097786716.6087341 -1767975809.6594391 0 -1767975809.6594391 1354032140.1055908 0 0 0 0 2506861372.3800621 -3573776503.6073608 0 -3573776503.6073608 3018981758.4352341 0 0 0 0 3869577156.7568321 -2477944811.3443794 0 -2477944811.3443794 1377692186.4487152 0 0 0 0 1668343696.0255356 -1469448856.779438 0 -1469448856.779438 1031196149.7493052 0 0 0 0 2324346802.0992088 -2390057353.4753113 0 -2390057353.4753113 1384672868.125618 0 0 0 0 2614915253.1718826 -2589776885.6249733 0 -2589776885.6249733 1235476041.7742615 0 0 0 0 2683464349.9800835 -1692683039.2777252 0 -1692683039.2777252 1384796142.4771137 0 0 0 0 2230541380.0365686 -2111291561.8842888 0 -2111291561.8842888 1448935902.5281601 0 0 0 0 2506766672.4853954 -2004985092.3446693 0 -2004985092.3446693 971570624.68107605 0 0 0 0 1391071102.127265 -1545989993.3391342 0 -1545989993.3391342 1292039437.075119 0 0 0 0 935679412.17352295 -1105789517.0393143 0 -1105789517.0393143 1314981315.0966268 0 0 0 0 1081426255.7252865 -1049195056.8672714 0 -1049195056.8672714 1200562491.2593689 0 0 0 0 1394338289.2200556 -1671086962.8809624 0 -1671086962.8809624 1435122395.6642685 0 0 0 0 1316425586.6422048 -1541420603.7814541 0 -1541420603.7814541 1809152991.8619385 0 0 0 0 1735998913.2161121 -2191141437.7135086 0 -2191141437.7135086 2195861661.9441023 0 0 0 0 1702547385.6543789 -2244010863.0377235 0 -2244010863.0377235 2112342340.6744614 0 0 0 0 2039259946.199131 -2761288192.5018311 0 -2761288192.5018311 2096953609.5826426 0 0 0 0 5724747520.7036676 -2726269788.3824615 0 -2726269788.3824615 876533159.41828156 0 0 0 0 2957273.0699193147 -9034422.0002382137 0 -9034422.0002382137 15788604.267205447 0 0 0 0 2785206695.1150856 -3415900886.7861786 0 -3415900886.7861786 3273575443.9772325 0 0 0 0 -2214981785.8655901 -1452786841.7594643 0 -1452786841.7594643 1357768649.8200073 0 0 0 0 3083568096.4452209 -1198004585.5620193 0 -1198004585.5620193 166799192.82348633 0 0 0 0 -2725595.9584570164 106945409.31818695 0 106945409.31818695 -831556316.68685913 0 0 0 0 987071384.78142929 -263835564.7202301 0 -263835564.7202301 349495915.15673828 0 0 0 0 1668428810.8928051 -1872817618.073616 0 -1872817618.073616 1186102244.743576 0 0 0 0 2068411914.7180386 -2557520530.3496628 0 -2557520530.3496628 1253178491.2314224 0 0 0 0 1932891076.0156679 -2388477011.1588593 0 -2388477011.1588593 1430489638.1526489 0 0 0 0 2968412624.4530983 -2827507346.5037079 0 -2827507346.5037079 1246531950.1419525 0 0 0 0 2101488874.0411353 -2039310746.926177 0 -2039310746.926177 703117422.56762695 0 0 0 0 24004991.538266748 -13854315.603122711 0 -13854315.603122711 8875082.1376419067 0 0 0 0 6476688.9270261861 -54219899.517429352 0 -54219899.517429352 119277534.02201909 0 0 0 0 -90938.708227062452 -24390671.135051727 0 -24390671.135051727 156137114.04676819 0 0 0 0 1503279.856676273 -41970435.366466522 0 -41970435.366466522 119060838.36468238 0 0 0 0 792208.3899885118 -40473595.982761383 0 -40473595.982761383 225734691.8615799 0 0 0 0 -42860595.591649354 30066060.825180054 0 30066060.825180054 170255764.46524048 0 0 0 0 73565820.436766699 -100326286.50292206 0 -100326286.50292206 125418996.24065018 0 0 0 0 -21459806.119455516 58276194.036100388 0 58276194.036100388 19170175.739974976 0 0 0 0 -760.14708080592391 164655.50318771601 0 164655.50318771601 1465175.4890702069 0 0 0 0 -75842584.228407115 9538137.4317893982 0 9538137.4317893982 19959932.956962585 0 0 0 0 -44769680.381271243 -15318510.987182617 0 -15318510.987182617 27043690.8019557 0 0 0 0 391700.69323066523 576194.87699899822 0 576194.87699899822 3548133.9581727386 0 0 0 0 -21588157.134166002 -10658564.534355164 0 -10658564.534355164 1875515.7538833618 0 0 0 0 -30733943.183540389 15016933.012125969 0 15016933.012125969 33165053.028320312 0 0 0 0 -25082613.706145737 -2519950.9890321046 0 -2519950.9890321046 7656014.6552442461 0 0 0 0 -12356588.448023021 -18579557.155414581 0 -18579557.155414581 7521203.5489959717 0 0 0 0 -40744613.440514505 -26169430.90719223 0 -26169430.90719223 49465398.770309448 0 0 0 0 -23429585.558826119 8363232.5043487549 0 8363232.5043487549 -882428.19641876221 0 0 0 0 -9332448.8577256389 8555641.9045715332 0 8555641.9045715332 5502351.8799209595 0 0 0 0 -3636808.0224394444 -3244905.4807882309 0 -3244905.4807882309 26582585.344726562 0 0 0 0 199847.17541141162 -19534802.589012146 0 -19534802.589012146 43496670.926956177 0 0 0 0 -690848.73327985592 -46556538.913734436 0 -46556538.913734436 3069552.3040008545 0 0 0 0 -30118545.001128089 -39255885.336795807 0 -39255885.336795807 31372516.596229553 0 0 0 0 -118955600.39619547 -125702074.59900188 0 -125702074.59900188 -20929925.714736938 0 0 0 0 -81754721.071009651 88541684.902718544 0 88541684.902718544 -33760559.17326355 0 0 0 0 -615431506.19201934 -279558471.4417038 0 -279558471.4417038 -56965798.316507339 0 0 0 0 -3822036.4534015087 375516.46020121127 0 375516.46020121127 5157296.7679243088 0 0 0 0 20446032.955588941 8132474.5726394653 0 8132474.5726394653 -3200833.42710495 0 0 0 0 -52186395.316765979 -84952445.907469749 0 -84952445.907469749 -165132354.65296936 0 0 0 0 1044857918.9115372 -598194574.66310501 0 -598194574.66310501 1099252373.7039795 0 0 0 0 1848921309.0340867 -955949531.08945465 0 -955949531.08945465 311716571.41755676 0 0 0 0 -4657809.2724768799 -155736.33306577429 0 -155736.33306577429 3448903.6197534502 0 0 0 0 218083101.96452904 -929436606.85545349 0 -929436606.85545349 848920549.42782593 0 0 0 0 -498146278.08172423 -1727145872.3303261 0 -1727145872.3303261 1136675537.1382256 0 0 0 0 140831.66501838883 -826662531.10372543 0 -826662531.10372543 -618837696.68177795 0 0 0 0 -297451960.38082755 15474633.839904785 0 15474633.839904785 7050481.7402534485 0 0 0 0 -6151828.2136647822 -5111582.3630535156 0 -5111582.3630535156 -881703.48138897121 0 0 0 0 -99043414.073440552 -847948855.27200317 0 -847948855.27200317 2169217623.4115143 0 0 0 0 515897432.61817026 -1353052855.2167358 0 -1353052855.2167358 391626297.97279072 0 0 0 0 636634076.34923267 -657826720.78805542 0 -657826720.78805542 304049529.62856293 0 0 0 0 1693381.0542168431 -5750637.4058873057 0 -5750637.4058873057 -1216322.6166710854 0 0 0 0 565371245.87215853 -523121964.85276413 0 -523121964.85276413 991360340.54135132 0 0 0 0 419648591.95541286 -288668823.88050652 0 -288668823.88050652 1317726334.7872009 0 0 0 0 197021433.95625401 -448575147.7334137 0 -448575147.7334137 1230386014.0739441 0 0 0 0 260088788.57493496 -747933062.43444824 0 -747933062.43444824 944737736.36032867 0 0 0 0 506561259.60989237 -605590617.03767776 0 -605590617.03767776 919766212.78117371 0 0 0 0 -215630716.85715389 -889483126.44918823 0 -889483126.44918823 2696104815.1470184 0 0 0 0 163822198.78296185 -648369247.23485565 0 -648369247.23485565 1416024205.0019836 0 0 0 0 -480710845.20934677 -199116742.27671432 0 -199116742.27671432 1539895928.4135437 0 0 0 0 -4162466.7690004031 -1621893899.9158196 0 -1621893899.9158196 1485675523.9407196 0 0 0 0 66261639.778534174 -1039468329.3215179 0 -1039468329.3215179 1535706720.8432922 0 0 0 0 -162119463.97768497 -1050750051.1704178 0 -1050750051.1704178 2937759445.8245087 0 0 0 0 299148108.90292144 -924664497.50399399 0 -924664497.50399399 1506374064.6535187 0 0 0 0 -918982968.04115295 -56022742.034004211 0 -56022742.034004211 -63305325.340316772 0 0 0 0 -796676068.94958115 -10723722.721794128 0 -10723722.721794128 -105895834.98415375 0 0 0 0 -432733057.52979469 639355868.06472397 0 639355868.06472397 676884955.51663208 0 0 0 0 -1003694554.8559456 -171340856.09194183 0 -171340856.09194183 207741287.51055908 0 0 0 0 -1206090546.2844195 203931353.92273903 0 203931353.92273903 1346084537.8011017 0 0 0 0 -432573491.61829376 -141268140.20851898 0 -141268140.20851898 1536998625.5868988 0 0 0 0 -790566160.2104578 350644059.01737976 0 350644059.01737976 944291943.4067688 0 0 0 0 -814632898.90824509 -449917048.70672607 0 -449917048.70672607 905399198.54507446 0 0 0 0 -327136982.94641685 -342051731.42497253 0 -342051731.42497253 621664559.73799896 0 0 0 0 167158220.36923218 -597100557.4699707 0 -597100557.4699707 891232259.27788544 0 0 0 0 -336523323.89525223 -271484245.95023346 0 -271484245.95023346 1137119786.7821503 0 0 0 0 -351802633.45865822 -307722289.67910767 0 -307722289.67910767 836456755.53913879 0 0 0 0 -31504310.484960556 -1467320950.9569473 0 -1467320950.9569473 762579962.01768064 0 0 0 0 -8626175.1205787882 5890945.8810909018 0 5890945.8810909018 -7124546.7595732212 0 0 0 0 -2513828185.8360052 -1210342537.8458366 0 -1210342537.8458366 167175786.88214874 0 0 0 0 -1332555796.5035048 309288499.25250244 0 309288499.25250244 135374941.12272644 0 0 0 0 -895031864.9981966 359473763.77515984 0 359473763.77515984 396607088.21551514 0 0 0 0 -41435095.395215988 -926266187.64727783 0 -926266187.64727783 -440220535.26719666 0 0 0 0 -1434975037.1835322 -980897661.23014164 0 -980897661.23014164 679940682.02331543 0 0 0 0 -232321664.76674271 -567122529.56494904 0 -567122529.56494904 813712237.73840714 0 0 0 0 -257369421.71587372 -1108220984.4507599 0 -1108220984.4507599 1782261447.7609444 0 0 0 0 1099176132.6697817 -632078133.13544846 0 -632078133.13544846 44025468.776794434 0 0 0 0 975471.10237982497 -4823815.3961320817 0 -4823815.3961320817 -1499401.4846733809 0 0 0 0 -872433360.37153435 -1105899786.5994415 0 -1105899786.5994415 1057959764.6575012 0 0 0 0 -16675670.517450333 -1592478709.9479675 0 -1592478709.9479675 181897262.40604401 0 0 0 0 -4716739.4516010284 -1353574992.0768433 0 -1353574992.0768433 1275263554.3962851 0 0 0 0 -22470163.035689112 -8253006.9873033464 0 -8253006.9873033464 868234.87735842168 0 0 0 0 -40535006.059519671 -8640039.5598392487 0 -8640039.5598392487 25089279.903366089 0 0 0 0 442885811.17239761 -1119706211.4924774 0 -1119706211.4924774 1040018060.7756424 0 0 0 0 -353766779.40464211 -78620062.357810974 0 -78620062.357810974 1586058968.4610443 0 0 0 0 -571608556.56372225 117689562.66567802 0 117689562.66567802 1083581180.962326 0 0 0 0 -657582098.77228594 -560240675.67422342 0 -560240675.67422342 1068194491.8025818 0 0 0 0 357095633.42419434 -220167786.62467194 0 -220167786.62467194 1178259260.1953316 0 0 0 0 -302165454.27549982 -19646279.908866882 0 -19646279.908866882 1360373556.3080444 0 0 0 0 -181524433.90070915 -173419602.21157837 0 -173419602.21157837 992996657.84467316 0 0 0 0 -195349517.13005447 -197918270.41478729 0 -197918270.41478729 1234085539.7506104 0 0 0 0 344973131.71064281 332689403.95807648 0 332689403.95807648 1247827696.6082497 0 0 0 0 -217196621.82645988 -101016906.73363495 0 -101016906.73363495 1737423886.0298233 0 0 0 0 156653181.0876863 -594776773.24658906 0 -594776773.24658906 863515095.33935547 0 0 0 0 48016142.548238754 -25780938.193099976 0 -25780938.193099976 386656842.14904022 0 0 0 0 95254488.810578346 -91201417.47249794 0 -91201417.47249794 286007809.25083923 0 0 0 0 131894417.54964638 -81049968.588790894 0 -81049968.588790894 178545335.41989136 0 0 0 0 -222722498.81274223 -24682792.204666138 0 -24682792.204666138 927290003.05967903 0 0 0 0 -199962025.43249512 -98796811.842971802 0 -98796811.842971802 694503633.3622818 0 0 0 0 -1874113.2621641159 64700226.999385834 0 64700226.999385834 107210937.54432678 0 0 0 0 24131473.038478851 140992294.22637939 0 140992294.22637939 293770490.52251816 0 0 0 0 -43040842.373621941 13611672.396598816 0 13611672.396598816 64468615.360290527 0 0 0 0 1254673.1132526398 -39312056.010421753 0 -39312056.010421753 294112197.86881542 0 0 0 0 53301125.555641651 79684712.252353668 0 79684712.252353668 109563500.29063416 0 0 0 0 -24193548.67830193 129081824.19825077 0 129081824.19825077 7538321.8818664551 0 0 0 0 32570230.730314136 108163210.46448898 0 108163210.46448898 -22846145.229377747 0 0 0 0 2483805.5086260261 39245997.492363729 0 39245997.492363729 43331765.918266371 0 0 0 0 -19328968.898324013 104549710.45480347 0 104549710.45480347 79909839.740730286 0 0 0 0 -1267259789.6514778 -92109746.061126709 0 -92109746.061126709 8003060.3041191101 0 0 0 0 -47481526.211566687 69017336.489588737 0 69017336.489588737 44269673.287902832 0 0 0 0 -20798972.190114304 32323575.097860631 0 32323575.097860631 -8641490.3068405092 0 0 0 0 -3143052.3437628746 28492758.152287483 0 28492758.152287483 77055168.197616577 0 0 0 0 -1264481138.0231018 -122596063.31050873 0 -122596063.31050873 294315765.49947357 0 0 0 0 60953569.735933065 61108072.11220932 0 61108072.11220932 -41906653.239952087 0 0 0 0 44299545.364269733 99758787.376729965 0 99758787.376729965 -22413656.687316895 0 0 0 0 30729392.069186568 110051454.5481739 0 110051454.5481739 93846436.230377197 0 0 0 0 -10070075.60187602 31446031.882266998 0 31446031.882266998 86645836.238739014 0 0 0 0 -56934007.503427193 83853445.650414467 0 83853445.650414467 74117690.371337891 0 0 0 0 59458922.135558218 13021413.619231164 0 13021413.619231164 -170500533.96009827 0 0 0 0 1369227.4584775232 25710545.18479386 0 25710545.18479386 43961307.173176616 0 0 0 0 60053854.429861546 38103899.216403961 0 38103899.216403961 -41215826.864977479 0 0 0 0 81259878.02672863 -169052859.50567627 0 -169052859.50567627 521609175.69934082 0 0 0 0 8993668.8773821518 -4840058.0364502668 0 -4840058.0364502668 19796459.694642946 0 0 0 0 -149384596.60441113 -7355582.1824874878 0 -7355582.1824874878 71167635.901857138 0 0 0 0 -12699973.96578908 90815140.624053955 0 90815140.624053955 73008681.312103271 0 0 0 0 147370394.57423186 -365804921.00185764 0 -365804921.00185764 -1481760.4835662842 0 0 0 0 -40458692.679580688 -270474684.97264099 0 -270474684.97264099 1809871016.9818611 0 0 0 0 4658053.4259282649 -3236888.084774822 0 -3236888.084774822 3185476.3083341122 0 0 0 0 -55403400.851827621 394947528.25888824 0 394947528.25888824 2103123382.4883652 0 0 0 0 -86860566.238991737 -91258034.532238007 0 -91258034.532238007 1550306612.1072006 0 0 0 0 -58713605.530603409 326555517.46405172 0 326555517.46405172 1046346891.0183258 0 0 0 0 -23751811.191692829 -29188922.887145996 0 -29188922.887145996 29186275.440666199 0 0 0 0 -72118575.0151968 -18236774.40748024 0 -18236774.40748024 87079088.597980499 0 0 0 0 -30491308.367424846 9091881.2047595978 0 9091881.2047595978 96922246.920120239 0 0 0 0 -45835831.240972042 -19845018.695489883 0 -19845018.695489883 76401306.173774719 0 0 0 0 -12158820.550926492 14181434.231349975 0 14181434.231349975 16180210.818350628 0 0 0 0 -15922224.933865547 20780320.495292664 0 20780320.495292664 46125064.452388763 0 0 0 0 -1294267.8591814265 -5975799.5044319183 0 -5975799.5044319183 2633988.6437853277 0 0 0 0 -3780809.4729948044 4032323.6993637085 0 4032323.6993637085 64087102.093019485 0 0 0 0 -47999621.085798264 -130430358.00330353 0 -130430358.00330353 1465635983.55896 0 0 0 0 -4639203.9313708693 -10212322.109193549 0 -10212322.109193549 8601619.0741784424 0 0 0 0 93566811.761253357 -18645906.93353653 0 -18645906.93353653 902719872.08600616 0 0 0 0 5273977.3828905821 -19553382.590034485 0 -19553382.590034485 73313730.321281433 0 0 0 0 -14954988.513717012 13444615.378059879 0 13444615.378059879 17719800.25419578 0 0 0 0 -1467167.3522838643 -4288350.6229095757 0 -4288350.6229095757 8386408.7191371322 0 0 0 0 -239547966.95575714 -291785741.16254425 0 -291785741.16254425 1631511865.5188227 0 0 0 0 -14119970.525928855 7179812.1859817505 0 7179812.1859817505 -1378976.4885406494 0 0 0 0 74521610.182714462 -97999328.718467712 0 -97999328.718467712 1362699075.1469727 0 0 0 0 -24625195.52147162 -153801.10943222046 0 -153801.10943222046 52252974.067405701 0 0 0 0 -21405614.449665725 8135942.492389679 0 8135942.492389679 26546789.799942017 0 0 0 0 -5227088.1035237312 13160093.151786804 0 13160093.151786804 27475525.447685242 0 0 0 0 -8033514.0598319769 20689423.371681213 0 20689423.371681213 14632446.697273254 0 0 0 0 -6671365.6256153584 673900.33753204346 0 673900.33753204346 24969342.032222748 0 0 0 0 -15637991.672934651 15965810.165523529 0 15965810.165523529 57157808.163093567 0 0 0 0 -155893.4945524931 9123456.1801872253 0 9123456.1801872253 58045823.771483421 0 0 0 0 -15705366.15573746 23605696.997871399 0 23605696.997871399 89065667.423233032 0 0 0 0 -24921691.224531174 33031801.740730286 0 33031801.740730286 62192382.638463974 0 0 0 0 -32115962.155876279 20479193.317098618 0 20479193.317098618 147494065.13079071 0 0 0 0 -8883850.2246110439 -64124501.834651947 0 -64124501.834651947 194346953.52292633 0 0 0 0 10363300.87305665 -18908296.766700745 0 -18908296.766700745 86878143.370361328 0 0 0 0 -16460642.518545628 1499237.4885597229 0 1499237.4885597229 77176220.850273132 0 0 0 0 -21890583.685031295 -2148755.1307525635 0 -2148755.1307525635 111437566.96342468 0 0 0 0 -16225871.683032513 320786.28679656982 0 320786.28679656982 79449805.317123413 0 0 0 0 -15842971.013643086 1323125.0842924118 0 1323125.0842924118 77092018.364295959 0 0 0 0 -15272862.053037047 2708317.7510385513 0 2708317.7510385513 74088047.890808105 0 0 0 0 -5905694.9708118439 10878432.669517517 0 10878432.669517517 49164594.887325287 0 0 0 0 -9000130.6115400661 16672453.720180899 0 16672453.720180899 14189419.363606796 0 0 0 0 55411892.862631798 96415181.695789337 0 96415181.695789337 -30591609.980262756 0 0 0 0 -52516960.64037323 49444948.389923096 0 49444948.389923096 43645617.903491974 0 0 0 0 53287942.106830597 -19952297.207633972 0 -19952297.207633972 18043750.550199509 0 0 0 0 -27731514.550756454 -55478731.652862549 0 -55478731.652862549 33109580.941156387 0 0 0 0 -10324964.241671233 15203655.952905759 0 15203655.952905759 17179671.62345624 0 0 0 0 -13624730.683702826 235374.16612625122 0 235374.16612625122 75849467.33996582 0 0 0 0 -5650554.6035443544 -16267602.265035629 0 -16267602.265035629 87144939.028198242 0 0 0 0 -5667841.2010006905 -14886704.497192383 0 -14886704.497192383 84781082.751472473 0 0 0 0 -1882183.6520708799 -14812296.872200012 0 -14812296.872200012 83631997.644561768 0 0 0 0 -6502197.2337555885 -17182871.045869827 0 -17182871.045869827 93314656.766525269 0 0 0 0 12249077.023860455 -19944205.035758972 0 -19944205.035758972 83878503.368423462 0 0 0 0 30128935.171860695 -36847935.409515381 0 -36847935.409515381 97510215.545898438 0 0 0 0 3935981.2203760147 -15313971.333450317 0 -15313971.333450317 89080836.967819214 0 0 0 0 9781970.2585911751 -17597056.881988525 0 -17597056.881988525 89462493.17906189 0 0 0 0 4481110.7887869477 -22230710.751140594 0 -22230710.751140594 96769925.775146484 0 0 0 0 31758450.12377739 -26287928.983520508 0 -26287928.983520508 -48516342.692382812 0 0 0 0 16879516.804469347 -28535817.415313721 0 -28535817.415313721 98429376.770996094 0 0 0 0 6941618.9050006866 -20126556.103179932 0 -20126556.103179932 103046439.13085938 0 0 0 0 -8918416.9963439368 15576321.008128196 0 15576321.008128196 12556290.926103912 0 0 0 0 7615228.4880256653 -42629910.813201904 0 -42629910.813201904 135902608.6484375 0 0 0 0 1344113.9608764648 -32004452.455612183 0 -32004452.455612183 144023485.44871521 0 0 0 0 281755.42566464515 2292723.1610373855 0 2292723.1610373855 -5076704.1110087633 0 0 0 0 23657705.467487335 37103173.807830811 0 37103173.807830811 -36815282.672073364 0 0 0 0 26658672.407738686 -31279690.258392334 0 -31279690.258392334 91735358.455352783 0 0 0 0 9533525.6556024551 -19951970.429214478 0 -19951970.429214478 95381512.879302979 0 0 0 0 17387809.032550335 -39456143.916687012 0 -39456143.916687012 108035339.54901123 0 0 0 0 19634180.069303513 -39758268.774291992 0 -39758268.774291992 104590908.39640808 0 0 0 0 10025913.660268784 -29679877.350982666 0 -29679877.350982666 109735968.06899261 0 0 0 0 11320026.329930305 -39932104.149375916 0 -39932104.149375916 115806514.64141846 0 0 0 0 12077797.251695395 -34179496.938171387 0 -34179496.938171387 114767001.81585693 0 0 0 0 5122143.9245996475 -25011327.16217041 0 -25011327.16217041 129128306.34629059 0 0 0 0 8931804.4455194473 -23863691.240509033 0 -23863691.240509033 108018645.60498047 0 0 0 0 7116871.2249031067 -35534202.459838867 0 -35534202.459838867 128358249.1688385 0 0 0 0 5364371.9128918648 -20523172.067932129 0 -20523172.067932129 122529199.67227173 0 0 0 0 5135059.3432950974 -31784519.363464355 0 -31784519.363464355 121383182.56195068 0 0 0 0 13577698.278957844 -44064976.850921631 0 -44064976.850921631 122763335.73849487 0 0 0 0 40293529.331859589 9654679.117767334 0 9654679.117767334 -26165260.19410181 0 0 0 0 30554298.561161041 26516081.205657959 0 26516081.205657959 -2945734.3244171143 0 0 0 0 20279325.040582657 -4349070.350982666 0 -4349070.350982666 43677310.433517456 0 0 0 0 26982250.405845642 -7541990.8087158203 0 -7541990.8087158203 15254612.664001465 0 0 0 0 28207725.27469635 -6300820.5577087402 0 -6300820.5577087402 -9790463.7140655518 0 0 0 0 28905204.322120667 -34820195.747344971 0 -34820195.747344971 -26896972.32517767 0 0 0 0 20370365.53338623 -29932588.758666992 0 -29932588.758666992 -6769739.7132263184 0 0 0 0 -6935184.832151413 -62260696.622940063 0 -62260696.622940063 -32320349.963668823 0 0 0 0 -29844684.782176971 -69721344.822937012 0 -69721344.822937012 -15590277.967712402 0 0 0 0 32337126.640464425 -44289839.093700409 0 -44289839.093700409 101202905.82867432 0 0 0 0 23190220.433031082 -50064654.177520752 0 -50064654.177520752 111936615.75640869 0 0 0 0 2476255.9519281387 50167534.205673218 0 50167534.205673218 -119033505.69204712 0 0 0 0 -79013002.791903496 -33017358.961105347 0 -33017358.961105347 38864182.788848877 0 0 0 0 -55802533.300007463 30695047.355293274 0 30695047.355293274 126264788.55401611 0 0 0 0 -66274424.129987717 -8023302.2448272705 0 -8023302.2448272705 172404237.24662781 0 0 0 0 -92360131.489086151 51735259.636322021 0 51735259.636322021 42269968.313354492 0 0 0 0 -115854996.99688244 11188014.109184265 0 11188014.109184265 59008276.271911621 0 0 0 0 201076.82401895523 -22045594.689208984 0 -22045594.689208984 149560989.59454346 0 0 0 0 5784091.8374195099 -4779489.0869750977 0 -4779489.0869750977 153682442.91947937 0 0 0 0 3237286.0384287834 -20182853.29876709 0 -20182853.29876709 136787957.45001221 0 0 0 0 -50047627.439460754 65391312.46673584 0 65391312.46673584 24991706.830932617 0 0 0 0 14431957.870210588 12926375.751987815 0 12926375.751987815 50019006.618774414 0 0 0 0 14543640.468921661 25594289.17527771 0 25594289.17527771 10466860.754425049 0 0 0 0 -36607983.297605515 35959806.989761353 0 35959806.989761353 69018661.559631348 0 0 0 0 9999356.6366653442 29854067.577270508 0 29854067.577270508 25252035.000183105 0 0 0 0 -25680981.310966492 61610429.424926758 0 61610429.424926758 18887066.100154877 0 0 0 0 -34193646.612464428 30548398.939788818 0 30548398.939788818 48849967.915222168 0 0 0 0 -42619262.671007156 7772833.618309021 0 7772833.618309021 58538258.886169434 0 0 0 0 -61456281.791114807 28720644.753967285 0 28720644.753967285 66703509.769958496 0 0 0 0 -17690249.849567413 12809421.232971191 0 12809421.232971191 67009299.958055019 0 0 0 0 -45284652.398087502 4014591.0028762817 0 4014591.0028762817 116170360.57052612 0 0 0 0 -17447248.972227097 436631.36506652832 0 436631.36506652832 79250087.123433113 0 0 0 0 -19323538.123935699 -17953791.636749268 0 -17953791.636749268 40535510.658630371 0 0 0 0 -66081874.730834961 -3341385.6421813965 0 -3341385.6421813965 79569008.320920944 0 0 0 0 -25520530.875151634 8501905.4654769897 0 8501905.4654769897 177152196.84786987 0 0 0 0 -41237032.150328636 -32908382.078155518 0 -32908382.078155518 247748237.3969574 0 0 0 0 -10454750.280050278 -16328087.966705322 0 -16328087.966705322 121274935.86745071 0 0 0 0 -31950215.336695671 8144041.3213729858 0 8144041.3213729858 137588202.38104248 0 0 0 0 -18784061.223468781 -25706228.58416748 0 -25706228.58416748 157577090.47776031 0 0 0 0 -26642483.417609215 -28255790.545539856 0 -28255790.545539856 215505554.93626404 0 0 0 0 -6207296.0309276581 21449908.71762085 0 21449908.71762085 60214415.334625244 0 0 0 0 679342.9065952301 -2789648.5616912842 0 -2789648.5616912842 94686261.450485229 0 0 0 0 1186525.3689880371 -14497863.209243774 0 -14497863.209243774 111175458.28393555 0 0 0 0 6141139.603969574 -4541544.437877655 0 -4541544.437877655 45743148.79788208 0 0 0 0 -615767.50776720047 -26821642.086330414 0 -26821642.086330414 114613618.66479492 0 0 0 0 2908903.9657249451 -34470282.828140259 0 -34470282.828140259 107290936.91604233 0 0 0 0 -30016256.796955109 -78881797.921539307 0 -78881797.921539307 273930777.21888733 0 0 0 0 -26179400.852642059 -78955011.935165405 0 -78955011.935165405 227624185.65172386 0 0 0 0 -41540479.075651169 -37857965.548366547 0 -37857965.548366547 246412927.28967285 0 0 0 0 -56213379.643604279 -64384925.532283783 0 -64384925.532283783 358411410.5846405 0 0 0 0 -80315632.126894474 -30063471.726306915 0 -30063471.726306915 64919700.652832031 0 0 0 0 -6657921.9105606079 -30143606.403594971 0 -30143606.403594971 58149622.429382324 0 0 0 0 -19859328.17555809 -49652940.573791504 0 -49652940.573791504 86530920.325515747 0 0 0 0 -36189439.900279999 -3624929.6014251709 0 -3624929.6014251709 71101119.152225494 0 0 0 0 -55774205.533910751 -67677923.169639587 0 -67677923.169639587 21882530.38494873 0 0 0 0 -40756225.330352783 -46061272.203948975 0 -46061272.203948975 51482257.683105469 0 0 0 0 -8991187.9191741943 -40164027.017364502 0 -40164027.017364502 24495073.00177002 0 0 0 0 -547019.17839622498 -52524137.990402222 0 -52524137.990402222 8154166.6598510742 0 0 0 0 15316908.524823666 -44848212.711471558 0 -44848212.711471558 27924849.335632324 0 0 0 0 9115147.4119987488 -29557675.222320557 0 -29557675.222320557 41516445.111938477 0 0 0 0 14110155.701343536 -43248566.785430908 0 -43248566.785430908 90263616.794967651 0 0 0 0 18356671.686315536 -26998864.541290283 0 -26998864.541290283 47591984.789215088 0 0 0 0 -3146405.6426620483 -47031804.678359985 0 -47031804.678359985 96935139.254760742 0 0 0 0 16281125.292070389 -54891010.785964966 0 -54891010.785964966 93257929.555778503 0 0 0 0 5646011.6849651337 -56506361.779056549 0 -56506361.779056549 47056715.735351562 0 0 0 0 -6109387.6538286209 -73036877.175109863 0 -73036877.175109863 158015132.47140503 0 0 0 0 6008126.233631134 -79051981.326705933 0 -79051981.326705933 175890991.20973206 0 0 0 0 -4917181.6567287445 -73483928.996231079 0 -73483928.996231079 178629499.70959473 0 0 0 0 -8305684.5460357666 -99282890.598960876 0 -99282890.598960876 248129671.39770508 0 0 0 0 22359429.552176476 -81037128.668903351 0 -81037128.668903351 153249176.37057495 0 0 0 0 34999902.34437561 -129280536.12638092 0 -129280536.12638092 214636637.09875488 0 0 0 0 41096882.625516891 -88391401.416687012 0 -88391401.416687012 139598182.20812988 0 0 0 0 27745460.382505417 -64713964.750701904 0 -64713964.750701904 74569515.524520874 0 0 0 0 11250438.892536163 -22882194.933105469 0 -22882194.933105469 65685035.787456512 0 0 0 0 107797181.98739243 -158586905.76711273 0 -158586905.76711273 226718537.88021851 0 0 0 0 23852706.005872011 -71472454.167717934 0 -71472454.167717934 180714955.19548035 0 0 0 0 -5535408.3010635376 -119966373.68827057 0 -119966373.68827057 285034888.11329651 0 0 0 0 7392722.450006485 -117331129.59686279 0 -117331129.59686279 245229647.56075096 0 0 0 0 43430860.951622009 -178106798.72071075 0 -178106798.72071075 301901793.53646851 0 0 0 0 -27773688.13854599 -198418742.02723694 0 -198418742.02723694 454552979.39222717 0 0 0 0 -32811666.031843185 -222267860.81398773 0 -222267860.81398773 444497218.30500793 0 0 0 0 29049936.028479576 -169894680.897686 0 -169894680.897686 338931316.06332397 0 0 0 0 141012154.76872635 -244228170.6966095 0 -244228170.6966095 344568707.87872696 0 0 0 0 -90371363.983734608 -92219642.666439056 0 -92219642.666439056 458480981.93333435 0 0 0 0 -79524785.558699608 -90031559.283397675 0 -90031559.283397675 346739464.06660461 0 0 0 0 -45575120.878778458 -135374702.31542206 0 -135374702.31542206 343152967.42534637 0 0 0 0 -66354802.156848907 -150482394.9835434 0 -150482394.9835434 448358888.47190857 0 0 0 0 -18509739.514086246 -145986820.49145508 0 -145986820.49145508 327577881.23504639 0 0 0 0 -134097914.43544197 -143454156.49412537 0 -143454156.49412537 463042094.33267975 0 0 0 0 -75834514.719346046 -252347788.87770844 0 -252347788.87770844 602593510.91780853 0 0 0 0 -148322062.06490707 -136649398.71121407 0 -136649398.71121407 651136770.20005798 0 0 0 0 -286305182.14307117 -209875896.73961639 0 -209875896.73961639 714020863.60351562 0 0 0 0 -181510511.73425829 -205058510.15233994 0 -205058510.15233994 668553198.84829712 0 0 0 0 -143479075.23185158 -269018265.49797821 0 -269018265.49797821 669077113.93993378 0 0 0 0 -177741041.31986469 -234550036.25820208 0 -234550036.25820208 649503371.45567322 0 0 0 0 -218659370.43792915 -259398450.04475403 0 -259398450.04475403 746630097.71944427 0 0 0 0 159564674.65841866 -378843964.31763458 0 -378843964.31763458 554772218.48036194 0 0 0 0 130586564.70321786 -264040698.1420536 0 -264040698.1420536 472724701.22369385 0 0 0 0 -6936818.0470352173 -271204561.73047638 0 -271204561.73047638 534502891.71136475 0 0 0 0 32583602.546630859 -361353092.80432892 0 -361353092.80432892 820743540.28691101 0 0 0 0 -121834861.85419559 -339139762.9259634 0 -339139762.9259634 819653757.5320282 0 0 0 0 397724869.93997192 -516962081.67971802 0 -516962081.67971802 675188496.45381927 0 0 0 0 255811268.96780968 -189477861.07175446 0 -189477861.07175446 905088060.33949614 0 0 0 0 174253692.07428265 -28907272.94865799 0 -28907272.94865799 253925468.55854797 0 0 0 0 290561207.1404705 -374376308.38142014 0 -374376308.38142014 312546644.51707458 0 0 0 0 137197839.01479197 -273714813.21075058 0 -273714813.21075058 466015957.78105164 0 0 0 0 70202106.121278763 46049491.00870204 0 46049491.00870204 137525917.11571503 0 0 0 0 280336780.70118999 -187469627.97433853 0 -187469627.97433853 243457164.6146698 0 0 0 0 55710651.27231127 -83513049.122668743 0 -83513049.122668743 166292652.69152832 0 0 0 0 78043666.649565697 -52187576.830123901 0 -52187576.830123901 208704575.07857132 0 0 0 0 3952509.0877389908 61507073.709236145 0 61507073.709236145 38976746.581161499 0 0 0 0 131227418.12950611 -107081688.30107117 0 -107081688.30107117 125610675.8882575 0 0 0 0 158476.13937854767 21290694.475761414 0 21290694.475761414 66980705.593994141 0 0 0 0 179801276.81738567 -155689091.21590424 0 -155689091.21590424 -109088706.18544579 0 0 0 0 -663372.10373435542 -1997823.6266172677 0 -1997823.6266172677 2105460.8570169322 0 0 0 0 -142195908.93086815 15615369.645614624 0 15615369.645614624 2237794514.1493111 0 0 0 0 -76781990.904912531 226763044.34883451 0 226763044.34883451 1832912679.9734344 0 0 0 0 28606763.152413368 -268806341.3677597 0 -268806341.3677597 2154301598.8842506 0 0 0 0 45737325.139820099 -526615906.90006256 0 -526615906.90006256 1061393806.0859604 0 0 0 0 452751834.8358407 -686043349.50526047 0 -686043349.50526047 1508595331.3966217 0 0 0 0 1083832539.9498491 -187855514.40148926 0 -187855514.40148926 903324187.11739683 0 0 0 0 505016295.1047101 158746173.17255402 0 158746173.17255402 2064628294.7023773 0 0 0 0 5918542.3897007108 5097671.7072378844 0 5097671.7072378844 5898014.5130707622 0 0 0 0 677195535.14271879 581579758.98456573 0 581579758.98456573 708967273.64051056 0 0 0 0 45620110.864868164 255954173.24901199 0 255954173.24901199 1995697224.5743866 0 0 0 0 556271810.81215191 213071086.26643372 0 213071086.26643372 124880138.80508423 0 0 0 0 635461478.21536005 145892423.46160126 0 145892423.46160126 -34233049.61945343 0 0 0 0 193719685.83270478 -152837305.88095856 0 -152837305.88095856 55352060.955886841 0 0 0 0 455370547.25138116 83218411.662824631 0 83218411.662824631 -13120009.184020996 0 0 0 0 293439800.66413498 90470468.186515808 0 90470468.186515808 131874749.88937378 0 0 0 0 -54439233.254559278 53829444.282741547 0 53829444.282741547 31001822.49697876 0 0 0 0 99813790.982600659 136139898.9750787 0 136139898.9750787 418461617.71109772 0 0 0 0 13331257.720776627 14313756.38199202 0 14313756.38199202 14205651.29696697 0 0 0 0 119988862.59720731 -14017455.172702789 0 -14017455.172702789 37561074.862342358 0 0 0 0 -7473053.7145025404 11853181.323825471 0 11853181.323825471 -200704.72332039475 0 0 0 0 -205063369.84697342 119298672.18753052 0 119298672.18753052 -60801338.018447876 0 0 0 0 119790054.01661468 72279524.224945068 0 72279524.224945068 9850801.8135375977 0 0 0 0 206581573.65523863 48301680.076793671 0 48301680.076793671 -17545828.457199097 0 0 0 0 -3499965.4761500396 2008554.7503660321 0 2008554.7503660321 -3192819.7026528567 0 0 0 0 142664452.95083332 108187499.28237152 0 108187499.28237152 55032602.959465027 0 0 0 0 151443929.36275077 84218553.488521576 0 84218553.488521576 -69855877.6015625 0 0 0 0 -781683.03797632083 1453488.58198338 0 1453488.58198338 -1312027.6867907941 0 0 0 0 -98843123.846919537 123754678.31367493 0 123754678.31367493 210206795.73734283 0 0 0 0 -99467948.552891254 212678617.90662384 0 212678617.90662384 41715790.819732666 0 0 0 0 -110645202.62847137 192409460.81058502 0 192409460.81058502 121545445.93484497 0 0 0 0 1566810.045085907 203050119.33929443 0 203050119.33929443 -151809291.4733429 0 0 0 0 -119395955.99666023 120164025.43622971 0 120164025.43622971 26584952.114364624 0 0 0 0 -135459473.69483089 230265981.85286713 0 230265981.85286713 29590091.066898346 0 0 0 0 -136164505.36860386 151023797.68355125 0 151023797.68355125 121949080.26174927 0 0 0 0 47636245.276946068 242433008.49715805 0 242433008.49715805 -24597942.115264893 0 0 0 0 48128746.18632412 234826146.67506409 0 234826146.67506409 63587765.343963623 0 0 0 0 72093630.418287277 291900863.60817146 0 291900863.60817146 -50250821.704238892 0 0 0 0 -19048662.690024376 250450426.15347672 0 250450426.15347672 31592092.101852417 0 0 0 0 113113467.04586506 171400191.33071136 0 171400191.33071136 -25035832.492126465 0 0 0 0 287425826.99992085 115697974.26187134 0 115697974.26187134 -50644666.840011597 0 0 0 0 205868284.00470495 238334894.15276527 0 238334894.15276527 -80471435.001358032 0 0 0 0 101903945.04564476 173006337.92952728 0 173006337.92952728 23103977.028236389 0 0 0 0 -294364991.63874722 418170003.43887329 0 418170003.43887329 -41228875.888648987 0 0 0 0 54835238.723893166 326757342.68482971 0 326757342.68482971 -286844775.60798645 0 0 0 0 -466134252.29936457 201694393.16630173 0 201694393.16630173 142928575.43367004 0 0 0 0 -579849531.41672945 29149494.083936691 0 29149494.083936691 420513320.08675385 0 0 0 0 -159835292.62762642 -100357850.13020706 0 -100357850.13020706 -49216033.668167114 0 0 0 0 330603516.03333378 274018879.3914566 0 274018879.3914566 67017254.733657837 0 0 0 0 14545976.609835625 211642276.85481644 0 211642276.85481644 383459623.28114319 0 0 0 0 263593762.18682384 408822805.50665283 0 408822805.50665283 740862967.5038681 0 0 0 0 102626111.083148 106750619.03740692 0 106750619.03740692 272277961.90592957 0 0 0 0 24443487.272602081 -7564799.9721374512 0 -7564799.9721374512 857277532.36721992 0 0 0 0 -85869001.713859558 98722332.92590332 0 98722332.92590332 920483525.57711792 0 0 0 0 -232536319.23037338 -138242092.52223206 0 -138242092.52223206 624379036.92000198 0 0 0 0 -230640591.14078617 -287741113.74311066 0 -287741113.74311066 1033185800.1331024 0 0 0 0 54665860.502530098 -269996527.39278412 0 -269996527.39278412 1074218106.1503601 0 0 0 0 -262540291.22940063 -173925565.72719955 0 -173925565.72719955 654668072.07997894 0 0 0 0 -270437730.91690087 83139534.435235977 0 83139534.435235977 428660016.4103775 0 0 0 0 -285525948.60726213 -126810247.96077633 0 -126810247.96077633 739096051.92604065 0 0 0 0 -319531186.23252535 -40957925.105979919 0 -40957925.105979919 482702846.51358795 0 0 0 0 -51598247.296650887 19061902.130584717 0 19061902.130584717 75124805.662155151 0 0 0 0 -26162989.415740967 -180107314.6933136 0 -180107314.6933136 262541659.06286621 0 0 0 0 -88998435.337234497 65996361.178339005 0 65996361.178339005 91811712.099348068 0 0 0 0 -296050876.87306952 -122993892.89933395 0 -122993892.89933395 -24826692.008926392 0 0 0 0 42372.507589710876 510354.79197242856 0 510354.79197242856 7378788.6556200385 0 0 0 0 -131674742.67665601 207484597.55240345 0 207484597.55240345 -207982834.96264267 0 0 0 0 -207507675.82170677 -52805124.63746357 0 -52805124.63746357 8798783.3986740112 0 0 0 0 -6215337.8982653543 3551504.8201275766 0 3551504.8201275766 4547571.0816198587 0 0 0 0 6750262.008329385 21440818.110518876 0 21440818.110518876 27044861.079476357 0 0 0 0 17342241.467760801 32293020.091264725 0 32293020.091264725 29928633.266838074 0 0 0 0 16532561.564036369 36409410.173252106 0 36409410.173252106 42188539.448301315 0 0 0 0 2207250.5780993104 5891194.1651761681 0 5891194.1651761681 9226971.9982831627 0 0 0 0 -116026497.26871142 33360558.514617682 0 33360558.514617682 42741043.792419434 0 0 0 0 18757880.803946547 36172428.715028465 0 36172428.715028465 41310604.374118805 0 0 0 0 15012788.695251061 17712545.023021415 0 17712545.023021415 -6544320.0422397256 0 0 0 0 19484975.547961116 20524155.629669189 0 20524155.629669189 30426889.925884247 0 0 0 0 45394463.689130783 -110396776.79013062 0 -110396776.79013062 -108864099.26564217 0 0 0 0 12220099.054337978 32307061.8748703 0 32307061.8748703 47068824.413658142 0 0 0 0 18590017.443864107 16075097.216018036 0 16075097.216018036 -5522500.1138911098 0 0 0 0 83485131.381186485 14900394.367565155 0 14900394.367565155 -200553006.08335876 0 0 0 0 23892135.817577362 -40413462.709068298 0 -40413462.709068298 -251829246.50990295 0 0 0 0 469537330.92263699 -108341591.84878922 0 -108341591.84878922 -241815201.41623688 0 0 0 0 169072284.26252389 144205912.90834618 0 144205912.90834618 27838688.04864502 0 0 0 0 16022762.2721591 -338027729.27919579 0 -338027729.27919579 -4857237.1320266724 0 0 0 0 722004187.22059441 -307906736.31544876 0 -307906736.31544876 -19176024.024093628 0 0 0 0 943735315.73284566 481531813.29265499 0 481531813.29265499 155739171.34281158 0 0 0 0 22352362.772354126 -699772885.46977234 0 -699772885.46977234 1595213141.4670258 0 0 0 0 608565397.19185019 -586148951.84412766 0 -586148951.84412766 8673009.538734436 0 0 0 0 3450044.2876345776 -6339631.5498611834 0 -6339631.5498611834 15173504.649233341 0 0 0 0 495822097.35625672 -931436083.85006428 0 -931436083.85006428 611361997.93643188 0 0 0 0 209356851.29434586 23584197.573562622 0 23584197.573562622 -399122577.42123032 0 0 0 0 236850410.62009621 -420066891.98414993 0 -420066891.98414993 158742332.09585571 0 0 0 0 382395788.11141777 -361023190.33408737 0 -361023190.33408737 102430700.41918182 0 0 0 0 329423390.05329418 608225533.21052933 0 608225533.21052933 1161027670.0253448 0 0 0 0 368598405.57250786 255733185.86862564 0 255733185.86862564 140456478.68036652 0 0 0 0 -1036292.4511304162 -628488.47905466706 0 -628488.47905466706 5612357.9602718353 0 0 0 0 -726176051.97589016 298595090.58363724 0 298595090.58363724 1639678807.0257454 0 0 0 0 -259573304.75688171 137823646.47101593 0 137823646.47101593 1394879824.7979088 0 0 0 0 144698541.30494595 -521923716.81398869 0 -521923716.81398869 940613006.43226624 0 0 0 0 -275424887.8888607 -161778684.3433876 0 -161778684.3433876 872008851.46370316 0 0 0 0 -184044996.48034406 -323650603.77882004 0 -323650603.77882004 730051902.29703522 0 0 0 0 -163156607.86511421 -38503699.043807983 0 -38503699.043807983 708613745.56524658 0 0 0 0 -234360947.47352695 -33739552.685279846 0 -33739552.685279846 730314019.7394104 0 0 0 0 -81107275.296223164 106917370.76139832 0 106917370.76139832 445074426.89874268 0 0 0 0 -163050172.31214905 -60394485.437519073 0 -60394485.437519073 495440845.47270203 0 0 0 0 111541481.34480953 490320451.36817169 0 490320451.36817169 952377031.8897934 0 0 0 0 -249883763.96187115 -4136126.0997638702 0 -4136126.0997638702 885139198.53793335 0 0 0 0 -47161554.055169106 243053419.24990845 0 243053419.24990845 751780229.63857651 0 0 0 0 -81316921.092814922 113333275.50953293 0 113333275.50953293 390335948.59236145 0 0 0 0 35895033.871727943 191824454.50751877 0 191824454.50751877 342968182.66696167 0 0 0 0 22618067.215685844 162025412.41716385 0 162025412.41716385 364576562.75263977 0 0 0 0 111816788.72301197 154327821.88316727 0 154327821.88316727 112707177.87432861 0 0 0 0 22902978.786876678 114616702.42517662 0 114616702.42517662 261715191.85765076 0 0 0 0 38660124.019952774 68216067.197311401 0 68216067.197311401 155373795.07376099 0 0 0 0 34972500.131958008 69210194.619804382 0 69210194.619804382 155335620.82829285 0 0 0 0 29776465.806442261 48404631.098350525 0 48404631.098350525 115305342.97363281 0 0 0 0 32199371.222906113 9524349.3269958496 0 9524349.3269958496 76563550.665283203 0 0 0 0 61292743.619752884 -16564697.101350784 0 -16564697.101350784 25088522.949798584 0 0 0 0 -44274410.392373085 -25932308.981624603 0 -25932308.981624603 77769060.610038757 0 0 0 0 -63896059.347658157 1324745.3229675293 0 1324745.3229675293 392379431.65848541 0 0 0 0 -41425135.037534714 2286835.3291625977 0 2286835.3291625977 274452111.03684998 0 0 0 0 -64020577.482337952 56484698.175796509 0 56484698.175796509 367279161.81580734 0 0 0 0 -63317335.960884094 45801887.9167099 0 45801887.9167099 430999232.89989471 0 0 0 0 8941218.908854723 32476915.024850845 0 32476915.024850845 146585228.65716553 0 0 0 0 4050913.3111572266 20005028.790863037 0 20005028.790863037 176293040.53507233 0 0 0 0 -28934344.98538208 22052695.630065918 0 22052695.630065918 269528063.08548355 0 0 0 0 -15259308.000050545 -15550741.691755295 0 -15550741.691755295 151737250.27825928 0 0 0 0 -9274679.3398780003 15526652.625419438 0 15526652.625419438 13275967.206721835 0 0 0 0 28076079.831401825 -117795.32727050781 0 -117795.32727050781 -11005660.205806732 0 0 0 0 -20844019.629653931 25740481.314056396 0 25740481.314056396 56676551.172454834 0 0 0 0 20899999.777893066 21174848.629501343 0 21174848.629501343 -8552941.4359722137 0 0 0 0 10548755.256397247 -15658804.515960693 0 -15658804.515960693 33817467.362304688 0 0 0 0 -11861859.233076096 -1488916.6072616577 0 -1488916.6072616577 73462108.957183838 0 0 0 0 -19618124.869219422 -21733107.187637329 0 -21733107.187637329 84727373.182830811 0 0 0 0 -10397197.91230011 13061681.519454956 0 13061681.519454956 137598739.39803314 0 0 0 0 15031335.573503494 451779.17533874512 0 451779.17533874512 77250316.644989014 0 0 0 0 27251952.430370331 7451730.9059448242 0 7451730.9059448242 23909777.767295837 0 0 0 0 13092287.882795334 3309101.7656097412 0 3309101.7656097412 77710753.468200684 0 0 0 0 25179848.077793121 2147208.3446044922 0 2147208.3446044922 33098110.15070343 0 0 0 0 26344004.848500252 2950964.0617771149 0 2950964.0617771149 43074049.585205078 0 0 0 0 21901443.630710602 17503577.750671387 0 17503577.750671387 39376243.260620117 0 0 0 0 29267638.211849213 12636395.594909668 0 12636395.594909668 37458012.26776886 0 0 0 0 4758362.6195087433 3688508.4487304688 0 3688508.4487304688 137060537.49683762 0 0 0 0 21222767.021059036 21345413.752250671 0 21345413.752250671 70376828.493560791 0 0 0 0 18249494.470495701 4358269.2150392532 0 4358269.2150392532 78535349.259735107 0 0 0 0 23135787.615882874 14907322.449081421 0 14907322.449081421 17789330.840820312 0 0 0 0 14784151.71575737 7349719.8101959229 0 7349719.8101959229 38188340.980194092 0 0 0 0 28080101.274017334 17406808.919174194 0 17406808.919174194 23529841.066345215 0 0 0 0 19066926.306632996 15182171.65802002 0 15182171.65802002 23065595.513519287 0 0 0 0 28638703.37898922 23894214.494758606 0 23894214.494758606 10530203.203796387 0 0 0 0 33036193.268537521 9371254.7766571045 0 9371254.7766571045 11901551.869506836 0 0 0 0 -5640118.9323062897 -28345566.206130981 0 -28345566.206130981 -1122436.1522216797 0 0 0 0 -39010457.662209511 -26263880.445068359 0 -26263880.445068359 40861633.719207764 0 0 0 0 -26364137.88551116 -34406554.587272644 0 -34406554.587272644 45263692.809280396 0 0 0 0 -6147689.137806654 -22140615.353239059 0 -22140615.353239059 39882089.337493896 0 0 0 0 -28407232.3468647 -23468223.020233154 0 -23468223.020233154 50857933.758903503 0 0 0 0 22817313.877836227 -18334051.888534546 0 -18334051.888534546 35835473.998931885 0 0 0 0 11132669.244085312 15218935.049453735 0 15218935.049453735 77499260.280181885 0 0 0 0 16092151.408603668 22901762.669311523 0 22901762.669311523 47860653.325317383 0 0 0 0 14005945.622917175 -7585063.6444244385 0 -7585063.6444244385 46360153.575973511 0 0 0 0 -10984934.427901506 4007365.471862793 0 4007365.471862793 42153990.108886719 0 0 0 0 -12619045.59336853 -2622667.5808868408 0 -2622667.5808868408 36908903.666931152 0 0 0 0 -23024745.458431244 23407053.211868286 0 23407053.211868286 16144481.493911743 0 0 0 0 -25829315.367012024 3700727.0253601074 0 3700727.0253601074 33980341.847320557 0 0 0 0 -2457953.1328659058 19338941.443115234 0 19338941.443115234 32072010.998687744 0 0 0 0 4597331.0426292419 14391931.321151733 0 14391931.321151733 28343810.84161377 0 0 0 0 3850011.2166099548 24623990.435440063 0 24623990.435440063 14520822.088935852 0 0 0 0 -22088653.141662598 13945394.753387451 0 13945394.753387451 28349472.191877365 0 0 0 0 -21914218.439058304 -4458913.0432395935 0 -4458913.0432395935 24212625.951599121 0 0 0 0 -46369059.061460495 5547744.1071929932 0 5547744.1071929932 24613944.011726379 0 0 0 0 -44526640.921756744 -15325805.323638916 0 -15325805.323638916 19357100.938209534 0 0 0 0 -16894204.675275803 2797810.5039749146 0 2797810.5039749146 24223878.811950684 0 0 0 0 -37602111.364893913 -10041769.298141479 0 -10041769.298141479 18056715.487304688 0 0 0 0 -37661070.060584068 -17454041.957572937 0 -17454041.957572937 39205655.699493408 0 0 0 0 -6888393.7727827802 -3080271.6293860041 0 -3080271.6293860041 26978893.140088022 0 0 0 0 -586872522.68182373 123358709.32328033 0 123358709.32328033 -105679442.19428253 0 0 0 0 -7400521.1882986594 -5319257.9439317137 0 -5319257.9439317137 31928061.360396892 0 0 0 0 -437997223.05134201 177754157.02794266 0 177754157.02794266 -132649232.58628845 0 0 0 0 64123837.077213287 -230287418.38556671 0 -230287418.38556671 219139354.03945923 0 0 0 0 -595330130.49211335 255037208.20376658 0 255037208.20376658 -78686215.290504456 0 0 0 0 -30595612.885574341 -219339369.60603714 0 -219339369.60603714 363175948.59004211 0 0 0 0 -2691972.0367798451 -1984919.0283189006 0 -1984919.0283189006 6036405.4736712873 0 0 0 0 -27358298.440190315 -183531410.59476089 0 -183531410.59476089 397189151.02477837 0 0 0 0 98272744.425384521 -114081787.18843842 0 -114081787.18843842 9647689.8884124756 0 0 0 0 -408562693.38409424 211759706.36803627 0 211759706.36803627 132389544.56987 0 0 0 0 -128181533.77378464 -65069428.345367432 0 -65069428.345367432 358266493.19042206 0 0 0 0 2238992.8491216889 -14408946.781840466 0 -14408946.781840466 40412059.411930621 0 0 0 0 -578833435.67840958 -328958717.7191391 0 -328958717.7191391 481749108.44815063 0 0 0 0 -11864708.798127174 -21670662.714748383 0 -21670662.714748383 76749001.886352539 0 0 0 0 8624557.5074472427 -81547756.106582642 0 -81547756.106582642 176047154.69090843 0 0 0 0 -71000502.413728714 15360445.358123779 0 15360445.358123779 36634600.065568924 0 0 0 0 -2147847.8991808062 -10263712.932548299 0 -10263712.932548299 7800246.8848548532 0 0 0 0 -41702389.160565078 10426511.776834488 0 10426511.776834488 71208714.846488953 0 0 0 0 -19065159.08120358 -5418716.7469749451 0 -5418716.7469749451 48483930.262023926 0 0 0 0 -27165014.178025007 -707745.49950027466 0 -707745.49950027466 49210664.869949341 0 0 0 0 -24882704.991084278 8859612.0938110352 0 8859612.0938110352 87925832.812850952 0 0 0 0 -14068683.718094349 -29936874.012672424 0 -29936874.012672424 121643275.68193054 0 0 0 0 -23177421.320824265 -5306656.4404678345 0 -5306656.4404678345 62764473.851455688 0 0 0 0 -11220627.26540184 10051777.400939941 0 10051777.400939941 85029545.193809509 0 0 0 0 -683539704.99648356 134758615.04979014 0 134758615.04979014 -140209383.53488922 0 0 0 0 -9501813.2278295606 1574861.024361942 0 1574861.024361942 45671060.910816699 0 0 0 0 -567777369.07437408 295689391.66618395 0 295689391.66618395 16299653.900245667 0 0 0 0 -495016767.41602802 -56590355.695888519 0 -56590355.695888519 47969842.74007988 0 0 0 0 -3435695.3204054488 -814889.39422596246 0 -814889.39422596246 13038566.594628468 0 0 0 0 -672067167.98435128 550173062.90781546 0 550173062.90781546 -230199994.50669861 0 0 0 0 -622091.13674679771 -3031055.0408970937 0 -3031055.0408970937 10942645.002223745 0 0 0 0 27287358.011021614 -117226739.28639412 0 -117226739.28639412 -47113491.86378479 0 0 0 0 -452415445.02763557 317638245.60522079 0 317638245.60522079 -110476434.19379425 0 0 0 0 -11178332.096780777 -8176894.1819725037 0 -8176894.1819725037 27010647.592979431 0 0 0 0 6853497.5913724899 18476880.812652588 0 18476880.812652588 6570315.4278717041 0 0 0 0 -10577576.399393808 -1179797.5899813622 0 -1179797.5899813622 21240378.611718334 0 0 0 0 13467969.734374285 33957796.100727081 0 33957796.100727081 35414378.293548584 0 0 0 0 -35615623.245563745 -12411373.955099106 0 -12411373.955099106 -2171531.1357116699 0 0 0 0 -3775922.8819623999 -9456334.7485433295 0 -9456334.7485433295 50367678.321156502 0 0 0 0 -16067094.843419921 -10747338.24906531 0 -10747338.24906531 26891419.519226044 0 0 0 0 -32586734.33981514 -14747347.310470581 0 -14747347.310470581 -8103027.9728393555 0 0 0 0 -17065201.585561752 -8626155.1568603516 0 -8626155.1568603516 54398714.098141193 0 0 0 0 -24446548.919888258 -15095026.44474411 0 -15095026.44474411 65396579.746871948 0 0 0 0 -13531126.835115671 -1190834.3963699341 0 -1190834.3963699341 67635961.703140259 0 0 0 0 -24159462.688511133 -13634159.25810051 0 -13634159.25810051 72431599.241226196 0 0 0 0 -4074639.9920582771 -6235871.6772003174 0 -6235871.6772003174 56296980.721630096 0 0 0 0 -1748990.9024264491 -2064755.0898373462 0 -2064755.0898373462 1085061.7251226306 0 0 0 0 13837107.506247312 38609439.546773434 0 38609439.546773434 85057680.756507874 0 0 0 0 -10944101.478580236 -158807264.81694412 0 -158807264.81694412 50303275.688613892 0 0 0 0 152908198.22624016 118550744.5524292 0 118550744.5524292 41682171.249252081 0 0 0 0 101384115.12539124 -95988649.481575012 0 -95988649.481575012 130254558.84918404 0 0 0 0 -9270748.9854874611 -1817195.9705123901 0 -1817195.9705123901 151679342.2964859 0 0 0 0 26512127.859792471 -21882042.205047607 0 -21882042.205047607 58264931.810699463 0 0 0 0 23936551.08516109 -1810796.516418457 0 -1810796.516418457 13103808.169174194 0 0 0 0 -16207263.377498984 -10224099.260299683 0 -10224099.260299683 55594198.55670929 0 0 0 0 -93233469.730696917 16986450.578529358 0 16986450.578529358 59610793.165374756 0 0 0 0 -12612179.242773414 -29784260.417886734 0 -29784260.417886734 59086371.611824036 0 0 0 0 -1944609.1887317207 -15287947.018028654 0 -15287947.018028654 49192794.458850294 0 0 0 0 -2718040.8275309843 -13855989.838396385 0 -13855989.838396385 13576347.018814109 0 0 0 0 59987140.455781162 -53984240.333347321 0 -53984240.333347321 -22806295.604906082 0 0 0 0 -4259769.5796770453 79909260.805833817 0 79909260.805833817 80294369.330413818 0 0 0 0 -21617115.685878515 -43837325.838140488 0 -43837325.838140488 -66361255.703866959 0 0 0 0 -75592508.170693755 130409803.09015656 0 130409803.09015656 51646798.153259277 0 0 0 0 -9035245.3851761818 -22223539.96717453 0 -22223539.96717453 45171192.014282227 0 0 0 0 -1254835.7743762881 -13438920.662138969 0 -13438920.662138969 8995398.2504353337 0 0 0 0 244734.64214706421 -36519164.534934998 0 -36519164.534934998 62894687.656433105 0 0 0 0 -478254796.46304321 127561425.83668709 0 127561425.83668709 -12332846.112327576 0 0 0 0 -11993298.445313521 4017139.3935775682 0 4017139.3935775682 52324038.571637794 0 0 0 0 -11827601.316074848 -16742309.491882324 0 -16742309.491882324 51757408.2927742 0 0 0 0 512559921.37672508 -501384094.04601097 0 -501384094.04601097 -15865243.356292725 0 0 0 0 -265406516.8011435 328030018.63084221 0 328030018.63084221 756984875.33070374 0 0 0 0 68666284.575827241 -259707088.06138611 0 -259707088.06138611 232631631.07097626 0 0 0 0 -3350165.9811073439 -7514548.0586014539 0 -7514548.0586014539 34126580.942963928 0 0 0 0 -368747885.22207326 109984506.22831726 0 109984506.22831726 163533688.58213043 0 0 0 0 -259755598.6025182 58332495.524642944 0 58332495.524642944 116406920.56176567 0 0 0 0 -845424.48885514459 -1086711.5996060111 0 -1086711.5996060111 6682093.1335652918 0 0 0 0 -431663283.32339716 272932523.83482933 0 272932523.83482933 97726713.31804657 0 0 0 0 -242435350.77092409 211420531.81362915 0 211420531.81362915 76413792.203933716 0 0 0 0 -62970421.49405694 39788865.483005524 0 39788865.483005524 47048019.017568588 0 0 0 0 -152653612.19671184 206798945.25697327 0 206798945.25697327 -163024229.95500183 0 0 0 0 72117637.963627428 -15972231.468877792 0 -15972231.468877792 107444184.29084778 0 0 0 0 -74578878.005429506 61022545.391113728 0 61022545.391113728 133695046.88749695 0 0 0 0 -73192317.035331279 93718895.080451965 0 93718895.080451965 267420147.91457367 0 0 0 0 -66323521.959250391 -175888307.87608814 0 -175888307.87608814 712281655.32562256 0 0 0 0 18594505.582178473 -154147760.95855331 0 -154147760.95855331 252605981.84091187 0 0 0 0 -375597701.8469007 -75672913.142150879 0 -75672913.142150879 411181623.9500885 0 0 0 0 -165128476.55526683 -205031396.57953262 0 -205031396.57953262 55023970.710777283 0 0 0 0 -161608961.81569999 -89212237.504486084 0 -89212237.504486084 504510165.92384338 0 0 0 0 109578858.56768641 -495063342.67838287 0 -495063342.67838287 512283072.59655517 0 0 0 0 36508180.861916363 -117025504.65704727 0 -117025504.65704727 146950923.15505219 0 0 0 0 -179055921.51026931 -417922346.53251839 0 -417922346.53251839 1382259195.5874939 0 0 0 0 -117727163.82140157 -226622173.8871479 0 -226622173.8871479 687913919.53319168 0 0 0 0 -422051010.91113722 -486787765.13684464 0 -486787765.13684464 2205275708.3333688 0 0 0 0 -216770641.3193163 -699333697.52193737 0 -699333697.52193737 1329002353.4577637 0 0 0 0 -112957241.12599429 -1003956770.0147796 0 -1003956770.0147796 2201414355.8911705 0 0 0 0 -316805918.43913227 -63164037.34497261 0 -63164037.34497261 2204830302.6847878 0 0 0 0 -362609806.90469569 -290766023.1821394 0 -290766023.1821394 1516098214.3740425 0 0 0 0 -196823972.48290002 -185565704.95351791 0 -185565704.95351791 1554873829.160099 0 0 0 0 148750691.08007234 108919590.5332675 0 108919590.5332675 222417505.90794373 0 0 0 0 85544118.397316158 270668133.99730301 0 270668133.99730301 762340697.80944443 0 0 0 0 83921823.208274424 -89494569.340959072 0 -89494569.340959072 309314486.96887207 0 0 0 0 71443855.741723239 89653468.116996765 0 89653468.116996765 354797548.21059418 0 0 0 0 70821001.443573773 66698746.599143982 0 66698746.599143982 104910299.06599808 0 0 0 0 -93143005.791611522 32244401.463256836 0 32244401.463256836 -16740024.06375885 0 0 0 0 -65486521.608324215 -101065552.65398979 0 -101065552.65398979 269030224.72463226 0 0 0 0 2264794.8816347253 -14618125.262149565 0 -14618125.262149565 27182862.528834373 0 0 0 0 49296839.560515344 163408109.70168495 0 163408109.70168495 76909040.708859444 0 0 0 0 1702923.3194269571 -3194857.7999241687 0 -3194857.7999241687 13667181.529353559 0 0 0 0 339378344.69604135 -544825928.34855652 0 -544825928.34855652 391552037.27185822 0 0 0 0 104135753.463247 661591825.48917675 0 661591825.48917675 1770781364.5568047 0 0 0 0 582193853.27837205 -39720886.625787735 0 -39720886.625787735 2204621333.576252 0 0 0 0 104102447.71670018 -410327501.86765862 0 -410327501.86765862 2168375245.9522047 0 0 0 0 -186779824.08235842 -14404756.513995647 0 -14404756.513995647 2204651936.8043098 0 0 0 0 -42536136.856972441 395935091.28720474 0 395935091.28720474 2150262950.5826492 0 0 0 0 -28230824.259102367 -351030175.55401802 0 -351030175.55401802 973613109.02116394 0 0 0 0 -99859207.257160679 -353466310.07800674 0 -353466310.07800674 2314663810.6424289 0 0 0 0 -423245249.04583579 111442084.98773575 0 111442084.98773575 2145442030.2430916 0 0 0 0 -91645277.976253912 -219729877.2805177 0 -219729877.2805177 638767286.67996216 0 0 0 0 -96693012.043309212 -13547086.881505966 0 -13547086.881505966 643244207.37915611 0 0 0 0 253016384.75142565 -152485049.84495544 0 -152485049.84495544 -122096601.93395233 0 0 0 0 -9613054.4701837897 -10622635.435316086 0 -10622635.435316086 108389130.98416901 0 0 0 0 -142009.01613681251 53074.016371890903 0 53074.016371890903 265884.44043681026 0 0 0 0 -36053610.955644958 46877503.192534983 0 46877503.192534983 22069286.211097717 0 0 0 0 -34639952.408944845 5237443.9637527466 0 5237443.9637527466 66658504.014915466 0 0 0 0 -3005726.9416394234 -13050670.021995544 0 -13050670.021995544 76041607.094177246 0 0 0 0 -5865222.6377939582 -12758997.100240707 0 -12758997.100240707 78265544.966423035 0 0 0 0 -3196971.0144944913 -24880115.118759751 0 -24880115.118759751 8378392.4874355271 0 0 0 0 -10893918.989902241 -22427469.494289666 0 -22427469.494289666 19566648.328647416 0 0 0 0 -6181724.1183955669 -17056888.855579376 0 -17056888.855579376 81639633.202301025 0 0 0 0 -3034420.0270000696 -11389302.072780609 0 -11389302.072780609 63595868.147964478 0 0 0 0 3565684.8240119219 -2544705.3039875031 0 -2544705.3039875031 63841041.72694397 0 0 0 0 8020196.5998769403 -12852047.687932968 0 -12852047.687932968 61929649.978256226 0 0 0 0 18958252.841242313 -7353991.948928833 0 -7353991.948928833 63313372.310241699 0 0 0 0 11573474.76357305 -6663227.1291885376 0 -6663227.1291885376 62653285.768722534 0 0 0 0 6419472.1522886753 -12343227.158687592 0 -12343227.158687592 62138533.381767273 0 0 0 0 6723560.2038605213 -20977354.805438995 0 -20977354.805438995 45121376.276821136 0 0 0 0 14421127.315309048 -19610520.656211853 0 -19610520.656211853 65727131.452056885 0 0 0 0 8024002.3413119316 -3378822.9360046387 0 -3378822.9360046387 77758146.274436951 0 0 0 0 10806424.50762099 -9551290.5652084351 0 -9551290.5652084351 81121399.303771973 0 0 0 0 26963168.150225639 635189.38735961914 0 635189.38735961914 83623643.053665161 0 0 0 0 12197887.773447037 -10611025.713256836 0 -10611025.713256836 111077322.06336975 0 0 0 0 17636730.596564293 4816788.5774841309 0 4816788.5774841309 124839630.41412354 0 0 0 0 18627800.175410271 11925188.776916504 0 11925188.776916504 144747181.08940125 0 0 0 0 -9653061.2362990379 -16353459.471536636 0 -16353459.471536636 99585119.211364746 0 0 0 0 15762396.248851299 -16268331.707790375 0 -16268331.707790375 98876628.025177002 0 0 0 0 55532949.221809387 3302016.5833587646 0 3302016.5833587646 103768699.82766724 0 0 0 0 12383589.584926605 -44444782.126144409 0 -44444782.126144409 129276936.59263611 0 0 0 0 -3942213.9528722763 -3615364.6384429932 0 -3615364.6384429932 88753187.349273682 0 0 0 0 6866562.1186459064 -6223034.1904716492 0 -6223034.1904716492 83790657.640319824 0 0 0 0 9311856.9589408636 -5303980.5258407593 0 -5303980.5258407593 80883778.314346313 0 0 0 0 12502202.050368309 -14361610.825424194 0 -14361610.825424194 85793473.091499329 0 0 0 0 10673235.338976622 -5974731.6164016724 0 -5974731.6164016724 107609394.90307617 0 0 0 0 13880101.540914536 -5380254.9166488647 0 -5380254.9166488647 95553764.215881348 0 0 0 0 7379113.7641878128 -14828566.985046387 0 -14828566.985046387 123609624.21011353 0 0 0 0 9667462.6808972359 -17618410.659820557 0 -17618410.659820557 100275152.60083008 0 0 0 0 10399396.227822065 -16369666.507926941 0 -16369666.507926941 93727721.942657471 0 0 0 0 6412361.9943385124 -18135428.646774292 0 -18135428.646774292 92978465.19631958 0 0 0 0 6383314.0593957901 -19427864.595062256 0 -19427864.595062256 110911812.02966309 0 0 0 0 -3085625.5014941692 -9375997.66639328 0 -9375997.66639328 60250538.118247986 0 0 0 0 924911.42514371872 -12751713.607543945 0 -12751713.607543945 94014544.564544678 0 0 0 0 2723532.5299488902 -11783614.309345245 0 -11783614.309345245 77944981.470291138 0 0 0 0 -5679308.7029471397 -5355449.2677459717 0 -5355449.2677459717 80480319.158103943 0 0 0 0 1516145.0957260132 -14336546.367370605 0 -14336546.367370605 75924288.609931946 0 0 0 0 -9041589.1838033199 -15406342.268692017 0 -15406342.268692017 90457736.816635132 0 0 0 0 -21043929.367586613 -12563383.939399719 0 -12563383.939399719 80741174.164741516 0 0 0 0 -15639073.720246583 -4139892.2951507568 0 -4139892.2951507568 40808644.617538452 0 0 0 0 -9385651.3915457726 -7494138.4593811035 0 -7494138.4593811035 82915294.201421738 0 0 0 0 -9838172.4711347222 13947744.037305832 0 13947744.037305832 19987259.606452942 0 0 0 0 -31779839.160301924 4899579.712184906 0 4899579.712184906 62993400.542655945 0 0 0 0 2900591.2253856659 -5525835.959854126 0 -5525835.959854126 55337008.645366669 0 0 0 0 -470995.68459524913 206824.86871527135 0 206824.86871527135 640438.5163038075 0 0 0 0 -7200177.4063997865 -24875894.500110626 0 -24875894.500110626 87997190.131389618 0 0 0 0 -19716300.853249311 -12258395.429325104 0 -12258395.429325104 78947120.909414887 0 0 0 0 -14726435.925962061 -4345641.50593853 0 -4345641.50593853 78732776.180801392 0 0 0 0 -197570.88799382886 59819.890465989709 0 59819.890465989709 333870.96051564813 0 0 0 0 -44218993.030649006 45451372.850364685 0 45451372.850364685 30389987.456260681 0 0 0 0 -43577726.315410852 -23838290.382507324 0 -23838290.382507324 100006363.29107666 0 0 0 0 -17016241.589466572 -36028705.565395355 0 -36028705.565395355 91576340.562812805 0 0 0 0 -17629183.782284081 -15077318.483478546 0 -15077318.483478546 50685243.318481445 0 0 0 0 -9291074.5091613531 -30600974.365760803 0 -30600974.365760803 78355946.649963379 0 0 0 0 -22279411.600486193 -27545622.908888631 0 -27545622.908888631 86823743.750679016 0 0 0 0 -22260941.868275106 -34346178.479606628 0 -34346178.479606628 92773926.441078186 0 0 0 0 -16461018.97860986 -35491978.37115097 0 -35491978.37115097 84700518.032829285 0 0 0 0 -22175263.410724878 -38455897.956069946 0 -38455897.956069946 85065664.35975647 0 0 0 0 -16610318.545535743 -34834088.964054108 0 -34834088.964054108 68002704.390228271 0 0 0 0 -526366.98772335052 -27326364.828227997 0 -27326364.828227997 83661747.799762726 0 0 0 0 -16877531.937943816 -34344769.772712708 0 -34344769.772712708 80668426.476318359 0 0 0 0 9571418.4777052402 -42527684.618896484 0 -42527684.618896484 76620109.273109436 0 0 0 0 -17838453.375444651 -9134203.8586997986 0 -9134203.8586997986 81683536.112003326 0 0 0 0 -8838632.6434602737 -23242162.568201065 0 -23242162.568201065 91291114.837463379 0 0 0 0 23251238.349543214 -22888120.319396973 0 -22888120.319396973 70781167.446842194 0 0 0 0 -4636111.486163497 -20236820.992019653 0 -20236820.992019653 71969745.05238533 0 0 0 0 8779564.4694776535 -66906579.210048676 0 -66906579.210048676 139748477.85690689 0 0 0 0 17674182.054627061 -30270352.920352936 0 -30270352.920352936 81861239.636322021 0 0 0 0 8469313.9387360811 -29715524.929580688 0 -29715524.929580688 60961577.786678314 0 0 0 0 94904.892973495647 -26630094.938112944 0 -26630094.938112944 9686858.411369998 0 0 0 0 57918373.152988195 -47209794.574077606 0 -47209794.574077606 4215574.6763820648 0 0 0 0 142124735.75056392 -14838599.338523865 0 -14838599.338523865 1141399.8552932739 0 0 0 0 -1466729.4201372787 -25734415.3227157 0 -25734415.3227157 15734924.795747738 0 0 0 0 1326742.3357256651 2603379.1140975952 0 2603379.1140975952 41736358.303985596 0 0 0 0 -180741211.42460644 -16472839.864068985 0 -16472839.864068985 641838396.56432343 0 0 0 0 -95018952.767319798 137329789.78904724 0 137329789.78904724 638316492.17255116 0 0 0 0 -270129269.14029503 208366327.43448257 0 208366327.43448257 1306162583.4281998 0 0 0 0 -388118251.55121809 201809647.18739128 0 201809647.18739128 1321433936.8090839 0 0 0 0 -156681194.53937328 544539280.89852333 0 544539280.89852333 1089025501.4720039 0 0 0 0 -138107942.34494328 232448419.82889938 0 232448419.82889938 988308204.76137543 0 0 0 0 -428274329.50794357 437384671.35024452 0 437384671.35024452 2205461214.7597466 0 0 0 0 1337431396.2262027 723700438.16341209 0 723700438.16341209 113586534.03030396 0 0 0 0 5016989.3974576611 4620731.3515477255 0 4620731.3515477255 6424342.5968155563 0 0 0 0 -100265805.782654 653081974.31808472 0 653081974.31808472 1279377227.1184845 0 0 0 0 354316860.36771929 1488694281.7150383 0 1488694281.7150383 2200880079.8039551 0 0 0 0 122825156.52819347 -44659755.562660217 0 -44659755.562660217 72466684.991859436 0 0 0 0 55274154.382847071 175840846.60509109 0 175840846.60509109 339904209.65959692 0 0 0 0 890212869.3155967 537428377.69750977 0 537428377.69750977 285698852.19148254 0 0 0 0 -5255668.1428679032 -22900102.810246512 0 -22900102.810246512 23356131.307102919 0 0 0 0 51254198.686995506 -20602513.307617188 0 -20602513.307617188 78220140.194145203 0 0 0 0 -19899111.948039412 -22270725.530563354 0 -22270725.530563354 74432318.719802856 0 0 0 0 154962796.98336893 276420495.13887405 0 276420495.13887405 370720906.34574127 0 0 0 0 22829639.720986128 -56769868.917922974 0 -56769868.917922974 7925376.5057983398 0 0 0 0 -11758536.146470882 -13134093.305339813 0 -13134093.305339813 90577265.634353638 0 0 0 0 837977.29465999524 -2027735.6199440658 0 -2027735.6199440658 -7104830.7899041921 0 0 0 0 -2813255.364972353 -45379216.255157471 0 -45379216.255157471 -15474707.860897064 0 0 0 0 -296040.62893208512 254062.86889578402 0 254062.86889578402 7882778.3152806014 0 0 0 0 -33853515.495360374 -48024843.491569519 0 -48024843.491569519 33846036.119110107 0 0 0 0 -10984235.352365784 -8562832.9169340134 0 -8562832.9169340134 20974287.673019409 0 0 0 0 -29058366.261650085 -30569951.611755371 0 -30569951.611755371 67853213.435726166 0 0 0 0 -11702350.958446383 -34426506.873336792 0 -34426506.873336792 28961953.135299683 0 0 0 0 -20238824.602199465 -24613365.97555542 0 -24613365.97555542 44990152.628097534 0 0 0 0 -5395549.9839652181 -39980742.845436096 0 -39980742.845436096 58537967.751556396 0 0 0 0 2870360.5920202732 -27409374.890060425 0 -27409374.890060425 45367025.831611633 0 0 0 0 2387236.7729291916 -28450814.402854919 0 -28450814.402854919 23544690.506256104 0 0 0 0 9854690.7796070576 -39199295.664592743 0 -39199295.664592743 38983802.114425659 0 0 0 0 -5260453.638209343 -40761744.817565918 0 -40761744.817565918 37921989.964164734 0 0 0 0 -21814954.945232302 -26085741.90146637 0 -26085741.90146637 27352941.713317871 0 0 0 0 20395976.048158109 -23335814.527954102 0 -23335814.527954102 29470552.235488892 0 0 0 0 44419517.156398475 -35242008.278190613 0 -35242008.278190613 34559892.370429993 0 0 0 0 -360135.92947971064 -3759387.444541648 0 -3759387.444541648 2659698.6745338142 0 0 0 0 11460562.963784665 -33352962.69908905 0 -33352962.69908905 22327318.864543915 0 0 0 0 4441163.8426813111 -19825853.492538452 0 -19825853.492538452 23246036.406524658 0 0 0 0 -856416.94986240938 6547902.1151618958 0 6547902.1151618958 41663671.265136719 0 0 0 0 -1322439.7073307987 -3335622.1590414941 0 -3335622.1590414941 3559530.5212818384 0 0 0 0 -8066314.295375606 -15646900.437247753 0 -15646900.437247753 31269971.287150323 0 0 0 0 9719275.8605713248 -36992751.870872498 0 -36992751.870872498 2385138.9546917677 0 0 0 0 -14835679.045610011 -144738129.19458723 0 -144738129.19458723 43368899.777099609 0 0 0 0 11296729.439791322 -39709393.816364288 0 -39709393.816364288 7031674.3175506592 0 0 0 0 -98137.971039533615 -26301961.21169281 0 -26301961.21169281 2310964.1781921387 0 0 0 0 -19836662.703948736 -22450087.261879921 0 -22450087.261879921 26770674.924713135 0 0 0 0 4246272.0048193932 -36101430.915206909 0 -36101430.915206909 24124611.457325935 0 0 0 0 -182881929.64320755 116592310.5864563 0 116592310.5864563 187816641.69099426 0 0 0 0 40928602.365176849 252935972.9610672 0 252935972.9610672 416958941.52198792 0 0 0 0 3789187.4542765487 7591330.3712698445 0 7591330.3712698445 23805792.850815386 0 0 0 0 -2292396.592377089 4518825.3002243042 0 4518825.3002243042 -1550383.9239196777 0 0 0 0 -701752.19656771421 -4117026.9323234558 0 -4117026.9323234558 9306428.306476593 0 0 0 0 1248232.593281514 -6566945.8446004093 0 -6566945.8446004093 17243587.414136007 0 0 0 0 1116255.5238782167 -4184149.2977981567 0 -4184149.2977981567 19162318.25402832 0 0 0 0 -40849197.522817731 -19718317.246734619 0 -19718317.246734619 -482009365.14770508 0 0 0 0 -1049015.8965491338 -356101.57482460141 0 -356101.57482460141 3103323.1587754339 0 0 0 0 310051.06127905578 -4633076.6831151694 0 -4633076.6831151694 8630138.3568682224 0 0 0 0 -13912263.363786444 -240504398.75598145 0 -240504398.75598145 -96216764.387557983 0 0 0 0 335951061.40352595 309439294.36214447 0 309439294.36214447 276226405.87885284 0 0 0 0 157371199.04864526 -129285373.69552612 0 -129285373.69552612 -117651598.21832275 0 0 0 0 -137681417.45542699 -102430034.53561401 0 -102430034.53561401 7601450.8700561523 0 0 0 0 189276949.10894039 304719481.58696365 0 304719481.58696365 363408424.26309204 0 0 0 0 313941.11908130557 -331903.86633707583 0 -331903.86633707583 6880149.9324169457 0 0 0 0 -310894892.51706934 191530859.00619125 0 191530859.00619125 2197479766.4638901 0 0 0 0 229988173.10747984 -755987019.41586304 0 -755987019.41586304 1039255009.7290573 0 0 0 0 93473195.761458576 430625595.47969055 0 430625595.47969055 531194611.21066284 0 0 0 0 176108839.71900612 -688242265.10028076 0 -688242265.10028076 2201062871.4873261 0 0 0 0 244470.61523157117 11308936.69631958 0 11308936.69631958 201918362.45734406 0 0 0 0 -24556467.912323691 -447555785.59084702 0 -447555785.59084702 2055530606.622261 0 0 0 0 -70523112.74723044 -79163158.163539886 0 -79163158.163539886 -49016994.013679504 0 0 0 0 680719.60819200147 -1446560.3396315873 0 -1446560.3396315873 2945438.4318743497 0 0 0 0 355388583.78913134 -601139678.65482521 0 -601139678.65482521 1013470203.4047241 0 0 0 0 -334678879.54818046 331323916.62400818 0 331323916.62400818 2365585186.888916 0 0 0 0 589152.07128988998 -2518904.0721244514 0 -2518904.0721244514 7794482.5470419228 0 0 0 0 -1280303.2223564747 -2349326.0100170076 0 -2349326.0100170076 9056730.2584106624 0 0 0 0 -58021879.08555606 -40995133.438686371 0 -40995133.438686371 56088669.715652466 0 0 0 0 -47585761.073069662 10528984.313827515 0 10528984.313827515 33418164.494281769 0 0 0 0 -47889447.631674051 -49312469.019493103 0 -49312469.019493103 -12932193.922515869 0 0 0 0 -58382358.361901551 21533302.777198792 0 21533302.777198792 79400250.281255722 0 0 0 0 30308589.784473702 -9184070.2949848175 0 -9184070.2949848175 -26830770.461761475 0 0 0 0 26939999.116256557 44774084.471273184 0 44774084.471273184 -19870607.403823853 0 0 0 0 -264928.39072888868 -709246.75314724445 0 -709246.75314724445 588978.17462061346 0 0 0 0 300919.7093167408 -125717.02625441179 0 -125717.02625441179 864030.02459052205 0 0 0 0 32102514.65067184 -53686013.146596909 0 -53686013.146596909 -78305445.178344727 0 0 0 0 7709994.0371829048 1858992.7316055298 0 1858992.7316055298 4157052.4328804016 0 0 0 0 -207189.70185894519 10533342.66588974 0 10533342.66588974 32112462.190853119 0 0 0 0 -152208.49045154275 -57659.818821191788 0 -57659.818821191788 27343.853436395526 0 0 0 0 -59119477.025031254 -44380081.64024353 0 -44380081.64024353 73480936.587165833 0 0 0 0 -79916.316815394792 -19840112.95619268 0 -19840112.95619268 65613309.91204834 0 0 0 0 16621974.223728321 -24037889.062324524 0 -24037889.062324524 78578116.812011719 0 0 0 0 16732071.350453615 -27498664.732582092 0 -27498664.732582092 107341492.70194244 0 0 0 0 25070371.521755338 -31284629.687019348 0 -31284629.687019348 105720707.34526825 0 0 0 0 65055552.776624054 -70227267.110107422 0 -70227267.110107422 77952941.268814087 0 0 0 0 4343668.5264024287 65179467.254272461 0 65179467.254272461 116879418.22375488 0 0 0 0 127827.33851291283 337784.80630834401 0 337784.80630834401 -723816.52910453081 0 0 0 0 25092418.466126144 -45576451.719459534 0 -45576451.719459534 109471221.02419281 0 0 0 0 14534970.929951698 -44063053.621334076 0 -44063053.621334076 67763666.859832764 0 0 0 0 9109745.6198300123 -28660161.669570923 0 -28660161.669570923 73688617.330924988 0 0 0 0 27955883.019400433 -44491389.070163727 0 -44491389.070163727 86151974.999664307 0 0 0 0 -13178263.176970959 -26629766.427780151 0 -26629766.427780151 65658432.364360809 0 0 0 0 -1892176.3991482556 -41334387.402000427 0 -41334387.402000427 84220988.91796875 0 0 0 0 -15955489.014332622 -38422627.981750488 0 -38422627.981750488 93408568.815170288 0 0 0 0 -7791768.6332722902 -30806033.450836182 0 -30806033.450836182 88447405.411346436 0 0 0 0 9947569.6807845533 -40725078.675010681 0 -40725078.675010681 91722525.246833801 0 0 0 0 -12712418.647113979 -30670502.285194397 0 -30670502.285194397 93859434.165415287 0 0 0 0 24244913.258262187 -34689482.902805328 0 -34689482.902805328 100081432.44593811 0 0 0 0 18362688.7367616 -28009118.725509644 0 -28009118.725509644 92905915.210830688 0 0 0 0 35577888.141563177 -26966493.812767029 0 -26966493.812767029 95958459.29391098 0 0 0 0 12913317.235015512 -30532239.992862701 0 -30532239.992862701 112646283.8763504 0 0 0 0 17157347.061496377 -29645053.946014404 0 -29645053.946014404 93392232.976940155 0 0 0 0 -16554917.194422036 -44732006.1197052 0 -44732006.1197052 104285592.4079895 0 0 0 0 -9406768.3728390932 -35831521.463226318 0 -35831521.463226318 100132340.96368408 0 0 0 0 -9667509.9398814738 -51823066.325157166 0 -51823066.325157166 171692403.0600847 0 0 0 0 -66849229.849369138 8955081.1767997742 0 8955081.1767997742 113444341.36375427 0 0 0 0 64727724.760457359 -19063605.8458004 0 -19063605.8458004 98342224.991271973 0 0 0 0 32012945.335555151 13457527.073177338 0 13457527.073177338 176628921.86990356 0 0 0 0 10703950.318359651 -12638190.771240234 0 -12638190.771240234 141178182.66055679 0 0 0 0 61992.496432064007 -31844324.141442321 0 -31844324.141442321 115158532.52737427 0 0 0 0 26466315.589441985 -20062687.644573212 0 -20062687.644573212 112862614.24434662 0 0 0 0 14677574.053243123 -20292086.693585396 0 -20292086.693585396 115178240.65765381 0 0 0 0 19896853.189444423 -119064062.81420976 0 -119064062.81420976 81787437.208945274 0 0 0 0 28596386.959881149 -46474801.325895905 0 -46474801.325895905 68386709.280914202 0 0 0 0 -20096047.208124638 -67737060.452473164 0 -67737060.452473164 44569392.608735085 0 0 0 0 44102076.139106274 323722188.94032598 0 323722188.94032598 423742204.32012522 0 0 0 0 -62057185.835416317 -1565260.3644149303 0 -1565260.3644149303 181654791.29754555 0 0 0 0 -644712407.16135359 71045058.429423451 0 71045058.429423451 260465929.41647196 0 0 0 0 -54947141.442388415 -131991238.60611767 0 -131991238.60611767 -213025546.04732823 0 0 0 0 -234427226.31170177 -250633993.11110401 0 -250633993.11110401 4705225.9754314423 0 0 0 0 -194411430.21523857 -102533380.6645813 0 -102533380.6645813 84229893.830759048 0 0 0 0 9838396.4321027603 -11067420.598468848 0 -11067420.598468848 -5843410.2732370654 0 0 0 0 -270835694.99624252 -196849160.55181694 0 -196849160.55181694 143831568.64673615 0 0 0 0 -164060486.02289009 -115785574.057724 0 -115785574.057724 80738686.510354996 0 0 0 0 -176289935.70430183 -94856446.93787384 0 -94856446.93787384 270982654.23676682 0 0 0 0 -84460019.156343222 -87135140.095343113 0 -87135140.095343113 311356900.30845642 0 0 0 0 -97986288.626974106 -159478031.69143105 0 -159478031.69143105 137149715.73795319 0 0 0 0 -61241072.315811157 -273162141.45086288 0 -273162141.45086288 -145326102.692029 0 0 0 0 -72084281.729953289 -154062533.6284523 0 -154062533.6284523 -94501559.610240936 0 0 0 0 -97990608.23926878 -126811682.28193331 0 -126811682.28193331 105478842.2005806 0 0 0 0 -101811359.69154501 -259247030.43528366 0 -259247030.43528366 36504293.578971863 0 0 0 0 -231447116.31707001 -115761089.89548492 0 -115761089.89548492 128108116.24523926 0 0 0 0 49021661.381752029 64984723.409408808 0 64984723.409408808 496315545.86837673 0 0 0 0 26271989.696545023 -36573887.633059412 0 -36573887.633059412 48842771.770027712 0 0 0 0 78283528.161022007 235535608.8602435 0 235535608.8602435 425144083.75567055 0 0 0 0 -281054151.60710716 -364054996.30427933 0 -364054996.30427933 -60237632.228263855 0 0 0 0 286027012.66283131 536352500.91430902 0 536352500.91430902 753577732.69335151 0 0 0 0 213501880.0811832 94077095.847462177 0 94077095.847462177 466873699.00778556 0 0 0 0 271293554.12757105 339891756.0852288 0 339891756.0852288 598446369.77193069 0 0 0 0 161677270.43640375 593684037.1226368 0 593684037.1226368 714683060.57308042 0 0 0 0 19385356.47893405 389750437.01816869 0 389750437.01816869 844486722.84969044 0 0 0 0 84267226.438748837 680147645.06289864 0 680147645.06289864 709922074.38919163 0 0 0 0 -2138309.9659609655 2195455.3222387461 0 2195455.3222387461 1050719.6148617668 0 0 0 0 26750730.492660522 157853670.07502174 0 157853670.07502174 531459200.9955399 0 0 0 0 -33344837.497259617 228626470.51401186 0 228626470.51401186 823214805.3750844 0 0 0 0 -120732896.5359962 179857822.35777664 0 179857822.35777664 499852198.99000502 0 0 0 0 -21977089.510347843 318499950.70765305 0 318499950.70765305 703518458.57619381 0 0 0 0 82913943.223070145 237306389.70659804 0 237306389.70659804 473324241.37367153 0 0 0 0 199308712.2020402 246260907.50788546 0 246260907.50788546 460198924.944098 0 0 0 0 224498933.94329572 390118345.48073518 0 390118345.48073518 1311900716.8479896 0 0 0 0 93654343.424819946 149578177.76776099 0 149578177.76776099 692201923.33706856 0 0 0 0 171478874.79660225 426735409.5984273 0 426735409.5984273 1433225029.5695963 0 0 0 0 186019180.6886909 729945511.03559971 0 729945511.03559971 336403285.56300926 0 0 0 0 149052685.63455391 1016572548.3592405 0 1016572548.3592405 577346951.27539253 0 0 0 0 1136138.2774333954 710486750.1656456 0 710486750.1656456 494275837.09474516 0 0 0 0 174236827.80666828 792427385.21174884 0 792427385.21174884 180309479.98420143 0 0 0 0 100732180.04532528 524475588.44765282 0 524475588.44765282 31967735.632744789 0 0 0 0 -230300134.93636084 412548667.19199991 0 412548667.19199991 -155927758.09729195 0 0 0 0 1747755.1300930977 57565507.462598085 0 57565507.462598085 1823190789.3059878 0 0 0 0 3492098.6226930656 2374297.0754858265 0 2374297.0754858265 1919740.2667947914 0 0 0 0 59680672.491983891 975447.40101915598 0 975447.40101915598 856135083.62783051 0 0 0 0 84059688.087970734 -5477553.0822172165 0 -5477553.0822172165 782314395.56355655 0 0 0 0 72771160.973154545 -3245482.4307881147 0 -3245482.4307881147 784697046.53790069 0 0 0 0 -1461845.289746494 1210399.5280815493 0 1210399.5280815493 1308044.2246273952 0 0 0 0 107715008.59357035 339917278.27332342 0 339917278.27332342 632098999.12183952 0 0 0 0 20207433.39369297 -66386443.114074171 0 -66386443.114074171 840645324.8514924 0 0 0 0 14587643.877094626 -51314385.665635198 0 -51314385.665635198 844213738.83437002 0 0 0 0 31743106.198979378 -88027267.733371139 0 -88027267.733371139 788047818.10843563 0 0 0 0 6950967.9403958321 -50446182.159680009 0 -50446182.159680009 916830190.17754245 0 0 0 0 9282898.2134261373 8751370.7379621938 0 8751370.7379621938 5830822.9417801313 0 0 0 0 68362422.504620075 12824657.409276634 0 12824657.409276634 733953026.70050156 0 0 0 0 35806539.315317631 -51913660.607943743 0 -51913660.607943743 789818635.56924319 0 0 0 0 19888990.62045598 -24053809.976461571 0 -24053809.976461571 817641053.300439 0 0 0 0 38743971.792893171 -70958972.380771145 0 -70958972.380771145 776242719.85574818 0 0 0 0 43488615.788588047 -74599257.959993631 0 -74599257.959993631 719149270.670367 0 0 0 0 73307314.945449591 13671696.485215068 0 13671696.485215068 561137306.46808708 0 0 0 0 91968654.230136395 -720036.26953288913 0 -720036.26953288913 554820874.50346303 0 0 0 0 -31565667.886678457 -30078888.03285867 0 -30078888.03285867 658589243.78569412 0 0 0 0 132087510.6126163 404734596.31150573 0 404734596.31150573 483797010.77888727 0 0 0 0 425527316.30302405 235770740.06363702 0 235770740.06363702 440329716.177302 0 0 0 0 350003687.77210569 -44262554.706966162 0 -44262554.706966162 601195054.6735003 0 0 0 0 -92987011.542719364 -237870671.50664991 0 -237870671.50664991 713849817.5904125 0 0 0 0 -59577965.258021832 -530842637.08127224 0 -530842637.08127224 328321657.24121809 0 0 0 0 511332342.37897974 23755727.308663011 0 23755727.308663011 -20295187.513030767 0 0 0 0 3499472.2094029645 -3849182.2887684284 0 -3849182.2887684284 5153530.7327033617 0 0 0 0 151254955.08140385 -16700753.430700183 0 -16700753.430700183 3363705.9121112823 0 0 0 0 125754672.69871008 -50131121.042520523 0 -50131121.042520523 -29156401.043240309 0 0 0 0 144637529.52084494 -78948747.169829369 0 -78948747.169829369 5434267.3558692932 0 0 0 0 74599611.6081568 157680536.0437164 0 157680536.0437164 216742981.15240616 0 0 0 0 8314419.784224825 -11103558.878787251 0 -11103558.878787251 13568002.350627357 0 0 0 0 -106397054.8677659 -102156433.62754625 0 -102156433.62754625 173696478.22591817 0 0 0 0 81841107.214960098 5752845.285502553 0 5752845.285502553 -10689840.707356691 0 0 0 0 14473001.107719215 -14439083.860468568 0 -14439083.860468568 20432801.538990989 0 0 0 0 30788986.22176075 -199617431.36816841 0 -199617431.36816841 405144.96957659721 0 0 0 0 27018154.228066016 -14514348.409037039 0 -14514348.409037039 42158300.176962852 0 0 0 0 45538902.342614174 -14026842.399543762 0 -14026842.399543762 40809290.95361042 0 0 0 0 26722423.188589662 -18730419.653475985 0 -18730419.653475985 50210880.902805328 0 0 0 0 -50027572.006500244 -110364401.90237916 0 -110364401.90237916 -91664837.759198189 0 0 0 0 8821712.3920602687 -5132352.3356041554 0 -5132352.3356041554 2099661.6706239292 0 0 0 0 38814558.590856552 -35724669.207855701 0 -35724669.207855701 42017762.62477684 0 0 0 0 77517497.494179964 -65523278.801421642 0 -65523278.801421642 5608218.5238912106 0 0 0 0 88275211.019151375 -19009997.854321003 0 -19009997.854321003 7927979.6962645054 0 0 0 0 103020593.5125504 -45031220.003014088 0 -45031220.003014088 17038368.845700264 0 0 0 0 78733299.481715202 -45668821.499504566 0 -45668821.499504566 37671257.855979919 0 0 0 0 61913218.010276079 -47314142.749949217 0 -47314142.749949217 101957130.94721413 0 0 0 0 133033959.78822756 -119140246.25719357 0 -119140246.25719357 124368958.51748371 0 0 0 0 96848953.11549449 -56448623.119008064 0 -56448623.119008064 25070780.554118633 0 0 0 0 81466765.554689884 -18235873.673003912 0 -18235873.673003912 19251861.313137054 0 0 0 0 67272608.957634926 -19872965.557003498 0 -19872965.557003498 49202287.182445526 0 0 0 0 84798245.93193531 -2198874.2269363403 0 -2198874.2269363403 13884481.507016659 0 0 0 0 156254952.98942828 -41787722.444340944 0 -41787722.444340944 -79590046.418785095 0 0 0 0 355545994.49583721 -351102740.30685425 0 -351102740.30685425 85111828.824747086 0 0 0 0 185021394.60795021 130345407.20646954 0 130345407.20646954 -318287290.723526 0 0 0 0 -1096069.2943762261 -128089.95044919103 0 -128089.95044919103 8550142.2902985364 0 0 0 0 75574345.704794645 29820926.206290722 0 29820926.206290722 57481612.677827835 0 0 0 0 -20492775.067637868 1930714.4485185146 0 1930714.4485185146 38692959.843222819 0 0 0 0 -70232721.857740402 102078314.5517292 0 102078314.5517292 -8639929.7291355133 0 0 0 0 -8109782.4023523331 -10940944.761676788 0 -10940944.761676788 27520407.46481204 0 0 0 0 -45977039.343905449 4341973.8758125305 0 4341973.8758125305 106519223.16148376 0 0 0 0 -11949569.467878161 -13086884.505771501 0 -13086884.505771501 58256948.476875514 0 0 0 0 19134723.749857903 -5810799.5727205276 0 -5810799.5727205276 49016082.706851959 0 0 0 0 -7644754.3418029342 -6898309.911094157 0 -6898309.911094157 36139998.880460225 0 0 0 0 -64268902.730755806 12399255.996505737 0 12399255.996505737 114919220.30704498 0 0 0 0 -22289320.769439947 9477766.0179191157 0 9477766.0179191157 17066447.971326012 0 0 0 0 -90670023.831344604 16996079.55156517 0 16996079.55156517 126889196.55039215 0 0 0 0 -86299010.011587143 11758423.209402084 0 11758423.209402084 130781168.29801941 0 0 0 0 -111925113.02315521 -33199171.60578537 0 -33199171.60578537 102015923.80395031 0 0 0 0 -127341760.21537399 -16364597.543006897 0 -16364597.543006897 125722066.37177086 0 0 0 0 -55107025.039813519 -165855259.67111886 0 -165855259.67111886 64128064.730774403 0 0 0 0 -152493433.48425102 -27759637.258226395 0 -27759637.258226395 131674198.29714203 0 0 0 0 5833733.5762329921 -12434429.102683239 0 -12434429.102683239 10672357.714131108 0 0 0 0 6235782.1644235505 -37386371.075285099 0 -37386371.075285099 92027275.030483052 0 0 0 0 160283511.3417958 -184445843.31083155 0 -184445843.31083155 -3519606.4060697556 0 0 0 0 -134328708.34941387 -6659552.321603775 0 -6659552.321603775 113504086.05068207 0 0 0 0 -100465471.2461729 25610840.562173843 0 25610840.562173843 133120783.65250397 0 0 0 0 -158756764.61404181 -42105892.66348362 0 -42105892.66348362 166069061.13056946 0 0 0 0 -145238723.91681099 -76668845.14465332 0 -76668845.14465332 54755804.300994873 0 0 0 0 -212704131.35500669 -109690001.6901145 0 -109690001.6901145 130895087.10849762 0 0 0 0 17201095.285105228 -43501959.298908576 0 -43501959.298908576 86901176.876431078 0 0 0 0 -165907226.24110413 57000761.74129796 0 57000761.74129796 304533599.3372016 0 0 0 0 -7204808.6166841472 2147309.2488968126 0 2147309.2488968126 8778176.905093303 0 0 0 0 -37892764.373801708 -577398347.48553336 0 -577398347.48553336 58307050.842155457 0 0 0 0 -85851842.470410347 -26262046.841228485 0 -26262046.841228485 250402389.26247406 0 0 0 0 -66056805.415725231 38540206.950509071 0 38540206.950509071 462474091.50089264 0 0 0 0 -96294496.61275959 -4605525.0670776367 0 -4605525.0670776367 205743289.61702728 0 0 0 0 -139996592.88770103 -37104451.837478638 0 -37104451.837478638 146951073.49102974 0 0 0 0 -152869418.11972427 -16418092.353086472 0 -16418092.353086472 239120412.0187149 0 0 0 0 -207152338.02109718 -91135575.389295578 0 -91135575.389295578 188779713.86810303 0 0 0 0 -98306406.648124695 9554538.7183074951 0 9554538.7183074951 175920870.05779648 0 0 0 0 -62653331.963102341 71316793.897891998 0 71316793.897891998 198834622.3153801 0 0 0 0 -83193726.430091381 60554629.64262867 0 60554629.64262867 306932765.98493958 0 0 0 0 -8596395.1331119537 99588521.964096069 0 99588521.964096069 214580015.45409775 0 0 0 0 15465662.262509346 115885903.76254606 0 115885903.76254606 148012649.71637726 0 0 0 0 -54515895.204681396 65324730.841640472 0 65324730.841640472 189050282.61985016 0 0 0 0 -29114754.898921967 64438614.442707062 0 64438614.442707062 108135880.56249237 0 0 0 0 -37051207.558738708 58586793.632953644 0 58586793.632953644 144735962.05953437 0 0 0 0 -100947048.12843609 22734402.782436371 0 22734402.782436371 145382081.31596375 0 0 0 0 -32169734.861385345 62252862.089958191 0 62252862.089958191 129910751.37879944 0 0 0 0 -17835156.411309816 9165897.3512801528 0 9165897.3512801528 2659151.2299442114 0 0 0 0 -48908889.332397461 -5653108.2283706665 0 -5653108.2283706665 37223476.092212677 0 0 0 0 -9743080.0025634766 40299452.094848633 0 40299452.094848633 119137231.43855953 0 0 0 0 -9787165.5718730427 80615962.831874475 0 80615962.831874475 138083020.06356049 0 0 0 0 -2210173.2149231248 815108.55272053182 0 815108.55272053182 4513625.4168530405 0 0 0 0 -9871660.049361065 6781666.8044748083 0 6781666.8044748083 1001756.8865957265 0 0 0 0 15194727.926769257 20430822.633356094 0 20430822.633356094 10325944.727268219 0 0 0 0 29997536.346471786 64842677.582077026 0 64842677.582077026 72018521.212387085 0 0 0 0 -25795788.279323578 26561813.934505463 0 26561813.934505463 58873546.154682159 0 0 0 0 4872334.1827850342 26247271.234547615 0 26247271.234547615 45217921.238277435 0 0 0 0 8772594.1748065948 31644780.515991211 0 31644780.515991211 39662701.86964798 0 0 0 0 121669.22918141261 1155360.5285256691 0 1155360.5285256691 -2954184.6994679421 0 0 0 0 135867697.50772381 -6422315.0017089844 0 -6422315.0017089844 7388147.3253936768 0 0 0 0 189677415.97535706 -12163361.773391724 0 -12163361.773391724 -6071698.3311824799 0 0 0 0 -6754.612531170249 107569.36826079339 0 107569.36826079339 1044398.9324212056 0 0 0 0 846196.54347423464 -826970.54209449887 0 -826970.54209449887 -1572835.2555100024 0 0 0 0 68381701.062554836 70929338.887021065 0 70929338.887021065 131214593.10357666 0 0 0 0 41266723.286184549 60510072.016373634 0 60510072.016373634 54917301.967651367 0 0 0 0 103357574.47476196 133405000.4282074 0 133405000.4282074 134739267.79813004 0 0 0 0 345879356.92958641 63955806.973770142 0 63955806.973770142 -21291682.48802948 0 0 0 0 225181575.31355095 13286797.289772034 0 13286797.289772034 52446753.436634064 0 0 0 0 176924729.8719902 31746047.493682861 0 31746047.493682861 -15090776.042778015 0 0 0 0 191335949.45707321 -8767704.6597824097 0 -8767704.6597824097 -30445146.576011181 0 0 0 0 319019392.7323513 -57655995.633953094 0 -57655995.633953094 -56159933.141014099 0 0 0 0 283174755.86821604 31941110.856898308 0 31941110.856898308 -31445633.143867493 0 0 0 0 393660648.44269466 -97369420.642066956 0 -97369420.642066956 -70381515.056142807 0 0 0 0 351344130.93849182 -33721642.345794678 0 -33721642.345794678 -51347546.149089813 0 0 0 0 312238038.02140903 -103425313.14906693 0 -103425313.14906693 -45354382.114744186 0 0 0 0 346906152.82358456 -129485853.37612534 0 -129485853.37612534 -42405558.832653046 0 0 0 0 501659802.60936928 -190636737.84622955 0 -190636737.84622955 48659218.761154175 0 0 0 0 381049991.27835369 -85975682.128212929 0 -85975682.128212929 -42151881.562965393 0 0 0 0 380949230.65447867 -70918259.962757587 0 -70918259.962757587 -26963932.319900513 0 0 0 0 460609420.19158745 -12418937.683959961 0 -12418937.683959961 13471425.389949799 0 0 0 0 573802071.26813507 -131874270.46739578 0 -131874270.46739578 114249973.53762436 0 0 0 0 547278003.37647605 14767588.339791298 0 14767588.339791298 281666754.34365845 0 0 0 0 823607540.90813637 -152523622.28110886 0 -152523622.28110886 337063050.7267971 0 0 0 0 351632584.40242004 -65610761.562515259 0 -65610761.562515259 202324013.94592667 0 0 0 0 286441988.52348709 -121075611.1872406 0 -121075611.1872406 228731791.48256302 0 0 0 0 430656363.89667153 -236513439.62678051 0 -236513439.62678051 555253074.00013733 0 0 0 0 134534059.44915962 -79614676.040641785 0 -79614676.040641785 457367042.8999939 0 0 0 0 178233605.22902584 172024399.81017876 0 172024399.81017876 376512458.39421082 0 0 0 0 268227783.07987094 247871438.31730843 0 247871438.31730843 913008821.89337158 0 0 0 0 240648242.71053505 124495430.84817982 0 124495430.84817982 363048809.97855377 0 0 0 0 -23197006.216840744 -130482246.27228642 0 -130482246.27228642 760203767.85229778 0 0 0 0 641240363.77222443 -152666471.664608 0 -152666471.664608 634704285.15583038 0 0 0 0 543419574.01419449 -353829380.20471573 0 -353829380.20471573 635733792.87808609 0 0 0 0 778597221.68097925 150057039.2241106 0 150057039.2241106 421100074.77928925 0 0 0 0 218436316.17729568 -5431469.2800216675 0 -5431469.2800216675 993663441.80696678 0 0 0 0 516051021.82579041 -417452822.1879158 0 -417452822.1879158 670558915.42894936 0 0 0 0 82682689.643358231 -139944199.35776711 0 -139944199.35776711 624225431.93697548 0 0 0 0 79917440.660752296 -98574555.956188202 0 -98574555.956188202 277249951.05622292 0 0 0 0 228832480.44451904 18599160.347732544 0 18599160.347732544 406334782.73588943 0 0 0 0 72222132.796005249 94838527.693552017 0 94838527.693552017 250811237.88314056 0 0 0 0 72644763.162821606 71937311.897385299 0 71937311.897385299 528834754.78523254 0 0 0 0 -5440882.1906176805 64414790.740071058 0 64414790.740071058 250421744.83383179 0 0 0 0 249114836.25184822 201503959.5454483 0 201503959.5454483 197292029.91448212 0 0 0 0 464101501.76961136 137066324.5553236 0 137066324.5553236 100135737.00345612 0 0 0 0 288132596.49846649 -46535807.959152222 0 -46535807.959152222 342505587.11434937 0 0 0 0 -67242438.253502727 252641173.87700653 0 252641173.87700653 -209668417.87618256 0 0 0 0 -89566441.083389282 44117859.819248199 0 44117859.819248199 61412128.514198303 0 0 0 0 11563273.254784957 24824137.611026742 0 24824137.611026742 38635338.154184908 0 0 0 0 2955429.9768081903 31479507.2402668 0 31479507.2402668 29988902.73796463 0 0 0 0 -39192400.405985832 14632127.296779633 0 14632127.296779633 24524391.124359131 0 0 0 0 -14873245.59379931 5210130.4566992149 0 5210130.4566992149 8878180.1696579307 0 0 0 0 -3107183.1168415882 3126010.8042022213 0 3126010.8042022213 8011265.0651654527 0 0 0 0 -2885059.7030094955 1614365.7234498858 0 1614365.7234498858 10748438.751946121 0 0 0 0 18166941.255400658 -35493862.782406807 0 -35493862.782406807 50019369.728286743 0 0 0 0 -86568036.651431084 -18316420.358909607 0 -18316420.358909607 109964014.66571045 0 0 0 0 -72777039.365324974 -43779341.691641808 0 -43779341.691641808 -10700694.61252594 0 0 0 0 -23324256.329009056 -88900923.602905273 0 -88900923.602905273 29188899.658557892 0 0 0 0 51004462.774524212 30182337.403175354 0 30182337.403175354 20238565.780185699 0 0 0 0 574122.32382392883 -6672897.5497665405 0 -6672897.5497665405 7926667.3668518066 0 0 0 0 -735266.26692033373 -888215.20696414262 0 -888215.20696414262 492344.9997138679 0 0 0 0 298226197.89802313 -136373959.56595325 0 -136373959.56595325 -71129445.585357666 0 0 0 0 147120797.98221779 -2286434.7958145142 0 -2286434.7958145142 -72718124.916946173 0 0 0 0 240414454.3044138 -31847875.720314026 0 -31847875.720314026 60506469.443145752 0 0 0 0 307068790.36954308 -148990318.88034916 0 -148990318.88034916 60459214.850791931 0 0 0 0 58813654.663461685 -60571275.160650253 0 -60571275.160650253 220081522.93637085 0 0 0 0 72817418.181871414 49671569.046508789 0 49671569.046508789 186978705.96556664 0 0 0 0 51697322.564276695 58635856.957960129 0 58635856.957960129 299792543.70214081 0 0 0 0 18167735.486336231 117032134.31930542 0 117032134.31930542 230839773.33496857 0 0 0 0 -69950731.212792397 -5241213.2796039581 0 -5241213.2796039581 304085237.12414551 0 0 0 0 200181.11305796634 425934.11428364925 0 425934.11428364925 3584299.3275242448 0 0 0 0 -28478097.167061329 -323177591.67795086 0 -323177591.67795086 241557026.84150696 0 0 0 0 21817956.409015656 31775931.634174347 0 31775931.634174347 1757753.345995903 0 0 0 0 -165440365.61448097 119121505.92898369 0 119121505.92898369 189440581.67604828 0 0 0 0 11319918.147992425 22454393.261353236 0 22454393.261353236 40846042.050784439 0 0 0 0 -173601101.86514509 121588160.66505194 0 121588160.66505194 39830791.022602081 0 0 0 0 -398820832.70818329 551530934.14625931 0 551530934.14625931 112831629.00370502 0 0 0 0 -52418105.171661377 37435384.943283081 0 37435384.943283081 -41109835.778026581 0 0 0 0 174836827.19695306 81940681.560499191 0 81940681.560499191 -271869645.50354004 0 0 0 0 272410426.96949291 -523330012.31085205 0 -523330012.31085205 332121970.52686691 0 0 0 0 6395103.4443473816 -547744898.85564137 0 -547744898.85564137 585598012.02070618 0 0 0 0 -17656222.249434471 -493733209.54500198 0 -493733209.54500198 568329337.315588 0 0 0 0 -55507176.047930717 304640426.7538681 0 304640426.7538681 1548791086.3425674 0 0 0 0 -54114196.708486497 302893746.10316682 0 302893746.10316682 592572071.87893677 0 0 0 0 -182922211.65491009 -426774564.72392654 0 -426774564.72392654 905516815.74292755 0 0 0 0 -232569504.41084278 -203358795.67025471 0 -203358795.67025471 369815454.30659485 0 0 0 0 -398595693.33941317 -188740607.53265762 0 -188740607.53265762 506529671.99324036 0 0 0 0 -111585890.39468622 -420204249.89001465 0 -420204249.89001465 545691368.67129135 0 0 0 0 -32608971.759626299 -431693688.36075878 0 -431693688.36075878 471781207.33526611 0 0 0 0 -94751356.201661065 -132780221.50914514 0 -132780221.50914514 162755823.45644379 0 0 0 0 156227204.91894484 -374218906.08441162 0 -374218906.08441162 359402346.26281738 0 0 0 0 126302311.88865113 -367391521.02256584 0 -367391521.02256584 894869304.08459473 0 0 0 0 -497667261.61017948 98594294.302261353 0 98594294.302261353 339652844.65703583 0 0 0 0 -118111151.76202393 61749498.316635132 0 61749498.316635132 226291652.17061234 0 0 0 0 -100172776.58987045 521483703.86194992 0 521483703.86194992 -126193063.01511955 0 0 0 0 7648897.2618040629 17017332.786959581 0 17017332.786959581 32331990.427717343 0 0 0 0 345054539.11174011 158896331.75783539 0 158896331.75783539 -254349457.27907562 0 0 0 0 22470554.565241814 -448531.22323226929 0 -448531.22323226929 14575054.021095276 0 0 0 0 213148861.06297684 205097258.95059586 0 205097258.95059586 233944403.13883209 0 0 0 0 579958481.41085339 230691579.26727104 0 230691579.26727104 -232779621.33971024 0 0 0 0 2665125.8530508457 5677394.3836129382 0 5677394.3836129382 13077815.545767769 0 0 0 0 154514470.71148634 880501179.19051838 0 880501179.19051838 904613315.27523041 0 0 0 0 501467221.84273958 209112516.64038467 0 209112516.64038467 899807142.42773438 0 0 0 0 1239382361.6784651 266803540.13496542 0 266803540.13496542 340624475.58594513 0 0 0 0 1393965242.3605332 -486495647.09224463 0 -486495647.09224463 -481158753.86885834 0 0 0 0 377112253.45949459 -717860828.32350159 0 -717860828.32350159 33253785.374933243 0 0 0 0 620936709.25176764 -323361886.13081551 0 -323361886.13081551 180676425.2782774 0 0 0 0 664366129.81303215 -149925140.7450943 0 -149925140.7450943 50566688.477069855 0 0 0 0 388124681.48905516 -25183460.198410034 0 -25183460.198410034 504485112.42486572 0 0 0 0 162190934.16762018 -225904997.76569748 0 -225904997.76569748 326393964.30945206 0 0 0 0 106271415.97591829 -159242269.98907852 0 -159242269.98907852 556558695.98647118 0 0 0 0 -8269239.1242203712 -411175186.07083511 0 -411175186.07083511 459784201.75568962 0 0 0 0 127705085.16565418 -169621307.91832733 0 -169621307.91832733 523629861.61606598 0 0 0 0 -51521500.072485209 -362525951.34958649 0 -362525951.34958649 639821816.19198227 0 0 0 0 37448399.508575201 -212168089.66336632 0 -212168089.66336632 504609431.16358566 0 0 0 0 35480820.592412353 -230924055.61628532 0 -230924055.61628532 328339025.44371033 0 0 0 0 -5324399.6326560974 -252359683.9651947 0 -252359683.9651947 317562417.19059753 0 0 0 0 -47325555.116566658 -151932356.2454567 0 -151932356.2454567 232700331.94015884 0 0 0 0 -25919600.020971298 -242102902.8106041 0 -242102902.8106041 315875801.0430069 0 0 0 0 12212294.986959457 -224603896.29092026 0 -224603896.29092026 323433244.68348694 0 0 0 0 -24175950.222546101 -197912953.72777748 0 -197912953.72777748 313712117.25868225 0 0 0 0 -20428553.584836006 -251432853.35882187 0 -251432853.35882187 444931036.21942902 0 0 0 0 58546936.203734875 -376343318.30841255 0 -376343318.30841255 412922791.18740082 0 0 0 0 56372789.463295937 -349402768.12820816 0 -349402768.12820816 293747136.75455666 0 0 0 0 180639750.46789837 -273831758.98855019 0 -273831758.98855019 283986608.19721985 0 0 0 0 530325690.43596411 51257988.822439194 0 51257988.822439194 23901049.609798431 0 0 0 0 304426362.0061779 -24716117.482912064 0 -24716117.482912064 22419209.278042078 0 0 0 0 344026825.63605404 -71478584.99027729 0 -71478584.99027729 -55081949.853034973 0 0 0 0 154581212.75914001 -185712674.96257782 0 -185712674.96257782 71747618.008841991 0 0 0 0 90024978.122312546 -88017003.052165985 0 -88017003.052165985 -41613878.546363831 0 0 0 0 180303050.65671158 -69156134.378728867 0 -69156134.378728867 82243727.711949825 0 0 0 0 128537706.55844688 -243088976.41251755 0 -243088976.41251755 164978359.26921844 0 0 0 0 372923689.51823711 -139368266.55016518 0 -139368266.55016518 253496451.3110733 0 0 0 0 874000083.87445712 -210444163.35600662 0 -210444163.35600662 150855711.41867065 0 0 0 0 375914277.38377285 -269076951.31120872 0 -269076951.31120872 263640740.87660217 0 0 0 0 1303134.4286857992 -3234169.2326968312 0 -3234169.2326968312 7929044.6696442515 0 0 0 0 110195099.26459503 56448734.016586304 0 56448734.016586304 20865077.945926666 0 0 0 0 40357.303089540452 186973.20853118598 0 186973.20853118598 5165222.4040966928 0 0 0 0 524863438.95037603 431059778.37885857 0 431059778.37885857 351768341.01414871 0 0 0 0 504795704.43853855 343272167.25281525 0 343272167.25281525 49746901.307945251 0 0 0 0 438656658.74376774 287659433.03722572 0 287659433.03722572 4051693.1615829468 0 0 0 0 341969028.35505867 361975912.54330444 0 361975912.54330444 402783113.94365788 0 0 0 0 259557527.98362923 190998621.49896049 0 190998621.49896049 67268073.954917908 0 0 0 0 378774869.52843475 327121204.79392958 0 327121204.79392958 70681962.865776062 0 0 0 0 113218918.42665005 116572495.09180832 0 116572495.09180832 -16600723.697769165 0 0 0 0 -307721446.27344418 125406527.80566025 0 125406527.80566025 182335558.29069042 0 0 0 0 3040.177749552764 -1520701.0223402008 0 -1520701.0223402008 12370321.519281492 0 0 0 0 54173551.215084076 1250766.898891449 0 1250766.898891449 -10731146.646980286 0 0 0 0 -114317549.84630394 53144980.272729874 0 53144980.272729874 71407043.971843719 0 0 0 0 -31492998.118516445 146718216.89985657 0 146718216.89985657 60685307.279338837 0 0 0 0 1430126.8064086956 -6857147.0570610426 0 -6857147.0570610426 24221271.642790809 0 0 0 0 306249846.93303847 179843561.39649391 0 179843561.39649391 89828017.000499725 0 0 0 0 1390962.1093894113 -2937515.4137573168 0 -2937515.4137573168 6429461.5919516534 0 0 0 0 162185188.90154886 -46468943.500255585 0 -46468943.500255585 -82060815.023780823 0 0 0 0 -3092152.3811616898 -203036203.65563202 0 -203036203.65563202 -50252763.403527737 0 0 0 0 234668890.46852541 -764410.98789310455 0 -764410.98789310455 -8604946.0289173126 0 0 0 0 91865017.868188858 -126862153.00372887 0 -126862153.00372887 -30955765.123281479 0 0 0 0 333033821.65388465 -34252996.246047735 0 -34252996.246047735 -68813139.853469849 0 0 0 0 108365414.06184578 -221542671.93344307 0 -221542671.93344307 -120552338.60720348 0 0 0 0 -60971658.919782639 -90545916.378730774 0 -90545916.378730774 -204480616.65642166 0 0 0 0 50969725.442908287 -275334004.7161274 0 -275334004.7161274 -165994156.71694088 0 0 0 0 15833185.891335785 -21923939.801805187 0 -21923939.801805187 30880114.303584211 0 0 0 0 318730962.45660114 469701418.62127781 0 469701418.62127781 438777092.74421883 0 0 0 0 300955848.13255787 372229597.32691622 0 372229597.32691622 498974334.2597599 0 0 0 0 586071860.90110874 453526569.25630188 0 453526569.25630188 451261194.57241154 0 0 0 0 339702742.40035129 468377512.43075943 0 468377512.43075943 609266671.16003799 0 0 0 0 6111229.7336967699 -6619727.8732895963 0 -6619727.8732895963 9999802.8451186642 0 0 0 0 590069003.29785144 609690023.72093546 0 609690023.72093546 904458111.06135368 0 0 0 0 403340370.00804949 283886761.32701874 0 283886761.32701874 -478972595.77139759 0 0 0 0 56861326.286494136 -183039673.8034696 0 -183039673.8034696 -131957985.71387482 0 0 0 0 35725132.954663277 -230124268.08777142 0 -230124268.08777142 -179931465.95895576 0 0 0 0 1255643.5149113087 -10008727.294093341 0 -10008727.294093341 39173537.365278423 0 0 0 0 -10911602.361176252 -231290839.20488262 0 -231290839.20488262 -114211424.11675072 0 0 0 0 -291828224.01793718 -89264653.119726181 0 -89264653.119726181 289915720.66768837 0 0 0 0 -101324002.14653754 123074762.26404762 0 123074762.26404762 437592232.72369385 0 0 0 0 613093598.48274159 -437235449.70417786 0 -437235449.70417786 35931776.588703156 0 0 0 0 -725344865.09904456 -159991829.07082176 0 -159991829.07082176 1709089905.6998711 0 0 0 0 155265612.07714987 -265164848.15762901 0 -265164848.15762901 88243962.898187637 0 0 0 0 728502243.67004132 -494173504.6198616 0 -494173504.6198616 -7061106.0213317871 0 0 0 0 1074007.1172783093 -8807196.1738667488 0 -8807196.1738667488 41915671.404540107 0 0 0 0 776581540.82651997 13605271.255054474 0 13605271.255054474 -113038504.9759407 0 0 0 0 780673566.15447819 -418818877.52607238 0 -418818877.52607238 24362005.933609009 0 0 0 0 1495420946.4765713 -412561831.28053379 0 -412561831.28053379 134162368.45880127 0 0 0 0 705732996.49720454 -273811387.89575958 0 -273811387.89575958 224545464.7537384 0 0 0 0 1921356.849644471 -2635340.6765716597 0 -2635340.6765716597 18968892.369839683 0 0 0 0 821676546.37403226 850917981.0765419 0 850917981.0765419 26953446.28786087 0 0 0 0 666998799.50970316 932761849.76712799 0 932761849.76712799 736423762.32733154 0 0 0 0 611502704.82103419 304746998.74654865 0 304746998.74654865 844983562.10199738 0 0 0 0 571826891.72439265 291304690.62662315 0 291304690.62662315 470835277.22342157 0 0 0 0 639077111.25557971 331048905.21004868 0 331048905.21004868 485345864.14286327 0 0 0 0 448515751.58644283 167198765.75546741 0 167198765.75546741 423468485.42984772 0 0 0 0 375800732.36171341 373245746.31262684 0 373245746.31262684 431065140.72354615 0 0 0 0 546581358.44570184 236454528.46660995 0 236454528.46660995 519824652.9227829 0 0 0 0 552971262.42172492 241927170.75299954 0 241927170.75299954 448558936.2230835 0 0 0 0 935278432.14134121 171820627.33435249 0 171820627.33435249 -438718229.02563667 0 0 0 0 517203062.16848946 -26245890.434631348 0 -26245890.434631348 1076019399.5202518 0 0 0 0 924126876.70023823 182698737.11119652 0 182698737.11119652 398013641.0723362 0 0 0 0 -276273931.44170237 -117693779.29401207 0 -117693779.29401207 44295765.524402618 0 0 0 0 -375046590.82700205 106173515.55685234 0 106173515.55685234 113234410.7087059 0 0 0 0 -115606005.40804291 103635122.73255157 0 103635122.73255157 -56862494.93522644 0 0 0 0 -72964258.208757877 -160278717.14204025 0 -160278717.14204025 230239711.97769165 0 0 0 0 -58173017.051456451 -135005464.8344841 0 -135005464.8344841 269984659.1062603 0 0 0 0 -38474674.290382385 -90170350.980510712 0 -90170350.980510712 52988313.471839905 0 0 0 0 -207697461.30576992 -39809863.682868958 0 -39809863.682868958 154895798.67840576 0 0 0 0 -109589949.91742539 -137007621.97675323 0 -137007621.97675323 154306276.89673615 0 0 0 0 46866761.065392017 -121367658.07620239 0 -121367658.07620239 144031405.97627258 0 0 0 0 72848395.390946746 -240593678.15194845 0 -240593678.15194845 243470805.22777557 0 0 0 0 121643138.67094314 -119122977.19848442 0 -119122977.19848442 164537309.37366486 0 0 0 0 -84700578.18056798 -213693744.56468391 0 -213693744.56468391 164420683.76783752 0 0 0 0 -129315421.35465336 -21041080.996204376 0 -21041080.996204376 96972218.732124329 0 0 0 0 115604348.33290854 -160237965.94076157 0 -160237965.94076157 29076285.228713989 0 0 0 0 344145311.0289005 -302921371.94215393 0 -302921371.94215393 30740052.082286835 0 0 0 0 109490500.99239404 -160743573.16388512 0 -160743573.16388512 131878866.34180784 0 0 0 0 290426170.79217267 -287596684.26649475 0 -287596684.26649475 146981900.72057438 0 0 0 0 294344813.63039708 -130417835.70028305 0 -130417835.70028305 280171615.27960014 0 0 0 0 399058655.55630815 -335337628.81873369 0 -335337628.81873369 280250362.45723343 0 0 0 0 357281330.21494007 -186860177.82945251 0 -186860177.82945251 291659654.90045547 0 0 0 0 673764345.88660336 -129011840.13326263 0 -129011840.13326263 96797586.841705322 0 0 0 0 778564354.00366974 -251417520.94483376 0 -251417520.94483376 -106401344.05817413 0 0 0 0 579285247.30515385 -455757480.98682261 0 -455757480.98682261 89125171.596748352 0 0 0 0 654816738.78688097 -287278990.94329834 0 -287278990.94329834 -109771633.63543105 0 0 0 0 682463520.40218353 -387452522.08548355 0 -387452522.08548355 45837512.215530396 0 0 0 0 157087526.75131145 -320653619.18052852 0 -320653619.18052852 484004918.3106575 0 0 0 0 143224085.35230029 -147924095.37146378 0 -147924095.37146378 -22478106.84582901 0 0 0 0 -20843656.192593902 -375800897.8280468 0 -375800897.8280468 198327388.3445549 0 0 0 0 305447062.62074906 -201825901.4280386 0 -201825901.4280386 -19550577.284420013 0 0 0 0 -168143689.98520434 -35102985.525718689 0 -35102985.525718689 -29561486.573442459 0 0 0 0 -249634700.3686378 -163336980.46442413 0 -163336980.46442413 124334725.07934761 0 0 0 0 -414452576.45791161 186751935.90308189 0 186751935.90308189 -247061035.64056778 0 0 0 0 -456927175.95177913 -201514994.26017475 0 -201514994.26017475 48476760.368881226 0 0 0 0 -563122177.12448883 90339934.162521362 0 90339934.162521362 -95326349.505613327 0 0 0 0 -3255398.0274748011 365796.97580710426 0 365796.97580710426 15969360.962449998 0 0 0 0 -703648789.78605735 143592954.84506893 0 143592954.84506893 87187627.274364471 0 0 0 0 -583503137.65544701 168192145.13176918 0 168192145.13176918 8000907.4155883789 0 0 0 0 -234362329.20050767 101179813.63013256 0 101179813.63013256 -109653856.80856323 0 0 0 0 155920669.9555276 12637755.576896667 0 12637755.576896667 222331809.04645157 0 0 0 0 -1627693.8199177692 -1714092.3846294619 0 -1714092.3846294619 14532098.604192838 0 0 0 0 -2232765.8408809928 2160449.5861063302 0 2160449.5861063302 23600556.377078921 0 0 0 0 458731391.92186928 -272175100.47867727 0 -272175100.47867727 102853338.54154205 0 0 0 0 -645402927.44206166 380082112.54050446 0 380082112.54050446 164441507.98517418 0 0 0 0 -4606153.2856111098 88011.944717716426 0 88011.944717716426 29631898.191979975 0 0 0 0 -2006330.0667722428 2193788.458781844 0 2193788.458781844 13473458.100522727 0 0 0 0 -1244885173.9024315 362905485.31450939 0 362905485.31450939 287221926.86400795 0 0 0 0 -472369903.04741728 -21878663.863033772 0 -21878663.863033772 -395850717.58518219 0 0 0 0 -779629982.36716211 -275867040.33405972 0 -275867040.33405972 133105266.87839508 0 0 0 0 -874922428.39130831 566530592.63360214 0 566530592.63360214 670475054.86223221 0 0 0 0 284776638.08701539 430359097.14022064 0 430359097.14022064 -517014120.46914673 0 0 0 0 255317879.75469729 771466100.65994835 0 771466100.65994835 926220729.75818253 0 0 0 0 22427129.832407951 140044349.07801437 0 140044349.07801437 60945860.121139526 0 0 0 0 -430012214.5809617 -210168778.93001944 0 -210168778.93001944 327328344.86724091 0 0 0 0 30174832.442794293 66069395.481564045 0 66069395.481564045 707316647.33864975 0 0 0 0 461099049.72530127 -21039910.923057556 0 -21039910.923057556 340089312.7440424 0 0 0 0 549667862.87705219 530987920.29752159 0 530987920.29752159 228810674.08334732 0 0 0 0 473092524.74375659 667339035.93353832 0 667339035.93353832 1469559019.946291 0 0 0 0 336241642.96009135 1009771471.3658767 0 1009771471.3658767 1561870937.2972164 0 0 0 0 342215388.80491662 1058502196.4664335 0 1058502196.4664335 712248839.57740784 0 0 0 0 296663089.48280632 1156619314.2572865 0 1156619314.2572865 1499134207.4128113 0 0 0 0 164041516.2675519 1028813535.9575844 0 1028813535.9575844 1802890653.0790176 0 0 0 0 341569287.79328495 1543607319.7507668 0 1543607319.7507668 2199505586.5238819 0 0 0 0 71608154.859892339 1329663675.2674675 0 1329663675.2674675 1563702596.6820278 0 0 0 0 231254508.94008961 1276029773.3932734 0 1276029773.3932734 539222472.3902359 0 0 0 0 647967.54239204351 2946866.5318996254 0 2946866.5318996254 4524605.4500531554 0 0 0 0 -314651853.58968043 -135183132.00654411 0 -135183132.00654411 -810225940.35674286 0 0 0 0 378990113.70369428 -573940256.80416584 0 -573940256.80416584 2187310889.2289162 0 0 0 0 355755076.93192369 1590517730.8475838 0 1590517730.8475838 1966316710.3984909 0 0 0 0 488814.31755589385 1878538.8099705949 0 1878538.8099705949 9547427.3579002172 0 0 0 0 -180762.2177813212 -2269525.1120176129 0 -2269525.1120176129 8642822.1820985377 0 0 0 0 1024379984.8231053 -1265899593.3448849 0 -1265899593.3448849 1061023934.7006531 0 0 0 0 35847266.779690728 256211959.58627224 0 256211959.58627224 200406470.68392181 0 0 0 0 415905540.19857419 -488691194.45781517 0 -488691194.45781517 86888665.044952393 0 0 0 0 744830194.35526896 -109606443.58794785 0 -109606443.58794785 1542809933.9790249 0 0 0 0 41485219.821066782 -91366578.943989754 0 -91366578.943989754 1526168715.1579914 0 0 0 0 379371407.40937054 272883999.75620562 0 272883999.75620562 1067954378.7358208 0 0 0 0 288811158.52277207 82456072.926877022 0 82456072.926877022 932711373.84078407 0 0 0 0 344301380.13808972 65976520.600583613 0 65976520.600583613 1719612768.5090904 0 0 0 0 395148557.87202024 823315449.4656601 0 823315449.4656601 1328388119.0046778 0 0 0 0 1081228186.9075403 -737687485.64224243 0 -737687485.64224243 783795551.3752594 0 0 0 0 486282864.20707285 -290884105.81871462 0 -290884105.81871462 1550027984.2264671 0 0 0 0 1037297748.2713513 756258420.32025242 0 756258420.32025242 1105707213.2041626 0 0 0 0 1265253058.7400291 303955594.9027245 0 303955594.9027245 1485305775.0981388 0 0 0 0 517395466.00193954 741354661.75155163 0 741354661.75155163 2205601739.1277103 0 0 0 0 461309745.47174871 496821548.38515377 0 496821548.38515377 1467117950.5335598 0 0 0 0 394700150.6330936 320822786.97725248 0 320822786.97725248 2204243671.831562 0 0 0 0 249623450.99730033 143077517.94056463 0 143077517.94056463 1778979935.1405773 0 0 0 0 -27928190.933163378 56954432.029064178 0 56954432.029064178 2204905775.4891281 0 0 0 0 200702264.58242196 34249353.491134644 0 34249353.491134644 1791032809.0882092 0 0 0 0 -111184921.38987383 -143766639.74758053 0 -143766639.74758053 1722217835.1560345 0 0 0 0 -268372858.68610609 -247294926.56451845 0 -247294926.56451845 2204458415.2783833 0 0 0 0 -30146463.761217296 -317792285.93616629 0 -317792285.93616629 1393174710.0258904 0 0 0 0 111509115.61971466 -53730344.181251526 0 -53730344.181251526 1750493936.1613274 0 0 0 0 -545362971.70742202 -670752237.31924891 0 -670752237.31924891 2205225769.4718752 0 0 0 0 -386189774.54464847 -519834615.35438251 0 -519834615.35438251 1639083346.8080435 0 0 0 0 -379679400.40988266 -270271594.49421978 0 -270271594.49421978 1667539997.9640779 0 0 0 0 -214078710.36209023 -509620712.96603584 0 -509620712.96603584 753645040.44071388 0 0 0 0 -1463410.439980844 1444892.2460802346 0 1444892.2460802346 6328569.2774185501 0 0 0 0 -601906057.81168532 942395007.66921616 0 942395007.66921616 322221024.6626482 0 0 0 0 -415967716.03585571 383503584.17474794 0 383503584.17474794 1815853230.6137905 0 0 0 0 270936119.03534365 747778214.22530556 0 747778214.22530556 1173051941.7305679 0 0 0 0 414001090.38294387 226931499.78085279 0 226931499.78085279 18482584.277235985 0 0 0 0 -75197571.241080165 170327219.08459139 0 170327219.08459139 1387420341.2962999 0 0 0 0 316250100.26168728 -786475945.52496243 0 -786475945.52496243 1509756048.0045528 0 0 0 0 12828396.887715127 137975994.80720329 0 137975994.80720329 1503325619.1334581 0 0 0 0 -2015855.4135778055 -1571633.3750305716 0 -1571633.3750305716 8265285.9566086493 0 0 0 0 -403839442.4728452 -450471398.03587723 0 -450471398.03587723 567698968.89851379 0 0 0 0 -308236563.3284812 -583513868.12318897 0 -583513868.12318897 -251219246.1412468 0 0 0 0 265200072.19510967 -32529617.169838667 0 -32529617.169838667 374696427.67132187 0 0 0 0 -310960356.01981515 -162292664.974823 0 -162292664.974823 1263017797.5668049 0 0 0 0 142681404.09939861 103123891.99743271 0 103123891.99743271 492180195.08529949 0 0 0 0 387127461.34969586 281581703.22501945 0 281581703.22501945 259092682.32841492 0 0 0 0 140911470.3439365 310131637.8419323 0 310131637.8419323 402418747.28645134 0 0 0 0 345843413.82600367 299341441.53161621 0 299341441.53161621 330774360.67467117 0 0 0 0 62745203.463682413 367131864.76221752 0 367131864.76221752 316852091.01008892 0 0 0 0 56408998.292653084 173246389.49656105 0 173246389.49656105 22683115.202066422 0 0 0 0 147035932.44825536 230247747.86834925 0 230247747.86834925 141347827.90583801 0 0 0 0 -135469560.32682118 58049735.870092034 0 58049735.870092034 135403109.33605194 0 0 0 0 -157621885.81655383 216404901.41069794 0 216404901.41069794 268610857.24145317 0 0 0 0 142034321.73816982 73127664.938124791 0 73127664.938124791 -88425540.206199646 0 0 0 0 -479913260.7222476 -129717755.81571829 0 -129717755.81571829 131807711.18177414 0 0 0 0 -4197567.382003272 -985952.6004877761 0 -985952.6004877761 14207110.089836784 0 0 0 0 -456907731.20762062 174287099.64017773 0 174287099.64017773 226161451.44702721 0 0 0 0 10472352.617709532 237239526.68626559 0 237239526.68626559 39184512.410211563 0 0 0 0 24454778.322156668 -178265650.70318699 0 -178265650.70318699 202557748.18040228 0 0 0 0 -282433465.21483994 -29404482.400220871 0 -29404482.400220871 -32613935.957805634 0 0 0 0 -237923962.55346394 127385623.25775337 0 127385623.25775337 -16083878.832154632 0 0 0 0 -296093910.8702445 125499223.34109306 0 125499223.34109306 219532322.84665871 0 0 0 0 -186375455.01655555 62092922.390282631 0 62092922.390282631 15908139.745956421 0 0 0 0 308907473.9775753 467461606.58853626 0 467461606.58853626 -92573760.975543976 0 0 0 0 3200994.903193552 2452963.3421462551 0 2452963.3421462551 1868513.0082498528 0 0 0 0 6124882.4080599248 78871926.900212526 0 78871926.900212526 224141988.8224926 0 0 0 0 132443.63944212487 942061.17434648052 0 942061.17434648052 3210511.4093590416 0 0 0 0 4367251.841575426 6396001.7559255529 0 6396001.7559255529 8341763.6019216999 0 0 0 0 -5964770.3013134003 -25534678.113194466 0 -25534678.113194466 147953054.59974861 0 0 0 0 15388558.517028809 15445921.05254364 0 15445921.05254364 126703215.2238059 0 0 0 0 -523684906.33996511 48469602.745687962 0 48469602.745687962 225563486.82309723 0 0 0 0 -117492900.05966592 -168305419.14555907 0 -168305419.14555907 53304746.444078445 0 0 0 0 -1843161.4746499062 347518912.01349735 0 347518912.01349735 394878474.64399719 0 0 0 0 -402327639.79663467 475122847.92531109 0 475122847.92531109 118787775.16751814 0 0 0 0 82766207.992706537 435440523.14577818 0 435440523.14577818 -201926032.58577347 0 0 0 0 48316002.025612533 57969532.864439011 0 57969532.864439011 1139283076.1786118 0 0 0 0 22237562.057424545 -77078481.307795048 0 -77078481.307795048 458120722.91820908 0 0 0 0 377047725.11140823 581359217.87689781 0 581359217.87689781 686191759.56876373 0 0 0 0 154143699.44641638 549850988.99662685 0 549850988.99662685 651020115.21401644 0 0 0 0 270544752.69356918 479975176.46362734 0 479975176.46362734 602446270.11411095 0 0 0 0 -1401568.3038662765 356843.99823305197 0 356843.99823305197 1285393.0444075968 0 0 0 0 287359329.27950048 89237168.238084078 0 89237168.238084078 694978675.44919205 0 0 0 0 283006911.85189968 273154588.58345413 0 273154588.58345413 120742429.75241089 0 0 0 0 201825766.24689674 535848515.03724003 0 535848515.03724003 515716764.63029766 0 0 0 0 180856562.27738261 521161929.23643494 0 521161929.23643494 526235040.91326237 0 0 0 0 334288339.61409539 436565510.72399235 0 436565510.72399235 422662184.83931732 0 0 0 0 202826413.96478444 448650476.22427082 0 448650476.22427082 463662653.35041428 0 0 0 0 169776639.77333492 359807413.22051001 0 359807413.22051001 253051903.51344299 0 0 0 0 180847352.67047668 688197771.25827885 0 688197771.25827885 576139497.7925005 0 0 0 0 166115858.64889193 581812660.9438343 0 581812660.9438343 325852008.48140717 0 0 0 0 -66931400.977408797 35992123.660271883 0 35992123.660271883 28345769.97278595 0 0 0 0 -59765343.502312005 61135173.126238346 0 61135173.126238346 -18098334.7224617 0 0 0 0 -119045512.40356684 82580388.836633682 0 82580388.836633682 31014738.170621872 0 0 0 0 -70160069.865446687 30856624.818487167 0 30856624.818487167 37810539.144806862 0 0 0 0 -70361377.547429681 11980406.62980175 0 11980406.62980175 81403027.819841385 0 0 0 0 -88332384.949809045 -17645095.290716946 0 -17645095.290716946 144824030.00011635 0 0 0 0 -86523942.165039375 -1623986.1397188306 0 -1623986.1397188306 108199549.03802299 0 0 0 0 -39769687.29422158 -24853176.061311245 0 -24853176.061311245 33643002.42950058 0 0 0 0 -39700613.373617887 -25349680.949554443 0 -25349680.949554443 31170616.246970177 0 0 0 0 -23762498.441050306 17395506.898870334 0 17395506.898870334 11111232.188604992 0 0 0 0 -15319233.310819477 -17637621.342046738 0 -17637621.342046738 -30541108.321497917 0 0 0 0 -22747545.257390305 -7518935.6407926083 0 -7518935.6407926083 8942360.185634613 0 0 0 0 -53116821.555524111 4767882.5957694054 0 4767882.5957694054 49817932.067791939 0 0 0 0 -18237668.29240986 1771219.5458128247 0 1771219.5458128247 6915427.7544739787 0 0 0 0 19629041.648000717 84651288.984692574 0 84651288.984692574 27897517.504105091 0 0 0 0 -25629075.614708185 13184896.348894596 0 13184896.348894596 8005714.1007037163 0 0 0 0 -136041007.43390691 -85622141.232927918 0 -85622141.232927918 76682287.629878044 0 0 0 0 -1883120.0052289963 -17446200.459450722 0 -17446200.459450722 -44746646.952726364 0 0 0 0 6295507.1517720222 49716932.965604782 0 49716932.965604782 -204869168.8319397 0 0 0 0 -245140933.53869724 380198576.05670357 0 380198576.05670357 -292302478.10114956 0 0 0 0 -434145925.38510275 169294171.66067028 0 169294171.66067028 -116597835.68265629 0 0 0 0 -65695500.910508633 202271332.02987385 0 202271332.02987385 -423785341.34073353 0 0 0 0 -6571066.7638195008 739325.62587687932 0 739325.62587687932 -1025757.0310424995 0 0 0 0 -429458273.70688134 419595721.91542947 0 419595721.91542947 -90304979.953754425 0 0 0 0 -313690082.49939394 24994770.198822498 0 24994770.198822498 24503967.440221786 0 0 0 0 -366772213.11799192 267015779.85806751 0 267015779.85806751 111688213.5615263 0 0 0 0 -252746022.8428731 100652846.35532761 0 100652846.35532761 113544462.36492839 0 0 0 0 -77421862.126545668 103669853.25260448 0 103669853.25260448 -31133182.880191803 0 0 0 0 -91882520.476469517 86315697.625658035 0 86315697.625658035 -36509595.12508738 0 0 0 0 -153357237.43696022 176559865.94992733 0 176559865.94992733 -98845590.493348122 0 0 0 0 -150619204.99673986 185401438.42714119 0 185401438.42714119 -141846909.91614819 0 0 0 0 -235383167.30178714 106792358.40009212 0 106792358.40009212 35101325.220748901 0 0 0 0 -149390027.99718285 137253265.57109261 0 137253265.57109261 -21886294.547901154 0 0 0 0 -167271231.44317907 96592436.769952774 0 96592436.769952774 52863617.755716324 0 0 0 0 -118285863.95097327 164496419.85895109 0 164496419.85895109 39845989.404952049 0 0 0 0 -179879996.13353944 114991472.45224619 0 114991472.45224619 29763323.899246216 0 0 0 0 -228333528.97994804 79534058.164016247 0 79534058.164016247 7193880.9603453875 0 0 0 0 -233025603.00969839 88528353.904284477 0 88528353.904284477 21058829.220656395 0 0 0 0 -1172138.5874494072 1217911.4325515963 0 1217911.4325515963 5185602.1374743246 0 0 0 0 47783427.185017109 -237792350.55835533 0 -237792350.55835533 371159288.43446589 0 0 0 0 -166234997.34355927 103186787.35276508 0 103186787.35276508 -38531341.686832428 0 0 0 0 -182017997.85625768 361176376.87130833 0 361176376.87130833 -34734411.439943112 0 0 0 0 -84007.765601794235 1242921.8179844469 0 1242921.8179844469 2187050.2860876862 0 0 0 0 -197664274.12950432 292554575.78120089 0 292554575.78120089 383219182.41024399 0 0 0 0 -144243696.00535589 144987310.88055182 0 144987310.88055182 141561368.09583092 0 0 0 0 -207999809.64775532 133215075.23812056 0 133215075.23812056 322446926.5588398 0 0 0 0 -135422511.53524947 193949543.17375374 0 193949543.17375374 136171879.15375996 0 0 0 0 -150370941.56259418 132004495.49210262 0 132004495.49210262 119509988.5909543 0 0 0 0 -115037157.63573468 73556848.434546471 0 73556848.434546471 110345960.48305225 0 0 0 0 -107262740.20329489 86475765.380600452 0 86475765.380600452 84257236.14507103 0 0 0 0 -106570488.8778677 99308383.763169289 0 99308383.763169289 20090091.276281357 0 0 0 0 -122527548.66021562 63162593.072138786 0 63162593.072138786 159638220.92374134 0 0 0 0 -145961892.04800785 109984694.342206 0 109984694.342206 215471454.75205421 0 0 0 0 -144692287.83356065 67901663.143999577 0 67901663.143999577 164484332.50380325 0 0 0 0 -199467360.66550815 122879918.63622952 0 122879918.63622952 212637465.99371719 0 0 0 0 -201017846.14954442 101790749.87077415 0 101790749.87077415 182762046.09611893 0 0 0 0 -291883306.63157052 53154381.390851498 0 53154381.390851498 236815974.45493746 0 0 0 0 -216256087.66786045 -17167751.766289711 0 -17167751.766289711 154176111.2734952 0 0 0 0 -223639529.01989797 101934045.77984715 0 101934045.77984715 268907522.84685326 0 0 0 0 -194864264.98655403 -2984820.0668694973 0 -2984820.0668694973 649648426.93491173 0 0 0 0 -212079331.5415771 -53884978.022921562 0 -53884978.022921562 422458868.86524773 0 0 0 0 -107650120.13914835 -153814636.97003078 0 -153814636.97003078 228074644.22579956 0 0 0 0 -148695068.61633757 -173319930.80185747 0 -173319930.80185747 293967023.16591835 0 0 0 0 -145371603.86433089 -175828008.8772192 0 -175828008.8772192 122930648.7326622 0 0 0 0 -380686028.76796883 -253587129.91683224 0 -253587129.91683224 79602028.248169899 0 0 0 0 -360112963.14327711 -38192255.083728999 0 -38192255.083728999 69188321.694854736 0 0 0 0 -248264882.02240145 -122462822.33175135 0 -122462822.33175135 -50900465.699094772 0 0 0 0 -312243498.63710594 -67086237.205019951 0 -67086237.205019951 227408004.59220982 0 0 0 0 -133103831.92297637 -30323805.611058712 0 -30323805.611058712 912256417.93169785 0 0 0 0 -45268794.603945374 -137823456.26503706 0 -137823456.26503706 930252866.47623467 0 0 0 0 -35386190.422998071 -96589873.907707214 0 -96589873.907707214 390001563.37434673 0 0 0 0 -107889467.93335618 -148260475.68960235 0 -148260475.68960235 484732933.59603786 0 0 0 0 -83490234.431359887 -357742900.62026453 0 -357742900.62026453 363836083.49348068 0 0 0 0 165315400.38645267 -234356138.72256285 0 -234356138.72256285 517892250.77118969 0 0 0 0 -528585761.54069543 -246940700.01848984 0 -246940700.01848984 1172479134.7219973 0 0 0 0 44605011.524943829 -263529611.52084851 0 -263529611.52084851 528193715.41116059 0 0 0 0 -4045072.4213489522 2022528.4833324347 0 2022528.4833324347 12758484.215020878 0 0 0 0 40896142.094583482 -238090054.83575535 0 -238090054.83575535 364288217.34567356 0 0 0 0 -2633490.0865061679 -272499.24863559101 0 -272499.24863559101 7927879.6049628649 0 0 0 0 437943282.43322182 -1348753497.0724027 0 -1348753497.0724027 2202518535.9268732 0 0 0 0 -375491325.56370467 127624136.86925149 0 127624136.86925149 121388625.80368042 0 0 0 0 -19393631.012232553 -674235537.41337776 0 -674235537.41337776 1211538010.8901258 0 0 0 0 -460840733.81207275 -211623130.10319471 0 -211623130.10319471 81504851.730273724 0 0 0 0 -409413702.5077666 148220837.9022541 0 148220837.9022541 -255124042.31569713 0 0 0 0 -591475967.06754649 1731036.964120388 0 1731036.964120388 -36644542.001011848 0 0 0 0 389575735.92085069 -415348281.89682055 0 -415348281.89682055 -278165876.21227717 0 0 0 0 -542261365.42001283 -401908067.92124939 0 -401908067.92124939 -342405605.92503023 0 0 0 0 -61570.571887298487 -2934440.429281692 0 -2934440.429281692 6521805.4206189271 0 0 0 0 21216004.470817029 -234645337.64010668 0 -234645337.64010668 19350421.438261032 0 0 0 0 32437208.38987422 -327291739.15415955 0 -327291739.15415955 83983882.525903702 0 0 0 0 -21464782.738810062 -399112316.16735387 0 -399112316.16735387 359801377.60285664 0 0 0 0 -10488439.774946898 -292565381.51249886 0 -292565381.51249886 76402620.65235424 0 0 0 0 397817249.30032736 -772055070.37821913 0 -772055070.37821913 103628532.75502372 0 0 0 0 -299012011.58080691 -1201536862.286005 0 -1201536862.286005 2194059792.2006474 0 0 0 0 -474802664.63433623 -179570698.620386 0 -179570698.620386 593707720.81006718 0 0 0 0 -353478730.52435559 -480663526.38471186 0 -480663526.38471186 1335092932.4525814 0 0 0 0 546261743.03774226 -723256031.24614811 0 -723256031.24614811 425325785.11778831 0 0 0 0 -835823.49309302075 -1432748.8738131863 0 -1432748.8738131863 10076601.221324556 0 0 0 0 44929717.317928948 601636943.42316592 0 601636943.42316592 2200688516.5544028 0 0 0 0 -49403139.804290533 79546440.332937241 0 79546440.332937241 1237478688.7070656 0 0 0 0 -16055917.898490174 8047461.1017739363 0 8047461.1017739363 11319586.96441713 0 0 0 0 -50283791.270410538 -33074762.984107018 0 -33074762.984107018 93086589.531363964 0 0 0 0 -44948545.717644215 256392.15836286545 0 256392.15836286545 58054329.175093174 0 0 0 0 -49503756.318884075 -6553490.3533403873 0 -6553490.3533403873 151934558.7352314 0 0 0 0 -120434200.08581707 -219950989.21025085 0 -219950989.21025085 2205490863.6016841 0 0 0 0 40444318.22278738 25523478.604138374 0 25523478.604138374 70581876.117649078 0 0 0 0 -8981056.3045461699 7623062.9435632117 0 7623062.9435632117 4900497.2438820759 0 0 0 0 -26455054.271092393 -297128632.83611822 0 -297128632.83611822 2021552973.1090479 0 0 0 0 91447352.059772745 -477513391.89697456 0 -477513391.89697456 2205501441.5818148 0 0 0 0 -1387950.3421385288 -113767354.10865688 0 -113767354.10865688 232657094.52993774 0 0 0 0 -38239429.196321011 -60859713.166724682 0 -60859713.166724682 279846641.38444042 0 0 0 0 2209946.0709501961 2923408.9200603738 0 2923408.9200603738 -447044.59707583627 0 0 0 0 63349768.819285393 -89905029.920871735 0 -89905029.920871735 241069740.8222208 0 0 0 0 171692827.46926737 -95165454.477457047 0 -95165454.477457047 126326986.17547703 0 0 0 0 61851316.579391241 -114732334.69909859 0 -114732334.69909859 103361049.69730484 0 0 0 0 68358509.744222641 6232770.538848877 0 6232770.538848877 -5919234.6044703722 0 0 0 0 7255383.4417714188 -7382675.3932321705 0 -7382675.3932321705 -13580906.71086549 0 0 0 0 8026205.5141050816 -79904869.916924328 0 -79904869.916924328 102593051.07267427 0 0 0 0 33637261.148434162 -60080994.204775095 0 -60080994.204775095 67385767.825707912 0 0 0 0 5138101.5687251091 -43960219.857525587 0 -43960219.857525587 15831706.223635197 0 0 0 0 8285865.5731226262 -6521301.5146459248 0 -6521301.5146459248 -16108744.476792293 0 0 0 0 7896943.0903754234 -53731858.961675644 0 -53731858.961675644 19275540.47598809 0 0 0 0 7486771.5801317273 -16444935.928683614 0 -16444935.928683614 32800044.085178338 0 0 0 0 -237831559.10477534 38662890.787053347 0 38662890.787053347 61019682.476492882 0 0 0 0 -292869513.30262381 -22533443.305419683 0 -22533443.305419683 123546444.95186424 0 0 0 0 5878069.3798286049 -18403076.896156218 0 -18403076.896156218 39556908.912110865 0 0 0 0 -178068347.93834531 2678826.0414772034 0 2678826.0414772034 368601927.0096612 0 0 0 0 -332841145.80376893 -460030.58866977692 0 -460030.58866977692 658037750.34246826 0 0 0 0 -209584311.01033372 84201277.88988018 0 84201277.88988018 682678874.93108749 0 0 0 0 -553446751.04257929 185472144.45865726 0 185472144.45865726 2206217112.4497471 0 0 0 0 -380661297.43071532 -258867886.08950901 0 -258867886.08950901 1658385390.4866524 0 0 0 0 -523139568.93363285 187099308.14580345 0 187099308.14580345 1257747560.9653664 0 0 0 0 -249196243.35661447 256602672.80563354 0 256602672.80563354 1265032255.2440391 0 0 0 0 -321387692.12418264 849391662.62896919 0 849391662.62896919 2200205314.4583206 0 0 0 0 -15925777.001326799 -27751933.228718758 0 -27751933.228718758 20734887.815738678 0 0 0 0 403495610.92601514 342507391.25771713 0 342507391.25771713 267736459.61215591 0 0 0 0 79022869.190350056 138555512.70834637 0 138555512.70834637 136819688.14605713 0 0 0 0 -28698919.942180276 -93625433.582258224 0 -93625433.582258224 166491589.72560358 0 0 0 0 -6100879.8043731451 -86341745.893043995 0 -86341745.893043995 125667366.97898102 0 0 0 0 15434792.535143614 -62660709.511571884 0 -62660709.511571884 93546422.846025467 0 0 0 0 120328.88951043587 -7897882.5961713195 0 -7897882.5961713195 7239340.2928995788 0 0 0 0 4235793.0747891488 204939126.314991 0 204939126.314991 2203243799.81353 0 0 0 0 594273074.67778552 613674315.51105547 0 613674315.51105547 310447192.61450958 0 0 0 0 3569444.2263150522 3600673.3685182091 0 3600673.3685182091 5336024.5907003954 0 0 0 0 -25058569.279526543 -454812267.03633308 0 -454812267.03633308 2006632737.7616365 0 0 0 0 -2764796.2304658489 2537837.1169841811 0 2537837.1169841811 3468427.9100853167 0 0 0 0 262423860.24367538 -133455978.62816906 0 -133455978.62816906 164477351.00891876 0 0 0 0 98895587.380114511 -160053956.34756899 0 -160053956.34756899 237785846.23481274 0 0 0 0 74250739.570783824 -345197090.48052216 0 -345197090.48052216 2348662842.1188374 0 0 0 0 7742962.8248613765 8397550.1428350732 0 8397550.1428350732 19468638.419362545 0 0 0 0 -46458805.273734689 -3845624.7431230545 0 -3845624.7431230545 71070016.427513123 0 0 0 0 65130329.07856866 -86808642.71216929 0 -86808642.71216929 175573476.74893951 0 0 0 0 8794221.0491598509 -26961062.573761277 0 -26961062.573761277 9795202.2978912871 0 0 0 0 3021338.3270692825 -29775319.283303559 0 -29775319.283303559 71186982.925139427 0 0 0 0 20201787.250669956 -46807434.471542329 0 -46807434.471542329 68200563.10497427 0 0 0 0 -32211970.723396063 -2786163.2199087143 0 -2786163.2199087143 51354324.011461258 0 0 0 0 -41270474.254801273 4661300.0560941696 0 4661300.0560941696 57203333.823710442 0 0 0 0 -15876334.574475104 -2089440.9965445213 0 -2089440.9965445213 53605125.423340708 0 0 0 0 -53349848.25412178 23501245.988414764 0 23501245.988414764 45981435.98593092 0 0 0 0 -10772613.563220123 -2266435.2960997522 0 -2266435.2960997522 11745799.393692121 0 0 0 0 -110271178.2249018 -16949467.011497498 0 -16949467.011497498 66946259.659896851 0 0 0 0 -24527285.973118782 -30263280.420967102 0 -30263280.420967102 66794253.44271183 0 0 0 0 318858033.1000967 -333947309.04687691 0 -333947309.04687691 218065666.44499207 0 0 0 0 20162141.189073801 -155675078.46293163 0 -155675078.46293163 297449621.56307602 0 0 0 0 168618645.51963711 -301803696.26333809 0 -301803696.26333809 304389780.27391624 0 0 0 0 -411659758.67278802 116009299.3064785 0 116009299.3064785 -292171459.13344574 0 0 0 0 -2952793.6979932748 1441134.534625601 0 1441134.534625601 -388883.77385968808 0 0 0 0 -296435620.85448182 281251108.17980433 0 281251108.17980433 -77312856.441015244 0 0 0 0 -2141441.5331299771 -570870.29622880556 0 -570870.29622880556 2304432.9757421091 0 0 0 0 -132008446.97035718 -195742124.91246033 0 -195742124.91246033 -190878367.56331635 0 0 0 0 -315219917.74228817 456517403.97191715 0 456517403.97191715 -253502003.71139526 0 0 0 0 -547448252.10480857 -14349790.356735229 0 -14349790.356735229 369725130.60175419 0 0 0 0 -55084012.11623764 -36046225.635476589 0 -36046225.635476589 108349094.21388817 0 0 0 0 25885442.875522971 -84481120.597625852 0 -84481120.597625852 104471254.28085899 0 0 0 0 6312783.1612672433 -5065666.3196187913 0 -5065666.3196187913 -2558317.5630679373 0 0 0 0 -2893209.5583436489 -55648451.638806343 0 -55648451.638806343 76336966.960515976 0 0 0 0 8293220.2063550949 -18307680.550542831 0 -18307680.550542831 74476373.32502079 0 0 0 0 -3706585.7822726965 -31386110.796500206 0 -31386110.796500206 106305830.66676903 0 0 0 0 -11087888.859539509 -21119571.540931702 0 -21119571.540931702 76631385.901878357 0 0 0 0 -13612391.249063369 870903.88317334931 0 870903.88317334931 55575597.418495089 0 0 0 0 -100419017.05690098 6764787.5710749626 0 6764787.5710749626 87418842.895677924 0 0 0 0 -26413494.306570292 8002483.786626339 0 8002483.786626339 66253082.366569519 0 0 0 0 11986677.971673489 -22250552.967385769 0 -22250552.967385769 63994890.040697098 0 0 0 0 -48645742.09440279 -185860329.67685533 0 -185860329.67685533 677154532.8770752 0 0 0 0 -39059087.771307945 -146941793.12365198 0 -146941793.12365198 761194048.89698029 0 0 0 0 -60839221.82470721 -70066488.139900208 0 -70066488.139900208 599523815.0849762 0 0 0 0 5693338.504206527 -5313570.6919587925 0 -5313570.6919587925 -3070262.9082996957 0 0 0 0 83179666.440877855 -169009152.7111702 0 -169009152.7111702 552051995.21490479 0 0 0 0 -108716298.69137952 -143717938.73080754 0 -143717938.73080754 841248508.34213066 0 0 0 0 42421063.543149084 -133600753.75449085 0 -133600753.75449085 791753456.71661568 0 0 0 0 -18385151.729960054 -336568051.29666781 0 -336568051.29666781 1184700238.13167 0 0 0 0 135914540.56046677 -428487994.76818943 0 -428487994.76818943 1233490664.2458277 0 0 0 0 -166714570.20870394 107197064.60809612 0 107197064.60809612 1214698157.3038321 0 0 0 0 -87628066.119368225 -340710195.59467983 0 -340710195.59467983 486261369.82147598 0 0 0 0 81534235.057162642 294742966.67162323 0 294742966.67162323 240757361.59192705 0 0 0 0 536104150.64669025 -34096954.976538658 0 -34096954.976538658 206475769.23249245 0 0 0 0 145122107.74163556 -307113862.61521721 0 -307113862.61521721 685928980.50178528 0 0 0 0 -82249540.357350707 59146385.452010155 0 59146385.452010155 787815888.13471699 0 0 0 0 71912371.474274158 -75109203.578766346 0 -75109203.578766346 659928095.0018692 0 0 0 0 99181911.32927537 -57228295.160056591 0 -57228295.160056591 88709386.617637634 0 0 0 0 137978865.91753501 23690407.629617691 0 23690407.629617691 214427318.63602531 0 0 0 0 201940070.86755684 -137859081.1979847 0 -137859081.1979847 145769777.76575851 0 0 0 0 -3396712.1173580736 -120286197.28320503 0 -120286197.28320503 275931753.50908661 0 0 0 0 -2934784.643842116 -125787253.81751537 0 -125787253.81751537 341424516.78124237 0 0 0 0 -78179664.397377312 -51722844.080501556 0 -51722844.080501556 187611199.3469882 0 0 0 0 -77511085.886148989 -43552571.003475189 0 -43552571.003475189 201737449.13085747 0 0 0 0 -156695758.18495214 41758405.357573986 0 41758405.357573986 249712355.20799828 0 0 0 0 -142819834.24186796 18852780.620620728 0 18852780.620620728 285470327.68182373 0 0 0 0 32408236.973525897 -104866227.06925201 0 -104866227.06925201 329293868.4122057 0 0 0 0 -155719828.92519653 12214539.066659927 0 12214539.066659927 343134734.76541758 0 0 0 0 -84362194.818945259 -99187967.395615578 0 -99187967.395615578 515588165.16569138 0 0 0 0 -53761630.733720958 217933688.35763168 0 217933688.35763168 66240943.258586884 0 0 0 0 -113157701.75554736 11209554.91724062 0 11209554.91724062 32380849.299163818 0 0 0 0 -103090321.08210936 154889374.3181324 0 154889374.3181324 381692841.69027233 0 0 0 0 -226549703.7405619 51146023.769343853 0 51146023.769343853 195935530.57831573 0 0 0 0 -143501816.66626367 33475074.274362564 0 33475074.274362564 233706573.18427277 0 0 0 0 -159079945.6792796 123039111.22929668 0 123039111.22929668 258732044.64634514 0 0 0 0 130761419.33997095 -96876265.791017056 0 -96876265.791017056 81438218.981329918 0 0 0 0 347752726.40384787 -262024230.71020508 0 -262024230.71020508 123226084.50494003 0 0 0 0 197310545.56037852 243579054.82505894 0 243579054.82505894 368174501.78796005 0 0 0 0 5520241.2770257974 -5177567.5881631002 0 -5177567.5881631002 -1915742.2600425035 0 0 0 0 308382.74304580578 -2812165.7996835085 0 -2812165.7996835085 5164191.4871998094 0 0 0 0 57408676.543807149 -160601239.22876549 0 -160601239.22876549 198048425.85807037 0 0 0 0 82606508.140874088 -61872031.465424716 0 -61872031.465424716 145743955.91044235 0 0 0 0 -51508433.591592073 -85992974.309149265 0 -85992974.309149265 130483204.23994923 0 0 0 0 -156824424.31989002 119801789.66448355 0 119801789.66448355 97099509.716704845 0 0 0 0 -66368053.380097389 75399096.848345757 0 75399096.848345757 27836159.073355198 0 0 0 0 -46403623.145210743 7175199.9869155884 0 7175199.9869155884 311099041.26789474 0 0 0 0 -23758373.446008444 7399862.6595051289 0 7399862.6595051289 88641808.549388885 0 0 0 0 80319882.046482682 141321740.11792755 0 141321740.11792755 85726712.583636284 0 0 0 0 -149699041.82756448 66865503.435749054 0 66865503.435749054 133849525.09853578 0 0 0 0 -834736.57508027554 37974133.81314373 0 37974133.81314373 -35219518.916708946 0 0 0 0 -19270487.690307595 16551193.453622088 0 16551193.453622088 19678922.466838591 0 0 0 0 -2366602.0137029886 146724268.90668392 0 146724268.90668392 -108526803.55113316 0 0 0 0 62585847.69463253 -202427256.18681908 0 -202427256.18681908 565154491.23635483 0 0 0 0 -15253323.54727879 4438899.0345110642 0 4438899.0345110642 56173780.551202744 0 0 0 0 5026043.0883844793 -8720065.3391266 0 -8720065.3391266 3651159.2190971486 0 0 0 0 -7062824.3038911819 -11747524.327706099 0 -11747524.327706099 83021258.319644928 0 0 0 0 59772.875215571374 1766383.0568096903 0 1766383.0568096903 -1608551.3369732928 0 0 0 0 -1279770.7679481506 -253018210.27111793 0 -253018210.27111793 771696053.92249155 0 0 0 0 100518749.48234367 -249521945.87769222 0 -249521945.87769222 623937172.90133667 0 0 0 0 100481364.0565815 -254797768.7880497 0 -254797768.7880497 626103561.96704102 0 0 0 0 -9012545.6623544693 9037856.0866675377 0 9037856.0866675377 340437923.28936195 0 0 0 0 126811611.91327477 -226980339.13399124 0 -226980339.13399124 333008062.82581615 0 0 0 0 57856726.264677048 -160160617.52613544 0 -160160617.52613544 441950305.42512703 0 0 0 0 225027390.66016769 -483864875.9205966 0 -483864875.9205966 665655663.58758688 0 0 0 0 -21722370.155320328 18595589.095245529 0 18595589.095245529 10047802.27574392 0 0 0 0 152075918.80250168 -248891470.60486794 0 -248891470.60486794 -84236240.094252348 0 0 0 0 17775525.547221184 10642843.935054541 0 10642843.935054541 95587867.539226055 0 0 0 0 -164050578.9100647 48108.376932621002 0 48108.376932621002 220813243.74040508 0 0 0 0 61282041.249390811 40508173.470467091 0 40508173.470467091 -161490905.98301315 0 0 0 0 -28013991.6464312 -46184118.623256385 0 -46184118.623256385 -33620384.833911896 0 0 0 0 141951720.17999744 24569864.136384964 0 24569864.136384964 -8095507.45241642 0 0 0 0 14181566.123702131 -42034900.713781357 0 -42034900.713781357 99829800.372273445 0 0 0 0 -21215326.748771071 -71914407.678708076 0 -71914407.678708076 84929506.819148064 0 0 0 0 38503056.078959234 -115722988.93249702 0 -115722988.93249702 111725413.56112766 0 0 0 0 -14431549.180572331 -36057982.513116837 0 -36057982.513116837 13840062.246915817 0 0 0 0 -44910610.115986556 -18525414.961457253 0 -18525414.961457253 18651277.70964551 0 0 0 0 -28045320.744786143 -43885070.92795372 0 -43885070.92795372 4392682.2269058228 0 0 0 0 11024377.959061259 -6679997.1306604119 0 -6679997.1306604119 8052463.739002496 0 0 0 0 53070203.012592316 -66936064.504822731 0 -66936064.504822731 64039404.850811839 0 0 0 0 58556512.732066631 -68343661.552782416 0 -68343661.552782416 840925620.32631123 0 0 0 0 17982468.480169296 -66784009.008149087 0 -66784009.008149087 867131006.79319477 0 0 0 0 26762645.911913753 -73642860.000697374 0 -73642860.000697374 862577525.21695089 0 0 0 0 4021357.4055729173 -1688580.1774384873 0 -1688580.1774384873 544102.54428774107 0 0 0 0 59737607.522763729 10716384.921713948 0 10716384.921713948 1096288618.6608076 0 0 0 0 -68418977.014007568 -187590339.95733762 0 -187590339.95733762 1587141654.1173906 0 0 0 0 131201140.48445988 -105884225.31304449 0 -105884225.31304449 569752726.58367419 0 0 0 0 127448203.31584066 -269115420.83647239 0 -269115420.83647239 840223141.52840996 0 0 0 0 113483834.67858058 -98137393.666739509 0 -98137393.666739509 847031996.64087677 0 0 0 0 80596393.173373699 -56025603.645283878 0 -56025603.645283878 583692774.09419966 0 0 0 0 109195240.53056049 -154928224.21209168 0 -154928224.21209168 806202082.98740053 0 0 0 0 127884102.35561037 -108656454.17375273 0 -108656454.17375273 528242466.26642227 0 0 0 0 73261208.320405543 124311137.3364643 0 124311137.3364643 300991351.6372 0 0 0 0 99517702.644422531 -86026424.503965497 0 -86026424.503965497 581050331.8904345 0 0 0 0 193974553.27072406 -11498166.56078288 0 -11498166.56078288 214009948.08194399 0 0 0 0 -222424372.65035114 -112713225.53454542 0 -112713225.53454542 373257884.07734346 0 0 0 0 5275147.5664157812 9375577.4581580684 0 9375577.4581580684 11677249.813178647 0 0 0 0 -58246749.287729032 250101207.06062105 0 250101207.06062105 -59637051.309892178 0 0 0 0 -64326595.622267723 -78216008.383444548 0 -78216008.383444548 202314873.44442415 0 0 0 0 78647203.387207985 46144164.727832317 0 46144164.727832317 284992828.21873403 0 0 0 0 -49164947.065173149 -127182808.70797741 0 -127182808.70797741 144320409.8350383 0 0 0 0 17896163.851502061 -83298448.539288044 0 -83298448.539288044 558727517.47570562 0 0 0 0 -114748708.94388151 -126713648.09773207 0 -126713648.09773207 544540388.4435823 0 0 0 0 -52175123.654881477 -146456681.66254759 0 -146456681.66254759 817323788.73021841 0 0 0 0 -47999711.729863167 -129068193.59046972 0 -129068193.59046972 543768079.82029653 0 0 0 0 257061802.19963932 -175340499.55020237 0 -175340499.55020237 526232405.14241117 0 0 0 0 242643569.31082535 -469298493.34298992 0 -469298493.34298992 1063808885.0014055 0 0 0 0 309032885.72261441 -158914656.58985066 0 -158914656.58985066 761113831.66652966 0 0 0 0 -33796997.994370818 -205111780.91310656 0 -205111780.91310656 743038465.88888216 0 0 0 0 -39549687.231080055 -219986344.61854982 0 -219986344.61854982 988285399.17874384 0 0 0 0 -104605996.89721012 -192719474.13649416 0 -192719474.13649416 771773192.66800642 0 0 0 0 -82343151.257425308 -113755606.66637182 0 -113755606.66637182 589538163.46456861 0 0 0 0 -39831635.931248188 -222422597.60748625 0 -222422597.60748625 722395946.39327073 0 0 0 0 24205483.471683718 -188325567.93843591 0 -188325567.93843591 579371215.23101568 0 0 0 0 4409485.5514334133 6280412.8652830124 0 6280412.8652830124 8386322.9942498608 0 0 0 0 -2714211.3355480358 -190255882.85800606 0 -190255882.85800606 579736847.66587543 0 0 0 0 16363416.49376297 -21552236.152043343 0 -21552236.152043343 221354934.07043874 0 0 0 0 2796057.9138838351 -223559266.40184903 0 -223559266.40184903 488810839.64984131 0 0 0 0 123671491.15415867 -505446318.68577206 0 -505446318.68577206 -83871253.372681618 0 0 0 0 143921826.83427328 -602075666.74715567 0 -602075666.74715567 1160934086.9096191 0 0 0 0 338593.60071186459 1202091.5759426728 0 1202091.5759426728 3893542.4767244942 0 0 0 0 216695855.00305554 -410874948.49489927 0 -410874948.49489927 836473845.87901568 0 0 0 0 199039117.70373029 -117169882.91815376 0 -117169882.91815376 -160607829.16270447 0 0 0 0 231192327.5143103 21644186.682339668 0 21644186.682339668 -132133877.40779018 0 0 0 0 -722524.89173115592 1212592.2226908242 0 1212592.2226908242 20775082.721994601 0 0 0 0 -541609129.2026875 95970770.56703043 0 95970770.56703043 139505299.49764347 0 0 0 0 -187367419.07274681 226364045.1837225 0 226364045.1837225 5951072.2073544264 0 0 0 0 -193637015.64207053 -91824314.796254158 0 -91824314.796254158 -24756643.576559067 0 0 0 0 -95400759.433637142 23744375.421125889 0 23744375.421125889 -64058080.745575905 0 0 0 0 -92177950.126466125 -34398558.644637287 0 -34398558.644637287 611060435.33797073 0 0 0 0 -396874092.76645553 77039801.382670403 0 77039801.382670403 205218100.46152401 0 0 0 0 -309911.04911626776 1713074.7997883856 0 1713074.7997883856 16105312.914237153 0 0 0 0 413693412.30673075 658372933.86058807 0 658372933.86058807 19324293.529903412 0 0 0 0 7295828.3031953126 10986631.026431013 0 10986631.026431013 12397550.500299145 0 0 0 0 -135211579.6958518 111631474.63247156 0 111631474.63247156 247878475.13641903 0 0 0 0 175111334.88789463 -348229313.91610336 0 -348229313.91610336 492033.48425269127 0 0 0 0 160158556.61256719 432399785.6173811 0 432399785.6173811 350422563.89944077 0 0 0 0 625936.19314948353 1640264.3234080356 0 1640264.3234080356 10208258.001776543 0 0 0 0 380799378.04526514 299881020.07382655 0 299881020.07382655 86832866.969362259 0 0 0 0 -288189793.48753738 -316148092.97851944 0 -316148092.97851944 570154393.13466215 0 0 0 0 105936729.37834385 -345834105.93092787 0 -345834105.93092787 323033588.63295269 0 0 0 0 -149022350.53478152 -25483231.883426428 0 -25483231.883426428 53358571.942443371 0 0 0 0 104351641.62949389 354237345.11959183 0 354237345.11959183 85607753.014381409 0 0 0 0 141036856.94860435 140552518.33259678 0 140552518.33259678 -17781993.971336365 0 0 0 0 -43731242.147311926 88363528.056137085 0 88363528.056137085 -62452538.786132812 0 0 0 0 -246071351.4731245 134503263.37293816 0 134503263.37293816 105211777.36641121 0 0 0 0 -293617157.7066865 47826220.380373955 0 47826220.380373955 211340647.37894201 0 0 0 0 249006.61794582522 7400727.2393973693 0 7400727.2393973693 26957961.927920621 0 0 0 0 -178424279.94163358 -15664826.759795666 0 -15664826.759795666 42922356.782394409 0 0 0 0 -359258061.88654041 261315017.03689957 0 261315017.03689957 -71130177.655944824 0 0 0 0 -4618223.8102370976 -1719868.702165693 0 -1719868.702165693 7147659.1861059517 0 0 0 0 -148553831.73080122 67219116.058177233 0 67219116.058177233 -88961248.820622891 0 0 0 0 10606011.942492604 171713491.68339539 0 171713491.68339539 -24933427.156319618 0 0 0 0 102337321.07092881 288349899.73390293 0 288349899.73390293 41509268.615280628 0 0 0 0 15635811.106962323 280696428.55547714 0 280696428.55547714 216243697.20004272 0 0 0 0 -33973597.981712699 38322136.3350811 0 38322136.3350811 612326284.15266323 0 0 0 0 -43560357.029888153 144133552.69706059 0 144133552.69706059 249679115.03713131 0 0 0 0 80428226.583268702 338410850.41251945 0 338410850.41251945 75409426.047409058 0 0 0 0 209433.32795990229 1282499.9079836085 0 1282499.9079836085 6252250.5893362164 0 0 0 0 145551165.95451576 394031482.99936676 0 394031482.99936676 241753002.41114235 0 0 0 0 11375540.89860815 -104890417.3620261 0 -104890417.3620261 345123635.60039139 0 0 0 0 46754121.458212025 304752303.14614391 0 304752303.14614391 632738766.36008644 0 0 0 0 380832743.314955 -105000880.8589654 0 -105000880.8589654 120564014.82398605 0 0 0 0 77487507.599449277 1900906.2590847015 0 1900906.2590847015 84375995.869797707 0 0 0 0 -35400033.362064347 65073532.466106653 0 65073532.466106653 116796926.17324066 0 0 0 0 -170107011.68138647 -65759018.456635475 0 -65759018.456635475 210084591.53327179 0 0 0 0 90911365.967776462 -39660834.040133476 0 -39660834.040133476 9015254.9068417549 0 0 0 0 39234042.193861008 -67155432.969284058 0 -67155432.969284058 64287767.012729645 0 0 0 0 26603809.855012655 -42763690.845535278 0 -42763690.845535278 -21102126.617084503 0 0 0 0 -97178830.683182001 -8650717.6466598511 0 -8650717.6466598511 49052973.909305573 0 0 0 0 91655551.691164911 898094.83540201187 0 898094.83540201187 28910478.43649292 0 0 0 0 59488562.343685225 74087106.243299484 0 74087106.243299484 63488116.699213505 0 0 0 0 1812132.160208567 1110588.3962829625 0 1110588.3962829625 -2264032.6449465379 0 0 0 0 80277359.096295536 -29927240.973423958 0 -29927240.973423958 42690609.748206139 0 0 0 0 7994864.9333705306 22563392.803754568 0 22563392.803754568 -5714505.7842750549 0 0 0 0 1858667.3913470209 6113578.7533405013 0 6113578.7533405013 6979121.1871207878 0 0 0 0 -225960057.93802857 41036815.480474472 0 41036815.480474472 72683907.450248718 0 0 0 0 -191422322.8539257 36845343.427880287 0 36845343.427880287 -10798700.78609848 0 0 0 0 -263551309.79870623 -93367494.904290199 0 -93367494.904290199 207704037.4366188 0 0 0 0 -22096357.964468718 -129140593.50940228 0 -129140593.50940228 51020436.533478737 0 0 0 0 -358357640.31960577 96902148.354249969 0 96902148.354249969 181003726.06919098 0 0 0 0 -229276535.11148047 94839920.83970356 0 94839920.83970356 90007220.582439423 0 0 0 0 73384.787998466752 393089.09230068885 0 393089.09230068885 517767.17644053698 0 0 0 0 -66890974.801844299 54829038.278263807 0 54829038.278263807 -57525583.476726532 0 0 0 0 -33232058.492445946 -17948666.765705109 0 -17948666.765705109 -69853820.542061329 0 0 0 0 -52123726.885605067 63667355.48920536 0 63667355.48920536 -50038839.566661835 0 0 0 0 1164758.5403456688 4211667.5477848053 0 4211667.5477848053 10386326.293505669 0 0 0 0 5535448.0765249729 64664467.127282053 0 64664467.127282053 -15463950.828054428 0 0 0 0 -177361666.66153502 305197683.9948833 0 305197683.9948833 -70034702.099955797 0 0 0 0 3432624.0625454369 11721487.023460202 0 11721487.023460202 22901860.621192303 0 0 0 0 -234022007.52246785 137296275.27043062 0 137296275.27043062 27679025.579153538 0 0 0 0 6800105.5060758591 130341144.26460123 0 130341144.26460123 -27015463.608802319 0 0 0 0 75744932.623236179 88280273.175564706 0 88280273.175564706 -225341412.75616562 0 0 0 0 301234965.0978632 99115419.233636856 0 99115419.233636856 -50663687.317958176 0 0 0 0 26795908.311879635 117929832.45580024 0 117929832.45580024 -46376037.237528801 0 0 0 0 -34355619.535972118 168963226.04070109 0 168963226.04070109 278549484.85984182 0 0 0 0 -17303494.560333729 88312092.111145914 0 88312092.111145914 -129352470.3821851 0 0 0 0 11850627.955450997 18431898.762755383 0 18431898.762755383 22429770.83094088 0 0 0 0 -2427299.6620898247 242126879.79179803 0 242126879.79179803 -221978347.84097189 0 0 0 0 78906300.056163788 42134671.221213698 0 42134671.221213698 -123047035.96524477 0 0 0 0 73261617.837235451 -11996538.32212168 0 -11996538.32212168 -140911367.43493193 0 0 0 0 208854108.82194805 75727907.648876667 0 75727907.648876667 -150701740.29583204 0 0 0 0 82529217.719450951 55550682.214502513 0 55550682.214502513 -112579849.58346611 0 0 0 0 87313557.75875473 -144320177.221174 0 -144320177.221174 -170663241.86778861 0 0 0 0 78025237.1837883 -152028571.64553022 0 -152028571.64553022 26812003.461201072 0 0 0 0 69429447.057400703 -6992217.0370762348 0 -6992217.0370762348 -136877075.73794162 0 0 0 0 188970179.90530586 -17013407.09945941 0 -17013407.09945941 -151351864.95177722 0 0 0 0 65463491.606553823 -130958254.41306812 0 -130958254.41306812 -178773206.59273815 0 0 0 0 41196072.358815193 -48298003.764970422 0 -48298003.764970422 -86827523.792096257 0 0 0 0 54769067.56438303 -86638219.18571502 0 -86638219.18571502 1204035.851754427 0 0 0 0 233479221.23029423 -151400582.54683101 0 -151400582.54683101 22943728.761372805 0 0 0 0 152892110.24407434 14579417.107432246 0 14579417.107432246 166592876.05993032 0 0 0 0 121229206.3315239 -995391.05158990622 0 -995391.05158990622 -41551370.869285583 0 0 0 0 270893115.29263592 56125648.205330133 0 56125648.205330133 -37485606.294346765 0 0 0 0 591515096.31108546 148352472.53771293 0 148352472.53771293 170047673.95885181 0 0 0 0 116194250.90251017 -103891120.19057429 0 -103891120.19057429 469010096.35201955 0 0 0 0 57576669.531115651 19333581.625060618 0 19333581.625060618 284880287.4911015 0 0 0 0 194917417.61381483 195641471.13324487 0 195641471.13324487 330695457.51316476 0 0 0 0 198803421.58064604 220936399.46138996 0 220936399.46138996 -138936289.30740213 0 0 0 0 143620543.62587047 -427472026.57145834 0 -427472026.57145834 834756019.47857404 0 0 0 0 1692618.0097453305 3222299.4485203102 0 3222299.4485203102 4930854.3431839924 0 0 0 0 63302400.700157918 -86176177.554838955 0 -86176177.554838955 353829558.64856052 0 0 0 0 -145868247.20955878 -139552628.28115225 0 -139552628.28115225 425227651.00506306 0 0 0 0 -45650020.859560013 139898405.19867444 0 139898405.19867444 242596018.70096493 0 0 0 0 -166060397.98252606 107956658.24947453 0 107956658.24947453 251387067.55723 0 0 0 0 83840214.759483099 -41791468.161618352 0 -41791468.161618352 270111037.71997261 0 0 0 0 38843431.915932655 192012628.73590946 0 192012628.73590946 813428950.3849678 0 0 0 0 -88544103.630119324 -40054704.376178741 0 -40054704.376178741 186893631.93406534 0 0 0 0 1986452.600174427 52180798.561632156 0 52180798.561632156 -11981856.535047531 0 0 0 0 40599146.34116596 -131310153.24001324 0 -131310153.24001324 110217347.6337204 0 0 0 0 -21950756.749685273 -6717564.5820922852 0 -6717564.5820922852 37456418.837093353 0 0 0 0 -12689460.255706385 -519010.06120745093 0 -519010.06120745093 225501.2142224554 0 0 0 0 -13560185.658312917 -7040505.4460124969 0 -7040505.4460124969 19538553.443082809 0 0 0 0 -3378543.9418665171 3109112.5129914284 0 3109112.5129914284 14342731.136505127 0 0 0 0 90801592.036366522 -155079219.62570381 0 -155079219.62570381 154019604.6580658 0 0 0 0 -78333887.666277409 11307854.62714529 0 11307854.62714529 148731188.55401707 0 0 0 0 -16040683.824812319 -2844830.6587233767 0 -2844830.6587233767 8642184.4849218465 0 0 0 0 6895374.7628943408 16088871.305476397 0 16088871.305476397 27394689.657433286 0 0 0 0 -53573643.418871567 -144755905.38625145 0 -144755905.38625145 165685152.20385551 0 0 0 0 149568555.93202811 -69121833.673966408 0 -69121833.673966408 8118042.6064491272 0 0 0 0 -29576821.989752293 107786678.20587015 0 107786678.20587015 -31364668.248322487 0 0 0 0 177438065.27581513 -157845181.54052782 0 -157845181.54052782 116349477.21940231 0 0 0 0 6330715.8030900564 13552345.133751042 0 13552345.133751042 23354128.802169561 0 0 0 0 96636877.248005092 -58895836.931985378 0 -58895836.931985378 122816788.40322495 0 0 0 0 140237381.65085912 -77897310.493759155 0 -77897310.493759155 127748682.9513073 0 0 0 0 -50014245.366996586 11461000.814006805 0 11461000.814006805 90004371.141320229 0 0 0 0 89882836.303000897 -70697435.707615852 0 -70697435.707615852 130068842.88534164 0 0 0 0 38606274.973215997 -24668774.738357544 0 -24668774.738357544 132462867.64135742 0 0 0 0 81957453.667459249 -68774928.776901245 0 -68774928.776901245 185771359.75861168 0 0 0 0 67716525.842963398 -67953415.636667252 0 -67953415.636667252 186707309.91462326 0 0 0 0 159168593.65629235 -127055471.81045246 0 -127055471.81045246 182926446.83846664 0 0 0 0 105509907.68573678 -108701981.71457291 0 -108701981.71457291 180054827.00094962 0 0 0 0 5355154.0134641435 11150388.445619728 0 11150388.445619728 18656845.015504822 0 0 0 0 -199235192.77107763 167182855.238904 0 167182855.238904 2302363.7967320681 0 0 0 0 -118105592.87557852 -272190.59890961647 0 -272190.59890961647 59202433.14899826 0 0 0 0 -136013008.55089092 226878183.16437626 0 226878183.16437626 -95529938.099372864 0 0 0 0 -97658751.731404066 69772173.599581718 0 69772173.599581718 35410687.219082832 0 0 0 0 115842387.0430572 204699984.29430771 0 204699984.29430771 120628338.85321808 0 0 0 0 106271066.80040637 131832066.90768063 0 131832066.90768063 62752565.510913849 0 0 0 0 -170891845.90848398 -124486312.3242054 0 -124486312.3242054 219967825.06840134 0 0 0 0 -138135106.07803893 70760970.920531273 0 70760970.920531273 1082779810.0093575 0 0 0 0 -109635251.05704927 -41474858.271198273 0 -41474858.271198273 290535204.19478798 0 0 0 0 -108504220.68898153 6274421.824716568 0 6274421.824716568 63656651.302316666 0 0 0 0 -129495202.93277103 89151466.034564972 0 89151466.034564972 11394032.955375671 0 0 0 0 5630676.8899109885 7433118.4452583604 0 7433118.4452583604 9255919.8085751198 0 0 0 0 268425595.77476543 145935034.50562859 0 145935034.50562859 -50022750.858915329 0 0 0 0 103230191.88954198 -14578419.136032104 0 -14578419.136032104 -87676260.056155682 0 0 0 0 344880107.88171095 436016951.52744579 0 436016951.52744579 324424716.44453716 0 0 0 0 -1690201.1088262033 428991.96175358072 0 428991.96175358072 1172362.550002085 0 0 0 0 -109780590.14428815 -370138985.34562874 0 -370138985.34562874 806557287.75901794 0 0 0 0 627874819.14147186 231272069.86651611 0 231272069.86651611 1072408069.8778343 0 0 0 0 333554098.0799588 167821960.6403017 0 167821960.6403017 -51397911.210224152 0 0 0 0 3004477.373790022 2554948.967826182 0 2554948.967826182 2965983.7571185827 0 0 0 0 -23920262.097813874 181391460.32407475 0 181391460.32407475 448605085.2420702 0 0 0 0 96482380.786412388 -50612601.973772049 0 -50612601.973772049 183766129.75366879 0 0 0 0 5814271.966971837 211589187.88948441 0 211589187.88948441 283791028.08561325 0 0 0 0 -27671566.921519563 -79139491.486499786 0 -79139491.486499786 221942075.41011214 0 0 0 0 -25520735.43978611 -17254740.901625633 0 -17254740.901625633 51184671.216291428 0 0 0 0 -2547056.5703474544 106864755.26637506 0 106864755.26637506 -26465871.542201996 0 0 0 0 -17412314.178876381 -63193417.991488457 0 -63193417.991488457 57136768.29551506 0 0 0 0 -39312236.842076451 -37389962.388029099 0 -37389962.388029099 26734278.712171555 0 0 0 0 15018748.512852728 -68376682.720549583 0 -68376682.720549583 9623016.4081897736 0 0 0 0 53919238.041401118 -78910094.118159771 0 -78910094.118159771 50742741.827861786 0 0 0 0 -11974085.50457865 -5034636.406794548 0 -5034636.406794548 -9254985.6231918335 0 0 0 0 -73916405.922564507 -155754409.12097168 0 -155754409.12097168 229018643.99008179 0 0 0 0 -6951810.7444296479 332700.3363394402 0 332700.3363394402 1695928.7802943755 0 0 0 0 -3154242.943490088 9736203.3937225342 0 9736203.3937225342 5478720.1565914154 0 0 0 0 -28953398.663534336 -39174260.375692368 0 -39174260.375692368 21486545.685750961 0 0 0 0 -58157569.050494634 -27278478.228960991 0 -27278478.228960991 62853959.285619736 0 0 0 0 -25999032.861185342 966063.56924915314 0 966063.56924915314 1394900.1064395905 0 0 0 0 -8183207.7968316227 -55009553.026445389 0 -55009553.026445389 63068593.211835861 0 0 0 0 -232914.52598999336 66018.315449308604 0 66018.315449308604 281432.36788615212 0 0 0 0 32511439.445732445 -15149071.746543884 0 -15149071.746543884 9828761.3405914307 0 0 0 0 6524082.9308202267 -14452437.657102585 0 -14452437.657102585 33487255.881925583 0 0 0 0 -336681.50963839889 236310.42357257381 0 236310.42357257381 558843.91120053083 0 0 0 0 -830886.60442207381 -38605091.527692795 0 -38605091.527692795 13907009.939201355 0 0 0 0 14735770.794381246 -15186567.949671745 0 -15186567.949671745 5867784.6667098999 0 0 0 0 14123875.403977893 -30188902.249741554 0 -30188902.249741554 51053273.644375801 0 0 0 0 44186034.092669234 10229016.830063343 0 10229016.830063343 46760192.85021019 0 0 0 0 -104666064.44426505 -16008430.248946309 0 -16008430.248946309 25623148.411037445 0 0 0 0 9054126.3222127035 -50204677.294270515 0 -50204677.294270515 -12433675.957805634 0 0 0 0 9384256.0756874979 -45761453.641559601 0 -45761453.641559601 17955838.814231873 0 0 0 0 4938112.0040138811 -16297003.004432678 0 -16297003.004432678 36577035.098012924 0 0 0 0 7097928.693790637 -21100610.881669998 0 -21100610.881669998 -2052060.65173769 0 0 0 0 -28118695.375776064 -53121717.028541565 0 -53121717.028541565 -16284253.557024002 0 0 0 0 -345774354.13593245 -207346128.79558992 0 -207346128.79558992 -30569250.644786835 0 0 0 0 -54726205.569453076 22527560.269349098 0 22527560.269349098 26813368.66297245 0 0 0 0 14127197.956536524 -47775076.997776508 0 -47775076.997776508 98281953.249881744 0 0 0 0 17669198.000027515 215899324.09611607 0 215899324.09611607 418681457.02004147 0 0 0 0 5074406.2738072155 224443.49507500604 0 224443.49507500604 203250.72724644747 0 0 0 0 66840410.564332485 -9263505.8509998322 0 -9263505.8509998322 -112911488.51835537 0 0 0 0 -105542936.2262139 355644974.05466366 0 355644974.05466366 723724553.90753174 0 0 0 0 -45727141.290293753 576025428.04656792 0 576025428.04656792 489229534.45746613 0 0 0 0 572615724.85235023 109075544.44802284 0 109075544.44802284 -787866860.75426865 0 0 0 0 25196491.701272249 4079385.4077734947 0 4079385.4077734947 115690208.86735153 0 0 0 0 -4051264.9367510676 -10904958.428191185 0 -10904958.428191185 111188924.05884886 0 0 0 0 64159330.642669037 26412788.29928875 0 26412788.29928875 83046766.033380985 0 0 0 0 9552799.4937753398 2733813.971823018 0 2733813.971823018 449352.60767540336 0 0 0 0 -296021.77570334077 3827193.8992824554 0 3827193.8992824554 193681470.05587196 0 0 0 0 387490143.03728056 -203330380.55449963 0 -203330380.55449963 -171107933.35387135 0 0 0 0 -55321543.22965014 39378341.521482468 0 39378341.521482468 233238417.87146449 0 0 0 0 4599317.2421550825 3619492.6464947499 0 3619492.6464947499 998341.53361946763 0 0 0 0 -11412703.002829015 3233101.3245210648 0 3233101.3245210648 164829383.10054517 0 0 0 0 8445322.0653348863 -3194519.2479131222 0 -3194519.2479131222 124740753.98313332 0 0 0 0 -10271031.354475737 -19240472.913491249 0 -19240472.913491249 124460759.02846682 0 0 0 0 16762260.061121136 -6707074.5004582405 0 -6707074.5004582405 58214943.026346207 0 0 0 0 -3915328.8386992216 12791769.139210701 0 12791769.139210701 53113557.73728776 0 0 0 0 -261573.5766651528 395883.62081738561 0 395883.62081738561 723825.0422981903 0 0 0 0 -14634895.399696611 -4146266.4440832138 0 -4146266.4440832138 26486760.814704895 0 0 0 0 -10044489.532566071 -2049563.4247589111 0 -2049563.4247589111 25603359.622592926 0 0 0 0 21135308.100830913 -3392684.4962878227 0 -3392684.4962878227 -2363742.3188514709 0 0 0 0 8515333.8397347331 -24120352.300918579 0 -24120352.300918579 37610530.21654053 0 0 0 0 -7639098.6413896084 1422741.4027414322 0 1422741.4027414322 28977109.9344244 0 0 0 0 -15705434.549373984 -530080.83304929733 0 -530080.83304929733 32875003.977890015 0 0 0 0 -18992809.205664039 -5253413.3005280495 0 -5253413.3005280495 27921607.582895279 0 0 0 0 -13992916.280053079 -790576.54311597347 0 -790576.54311597347 30127903.472211838 0 0 0 0 -12131143.718576193 22793010.984118462 0 22793010.984118462 -901281.37402629852 0 0 0 0 -233286.36249904567 253219.74561904743 0 253219.74561904743 531056.67688788101 0 0 0 0 -12111002.705544829 26346268.78676033 0 26346268.78676033 61023309.050738335 0 0 0 0 -20139702.429880261 8158174.9029388428 0 8158174.9029388428 105878186.05018616 0 0 0 0 -7765721.8668665886 6414403.3520507812 0 6414403.3520507812 104991277.14302635 0 0 0 0 -3514952.337231636 14362162.846141338 0 14362162.846141338 119047837.05244064 0 0 0 0 -2296887.9258143902 9566845.8693885803 0 9566845.8693885803 136367966.11632919 0 0 0 0 -8762994.7958732545 -8848987.6695699692 0 -8848987.6695699692 153513667.65810585 0 0 0 0 4041476.4427703619 5727749.6214132309 0 5727749.6214132309 129944998.47270966 0 0 0 0 73575134.748840332 -37794480.831047058 0 -37794480.831047058 296617182.63528728 0 0 0 0 -4260826.0323182242 2581404.3559886068 0 2581404.3559886068 -121804.64560777182 0 0 0 0 -4265091.3240462542 2221411.5214805603 0 2221411.5214805603 137389874.90367699 0 0 0 0 -9630923.4597541094 -1125475.9570057392 0 -1125475.9570057392 107641627.55455017 0 0 0 0 -8750354.7463316917 -5920846.121131897 0 -5920846.121131897 125629973.34796429 0 0 0 0 27611025.870855331 -44169540.046782494 0 -44169540.046782494 114310816.39089203 0 0 0 0 101700784.04276943 -144971759.29466438 0 -144971759.29466438 95624233.520885468 0 0 0 0 -1855499.8507870752 105731.25909683853 0 105731.25909683853 2826734.9172658399 0 0 0 0 28160455.94578743 -28344986.300426483 0 -28344986.300426483 102191237.65061951 0 0 0 0 60127741.457306862 -63186405.333106995 0 -63186405.333106995 86335417.077178955 0 0 0 0 42426347.875779688 -227942616.60844111 0 -227942616.60844111 200378347.72826767 0 0 0 0 50622930.539649725 -182694236.39941859 0 -182694236.39941859 150272826.5993042 0 0 0 0 104674309.20310545 -159682029.027174 0 -159682029.027174 131331806.49497581 0 0 0 0 75660380.376578212 -161990611.68276358 0 -161990611.68276358 307288214.74120712 0 0 0 0 -22375299.931424987 -42707264.388457566 0 -42707264.388457566 307833687.82249069 0 0 0 0 -1818567.9828040237 -530364.13723275438 0 -530364.13723275438 2658029.8915209621 0 0 0 0 -21481715.442734718 -8606953.1557798386 0 -8606953.1557798386 108424058.7287097 0 0 0 0 -50809636.839613676 -30515415.080595016 0 -30515415.080595016 311332274.03183651 0 0 0 0 -47262205.596904278 -18640859.622579575 0 -18640859.622579575 344771030.8461647 0 0 0 0 -130222347.81020975 448621.72517871857 0 448621.72517871857 524614461.20983505 0 0 0 0 -69956290.443138957 -38656235.84283638 0 -38656235.84283638 339214787.90348816 0 0 0 0 -45836191.077629209 -67375977.391775131 0 -67375977.391775131 285370803.25883102 0 0 0 0 -155652257.60521793 98344337.77740097 0 98344337.77740097 328864008.16112328 0 0 0 0 -184714219.98045611 -428845494.44204712 0 -428845494.44204712 862293904.0189209 0 0 0 0 -122863227.84194529 -306194169.87731934 0 -306194169.87731934 437548488.01422882 0 0 0 0 -164822955.29420698 -369347080.21082211 0 -369347080.21082211 449879099.78896332 0 0 0 0 -126196585.29941839 -254002748.66160965 0 -254002748.66160965 513677306.39977145 0 0 0 0 -33209599.15483892 -232610556.70866013 0 -232610556.70866013 371264605.99132538 0 0 0 0 -15909068.482873201 -194741167.61606216 0 -194741167.61606216 206808750.11640263 0 0 0 0 -40584982.939488649 -294860215.30776882 0 -294860215.30776882 277906935.77383423 0 0 0 0 52516140.13589108 -346111132.94493675 0 -346111132.94493675 119421034.74681854 0 0 0 0 39204817.645742834 -367751996.39621353 0 -367751996.39621353 277078589.62655872 0 0 0 0 168693166.33951521 -337026731.84084702 0 -337026731.84084702 117655998.33669662 0 0 0 0 -31433109.49911499 -556529540.07606506 0 -556529540.07606506 171862567.45162582 0 0 0 0 -25034585.603240252 -458398799.84113693 0 -458398799.84113693 152059813.17010498 0 0 0 0 -44060690.302090645 -463423208.93683434 0 -463423208.93683434 458716113.73523664 0 0 0 0 37149313.830434561 -467688761.3217392 0 -467688761.3217392 145437860.79439259 0 0 0 0 37448135.378885269 -467196040.88655853 0 -467196040.88655853 49842872.237781525 0 0 0 0 -60034519.56098175 -541925109.4821701 0 -541925109.4821701 80861805.091495514 0 0 0 0 -46873722.098135948 -491758627.21526146 0 -491758627.21526146 174409235.19215775 0 0 0 0 55323356.538030386 -453632521.17181492 0 -453632521.17181492 -21215637.654994965 0 0 0 0 27861243.537270069 -510887862.52870178 0 -510887862.52870178 -44847935.823829651 0 0 0 0 -140314639.82865 -357611791.71458817 0 -357611791.71458817 -1370521.7673068047 0 0 0 0 131868737.33683223 -354710707.15844345 0 -354710707.15844345 45606519.458240509 0 0 0 0 161629604.89274931 -357287565.43745232 0 -357287565.43745232 91707146.129928589 0 0 0 0 194573607.60491204 -356483554.37096405 0 -356483554.37096405 40948125.067329407 0 0 0 0 132754443.23820877 -431641579.99790382 0 -431641579.99790382 12782858.413707733 0 0 0 0 281772787.32778239 -318884753.84792328 0 -318884753.84792328 39863596.409988344 0 0 0 0 202781451.15693283 -335425619.39598465 0 -335425619.39598465 71428960.50668335 0 0 0 0 255966484.6524744 -234149291.09589577 0 -234149291.09589577 40470838.174289703 0 0 0 0 218950095.61780548 -237458096.28259468 0 -237458096.28259468 64640702.874172211 0 0 0 0 375638881.34607792 -215766668.0732193 0 -215766668.0732193 40026500.517757416 0 0 0 0 237228812.71600533 -111676859.29034042 0 -111676859.29034042 37262075.933063507 0 0 0 0 302470663.18281507 -142804797.83587265 0 -142804797.83587265 38637515.639980316 0 0 0 0 189798206.08190823 -144532412.29543495 0 -144532412.29543495 56838833.426537514 0 0 0 0 181196819.78242302 -158326495.90037155 0 -158326495.90037155 85200013.61464119 0 0 0 0 106942947.53480148 -235112498.10857201 0 -235112498.10857201 129526271.78506088 0 0 0 0 109220863.03045464 -283951463.72239494 0 -283951463.72239494 184815001.01517344 0 0 0 0 162268588.64882296 -228993102.09442377 0 -228993102.09442377 82700223.847873688 0 0 0 0 762520035.48987186 3669102.2143259048 0 3669102.2143259048 609256976.84429455 0 0 0 0 -22128068.686748028 -598731227.55534315 0 -598731227.55534315 1416283983.7602768 0 0 0 0 -291274823.27415413 264108879.92975569 0 264108879.92975569 1557944436.7926559 0 0 0 0 96169968.135271519 -473760884.06299567 0 -473760884.06299567 1290591594.7889442 0 0 0 0 -264517992.97532946 348869125.21380353 0 348869125.21380353 762984047.07556152 0 0 0 0 -107499.19991921436 939173.11593891727 0 939173.11593891727 10891398.382039353 0 0 0 0 -294912971.62299252 -53364339.133415222 0 -53364339.133415222 674004779.59506989 0 0 0 0 -209354048.70602179 -411551171.07995129 0 -411551171.07995129 574785637.15870476 0 0 0 0 -364668377.03073394 11688792.28591156 0 11688792.28591156 1183109301.3893318 0 0 0 0 -154257509.81578994 -48608896.632722378 0 -48608896.632722378 706525731.54800558 0 0 0 0 -217774902.86659133 -246892156.82069206 0 -246892156.82069206 818015169.86590958 0 0 0 0 -439752091.58501673 -53810075.175890923 0 -53810075.175890923 1240891337.8244858 0 0 0 0 100143213.39825821 625443309.79604816 0 625443309.79604816 955795658.72729254 0 0 0 0 506463.1856762243 -1348698.8895616904 0 -1348698.8895616904 11529104.70294001 0 0 0 0 -454714808.64046741 -50505833.77430439 0 -50505833.77430439 1565081471.3754921 0 0 0 0 983470799.05609894 -687296055.65063095 0 -687296055.65063095 310917657.47800064 0 0 0 0 -231623692.24602509 -461402331.64954591 0 -461402331.64954591 1237726519.5590153 0 0 0 0 849761521.98645282 439142464.81557369 0 439142464.81557369 482725806.70848656 0 0 0 0 -305047769.86378813 -86345880.196227074 0 -86345880.196227074 1752673740.6983986 0 0 0 0 -194386811.25195742 -145652279.53524399 0 -145652279.53524399 672225303.51544762 0 0 0 0 -223197908.87098503 230796584.47975349 0 230796584.47975349 997471439.34149551 0 0 0 0 84729194.837776184 -876803972.70500183 0 -876803972.70500183 1313666912.6723652 0 0 0 0 -83650946.619585514 -499244545.23625088 0 -499244545.23625088 484134819.81072998 0 0 0 0 -103496865.48074675 -533927082.4434967 0 -533927082.4434967 483294092.09401548 0 0 0 0 119116264.95315862 -524189523.41584826 0 -524189523.41584826 150942984.67791748 0 0 0 0 -97794028.581669092 -125252069.73132563 0 -125252069.73132563 116761237.94589615 0 0 0 0 -541090540.05770254 69578254.037507057 0 69578254.037507057 91823204.93359375 0 0 0 0 -356842986.47203255 -547008709.11941147 0 -547008709.11941147 -11814555.569015503 0 0 0 0 -295000509.95047855 -445997855.20153618 0 -445997855.20153618 147489213.1527977 0 0 0 0 -65667219.396980286 -414915105.28382301 0 -414915105.28382301 -149130985.14321136 0 0 0 0 -751895962.59248281 -305419073.58666039 0 -305419073.58666039 63776122.335699081 0 0 0 0 -259379403.50736666 -383412945.84409142 0 -383412945.84409142 15687798.053409576 0 0 0 0 -139134103.74891329 -317326466.46821404 0 -317326466.46821404 -223649251.96084595 0 0 0 0 -269497335.64383924 -254452193.46299314 0 -254452193.46299314 -472461337.05821228 0 0 0 0 -714242760.18489957 -315526541.41445351 0 -315526541.41445351 -98215919.560400009 0 0 0 0 -71826644.818866014 -8054860.7456407547 0 -8054860.7456407547 48144811.137309074 0 0 0 0 -857039.59940975381 -11497568.651780263 0 -11497568.651780263 22581007.907906756 0 0 0 0 -739575.05800168775 -3045124.5863702074 0 -3045124.5863702074 8354647.1263509952 0 0 0 0 -12346760.709957272 -5118010.3324326277 0 -5118010.3324326277 101898994.82632732 0 0 0 0 -90546784.353042603 -128682834.25722885 0 -128682834.25722885 104917722.35125732 0 0 0 0 -3656208.5948341461 -5791057.9452130906 0 -5791057.9452130906 30874290.592927713 0 0 0 0 -8322037.8896666197 -11685447.204890803 0 -11685447.204890803 2403462.140556246 0 0 0 0 -19048510.248544812 -131877511.23748255 0 -131877511.23748255 208066328.22447205 0 0 0 0 -10155767.658024907 17604596.441457272 0 17604596.441457272 47619611.066705704 0 0 0 0 9917272.5138693154 17644641.487205505 0 17644641.487205505 -23749242.169885635 0 0 0 0 56633356.666790962 -80595376.481078148 0 -80595376.481078148 57018815.767757416 0 0 0 0 118063139.9830209 -49138777.875030994 0 -49138777.875030994 73022001.73828125 0 0 0 0 36191251.141982317 -12238624.826113045 0 -12238624.826113045 -9800939.6400337219 0 0 0 0 286860408.15864587 61418466.452253819 0 61418466.452253819 -139134251.90630817 0 0 0 0 2178631.709747164 -6718283.1325679608 0 -6718283.1325679608 -4353078.9108587708 0 0 0 0 210296158.207901 -151957373.05960846 0 -151957373.05960846 215717418.70147228 0 0 0 0 157105652.57525539 -170113154.17035103 0 -170113154.17035103 229324738.46117783 0 0 0 0 171115844.08972114 -133224772.58432245 0 -133224772.58432245 134296987.12450027 0 0 0 0 314480505.03867674 -160801910.51779366 0 -160801910.51779366 173941767.57370377 0 0 0 0 233250903.08947873 -209324072.18478012 0 -209324072.18478012 169000963.8890419 0 0 0 0 169356127.24287274 -133571508.07655303 0 -133571508.07655303 174921687.62668991 0 0 0 0 122802741.87514102 -151257804.12516594 0 -151257804.12516594 186366510.41209221 0 0 0 0 107301097.28322172 -52639179.266985893 0 -52639179.266985893 84371818.993522644 0 0 0 0 -9580691.7354722619 28213631.640002728 0 28213631.640002728 48576510.94610405 0 0 0 0 91080704.688203737 -66652491.644176334 0 -66652491.644176334 26047915.412685394 0 0 0 0 54214260.736978799 -70790346.571556091 0 -70790346.571556091 91593724.018222809 0 0 0 0 89213900.893805265 -135941551.98075676 0 -135941551.98075676 171122888.6880188 0 0 0 0 48940800.775178909 -134618224.08948421 0 -134618224.08948421 143023599.47158051 0 0 0 0 -1288174221.2475734 -393852974.35654354 0 -393852974.35654354 299736017.89998245 0 0 0 0 -120917.53503046266 -7192700.665362875 0 -7192700.665362875 23039156.302386194 0 0 0 0 -558551722.96714783 -397957516.90646553 0 -397957516.90646553 35508040.618526459 0 0 0 0 -280208497.87872386 -372236587.36359024 0 -372236587.36359024 -49053295.633922577 0 0 0 0 -653835781.25621748 -26715148.392653465 0 -26715148.392653465 133926190.85079193 0 0 0 0 -504720746.06295097 -6439331.5602024794 0 -6439331.5602024794 -100176467.64884949 0 0 0 0 -527065588.47447687 212872861.90364164 0 212872861.90364164 1020947381.48386 0 0 0 0 -1033712516.8397424 375844079.36207294 0 375844079.36207294 2200765428.3107338 0 0 0 0 669626970.00449884 -1128708251.088553 0 -1128708251.088553 2151158174.0482178 0 0 0 0 -726462420.03701365 846647548.38249016 0 846647548.38249016 1071433078.5748405 0 0 0 0 55992.628030987398 -2377589.9597888375 0 -2377589.9597888375 10734295.619391255 0 0 0 0 137768544.71866333 -104162273.59114647 0 -104162273.59114647 134322561.63787079 0 0 0 0 203561525.95254016 -205470711.79834366 0 -205470711.79834366 165986495.74396992 0 0 0 0 -1711789.1370542522 -1074125.9479663558 0 -1074125.9479663558 5125319.0431173518 0 0 0 0 147771340.44084364 -885104829.28087616 0 -885104829.28087616 2200961476.6472611 0 0 0 0 240216549.15121797 -137674120.72023201 0 -137674120.72023201 145209353.55874443 0 0 0 0 -64130438.276030555 -312079577.61803722 0 -312079577.61803722 656758186.24222946 0 0 0 0 -3069184.3221676638 -529552.45727306604 0 -529552.45727306604 5165898.5482002348 0 0 0 0 196771795.64326966 -217857949.2420311 0 -217857949.2420311 201066996.09485173 0 0 0 0 -212500346.76376757 244506942.7076118 0 244506942.7076118 681963711.23525429 0 0 0 0 -133460883.813474 67971579.734860897 0 67971579.734860897 457344910.07572746 0 0 0 0 300161934.48713225 -338806911.20873642 0 -338806911.20873642 291006480.68367767 0 0 0 0 713549029.92043626 -495483484.91711044 0 -495483484.91711044 304939915.50806403 0 0 0 0 484056633.76596808 -252211192.17502403 0 -252211192.17502403 248002458.04254532 0 0 0 0 510551312.66512442 -178577445.99760628 0 -178577445.99760628 87613532.503616333 0 0 0 0 422091443.94003582 -118098907.93173599 0 -118098907.93173599 25580819.798660278 0 0 0 0 354019263.66189408 -223288654.17547131 0 -223288654.17547131 74952155.164226532 0 0 0 0 475833742.91844302 -361017506.13951755 0 -361017506.13951755 142580773.09415436 0 0 0 0 347506069.90976226 -273219665.43844986 0 -273219665.43844986 82738458.760890961 0 0 0 0 295334964.7968384 -331787037.58560848 0 -331787037.58560848 49411468.795127869 0 0 0 0 298859739.12134612 -279608022.0814724 0 -279608022.0814724 148077011.33807564 0 0 0 0 177170237.70255286 -403398284.12261391 0 -403398284.12261391 59698082.800754547 0 0 0 0 310583023.27543855 -384787048.60413837 0 -384787048.60413837 39339178.239242554 0 0 0 0 -232728860.59737897 -263475715.52468109 0 -263475715.52468109 108401202.58063698 0 0 0 0 -200678318.87609857 -363283972.40719223 0 -363283972.40719223 331659685.27808952 0 0 0 0 153191939.61374566 -488951388.10586166 0 -488951388.10586166 214311548.97261238 0 0 0 0 -99947336.649780512 -173955279.2809906 0 -173955279.2809906 439231893.34774303 0 0 0 0 87882925.489790052 -542796340.85075092 0 -542796340.85075092 1086726432.6522961 0 0 0 0 -721248827.60588145 146927431.98056602 0 146927431.98056602 1078643777.329567 0 0 0 0 -581131977.19166255 -250577569.01305819 0 -250577569.01305819 2205954905.4653625 0 0 0 0 31898319.044177353 -502404982.3272028 0 -502404982.3272028 1090096485.8838005 0 0 0 0 213478171.65887368 -971736602.65382624 0 -971736602.65382624 2200248579.3864784 0 0 0 0 549861974.25062692 -196931077.47498703 0 -196931077.47498703 289787760.70961189 0 0 0 0 2073986843.7657456 -1059632720.4721546 0 -1059632720.4721546 562726962.64967155 0 0 0 0 461110812.13379514 1071670878.3882751 0 1071670878.3882751 2199962864.2017937 0 0 0 0 939084552.11968613 1045756514.2061024 0 1045756514.2061024 1559120457.021225 0 0 0 0 3999738.9845433179 -4276942.5216086358 0 -4276942.5216086358 16807368.267319679 0 0 0 0 455136105.99948621 945930780.40408325 0 945930780.40408325 1347786096.2715912 0 0 0 0 -40188300.535983369 634845693.28298569 0 634845693.28298569 1873637534.8204803 0 0 0 0 -38785223.916499235 661069912.64034319 0 661069912.64034319 1636410776.9379578 0 0 0 0 -45592172.309182167 306387611.60882187 0 306387611.60882187 1280047262.324028 0 0 0 0 236209118.38611448 646582927.28325653 0 646582927.28325653 1146098950.2867737 0 0 0 0 201874942.92977619 430112076.36660767 0 430112076.36660767 517556999.14025116 0 0 0 0 235642669.30979729 311965780.48123932 0 311965780.48123932 614191010.92305374 0 0 0 0 96016048.49322024 579076145.44219112 0 579076145.44219112 944066264.16378784 0 0 0 0 93312.839167563186 3738953.9760620063 0 3738953.9760620063 1587289.1956191063 0 0 0 0 806915783.87334538 -31895751.489394188 0 -31895751.489394188 -592823194.86199951 0 0 0 0 792059699.42739606 805296715.30789566 0 805296715.30789566 805633661.95809937 0 0 0 0 675294806.60952735 539958065.25125885 0 539958065.25125885 203728581.84488678 0 0 0 0 407146901.90911615 -11895057.426776886 0 -11895057.426776886 -352580607.82352448 0 0 0 0 -179984223.09929252 -173327476.63199997 0 -173327476.63199997 109064475.77803802 0 0 0 0 637095069.53691816 -116894287.29019165 0 -116894287.29019165 66029459.286422729 0 0 0 0 2726087.5718090599 -9643043.9587875158 0 -9643043.9587875158 45677603.766567424 0 0 0 0 2884427.3579682829 -3853436.8795103543 0 -3853436.8795103543 -1209868.2507343888 0 0 0 0 74481304.410415053 2705055.2541770935 0 2705055.2541770935 401587093.20948792 0 0 0 0 -29751406.855723143 117563610.34131622 0 117563610.34131622 628122849.86784363 0 0 0 0 173086275.32624644 26995991.934484482 0 26995991.934484482 21746545.284954071 0 0 0 0 50341947.707710221 47433712.12452507 0 47433712.12452507 51412579.691703796 0 0 0 0 2539803.9874494276 -5729800.8339847624 0 -5729800.8339847624 3841045.7814304084 0 0 0 0 38985083.417128175 -550558.21775436401 0 -550558.21775436401 34962730.263366699 0 0 0 0 24510895.537637055 -53837571.937553406 0 -53837571.937553406 -5280477.7238292694 0 0 0 0 2586725.0618635882 -13233368.885368235 0 -13233368.885368235 32226428.221732914 0 0 0 0 274470844.26002598 -21094954.849897385 0 -21094954.849897385 57632865.28529954 0 0 0 0 165706749.21989477 -71922844.007026434 0 -71922844.007026434 85978649.310935974 0 0 0 0 2702771.7050433573 -7102380.3963488555 0 -7102380.3963488555 25203261.73791866 0 0 0 0 51544007.929899067 31183903.31570816 0 31183903.31570816 42741458.022468567 0 0 0 0 64903088.209921643 -7238779.1173095703 0 -7238779.1173095703 42835587.731109619 0 0 0 0 38838870.25038296 9705710.0833091736 0 9705710.0833091736 52940171.203773499 0 0 0 0 36984511.233727425 -206375.68799591064 0 -206375.68799591064 83206626.597824097 0 0 0 0 46067598.867827952 314751122.96554565 0 314751122.96554565 753365981.39782715 0 0 0 0 117265970.80867475 -87735850.543476105 0 -87735850.543476105 125386205.28632736 0 0 0 0 486917.30890724977 -1216776.0823417976 0 -1216776.0823417976 1894810.7951124981 0 0 0 0 82843897.66811806 15993840.248571396 0 15993840.248571396 27134172.188598633 0 0 0 0 45172562.94111634 166749912.34717369 0 166749912.34717369 1309906380.580574 0 0 0 0 26227623.516869828 84607818.821834564 0 84607818.821834564 1042879564.1052628 0 0 0 0 -69709906.86790967 412000384.12195206 0 412000384.12195206 1340693035.6708755 0 0 0 0 -263547144.83514124 119005982.39437866 0 119005982.39437866 1502173900.9379044 0 0 0 0 -305946389.80095816 419619274.39032364 0 419619274.39032364 2207003001.5005622 0 0 0 0 -226477472.80044973 -183997912.59971619 0 -183997912.59971619 2199527474.5053024 0 0 0 0 -146072629.26726985 -490637800.97338486 0 -490637800.97338486 908646603.30158997 0 0 0 0 -609304.72110228089 -2564933.4276695773 0 -2564933.4276695773 4804683.6271856949 0 0 0 0 77057809.809025973 -363579361.06923294 0 -363579361.06923294 64198359.188690186 0 0 0 0 196241507.37412083 723906264.34099579 0 723906264.34099579 2204527116.71488 0 0 0 0 -112356707.73325348 160160664.01245117 0 160160664.01245117 463924570.13433456 0 0 0 0 -157251085.24471 -64289036.464427948 0 -64289036.464427948 772058649.36422729 0 0 0 0 -184770859.84936038 75468446.016281128 0 75468446.016281128 900943944.49172211 0 0 0 0 -170891650.11748815 109856568.50946426 0 109856568.50946426 1091770121.1558685 0 0 0 0 67680611.971212253 241098490.30936813 0 241098490.30936813 942880699.57644081 0 0 0 0 -397786953.9247309 -330030932.3311739 0 -330030932.3311739 258036882.68547821 0 0 0 0 -116753701.93266822 185548938.93919945 0 185548938.93919945 1278812252.3876076 0 0 0 0 -149489738.79047024 136816368.74333858 0 136816368.74333858 962467284.9939003 0 0 0 0 -625544030.94679785 27058220.580451965 0 27058220.580451965 2204373803.146553 0 0 0 0 -891361.90282468195 -5981961.6237724125 0 -5981961.6237724125 7469973.3184877187 0 0 0 0 -122898684.39912891 -18727528.335463524 0 -18727528.335463524 936297636.42827988 0 0 0 0 18276934.707683563 -41826004.647979736 0 -41826004.647979736 845097300.43369675 0 0 0 0 101652.12313644751 -2767443.4192857742 0 -2767443.4192857742 3576004.4318519533 0 0 0 0 -249269670.27942693 18513237.952919006 0 18513237.952919006 2529763135.6778564 0 0 0 0 -20111011.879260257 -1078970192.6299515 0 -1078970192.6299515 -28573334.308626175 0 0 0 0 80945116.544112086 297833343.52964973 0 297833343.52964973 1449245315.0186844 0 0 0 0 25410824.442602515 65431892.15555954 0 65431892.15555954 269653345.59072876 0 0 0 0 92943065.597187504 -649248559.54574466 0 -649248559.54574466 765216582.17203522 0 0 0 0 -92202516.31431067 97348376.507400513 0 97348376.507400513 752516640.61149788 0 0 0 0 5195902.6414288282 8906677.5467147827 0 8906677.5467147827 29915902.00296402 0 0 0 0 4051170.9222762301 -4575275.6390379146 0 -4575275.6390379146 6999017.2671617419 0 0 0 0 121441504.35589625 -180384960.11065769 0 -180384960.11065769 347750513.42207336 0 0 0 0 -127814268.63602561 189154408.50569725 0 189154408.50569725 -43186764.493255615 0 0 0 0 183533266.60237151 -41398949.836780548 0 -41398949.836780548 -61221363.643867493 0 0 0 0 2149801.0971175469 85136.125586852431 0 85136.125586852431 5307390.0771744698 0 0 0 0 162297487.54380941 139121594.75774384 0 139121594.75774384 17814797.202060699 0 0 0 0 4374210.3490554858 2835247.3149557263 0 2835247.3149557263 7592698.9102070332 0 0 0 0 -89698089.557924867 71673875.693656921 0 71673875.693656921 902322864.74567032 0 0 0 0 1765432.6891523295 -4244939.8840234429 0 -4244939.8840234429 3567489.0784204826 0 0 0 0 -57246344.690958008 59907095.762462616 0 59907095.762462616 882751692.61372375 0 0 0 0 5372547.7514411509 8182575.2870807648 0 8182575.2870807648 31945825.090141296 0 0 0 0 4451470.5892176032 8549300.5766105652 0 8549300.5766105652 41122236.457004547 0 0 0 0 5053343.1472637653 888191.95956420898 0 888191.95956420898 34284742.063026428 0 0 0 0 1531183.1294371188 2886317.4478664398 0 2886317.4478664398 45016066.030670166 0 0 0 0 13488505.981862813 21113556.778484344 0 21113556.778484344 51959877.338737488 0 0 0 0 10514691.544863924 19923292.08398819 0 19923292.08398819 60528982.799381256 0 0 0 0 25149085.136350624 12497355.213249207 0 12497355.213249207 37395469.305374146 0 0 0 0 16338773.970651656 13343162.148014069 0 13343162.148014069 33745099.77230835 0 0 0 0 22563470.899039075 19274460.690368652 0 19274460.690368652 37004367.081420898 0 0 0 0 15639489.467003822 18277255.392688751 0 18277255.392688751 27648569.142738342 0 0 0 0 8280271.132368356 10399667.466878891 0 10399667.466878891 33495686.96421051 0 0 0 0 8379426.3258630931 15288317.180233002 0 15288317.180233002 19503621.330734253 0 0 0 0 4210155.1127819419 10646975.667415619 0 10646975.667415619 33664521.470188141 0 0 0 0 7652144.2615000606 17988376.026920319 0 17988376.026920319 39104096.44909668 0 0 0 0 -72043049.159007072 97300114.734779358 0 97300114.734779358 64421995.257736206 0 0 0 0 3690758.0631257109 27376134.868308067 0 27376134.868308067 26826323.007835388 0 0 0 0 10949509.019243827 19820046.639382161 0 19820046.639382161 24485725.185963452 0 0 0 0 3183437.4044415876 19306372.077219486 0 19306372.077219486 17689203.942810059 0 0 0 0 -141062.84484494291 1501280.9582009465 0 1501280.9582009465 8736204.6955667436 0 0 0 0 -1740613.9748933315 24651955.615386963 0 24651955.615386963 41050627.559806824 0 0 0 0 7768355.456196785 15244291.664573669 0 15244291.664573669 34429558.696357727 0 0 0 0 13417469.548943996 16164270.396499634 0 16164270.396499634 31230607.367446899 0 0 0 0 22232662.293996438 13858718.237796783 0 13858718.237796783 30941182.854766846 0 0 0 0 13502712.490544692 15682859.714537621 0 15682859.714537621 33847548.288848877 0 0 0 0 15399811.466462672 19579496.344497681 0 19579496.344497681 31030357.9740448 0 0 0 0 3572180.0011606514 22974393.585948944 0 22974393.585948944 33608239.880218506 0 0 0 0 43544389.055844307 62762104.324008942 0 62762104.324008942 -170006863.09950256 0 0 0 0 -327701242.41659766 149070837.9733429 0 149070837.9733429 -42057278.85949707 0 0 0 0 -160922296.41953707 -30634710.66147995 0 -30634710.66147995 -178710455.22407532 0 0 0 0 9157445.3275931031 11261897.70311299 0 11261897.70311299 17875897.484249979 0 0 0 0 4270694.4916310906 10665918.547229767 0 10665918.547229767 31048757.260704041 0 0 0 0 18904155.626018763 -30302104.627090931 0 -30302104.627090931 -108724567.10777283 0 0 0 0 -21496220.769376278 178487228.15769196 0 178487228.15769196 -42774111.746453285 0 0 0 0 -68184698.397918403 123082696.03820848 0 123082696.03820848 188579135.64027405 0 0 0 0 -69914762.84562397 -17212869.848442078 0 -17212869.848442078 185425748.24377871 0 0 0 0 -22797522.43170929 152547013.19590378 0 152547013.19590378 -264188983.99195862 0 0 0 0 29319853.544391394 -139704308.47034836 0 -139704308.47034836 340970847.4756546 0 0 0 0 2313186.5546596646 1227008.4351413921 0 1227008.4351413921 99496.529771998525 0 0 0 0 5316239.4436920881 41972783.015930176 0 41972783.015930176 6317453.0023765564 0 0 0 0 -9918236.0947833061 115489285.9368515 0 115489285.9368515 219271696.24633408 0 0 0 0 24428143.042246044 50101639.339239597 0 50101639.339239597 -18323903.210952759 0 0 0 0 -654909.13514160644 1990297.7479214966 0 1990297.7479214966 -5382603.5855434202 0 0 0 0 -11494911.940330923 13754258.26764679 0 13754258.26764679 49402930.420879364 0 0 0 0 -8304273.9775485918 22797782.483441964 0 22797782.483441964 1978092.6617099345 0 0 0 0 -11022140.341504321 352452.81963603199 0 352452.81963603199 6986745.1793129742 0 0 0 0 117120237.18152452 -47277961.654054642 0 -47277961.654054642 -46011903.101364136 0 0 0 0 3409964.7757451534 34846226.261638641 0 34846226.261638641 37152612.798187256 0 0 0 0 -7518315.0933639705 20229569.168500021 0 20229569.168500021 -8413609.3121128976 0 0 0 0 11811921.770717502 24162042.166496277 0 24162042.166496277 52119460.126583099 0 0 0 0 -17295677.454965353 41579995.643154144 0 41579995.643154144 115115557.89067841 0 0 0 0 8330414.9747520089 15435441.383796692 0 15435441.383796692 39966297.841572762 0 0 0 0 -10162505.046510383 16465921.851362228 0 16465921.851362228 37020781.253730774 0 0 0 0 -2665193.3965644995 15774310.067697279 0 15774310.067697279 28784645.03369315 0 0 0 0 8091047.0117061734 15181465.031604767 0 15181465.031604767 39779757.529411316 0 0 0 0 13362545.173017889 15331438.372123718 0 15331438.372123718 34189988.681556702 0 0 0 0 -4771328.2114778757 10860412.133171082 0 10860412.133171082 33784253.721725464 0 0 0 0 -16584654.782885138 7371377.4509350061 0 7371377.4509350061 11095288.464594617 0 0 0 0 -65389235.718086243 -24401485.985824585 0 -24401485.985824585 -5935227.7332344055 0 0 0 0 -21998517.096340299 25530991.677944183 0 25530991.677944183 100789309.29983521 0 0 0 0 -16002859.065153599 27788516.181316376 0 27788516.181316376 79433324.257167816 0 0 0 0 -10286072.389146905 19015582.590109304 0 19015582.590109304 21239399.713445101 0 0 0 0 -15254065.924644232 6084706.8381690979 0 6084706.8381690979 95073451.189373016 0 0 0 0 2265041.6463540634 1181971.2552489713 0 1181971.2552489713 16803787.268176787 0 0 0 0 -10846682.350043887 22073610.690320298 0 22073610.690320298 50206681.618880093 0 0 0 0 8755239.5305858888 -3204645.0828666687 0 -3204645.0828666687 55955782.782562256 0 0 0 0 20168438.09572839 2168248.0894012451 0 2168248.0894012451 41174173.943634033 0 0 0 0 7174342.3913013665 8558458.9345612526 0 8558458.9345612526 43090737.113708496 0 0 0 0 13931825.873350948 8992008.8280830383 0 8992008.8280830383 34578544.8695755 0 0 0 0 23554397.955664612 -5942822.319152832 0 -5942822.319152832 30537483.134822845 0 0 0 0 21057224.241361983 -883834.14932632446 0 -883834.14932632446 32786510.411064148 0 0 0 0 7938824.9043367086 797215.02797725797 0 797215.02797725797 17722261.333383303 0 0 0 0 9127386.7595391534 -9185060.81191957 0 -9185060.81191957 56485238.43120575 0 0 0 0 11269651.211215973 -7752720.7930526733 0 -7752720.7930526733 152334620.60210419 0 0 0 0 8642581.9741661549 -17658241.746793747 0 -17658241.746793747 79918884.156280518 0 0 0 0 -4381274.8815698624 -21082964.534442902 0 -21082964.534442902 143237536.18891907 0 0 0 0 -443923.14385223389 -17967674.953369141 0 -17967674.953369141 156557754.69728088 0 0 0 0 -7158877.6102104187 -9138298.738822937 0 -9138298.738822937 37704543.361469269 0 0 0 0 -6107680.7421455383 10641231.916641235 0 10641231.916641235 95042390.284629822 0 0 0 0 -117313127.07790756 -6796736.1016635895 0 -6796736.1016635895 118485550.57042313 0 0 0 0 107931.05556202866 -6590853.7556997314 0 -6590853.7556997314 47492514.953170024 0 0 0 0 112361.82728587277 -985125.25958526134 0 -985125.25958526134 19925840.039493255 0 0 0 0 -1118026.2412216403 3971500.4217219204 0 3971500.4217219204 54842559.955643713 0 0 0 0 -47083027.507898331 33193517.288648129 0 33193517.288648129 109551085.14872742 0 0 0 0 1145172.5720386952 -22404154.718981549 0 -22404154.718981549 85513034.900379941 0 0 0 0 24774318.67445755 -18514477.123432159 0 -18514477.123432159 96746778.671092033 0 0 0 0 -16403275.078735352 42355505.670753479 0 42355505.670753479 112132448.67578888 0 0 0 0 -11278744.180548416 12462865.027154177 0 12462865.027154177 49607247.010412738 0 0 0 0 -5992240.2734597158 1784217.9572058255 0 1784217.9572058255 7393065.8734415099 0 0 0 0 -52485240.480072021 -32647456.997047424 0 -32647456.997047424 112887191.59223175 0 0 0 0 -24902685.632324219 -9656201.1405220032 0 -9656201.1405220032 184239693.60635519 0 0 0 0 -13523261.189887861 1904326.9230528027 0 1904326.9230528027 7911824.3520788047 0 0 0 0 4347994.9321060181 -36467387.5567379 0 -36467387.5567379 162427641.24624634 0 0 0 0 -46333231.552864075 26822911.117095947 0 26822911.117095947 158451751.01832199 0 0 0 0 16864833.198265076 -8086917.9833145142 0 -8086917.9833145142 174478497.08861542 0 0 0 0 -10085544.444829941 2428747.7494335175 0 2428747.7494335175 139545224.54801941 0 0 0 0 -12757376.210788727 22581663.364463806 0 22581663.364463806 96035197.061035156 0 0 0 0 8445710.3906517029 -809576.4003868103 0 -809576.4003868103 79219855.00737381 0 0 0 0 4888336.2269210815 -759582.22486114502 0 -759582.22486114502 80052849.288967133 0 0 0 0 2890612.6852798462 -3859056.4098644257 0 -3859056.4098644257 80536980.874153137 0 0 0 0 904946.83764648438 -12795131.86681366 0 -12795131.86681366 114368404.72716236 0 0 0 0 -6993303.1926002502 -1409965.0725393295 0 -1409965.0725393295 112345736.13759995 0 0 0 0 -68097637.817120552 -40904315.661529541 0 -40904315.661529541 77578242.321842194 0 0 0 0 2422777.1021250165 -5676065.1967558991 0 -5676065.1967558991 -414639.44117145985 0 0 0 0 28248454.747296154 -29427839.15593636 0 -29427839.15593636 87550969.758110046 0 0 0 0 13184583.310674667 -20546821.685882568 0 -20546821.685882568 82507616.373140812 0 0 0 0 7146636.4970140457 -37962909.815973282 0 -37962909.815973282 57656991.468002319 0 0 0 0 5979253.3604049683 -3597691.2395935059 0 -3597691.2395935059 79818948.848934174 0 0 0 0 37693070.435455322 -56223007.713798523 0 -56223007.713798523 64922812.443084717 0 0 0 0 -27526443.296252251 -66305575.349445343 0 -66305575.349445343 64741601.774208069 0 0 0 0 -10049310.147863388 -43130633.482269287 0 -43130633.482269287 60089310.230378151 0 0 0 0 -5086519.4501543045 -29402533.539886475 0 -29402533.539886475 63169125.170661926 0 0 0 0 3706998.1452713013 -41840143.417869568 0 -41840143.417869568 79523376.121086597 0 0 0 0 52299275.997308254 -32277154.313424587 0 -32277154.313424587 39687956.308326721 0 0 0 0 -45110476.421242595 -4218502.9803555012 0 -4218502.9803555012 -1585734.6143035889 0 0 0 0 -47489625.349061966 -30976127.589660645 0 -30976127.589660645 46522070.749633789 0 0 0 0 -5686494.5104045868 -146952794.00786591 0 -146952794.00786591 24254147.993299961 0 0 0 0 4889863.4362337384 -11145363.275518376 0 -11145363.275518376 31911201.323951885 0 0 0 0 3747069.1741879941 -10990590.248639077 0 -10990590.248639077 33552471.22832419 0 0 0 0 17171461.969004497 -14694160.434719086 0 -14694160.434719086 38885013.986373901 0 0 0 0 -46245842.290031433 73631148.16893959 0 73631148.16893959 34467907.931243896 0 0 0 0 157720859.90452766 65924236.991065979 0 65924236.991065979 -58584904.858276367 0 0 0 0 -38406561.482263565 -26662269.986505508 0 -26662269.986505508 48850729.837013245 0 0 0 0 538129.882333218 -9854398.659895191 0 -9854398.659895191 34872971.439924553 0 0 0 0 20379137.72973489 -5670686.9577980042 0 -5670686.9577980042 31083937.792800903 0 0 0 0 3907814.4576836973 -18984334.123067856 0 -18984334.123067856 33929043.415412903 0 0 0 0 28724553.978685379 -43680784.671684265 0 -43680784.671684265 34735964.34777832 0 0 0 0 1753573.041935768 -4555141.0035041422 0 -4555141.0035041422 8608818.0327196643 0 0 0 0 12614074.368326187 -5781959.2620239258 0 -5781959.2620239258 29412805.708938599 0 0 0 0 8940481.0988101959 -48609701.219564438 0 -48609701.219564438 37477982.610976696 0 0 0 0 -45520145.546853065 2838650.9011955261 0 2838650.9011955261 38180772.918640137 0 0 0 0 30297183.497364044 -27999631.139034271 0 -27999631.139034271 51339272.698150635 0 0 0 0 23694425.039598465 -40841246.113170624 0 -40841246.113170624 -47792788.375984192 0 0 0 0 5644604.4998843055 -10261593.692517819 0 -10261593.692517819 27146176.150780186 0 0 0 0 -2992416.079219088 4071447.1892961618 0 4071447.1892961618 2941597.1460998654 0 0 0 0 177982779.25048733 -65810016.511694074 0 -65810016.511694074 50059060.161949158 0 0 0 0 -34818119.656579494 -11510632.866891861 0 -11510632.866891861 16439523.580810547 0 0 0 0 -38177807.233183384 -11228353.471113205 0 -11228353.471113205 26448921.207214355 0 0 0 0 5348824.1526373047 -42050162.757059105 0 -42050162.757059105 52358317.067033559 0 0 0 0 256193779.95941734 -80636198.42791748 0 -80636198.42791748 44568474.511224747 0 0 0 0 30507987.562545061 -19520083.677005768 0 -19520083.677005768 25049879.736240387 0 0 0 0 35949444.796221234 -1831901.8193655014 0 -1831901.8193655014 30144944.061004639 0 0 0 0 45906863.933024287 -11989239.221981049 0 -11989239.221981049 40478248.151817322 0 0 0 0 45992257.660693668 7777101.2553283125 0 7777101.2553283125 31489011.377090454 0 0 0 0 37830894.301123373 10959788.907997131 0 10959788.907997131 29168379.896682739 0 0 0 0 34247158.727608718 3302835.3310470581 0 3302835.3310470581 29865734.941146851 0 0 0 0 21189748.212438166 11602559.834785461 0 11602559.834785461 30091851.635522842 0 0 0 0 28707241.565234534 7467147.2580795288 0 7467147.2580795288 31597439.093833923 0 0 0 0 27708094.727135405 1367281.7065677643 0 1367281.7065677643 29001900.994567871 0 0 0 0 30715594.687145993 -9114270.0226898193 0 -9114270.0226898193 26764027.404966354 0 0 0 0 37192693.059995607 2774669.087097168 0 2774669.087097168 28587458.259685516 0 0 0 0 13132910.919418305 194384530.94368172 0 194384530.94368172 1063449873.250988 0 0 0 0 707827.80255201203 87391099.938085228 0 87391099.938085228 417267476.20309448 0 0 0 0 142453088.63181716 38931629.45142746 0 38931629.45142746 92664641.674331665 0 0 0 0 485808.46949905739 -391742.13208581507 0 -391742.13208581507 1055723.6364820004 0 0 0 0 -235455202.10509431 713326212.95736504 0 713326212.95736504 2198332099.6927719 0 0 0 0 146348675.8013556 443317392.4158783 0 443317392.4158783 970254248.25084496 0 0 0 0 476539686.59926814 1161055307.0309868 0 1161055307.0309868 720022795.69687653 0 0 0 0 2885590.3359846715 4899386.3931095153 0 4899386.3931095153 10332926.249212563 0 0 0 0 595459739.65990281 830309741.916502 0 830309741.916502 -53242874.332725525 0 0 0 0 75832763.435041934 -29149567.032233238 0 -29149567.032233238 -119277031.84191132 0 0 0 0 93077230.934258252 -124193242.22539997 0 -124193242.22539997 73908363.670562744 0 0 0 0 -77534.886277151527 -268510.4787144959 0 -268510.4787144959 1031710.4173205495 0 0 0 0 53988049.495414048 -86924800.109146118 0 -86924800.109146118 454134077.96730042 0 0 0 0 14746910.901821196 15072512.081604004 0 15072512.081604004 89896464.357122421 0 0 0 0 140889422.60556078 60632013.237285614 0 60632013.237285614 101797511.68764496 0 0 0 0 -222988837.59572768 -19877129.675132751 0 -19877129.675132751 173654097.41957235 0 0 0 0 -18288213.782639742 25858899.102455139 0 25858899.102455139 177622319.04793215 0 0 0 0 -129194318.85923767 -41846325.083450317 0 -41846325.083450317 -24608967.380058289 0 0 0 0 2166127.6872794568 8644420.1891803667 0 8644420.1891803667 29055040.410418391 0 0 0 0 -273024055.84788805 99428945.123258591 0 99428945.123258591 128459537.88729858 0 0 0 0 19222291.871683575 -1894173.0294284821 0 -1894173.0294284821 34330827.248260498 0 0 0 0 4132520.8139524199 12046244.084140778 0 12046244.084140778 29246513.167442322 0 0 0 0 -424343745.69993687 611336.1263961792 0 611336.1263961792 237803039.04378128 0 0 0 0 -472783528.35945916 316907593.5035553 0 316907593.5035553 -12741432.641105413 0 0 0 0 4442072.5144930677 11522119.436686605 0 11522119.436686605 21256241.466213584 0 0 0 0 -46206256.592029631 -579962930.85230637 0 -579962930.85230637 2201704017.5170288 0 0 0 0 -227076264.63839021 254816594.94556046 0 254816594.94556046 2201957414.5797958 0 0 0 0 -119534413.72153494 -149198693.13879776 0 -149198693.13879776 602181702.3395462 0 0 0 0 159131311.55706367 267762749.47661209 0 267762749.47661209 341282886.41194916 0 0 0 0 125192644.65106902 -160695296.90151787 0 -160695296.90151787 -32013849.20362854 0 0 0 0 123144090.97247779 -49474121.821929932 0 -49474121.821929932 -247552051.37919807 0 0 0 0 1195636970.3160477 -1253472868.3460474 0 -1253472868.3460474 553161188.54231262 0 0 0 0 347907604.23084056 613497734.66326141 0 613497734.66326141 738271565.23764038 0 0 0 0 1531183.276225202 -2487374.0509713525 0 -2487374.0509713525 13663080.486228228 0 0 0 0 -5721184.9166385885 -1354608312.8982887 0 -1354608312.8982887 2201213348.6015449 0 0 0 0 -367086047.66385967 -501531860.5746603 0 -501531860.5746603 1168782998.6786804 0 0 0 0 -158734429.27366987 -1167625463.2398605 0 -1167625463.2398605 507466296.50538635 0 0 0 0 378755273.99311978 -1483097449.5379791 0 -1483097449.5379791 678795933.74889755 0 0 0 0 771448671.81329918 -803081091.64389038 0 -803081091.64389038 75647361.779678345 0 0 0 0 307200010.92395985 -561549414.87982941 0 -561549414.87982941 1153360800.1938477 0 0 0 0 861050745.25367332 -679920447.6920929 0 -679920447.6920929 1043577279.7546387 0 0 0 0 753867838.94249821 -584193787.14468384 0 -584193787.14468384 1179386016.6075974 0 0 0 0 145036103.80338886 -151383312.14386511 0 -151383312.14386511 1375522798.9815674 0 0 0 0 1032680.9596712233 1377667.1863182858 0 1377667.1863182858 3325554.7671160847 0 0 0 0 -78879025.816950917 85895483.429710388 0 85895483.429710388 551719.45288181305 0 0 0 0 349865401.85299671 -192668010.77499771 0 -192668010.77499771 19249191.514053345 0 0 0 0 80294719.228682458 507907743.7651329 0 507907743.7651329 613998870.80178833 0 0 0 0 -81688350.460468411 -77667466.396068573 0 -77667466.396068573 -4371862.5743255615 0 0 0 0 -1288252.4757193769 -2685206.5732590584 0 -2685206.5732590584 30876072.938066781 0 0 0 0 -753684269.3205533 101362731.26074028 0 101362731.26074028 766270202.77788925 0 0 0 0 -1718497.6033013465 -3649188.6606626436 0 -3649188.6606626436 7715787.6696911156 0 0 0 0 -140601692.35360861 -14040039.310806274 0 -14040039.310806274 -130637691.35520935 0 0 0 0 -475354.09063186496 -246865.25608062744 0 -246865.25608062744 23964419.930826187 0 0 0 0 90458.495439764054 4549867.7856769022 0 4549867.7856769022 24337248.939686835 0 0 0 0 -21632461.844577193 -32965648.883243561 0 -32965648.883243561 30317058.807731628 0 0 0 0 -1255749.1837804487 -148470.97464704514 0 -148470.97464704514 10012464.567672431 0 0 0 0 -289999239.34830868 -64330531.226976395 0 -64330531.226976395 -8534542.1264648438 0 0 0 0 -241998134.57499939 406795036.05503845 0 406795036.05503845 -297326801.54039383 0 0 0 0 22846803.863052011 -191719286.4596405 0 -191719286.4596405 -502907467.23404312 0 0 0 0 -52263724.805821896 57725478.83020401 0 57725478.83020401 69891775.158493042 0 0 0 0 24588734.560079694 -66549041.12033844 0 -66549041.12033844 108447427.67616272 0 0 0 0 170057833.35682201 561588836.86569977 0 561588836.86569977 -305622534.73774719 0 0 0 0 2705223.3168170913 3255351.6297937557 0 3255351.6297937557 2397599.5272889137 0 0 0 0 25823812.821717784 11671285.93631044 0 11671285.93631044 6176254.9594421387 0 0 0 0 -553301.66484517651 -3102105.099171415 0 -3102105.099171415 4563080.9814653993 0 0 0 0 -343871.95136785705 4754216.2513008397 0 4754216.2513008397 48384479.087671489 0 0 0 0 -39709793.955225565 -60916956.161472082 0 -60916956.161472082 110960159.29685974 0 0 0 0 -62498168.932911277 -8181453.6615791321 0 -8181453.6615791321 135743426.39431953 0 0 0 0 24649712.452172168 -35725306.562966466 0 -35725306.562966466 105422929.44689941 0 0 0 0 14465724.128424048 106481119.45049906 0 106481119.45049906 51379651.265037537 0 0 0 0 -12384073.675565243 44286742.348049164 0 44286742.348049164 48690622.278739929 0 0 0 0 -10503528.755825758 26270461.425777435 0 26270461.425777435 157009731.71989822 0 0 0 0 1116629.4529334307 37122708.535957336 0 37122708.535957336 19196674.790828705 0 0 0 0 -1377467.7403148413 31290559.054266453 0 31290559.054266453 33388908.431800842 0 0 0 0 1638748.3512646805 16016375.386697933 0 16016375.386697933 -10920720.872705072 0 0 0 0 24515783.567112446 24204304.259544373 0 24204304.259544373 119293642.19232559 0 0 0 0 421416.35218502674 2078262.6098115891 0 2078262.6098115891 4997971.0947496444 0 0 0 0 19598818.247420728 -25390654.148736 0 -25390654.148736 181478869.99462891 0 0 0 0 815906.9999859347 6166646.6933282185 0 6166646.6933282185 781222.38804289699 0 0 0 0 -43894130.917620778 44835797.636638641 0 44835797.636638641 55618863.787424088 0 0 0 0 -1313603.9058633149 4330917.984653282 0 4330917.984653282 39342099.582943857 0 0 0 0 -109209185.95961475 -23418670.504772186 0 -23418670.504772186 53958332.126556396 0 0 0 0 -203499773.85061204 13383520.469197273 0 13383520.469197273 116467727.21276855 0 0 0 0 -77308362.120157003 -23910277.380653381 0 -23910277.380653381 229084272.74021912 0 0 0 0 -74170889.178523302 -11099592.346672058 0 -11099592.346672058 56983292.105651855 0 0 0 0 -226313283.97960472 -113861925.47332764 0 -113861925.47332764 -6677167.765838623 0 0 0 0 28472567.386337757 -74602897.28238678 0 -74602897.28238678 136267365.13069916 0 0 0 0 -97279305.057766616 14046466.483053207 0 14046466.483053207 160178387.60580444 0 0 0 0 -62935094.071776867 -22086672.93585968 0 -22086672.93585968 -15105739.029556274 0 0 0 0 -145715069.63269794 18074982.69059515 0 18074982.69059515 27920834.505821228 0 0 0 0 -134419283.82936859 34482717.905189514 0 34482717.905189514 49395558.043595791 0 0 0 0 -153469272.88351798 8408931.5100746155 0 8408931.5100746155 43678385.487960815 0 0 0 0 4500.5971274441108 -774222.4063308835 0 -774222.4063308835 1159229.2849222124 0 0 0 0 -173621120.36632112 -72568413.967589378 0 -72568413.967589378 -26122019.201164246 0 0 0 0 -10507783.815242164 39283664.474164009 0 39283664.474164009 66979001.56174469 0 0 0 0 -32689103.047858208 -60173944.372680664 0 -60173944.372680664 26370368.36167717 0 0 0 0 703078.89979900094 -1731998.2287752628 0 -1731998.2287752628 2156263.9553333223 0 0 0 0 -20892882.793572903 -61801290.834892273 0 -61801290.834892273 8898250.6872558594 0 0 0 0 -47074108.668367743 11401739.70595932 0 11401739.70595932 47216815.513076782 0 0 0 0 -351254.68531036377 -29112019.329704285 0 -29112019.329704285 55384309.585437775 0 0 0 0 -42408973.817116261 -24714067.981365204 0 -24714067.981365204 239424101.84301758 0 0 0 0 -32629744.336525679 -90176651.922758102 0 -90176651.922758102 309478450.59190369 0 0 0 0 69641779.427356958 -129380228.00580597 0 -129380228.00580597 239454952.72311071 0 0 0 0 5917247.5425144434 -133465703.01086044 0 -133465703.01086044 368212337.71299744 0 0 0 0 4926137.0916289091 22451115.389850616 0 22451115.389850616 65744770.117900848 0 0 0 0 437887.7723229822 -975168.2489874661 0 -975168.2489874661 1374721.0575625896 0 0 0 0 -30087486.423193935 -42040597.39001894 0 -42040597.39001894 416041423.77602386 0 0 0 0 88900706.781199336 -192518991.75343704 0 -192518991.75343704 351086582.60170364 0 0 0 0 105833557.47013441 -177453112.29003716 0 -177453112.29003716 321984451.25761032 0 0 0 0 40920.279607736193 -137584196.86974806 0 -137584196.86974806 372208297.19491577 0 0 0 0 252879.12199023727 -137391297.47459793 0 -137391297.47459793 372291047.68904114 0 0 0 0 62124577.625953525 119375726.60824966 0 119375726.60824966 184925275.54093361 0 0 0 0 84175686.864452675 -160533812.96595001 0 -160533812.96595001 64532986.7918396 0 0 0 0 -50273196.350383401 29348952.795782566 0 29348952.795782566 132548962.45349884 0 0 0 0 57345072.726261407 129419514.11956978 0 129419514.11956978 151532261.77093506 0 0 0 0 366434.38531779416 32549.153379976749 0 32549.153379976749 636185.59977415204 0 0 0 0 -3904808.5489422381 -19793636.313747406 0 -19793636.313747406 104235224.63451385 0 0 0 0 -1207948.0895592794 -25994368.442939758 0 -25994368.442939758 110662785.7565918 0 0 0 0 -13686.053970560995 -24556398.934806824 0 -24556398.934806824 108541810.1906662 0 0 0 0 28920.9442147925 -22269311.083381172 0 -22269311.083381172 96023443.187309265 0 0 0 0 -792583.7369837428 -203224.34648472071 0 -203224.34648472071 568458.12101399899 0 0 0 0 4224859.8458836079 -29317756.000167847 0 -29317756.000167847 103464444.31509018 0 0 0 0 4163599.9731697747 -35320975.595100462 0 -35320975.595100462 115048238.17363739 0 0 0 0 -2454680.2886181413 145393.4015968442 0 145393.4015968442 1249355.5811981261 0 0 0 0 66134671.723417759 -236708868.06034088 0 -236708868.06034088 426343234.07084274 0 0 0 0 90560987.432771996 -106873975.11772728 0 -106873975.11772728 297339928.61032867 0 0 0 0 9183656.7218751144 -47985199.888627768 0 -47985199.888627768 124373412.46534729 0 0 0 0 8694047.9732091427 -35625586.867919922 0 -35625586.867919922 113173209.83068848 0 0 0 0 -5524530.9886938334 -27693014.594333649 0 -27693014.594333649 114672486.20165443 0 0 0 0 4483673.9025374502 -37641883.653961182 0 -37641883.653961182 123234780.40092468 0 0 0 0 -10424027.876571774 -20133657.006393433 0 -20133657.006393433 120327350.9490118 0 0 0 0 -27625696.055960238 -27250861.115924835 0 -27250861.115924835 149964720.42620802 0 0 0 0 26121447.288790643 -61926182.853853226 0 -61926182.853853226 90969691.426734924 0 0 0 0 -1722843.4315479288 3082942.0033340454 0 3082942.0033340454 3418319.6493180394 0 0 0 0 -1269580.6959661245 -41591811.239021301 0 -41591811.239021301 120948396.65940857 0 0 0 0 12325632.217075348 -61688981.915878296 0 -61688981.915878296 144335075.87839413 0 0 0 0 5070013.6477223635 -213674237.84032822 0 -213674237.84032822 481642109.39192581 0 0 0 0 -3055149.6922314139 1213167.6463138014 0 1213167.6463138014 2232151.4409988672 0 0 0 0 -104172456.15786624 -135674252.65933228 0 -135674252.65933228 294889728.65147781 0 0 0 0 -14424052.368196011 -92689642.536766052 0 -92689642.536766052 210324207.07813263 0 0 0 0 -206992958.90478113 -148893013.04561424 0 -148893013.04561424 193961364.30328369 0 0 0 0 -246676732.0433073 126179121.8480835 0 126179121.8480835 302338787.67175293 0 0 0 0 -94925660.888146281 39257952.90461731 0 39257952.90461731 238238774.06872559 0 0 0 0 -66243377.906125724 -42777959.259216309 0 -42777959.259216309 393902428.8318634 0 0 0 0 78514896.023593545 -100580868.73456764 0 -100580868.73456764 294938604.90220642 0 0 0 0 16386578.793904662 -163511383.89002991 0 -163511383.89002991 454910017.16906738 0 0 0 0 53828790.98038882 -69967345.625553131 0 -69967345.625553131 293315297.91272354 0 0 0 0 -10528943.833343789 572498.34651184082 0 572498.34651184082 277847677.55984497 0 0 0 0 -67507518.578334332 27221656.518447876 0 27221656.518447876 231138857.95860291 0 0 0 0 23354402.822088361 -58434438.94260788 0 -58434438.94260788 285950753.90379333 0 0 0 0 -44405207.529852867 24940613.151443481 0 24940613.151443481 230733013.33338928 0 0 0 0 -29645341.739792615 50055499.605026245 0 50055499.605026245 262426059.1104126 0 0 0 0 -50086959.348883629 45645832.439926147 0 45645832.439926147 238032372.31896973 0 0 0 0 -15324672.411130548 33059202.022415161 0 33059202.022415161 170051238.95087433 0 0 0 0 17724236.845224977 788017.11714363098 0 788017.11714363098 172151684.77386475 0 0 0 0 12230661.432477891 -23326850.852436066 0 -23326850.852436066 266792861.45642853 0 0 0 0 5051958.5497271419 -34145946.969783783 0 -34145946.969783783 256721788.066185 0 0 0 0 994725.44180952467 5300281.5764100254 0 5300281.5764100254 4480480.9265564531 0 0 0 0 27993289.451949656 -111202829.53701782 0 -111202829.53701782 328856524.82866287 0 0 0 0 41714460.367838651 -102386202.09124565 0 -102386202.09124565 171642312.2321167 0 0 0 0 96521328.96315223 -11863324.228779793 0 -11863324.228779793 69153880.513999939 0 0 0 0 -46337267.79889679 -59593624.012866974 0 -59593624.012866974 363935022.36795807 0 0 0 0 76715556.017098278 -238735245.42952347 0 -238735245.42952347 362007994.06437683 0 0 0 0 -14449845.079540491 -64520264.749320984 0 -64520264.749320984 251360447.7658844 0 0 0 0 -33294605.372861072 80226483.354898453 0 80226483.354898453 192253321.18584442 0 0 0 0 2697496.2555402368 29902027.208518028 0 29902027.208518028 82245612.834274292 0 0 0 0 -19946918.091559052 -2439101.1027832031 0 -2439101.1027832031 10002914.381437302 0 0 0 0 -12904705.217838198 93984904.008428574 0 93984904.008428574 23323081.944503784 0 0 0 0 849889.26212647825 1000373.0095611438 0 1000373.0095611438 1431157.8570025563 0 0 0 0 -56579707.469629616 -2289194.8909416199 0 -2289194.8909416199 32625416.081741333 0 0 0 0 -28954136.614161134 770830.44208526611 0 770830.44208526611 28232475.162811279 0 0 0 0 -45503032.096861124 -3703110.6939163208 0 -3703110.6939163208 37355152.831306458 0 0 0 0 -27885842.733892798 -5564962.4046554565 0 -5564962.4046554565 28245426.252220154 0 0 0 0 -44458075.435101748 -691936.4287109375 0 -691936.4287109375 29901887.830581665 0 0 0 0 5237704.444639083 -3336112.5321903229 0 -3336112.5321903229 35413871.194366455 0 0 0 0 -42052330.351085186 -1602411.0516891479 0 -1602411.0516891479 40131066.319999695 0 0 0 0 4857154.4311289787 327442.16430664062 0 327442.16430664062 25045909.783576965 0 0 0 0 -28954958.715670496 -1539990.5538187027 0 -1539990.5538187027 38325507.586303711 0 0 0 0 -1070848.1045828834 3428263.0898256302 0 3428263.0898256302 48442691.851531982 0 0 0 0 484991.88581347466 -2228008.7975845337 0 -2228008.7975845337 32032821.547645569 0 0 0 0 6176394.1151320338 18001713.426475525 0 18001713.426475525 23357033.616424561 0 0 0 0 -28927523.285555813 67010.673596382141 0 67010.673596382141 42604603.82963562 0 0 0 0 13071131.861046612 5632993.5616760254 0 5632993.5616760254 45188071.615859985 0 0 0 0 17395088.280104578 -7509224.0366210938 0 -7509224.0366210938 54143235.312576294 0 0 0 0 13101312.424199879 12413488.433486938 0 12413488.433486938 63295839.821784973 0 0 0 0 16801157.259074688 -3267717.8507957458 0 -3267717.8507957458 32314495.657173157 0 0 0 0 35074403.346120119 -9444696.5664520264 0 -9444696.5664520264 27491312.785072327 0 0 0 0 17064616.745391905 -17482290.301651001 0 -17482290.301651001 46340008.98902607 0 0 0 0 14838391.131003171 -12156605.05027771 0 -12156605.05027771 45767338.44630909 0 0 0 0 7487060.8726414517 -5912652.640745163 0 -5912652.640745163 62815451.813163757 0 0 0 0 3787666.567248866 6614932.2800149918 0 6614932.2800149918 94758417.396575928 0 0 0 0 -7196780.0158881843 -13903072.317520142 0 -13903072.317520142 121854578.32172966 0 0 0 0 -2302086.7008083761 -794859.49728012085 0 -794859.49728012085 110048093.89122391 0 0 0 0 8202942.798686862 1615785.279045105 0 1615785.279045105 77384528.951251984 0 0 0 0 -4554828.0879737437 -23311892.275218964 0 -23311892.275218964 118136920.81227112 0 0 0 0 -5426717.3059775382 -23753584.634428024 0 -23753584.634428024 108801583.55709839 0 0 0 0 -4623633.1331564784 -11111716.628444672 0 -11111716.628444672 87451188.316184998 0 0 0 0 2770240.3271192908 -13983476.930549622 0 -13983476.930549622 68165811.090484619 0 0 0 0 -3199571.8062232137 -7178377.5992622375 0 -7178377.5992622375 88546618.356928825 0 0 0 0 1783115.7269243747 -15772994.278942108 0 -15772994.278942108 50404837.815856934 0 0 0 0 -1381127.8287182748 -3650089.4023399353 0 -3650089.4023399353 53930599.185325623 0 0 0 0 -3441505.3004420027 -16734784.816040039 0 -16734784.816040039 66244878.199981689 0 0 0 0 -4193230.4930698094 -6962313.7338118553 0 -6962313.7338118553 66589440.954940796 0 0 0 0 -3990235.0327370372 -14586178.901702881 0 -14586178.901702881 51503532.908477783 0 0 0 0 -8846281.660645254 -5179987.7284126282 0 -5179987.7284126282 45540755.166740417 0 0 0 0 -8378.9652947312788 -11913764.099128723 0 -11913764.099128723 41055352.0965271 0 0 0 0 -7981205.2385773864 -5451626.3388872147 0 -5451626.3388872147 62253588.683403015 0 0 0 0 533.98999243394792 -16774599.810733795 0 -16774599.810733795 66625214.500502586 0 0 0 0 -10237479.762419201 -13604552.640789032 0 -13604552.640789032 88746039.524662018 0 0 0 0 -455932.63479600847 -14573429.717506409 0 -14573429.717506409 88038704.562850952 0 0 0 0 -8032663.5886026388 -14848024.181717873 0 -14848024.181717873 102061925.96170044 0 0 0 0 -7997.3807127276696 -22148219.547393702 0 -22148219.547393702 99635874.906745911 0 0 0 0 22851642.149613619 14384137.198184967 0 14384137.198184967 209995774.57434487 0 0 0 0 -161846656.02172899 63456397.280591965 0 63456397.280591965 477077497.00662994 0 0 0 0 1451693.4063121374 -552852.34254027903 0 -552852.34254027903 71954632.684584945 0 0 0 0 -2391354.8955818876 -4352470.8872149587 0 -4352470.8872149587 26734494.157219969 0 0 0 0 456401149.57178843 635784813.48602295 0 635784813.48602295 -180259770.27377319 0 0 0 0 -138140711.79396197 122665421.13884735 0 122665421.13884735 13438126.316307068 0 0 0 0 -71809992.56447506 11818719.452427864 0 11818719.452427864 64627711.328918457 0 0 0 0 454736474.90906453 -117288041.15625 0 -117288041.15625 -11784302.912624359 0 0 0 0 -624184215.94158244 60020510.342803955 0 60020510.342803955 211533019.81144333 0 0 0 0 112964866.09592581 -28796377.460968018 0 -28796377.460968018 199973740.97066879 0 0 0 0 7249634.2265549898 355349438.26864767 0 355349438.26864767 764185554.37717438 0 0 0 0 386579198.17515719 506342795.53635645 0 506342795.53635645 425266208.72080994 0 0 0 0 -138236476.09827486 75371724.304245979 0 75371724.304245979 242953495.19682312 0 0 0 0 7535867.2490243912 -104738703.56134033 0 -104738703.56134033 111274558.00752258 0 0 0 0 -137794748.24308479 38283739.148090363 0 38283739.148090363 223785791.6315918 0 0 0 0 -20144034.294263363 -44934826.912780762 0 -44934826.912780762 130322856.48314285 0 0 0 0 -188955592.83382416 -14813708.281776428 0 -14813708.281776428 192152711.47174072 0 0 0 0 106047.06003565865 -13410008.925785068 0 -13410008.925785068 100795732.85631207 0 0 0 0 -687194.50334879989 -4487991.3212577328 0 -4487991.3212577328 25030801.386154644 0 0 0 0 -14322916.372526646 -32804630.14986515 0 -32804630.14986515 155205746.09688568 0 0 0 0 7475031.7668879032 -16066167.318105698 0 -16066167.318105698 128990694.39965057 0 0 0 0 21779964.660039306 -46535585.938062668 0 -46535585.938062668 168325853.90987396 0 0 0 0 10045008.952775933 669059.46299641579 0 669059.46299641579 10090812.906038381 0 0 0 0 8479241.884896636 -50194495.985942841 0 -50194495.985942841 205027026.27187538 0 0 0 0 10792141.612528801 -19714486.305931091 0 -19714486.305931091 79029246.468381882 0 0 0 0 -12555298.252363328 9683806.5813044161 0 9683806.5813044161 35976194.363740429 0 0 0 0 -10327698.566824913 10736649.27856636 0 10736649.27856636 60275731.742474914 0 0 0 0 -12806066.891414642 13411998.75621295 0 13411998.75621295 59944725.297334671 0 0 0 0 10654856.238048553 -19392169.342113495 0 -19392169.342113495 78916160.597436905 0 0 0 0 -4440321.0579479178 10437417.946413904 0 10437417.946413904 59236299.381718338 0 0 0 0 6851023.1277859211 2301944.1609802246 0 2301944.1609802246 68610203.527297974 0 0 0 0 -13131651.876618922 25830.800087451935 0 25830.800087451935 111910814.34770584 0 0 0 0 3369718.3101520538 17749583.185832024 0 17749583.185832024 112892578.70429993 0 0 0 0 -10227770.374925304 1148874.4589339457 0 1148874.4589339457 74123300.856943309 0 0 0 0 -13432818.8394759 -1615811.0191907883 0 -1615811.0191907883 103487258.51315308 0 0 0 0 -12332469.548580885 11829228.659240723 0 11829228.659240723 103013616.20751846 0 0 0 0 -14363848.921983242 3419556.0838508606 0 3419556.0838508606 103681318.15040684 0 0 0 0 -20741587.160024166 5099484.1829719543 0 5099484.1829719543 114532198.31431389 0 0 0 0 -20538858.626528442 9079215.2785795331 0 9079215.2785795331 105967233.77729034 0 0 0 0 -14554574.935991764 5270726.3561134338 0 5270726.3561134338 106721264.33443451 0 0 0 0 -67712341.550534725 -9026850.6998519897 0 -9026850.6998519897 26985193.204360962 0 0 0 0 -115051424.32088089 -40515559.970611572 0 -40515559.970611572 6921739.6499633789 0 0 0 0 -21842487.249754809 37572457.335199699 0 37572457.335199699 76460296.191302538 0 0 0 0 -9591528.0863101482 4985130.3185310364 0 4985130.3185310364 101412080.99362564 0 0 0 0 -15493170.082874298 2232223.8304595947 0 2232223.8304595947 101310133.01795578 0 0 0 0 5234858.9531926839 -10738526.265842177 0 -10738526.265842177 11896248.549820378 0 0 0 0 -4621862.3545389175 -5685923.0227127075 0 -5685923.0227127075 33824409.467758179 0 0 0 0 -5262305.8991285013 -4960342.1421303898 0 -4960342.1421303898 42725575.512136281 0 0 0 0 199608.32282239897 -3689447.4050180577 0 -3689447.4050180577 33271180.704019412 0 0 0 0 20021858.096774578 526670.25644302368 0 526670.25644302368 62296588.341331482 0 0 0 0 -1126229.0723466873 -22998817.309524536 0 -22998817.309524536 66187711.903169155 0 0 0 0 -12115692.282597542 5576352.3239631653 0 5576352.3239631653 63098756.073104858 0 0 0 0 3584824.2751216888 25485540.997070312 0 25485540.997070312 102932529.6072998 0 0 0 0 23910558.570838571 16229754.859848022 0 16229754.859848022 40116658.15032196 0 0 0 0 -10765251.020909108 34019655.475567102 0 34019655.475567102 45523082.909408569 0 0 0 0 -11061880.954551343 11301932.906728081 0 11301932.906728081 53695031.321213633 0 0 0 0 -12241811.618236065 -1869339.9501571655 0 -1869339.9501571655 47099479.111984253 0 0 0 0 -8116486.0178605849 19550195.195205413 0 19550195.195205413 41895942.832329214 0 0 0 0 -3678087.0303317928 11033312.700904291 0 11033312.700904291 31414757.913643837 0 0 0 0 519147.4831947065 9100319.5268255174 0 9100319.5268255174 10199716.77980876 0 0 0 0 -14010011.304456711 3484220.4315719604 0 3484220.4315719604 -24351019.456665039 0 0 0 0 -68522431.920125008 -6428629.4250793457 0 -6428629.4250793457 32244209.905029297 0 0 0 0 8276934.6480673831 -13981584.354282051 0 -13981584.354282051 29976314.899687588 0 0 0 0 -18446548.179655552 7330567.9815597534 0 7330567.9815597534 41039120.952514648 0 0 0 0 27713995.8624506 13504918.758468628 0 13504918.758468628 36031634.663421631 0 0 0 0 15101256.791879851 -18044082.422987536 0 -18044082.422987536 50581519.827816233 0 0 0 0 -8001637.4573910767 -28171131.543438926 0 -28171131.543438926 106303986.0173685 0 0 0 0 -25397086.90872097 1114636.8370170593 0 1114636.8370170593 72276749.789505005 0 0 0 0 -43030838.573778152 -30773451.243415833 0 -30773451.243415833 66529341.061431885 0 0 0 0 -60731787.42996788 -27555743.790634155 0 -27555743.790634155 67783129.973678589 0 0 0 0 -31422397.643638015 8309949.0946092606 0 8309949.0946092606 64259431.032974243 0 0 0 0 -14975425.515125275 13909216.049465179 0 13909216.049465179 80122735.320808411 0 0 0 0 -26693598.528865337 9962343.9806632996 0 9962343.9806632996 86552759.580963135 0 0 0 0 -17256875.529922068 22773181.05301857 0 22773181.05301857 90455830.882171631 0 0 0 0 -20678479.556508541 14176341.540412903 0 14176341.540412903 83955373.517185211 0 0 0 0 -20710314.279254436 16137366.15348053 0 16137366.15348053 111275556.44316864 0 0 0 0 -9556130.8748762608 17776575.273792267 0 17776575.273792267 97271901.556365967 0 0 0 0 -14330244.377863407 -19223116.528274536 0 -19223116.528274536 154012798.73394775 0 0 0 0 -406202.94169712067 -20942860.485336304 0 -20942860.485336304 107184285.53704596 0 0 0 0 -10403454.252688646 324492.509765625 0 324492.509765625 62063719.711891174 0 0 0 0 -27407624.497920513 7477272.105553627 0 7477272.105553627 97315911.87953186 0 0 0 0 3335950.2517416477 -2206856.6599197388 0 -2206856.6599197388 131802911.08675575 0 0 0 0 -21610835.053720951 16542182.611013412 0 16542182.611013412 148429259.12689209 0 0 0 0 -7115207.1608276367 -22793798.146259308 0 -22793798.146259308 142758996.66280937 0 0 0 0 -16412950.445632935 -19660170.912521362 0 -19660170.912521362 230503272.26107025 0 0 0 0 6360583.3799629807 14353096.790332794 0 14353096.790332794 155293487.36044312 0 0 0 0 34453894.94380635 -46622056.37455368 0 -46622056.37455368 209608439.22845268 0 0 0 0 87503181.827104792 -22465534.019454956 0 -22465534.019454956 -77927311.463027954 0 0 0 0 3226322.6041406076 7464279.1984083056 0 7464279.1984083056 6033113.4683657587 0 0 0 0 -39241728.791306034 -76065048.777774811 0 -76065048.777774811 271703003.95648956 0 0 0 0 -46521475.782305919 -3941608.2445380986 0 -3941608.2445380986 187552054.13230896 0 0 0 0 18573221.305024624 -57387589.776090622 0 -57387589.776090622 93762209.249893188 0 0 0 0 -2766729.4953479767 -6841403.7533683777 0 -6841403.7533683777 -25952674.073738098 0 0 0 0 -1246155.1481204033 -97245824.083778381 0 -97245824.083778381 174741938.57741928 0 0 0 0 -4743712.6112804413 -78498411.413684845 0 -78498411.413684845 74673438.384773254 0 0 0 0 -19450949.894108534 -160916571.74579239 0 -160916571.74579239 233850133.05366516 0 0 0 0 -51409013.398287177 -115146432.43348598 0 -115146432.43348598 174156723.31549072 0 0 0 0 39610240.589095116 -169518251.04561996 0 -169518251.04561996 133081810.14797974 0 0 0 0 3514789.859989672 -5131027.8301395029 0 -5131027.8301395029 7363726.5356937051 0 0 0 0 -449321769.16536331 -144457354.70358276 0 -144457354.70358276 1026001507.2528152 0 0 0 0 35230511.060103416 -126139128.50982285 0 -126139128.50982285 21135427.578897476 0 0 0 0 -530992805.14462399 -730517500.76633835 0 -730517500.76633835 760364689.40176392 0 0 0 0 -48139324.144808531 -485973023.33961487 0 -485973023.33961487 10879673.621810913 0 0 0 0 13915697.525871754 149327282.12386322 0 149327282.12386322 162706999.61104202 0 0 0 0 -9089478.506521441 -145811944.39557457 0 -145811944.39557457 212388008.22005463 0 0 0 0 331210182.9906826 500477754.87510681 0 500477754.87510681 361892198.75776482 0 0 0 0 -8284933.3124339469 2086008.716566205 0 2086008.716566205 -1690751.2148785442 0 0 0 0 3331286.5933632907 8235765.3369327486 0 8235765.3369327486 3081690.3283273876 0 0 0 0 107460826.86932802 86543800.259498596 0 86543800.259498596 97920669.754634857 0 0 0 0 124913293.19864619 356842782.45689392 0 356842782.45689392 467760871.44232559 0 0 0 0 187025174.91978407 -254588857.1390686 0 -254588857.1390686 281216273.73419571 0 0 0 0 186426754.14935532 -268675750.7139492 0 -268675750.7139492 544835482.35684204 0 0 0 0 65675230.459952354 -158199515.61307526 0 -158199515.61307526 207019372.27206421 0 0 0 0 60980040.255905151 -140816123.94215775 0 -140816123.94215775 149416337.20655823 0 0 0 0 -65107641.208414078 -67213511.623207092 0 -67213511.623207092 160962576.19093704 0 0 0 0 -107219804.66008568 -58029014.1901474 0 -58029014.1901474 192309511.34790039 0 0 0 0 -30554732.592048645 -134871007.08378601 0 -134871007.08378601 211197031.04147339 0 0 0 0 -62596216.942272186 -106255487.24041748 0 -106255487.24041748 222580924.85086823 0 0 0 0 -46970632.460029602 -85556578.239883423 0 -85556578.239883423 170895456.09420776 0 0 0 0 -36927353.024576455 -204149728.33006287 0 -204149728.33006287 302420741.54940033 0 0 0 0 -53931870.970644355 -151843190.59766388 0 -151843190.59766388 353748975.1261673 0 0 0 0 150447851.26801622 -228775815.96879578 0 -228775815.96879578 -28525459.088378906 0 0 0 0 -167489439.91000062 -218059329.59735107 0 -218059329.59735107 1041535670.7878494 0 0 0 0 -25601111.238854583 -242627521.08065796 0 -242627521.08065796 429088986.28730011 0 0 0 0 -104744463.40724757 -179634326.25544739 0 -179634326.25544739 420656460.82614136 0 0 0 0 37905198.85871613 -154625720.52073669 0 -154625720.52073669 68358788.438858032 0 0 0 0 168654519.24947309 -971999976.95243835 0 -971999976.95243835 439146282.8330307 0 0 0 0 106217417.41234922 698617350.98136902 0 698617350.98136902 1673396551.519104 0 0 0 0 97706514.758442357 220706478.00101471 0 220706478.00101471 582818032.59195709 0 0 0 0 314768327.93004251 -184829684.10171509 0 -184829684.10171509 101385986.00553894 0 0 0 0 266047122.83230257 -83207477.443054199 0 -83207477.443054199 12100625.511749268 0 0 0 0 1978024.3998802463 -5930260.7215256914 0 -5930260.7215256914 5322809.683077991 0 0 0 0 104200083.70164672 57491336.926452637 0 57491336.926452637 8600289.6053466797 0 0 0 0 -3061905.3704439565 -2947042.1411096603 0 -2947042.1411096603 5393866.8737989068 0 0 0 0 7141678.0630685389 -96684862.31803894 0 -96684862.31803894 247569799.62780762 0 0 0 0 -3734452.2103998512 -26070507.349739075 0 -26070507.349739075 81622530.990268707 0 0 0 0 -114378396.98000796 60781605.313952446 0 60781605.313952446 392663315.41925049 0 0 0 0 -81795326.64157176 -117829264.23418713 0 -117829264.23418713 316605914.46383667 0 0 0 0 -80408158.947981775 -134027895.10099792 0 -134027895.10099792 504777109.83520508 0 0 0 0 -114960177.05668947 60149275.536911011 0 60149275.536911011 514348935.19532156 0 0 0 0 -302326.58369338512 9386625.8209991455 0 9386625.8209991455 86545433.185037613 0 0 0 0 -1345841.6685774575 872528.27518199384 0 872528.27518199384 8512983.6132911444 0 0 0 0 -60841774.326612636 14105050.513318062 0 14105050.513318062 28000653.736022949 0 0 0 0 -9331843.9238505512 -3023572.6763572693 0 -3023572.6763572693 16573993.78125 0 0 0 0 -46394688.929146223 3440695.6836843491 0 3440695.6836843491 20810740.84147644 0 0 0 0 -4463984.6011741329 -1882190.9114063829 0 -1882190.9114063829 14129383.052228123 0 0 0 0 -7976517.6146669481 -4055886.0395581871 0 -4055886.0395581871 11226821.165605307 0 0 0 0 -6155530.4298175573 -15363850.596590042 0 -15363850.596590042 15871627.122238159 0 0 0 0 71629405.503381014 -20012085.475906372 0 -20012085.475906372 23835657.845597267 0 0 0 0 -3370635.6232778449 -3370344.7587105036 0 -3370344.7587105036 2210635.5138503909 0 0 0 0 -46795473.767533779 7995479.001537323 0 7995479.001537323 43797090.625946045 0 0 0 0 -7356367.6219716072 -13653903.249095917 0 -13653903.249095917 -761075.73509216309 0 0 0 0 -46350727.684931517 -5773032.6804199219 0 -5773032.6804199219 28131984.256767273 0 0 0 0 -8397505.9374893606 -27408913.312115431 0 -27408913.312115431 -58251946.871322632 0 0 0 0 -4949241.6081649391 -3093007.6203345805 0 -3093007.6203345805 23890578.623700708 0 0 0 0 11799876.775931239 -100600412.89767265 0 -100600412.89767265 117718471.7270813 0 0 0 0 17919263.418245077 -82098471.900546074 0 -82098471.900546074 127053620.80570984 0 0 0 0 106864892.41159773 -91230684.728088379 0 -91230684.728088379 62279907.437789917 0 0 0 0 -1836202.0230001668 7376587.1699053794 0 7376587.1699053794 18676429.28648293 0 0 0 0 60874750.118097782 -63359060.119884491 0 -63359060.119884491 51196708.096652985 0 0 0 0 33284245.082677841 -17991798.321371078 0 -17991798.321371078 -20019773.008678436 0 0 0 0 46807609.920639515 -31650252.692975998 0 -31650252.692975998 66782963.52986145 0 0 0 0 9434805.5408588406 -31048267.688630406 0 -31048267.688630406 90867744.149571151 0 0 0 0 -113139591.3319951 -90731004.26044178 0 -90731004.26044178 118764909.5311718 0 0 0 0 -7754616.9319267273 -61675931.093284607 0 -61675931.093284607 92950468.185753345 0 0 0 0 -30213114.718704134 -47494575.89820385 0 -47494575.89820385 81419274.49187851 0 0 0 0 -10078083.815414548 -75945936.98442173 0 -75945936.98442173 114069902.40297318 0 0 0 0 1061250.472668156 -70701803.616960526 0 -70701803.616960526 70796628.687328339 0 0 0 0 -31819569.902029335 -81015159.913257599 0 -81015159.913257599 98344141.076568604 0 0 0 0 -1563052.9313291982 -76467617.403542995 0 -76467617.403542995 81039630.422920227 0 0 0 0 -12830752.820865631 -46055105.089492798 0 -46055105.089492798 89251793.429439545 0 0 0 0 -42907662.268642426 -41381866.464384079 0 -41381866.464384079 139757225.95002747 0 0 0 0 5529725.9586948045 -38184391.721540406 0 -38184391.721540406 108661708.58327246 0 0 0 0 -20249269.841740232 -7245350.8504960239 0 -7245350.8504960239 22604424.95408199 0 0 0 0 -38762942.777809143 -46279804.152872086 0 -46279804.152872086 144668446.3262558 0 0 0 0 -61849334.018134117 -34503647.35559845 0 -34503647.35559845 142197065.66091919 0 0 0 0 1515136.4639396667 -70198719.982879639 0 -70198719.982879639 244014910.93222046 0 0 0 0 -10162223.964633092 -52294572.740962029 0 -52294572.740962029 135068116.84108734 0 0 0 0 4722674.9917608015 -84743050.279438972 0 -84743050.279438972 118090568.8157196 0 0 0 0 -11742137.18774219 12428569.554359034 0 12428569.554359034 55765825.510105118 0 0 0 0 -12417586.646832466 -9949148.5936927795 0 -9949148.5936927795 143798963.2346077 0 0 0 0 3000060.3316011429 -30597272.854690552 0 -30597272.854690552 109748282.37788391 0 0 0 0 7725520.5789047182 -30579804.779288918 0 -30579804.779288918 28089400.160339996 0 0 0 0 -18675362.070355978 -18971310.995957084 0 -18971310.995957084 72113253.914293885 0 0 0 0 -4781798.2887325669 -11405428.859523594 0 -11405428.859523594 114830409.01651233 0 0 0 0 -29396411.542746544 -1201218.1484928131 0 -1201218.1484928131 139849763.75567245 0 0 0 0 -135737311.46637648 -96584522.095712662 0 -96584522.095712662 116973323.93460083 0 0 0 0 -6561605.1569465399 -5728745.7676410675 0 -5728745.7676410675 99127181.064872742 0 0 0 0 60736020.583786964 -81321127.111869812 0 -81321127.111869812 -152960561.15841675 0 0 0 0 -33576418.201740116 26291367.110091925 0 26291367.110091925 264163599.55922699 0 0 0 0 -5930546.2397325831 -1363295.5329694748 0 -1363295.5329694748 23119316.842597954 0 0 0 0 40120556.014917135 73597337.335655212 0 73597337.335655212 352751132.18766785 0 0 0 0 8043301.8831651211 -47445830.163707733 0 -47445830.163707733 165913795.16378784 0 0 0 0 42103729.19007872 -27695578.001176357 0 -27695578.001176357 171975577.88196564 0 0 0 0 -12742911.949772 -2418987.9904441833 0 -2418987.9904441833 148273027.2407074 0 0 0 0 -3730430.1787763238 -17288655.713791847 0 -17288655.713791847 146274465.70926666 0 0 0 0 -12528710.028019635 738445.20881295204 0 738445.20881295204 133951436.58187866 0 0 0 0 -5532657.1696105003 1893648.6014671326 0 1893648.6014671326 131355416.95170593 0 0 0 0 -1639475.2052464485 -4858135.2725467682 0 -4858135.2725467682 129209170.47956848 0 0 0 0 -11124481.226541281 -7635779.3682441711 0 -7635779.3682441711 129533431.62736654 0 0 0 0 -3066371.3183762822 -6138530.6640168875 0 -6138530.6640168875 22522133.43210642 0 0 0 0 -10541674.396529436 -4048134.5859375 0 -4048134.5859375 141621345.25658417 0 0 0 0 -1843094.817312293 -638609.55824573338 0 -638609.55824573338 3828860.8459439259 0 0 0 0 -18090011.044182792 15368601.743307114 0 15368601.743307114 91596980.51455307 0 0 0 0 -80095493.256507978 -4304390.7853927612 0 -4304390.7853927612 149617672.26826 0 0 0 0 -19168821.621837556 -120574008.49780655 0 -120574008.49780655 -14226953.101354599 0 0 0 0 -91860443.507614881 -102883048.42135906 0 -102883048.42135906 124991416.97233582 0 0 0 0 -67058730.350175738 -68432843.274751663 0 -68432843.274751663 155528128.8207016 0 0 0 0 -5002011.5752718225 -82909700.688165665 0 -82909700.688165665 97586963.636817932 0 0 0 0 3157271.1063481048 -72588190.568681717 0 -72588190.568681717 73235170.998596191 0 0 0 0 3250231.0931790397 -68349784.945222855 0 -68349784.945222855 87083758.021690369 0 0 0 0 -13174689.125128657 -99150937.042987823 0 -99150937.042987823 68273780.027028084 0 0 0 0 6851236.8406111002 -58927424.92196846 0 -58927424.92196846 103673490.45195866 0 0 0 0 -31355875.980954915 -60317544.429871559 0 -60317544.429871559 168329103.08725739 0 0 0 0 -23997969.014080003 -51183185.061185837 0 -51183185.061185837 199764699.22616577 0 0 0 0 -16362513.46680975 -48846748.043441772 0 -48846748.043441772 144544863.45628071 0 0 0 0 2379616.2594032884 -24122853.145143509 0 -24122853.145143509 187718218.34156322 0 0 0 0 -24009868.953157872 -28694596.854459763 0 -28694596.854459763 213353000.52106094 0 0 0 0 -24001846.247726291 -26088424.357378006 0 -26088424.357378006 180675605.77419281 0 0 0 0 -9341546.8382651731 -31430800.636096954 0 -31430800.636096954 181014456.95358181 0 0 0 0 -17659222.047782041 -55067071.149803638 0 -55067071.149803638 256742790.63130569 0 0 0 0 -75784068.463840112 -8807940.6511363983 0 -8807940.6511363983 209260360.47731781 0 0 0 0 -60986072.877112165 -46143994.592801809 0 -46143994.592801809 171835436.92036057 0 0 0 0 1450279.986448139 -11906325.235616684 0 -11906325.235616684 157315943.82991505 0 0 0 0 -14934574.798153758 3367711.4972953796 0 3367711.4972953796 179970016.1069622 0 0 0 0 -4209281.3870447874 6268719.7735328674 0 6268719.7735328674 180649978.25994873 0 0 0 0 -18095718.473829746 43131312.21456337 0 43131312.21456337 281075214.71203995 0 0 0 0 -3282882.9462007098 -426939.32724667341 0 -426939.32724667341 433867.25927742198 0 0 0 0 8889603.8564958572 35874942.452880859 0 35874942.452880859 137244911.63133621 0 0 0 0 -25478036.132353783 102761537.1466713 0 102761537.1466713 371369221.97142029 0 0 0 0 242648021.26409912 84037694.973876953 0 84037694.973876953 362856518.48435211 0 0 0 0 64552107.362154484 49955150.088157654 0 49955150.088157654 144687389.87417984 0 0 0 0 -1470412.5348968725 8128319.9918784723 0 8128319.9918784723 -4370679.3931908533 0 0 0 0 -9816955.7243309002 -176330.87186363339 0 -176330.87186363339 -996548.00536594121 0 0 0 0 -4199038.1669378281 3555599.1953811646 0 3555599.1953811646 169788422.69758034 0 0 0 0 -1036164.5229606628 26469598.534233093 0 26469598.534233093 149309991.59899139 0 0 0 0 -17071915.890374422 43590502.128004074 0 43590502.128004074 131090683.23997116 0 0 0 0 1117498.3757535424 7269776.9373039901 0 7269776.9373039901 2119970.4339509234 0 0 0 0 6571176.7746772766 3968423.3322181702 0 3968423.3322181702 29560469.64118576 0 0 0 0 5690054.7835493088 24872969.17621994 0 24872969.17621994 122647868.45058441 0 0 0 0 -1022183.9372258186 13553779.876476288 0 13553779.876476288 10232609.767105103 0 0 0 0 1593056.9687485695 16558776.224992752 0 16558776.224992752 23502520.468635559 0 0 0 0 6365578.1201250553 18202493.378324509 0 18202493.378324509 12812671.302062988 0 0 0 0 1771921.2768492699 13152654.554790497 0 13152654.554790497 21957879.642745972 0 0 0 0 -28173346.864009857 35336253.374107361 0 35336253.374107361 40208195.714645386 0 0 0 0 -13578641.939506531 20360273.615764618 0 20360273.615764618 34091541.188842773 0 0 0 0 -32971636.601036072 34503857.235595703 0 34503857.235595703 42195650.395336151 0 0 0 0 -33306054.599785328 26582950.798406839 0 26582950.798406839 34400972.892623901 0 0 0 0 -18752565.824985027 51914493.665911674 0 51914493.665911674 15748232.477325439 0 0 0 0 -28746360.878890038 29277987.464687347 0 29277987.464687347 34539198.854568481 0 0 0 0 -37479819.154712677 42382199.455047607 0 42382199.455047607 17541817.180877686 0 0 0 0 -39378330.760627747 23935662.416931152 0 23935662.416931152 35309227.081237793 0 0 0 0 -35643413.696510315 23021002.132278442 0 23021002.132278442 19473727.003982544 0 0 0 0 -48257073.492605209 19244367.834457397 0 19244367.834457397 32986354.078979492 0 0 0 0 -5507516.2863299008 19409928.952840641 0 19409928.952840641 42826630.500599928 0 0 0 0 -23226513.130672932 3850937.4579925537 0 3850937.4579925537 40387845.497787476 0 0 0 0 -31860988.024101496 3961580.6398296356 0 3961580.6398296356 45156474.236663818 0 0 0 0 -44050785.480484009 15126670.404510498 0 15126670.404510498 55600512.152908325 0 0 0 0 5097107.6597128548 7649750.1755213551 0 7649750.1755213551 -13884647.306959242 0 0 0 0 -3423930.0222763121 32389738.573229611 0 32389738.573229611 151605606.45889282 0 0 0 0 -92292599.220394135 54028369.953437805 0 54028369.953437805 -63661903.76675415 0 0 0 0 -28345760.301424809 30956517.955392137 0 30956517.955392137 54033004.843798041 0 0 0 0 -3520362.2695121765 29525324.16633606 0 29525324.16633606 135888110.71240234 0 0 0 0 29656621.517274857 69638764.55021286 0 69638764.55021286 123259579.92206192 0 0 0 0 4093160.353705883 50726660.204937458 0 50726660.204937458 154523129.93452454 0 0 0 0 3234668.7349433899 44274361.409194946 0 44274361.409194946 118146550.73350525 0 0 0 0 -55702472.428388596 132972724.46178436 0 132972724.46178436 106660182.87718201 0 0 0 0 43552973.43387413 59867080.352313995 0 59867080.352313995 -50484845.377319336 0 0 0 0 -27270202.565767288 -38224552.575057983 0 -38224552.575057983 46450879.257469177 0 0 0 0 14133418.409748077 -1751341.6746559143 0 -1751341.6746559143 77283524.273181915 0 0 0 0 -57283162.010072708 -26641791.894008636 0 -26641791.894008636 86899714.523666382 0 0 0 0 15097215.624062538 -7724416.8964996338 0 -7724416.8964996338 109138876.44219589 0 0 0 0 22854996.927775383 43068612.083377838 0 43068612.083377838 79395985.951957703 0 0 0 0 14960511.992949486 37722612.172849655 0 37722612.172849655 117065356.68756866 0 0 0 0 -26264944.749357224 2937469.8320922852 0 2937469.8320922852 114264747.49250793 0 0 0 0 -14993994.905558527 -3276628.4389345571 0 -3276628.4389345571 18399578.158643052 0 0 0 0 -48522227.492059708 -2335721.0801315308 0 -2335721.0801315308 121334550.47860527 0 0 0 0 -56859242.755290776 -11984173.896881849 0 -11984173.896881849 114149746.61304474 0 0 0 0 -11719167.74498184 11341210.515973981 0 11341210.515973981 49023536.178346291 0 0 0 0 -34794730.971978188 26422755.985639572 0 26422755.985639572 35421634.527893066 0 0 0 0 -38165824.827171326 29536245.001678467 0 29536245.001678467 38386445.40788269 0 0 0 0 -41911577.145618439 12296100.952001572 0 12296100.952001572 11275900.818389893 0 0 0 0 -26892089.528935209 3209604.9666923657 0 3209604.9666923657 83325044.836933523 0 0 0 0 -19746773.619060516 3638313.0686798096 0 3638313.0686798096 28418062.448181152 0 0 0 0 9034436.1429654583 -21754917.674665846 0 -21754917.674665846 72485111.994404942 0 0 0 0 15787696.028420985 -14503159.58943367 0 -14503159.58943367 92761337.66664505 0 0 0 0 -4110690.5282718646 939955.62934920937 0 939955.62934920937 25576490.273761481 0 0 0 0 -91949393.545540035 4952666.1314239502 0 4952666.1314239502 173464836.56659698 0 0 0 0 -16094766.803525534 7173979.21511833 0 7173979.21511833 25900087.866317868 0 0 0 0 -16450118.154224643 -759293.56355056912 0 -759293.56355056912 61454747.379436299 0 0 0 0 1253297.0091297755 765692.52827062458 0 765692.52827062458 -1899624.4086640626 0 0 0 0 56501693.052948982 46238884.460729599 0 46238884.460729599 41360241.23916626 0 0 0 0 -32577166.039790127 -128530776.86224914 0 -128530776.86224914 -27103293.886104584 0 0 0 0 -73552653.215233967 -46295554.591251373 0 -46295554.591251373 172493477.43803406 0 0 0 0 -44446979.799640954 85942832.203796387 0 85942832.203796387 355713298.70929718 0 0 0 0 -9017008.2001605704 -81658021.719985247 0 -81658021.719985247 80215231.003307343 0 0 0 0 25086082.973100215 64752644.758864403 0 64752644.758864403 138269232.34901428 0 0 0 0 12059616.615572661 -11050013.363355637 0 -11050013.363355637 137760450.78025627 0 0 0 0 31971112.833735108 -40519485.65385437 0 -40519485.65385437 70590348.66342926 0 0 0 0 -297759.66729375534 -263705.48880619556 0 -263705.48880619556 -765845.76289877295 0 0 0 0 -52513866.726611614 27129448.612739563 0 27129448.612739563 39885430.978649139 0 0 0 0 40048202.978809357 -2504895.657875061 0 -2504895.657875061 6188812.7991409302 0 0 0 0 32203050.251277924 -18262170.794502258 0 -18262170.794502258 44992285.390914917 0 0 0 0 -38122573.538516045 -6915935.7659454346 0 -6915935.7659454346 120093531.35195923 0 0 0 0 40652740.908610344 49161844.538322449 0 49161844.538322449 140060824.01621246 0 0 0 0 15414838.335515976 6400782.2038574219 0 6400782.2038574219 148935605.45133972 0 0 0 0 -45031222.149252355 54084361.04246521 0 54084361.04246521 121034706.02302551 0 0 0 0 40211321.188958645 2791142.1171340942 0 2791142.1171340942 98330377.37789917 0 0 0 0 7265115.9243995678 7135882.7132880837 0 7135882.7132880837 42954671.11968641 0 0 0 0 15544342.876178741 42989716.691619873 0 42989716.691619873 163665000.40835571 0 0 0 0 17159688.780956268 4358698.5969238281 0 4358698.5969238281 102223548.00082397 0 0 0 0 -5577839.2255416233 -12582378.018100113 0 -12582378.018100113 65561957.448661484 0 0 0 0 -51039277.69626689 52530545.829803467 0 52530545.829803467 -232342.890625 0 0 0 0 -24197103.680828571 -2372396.0467071533 0 -2372396.0467071533 81043278.644439697 0 0 0 0 10364587.263795376 -1936253.0938529968 0 -1936253.0938529968 29532849.684295654 0 0 0 0 -16040316.16394949 11347880.292671204 0 11347880.292671204 33408222.392974854 0 0 0 0 12661771.422753334 -9998796.6637420654 0 -9998796.6637420654 -7587623.5426445007 0 0 0 0 20956282.960928917 6122727.3324050903 0 6122727.3324050903 34108854.16456604 0 0 0 0 80196435.871419907 -19132417.370704651 0 -19132417.370704651 100383358.91002274 0 0 0 0 6501395.2904453278 -16105488.933937073 0 -16105488.933937073 100935587.78965759 0 0 0 0 -6891213.7182607651 -7627375.8278045654 0 -7627375.8278045654 105025964.91697693 0 0 0 0 -17084482.844378471 -28425378.536785126 0 -28425378.536785126 95371322.232055664 0 0 0 0 15504716.748954773 -12715791.11333847 0 -12715791.11333847 66002717.192855835 0 0 0 0 1714384.9876089096 -16756382.583517075 0 -16756382.583517075 64878292.629989624 0 0 0 0 -14741825.697288275 -27942282.405639648 0 -27942282.405639648 83575963.627975464 0 0 0 0 -25472439.926441193 -28188485.019172668 0 -28188485.019172668 85694298.150192261 0 0 0 0 -23866215.843739837 -44587039.616709709 0 -44587039.616709709 55959178.189483643 0 0 0 0 -54264368.340051234 -40632421.703042507 0 -40632421.703042507 119614177.7649231 0 0 0 0 -52448688.191174507 -12750710.697929382 0 -12750710.697929382 77482114.45022583 0 0 0 0 -2558014.0224459171 -5956261.4310035706 0 -5956261.4310035706 54460830.238754272 0 0 0 0 -14284634.504579544 -24203274.773742676 0 -24203274.773742676 71329172.401321411 0 0 0 0 -5319436.1548771858 6631503.9312934875 0 6631503.9312934875 100362223.76184082 0 0 0 0 3261228.1632056236 4848400.6550827026 0 4848400.6550827026 74279118.227849007 0 0 0 0 3965095.0664299075 -47276.045964851975 0 -47276.045964851975 3203872.3345706165 0 0 0 0 30221033.925667882 23222504.751665115 0 23222504.751665115 57792303.250610352 0 0 0 0 17359596.81078577 40673510.935707092 0 40673510.935707092 75500714.613185883 0 0 0 0 -2932371.1136102676 1917110.2464904785 0 1917110.2464904785 92840909.037956238 0 0 0 0 63390163.758060455 84498378.015808105 0 84498378.015808105 81975426.866676331 0 0 0 0 -2158176.236459136 -7234542.8405036926 0 -7234542.8405036926 176614672.16064453 0 0 0 0 10520566.02747488 7059083.8148498535 0 7059083.8148498535 13748811.423746109 0 0 0 0 9100808.93526721 8541096.7914810181 0 8541096.7914810181 18933117.545715332 0 0 0 0 10189152.746021986 9385146.7628707886 0 9385146.7628707886 14636227.604217529 0 0 0 0 23724034.422773361 37916384.054031372 0 37916384.054031372 45078400.789420128 0 0 0 0 5815825.8362481594 4654316.8938236237 0 4654316.8938236237 15650362.537582397 0 0 0 0 1927808.9234717097 -669548.05973917246 0 -669548.05973917246 145450.6452999264 0 0 0 0 12645240.45285368 37738502.233695984 0 37738502.233695984 73926416.57126236 0 0 0 0 -2850268.6018912997 -6833094.3069723248 0 -6833094.3069723248 19907427.537418976 0 0 0 0 2282588.637960434 21006347.946495056 0 21006347.946495056 33713060.98311615 0 0 0 0 25126791.593790054 29107138.093009949 0 29107138.093009949 126730964.72556543 0 0 0 0 -10463631.658598699 14072423.391092867 0 14072423.391092867 27741277.108883381 0 0 0 0 888477.06296062469 10650981.58455658 0 10650981.58455658 46876102.697372437 0 0 0 0 2049038.7645427175 7770784.8826421946 0 7770784.8826421946 47500702.832695194 0 0 0 0 -6579494.7228879929 8216410.7398452759 0 8216410.7398452759 47657507.405029297 0 0 0 0 -170614.33062274382 2667193.5516960025 0 2667193.5516960025 18954193.626504961 0 0 0 0 -17044428.347569466 25073029.899841309 0 25073029.899841309 158534719.96077347 0 0 0 0 -8467691.4682674408 -3563738.2451858521 0 -3563738.2451858521 228827599.09430695 0 0 0 0 -996301.40250963345 -1078739.1133065671 0 -1078739.1133065671 4119282.4711431861 0 0 0 0 9416932.4814934731 7294530.5760955811 0 7294530.5760955811 15811234.128326416 0 0 0 0 6761745.6314812712 11043002.488768972 0 11043002.488768972 17766930.591066733 0 0 0 0 9970943.7214059308 12201663.077434301 0 12201663.077434301 19873679.750999451 0 0 0 0 -598640.17302417755 11232818.359451294 0 11232818.359451294 29682912.298156738 0 0 0 0 1111458.9253413146 16422147.31982854 0 16422147.31982854 22088656.096464247 0 0 0 0 12323260.176477432 34395860.652126312 0 34395860.652126312 21503753.06312561 0 0 0 0 11813594.351608515 12718308.822788239 0 12718308.822788239 23074935.138252258 0 0 0 0 35230713.064651608 51004881.637239456 0 51004881.637239456 20275139.954269409 0 0 0 0 5094452.8623337178 5797018.7631456107 0 5797018.7631456107 2558125.0294489563 0 0 0 0 13516881.648634911 14060143.114234924 0 14060143.114234924 19991136.044325829 0 0 0 0 11476031.565783978 13476149.900169373 0 13476149.900169373 26349557.650405884 0 0 0 0 15550657.025063038 10742407.851161957 0 10742407.851161957 18682803.110247135 0 0 0 0 13244422.937189698 15214130.162870407 0 15214130.162870407 23416853.322662354 0 0 0 0 20099896.867873371 16851410.497260094 0 16851410.497260094 24672478.112457275 0 0 0 0 33603581.537437677 28085123.388786316 0 28085123.388786316 31810562.553804398 0 0 0 0 45627332.010499477 17435439.796379089 0 17435439.796379089 13941800.506164551 0 0 0 0 24527501.920266151 27941858.938102722 0 27941858.938102722 39249796.807437897 0 0 0 0 9783712.6541268826 7977855.9203910828 0 7977855.9203910828 16469552.794593811 0 0 0 0 5118157.8260734081 8232949.286441803 0 8232949.286441803 20051464.380344391 0 0 0 0 4549391.8729281425 6509782.7106513977 0 6509782.7106513977 14832754.602828979 0 0 0 0 9167291.6970660686 7093334.4494895935 0 7093334.4494895935 21757646.714981079 0 0 0 0 12481444.098723888 12194680.398391724 0 12194680.398391724 24285037.19916153 0 0 0 0 22423402.389227867 9727151.4428100586 0 9727151.4428100586 23229719.598449707 0 0 0 0 10720639.384711742 7165413.6839761734 0 7165413.6839761734 19405628.065307617 0 0 0 0 4161994.8899474144 12024866.988212585 0 12024866.988212585 27066864.837474823 0 0 0 0 4113527.7431446761 11225806.583220482 0 11225806.583220482 22309884.263961792 0 0 0 0 -1662274.201189518 12565042.854682922 0 12565042.854682922 38542017.341110229 0 0 0 0 10686340.935415745 10712307.112419128 0 10712307.112419128 26969973.74256134 0 0 0 0 -3534133.6029140949 15411887.111032486 0 15411887.111032486 34690498.923377991 0 0 0 0 1202917.9969667196 11266406.824763417 0 11266406.824763417 31317798.251556396 0 0 0 0 1121444.2052626237 8933521.4226888418 0 8933521.4226888418 36700163.431396484 0 0 0 0 22384532.934227705 4172894.9717674255 0 4172894.9717674255 33351568.522827148 0 0 0 0 10629553.086338282 11040626.675811768 0 11040626.675811768 30850345.248279572 0 0 0 0 2561819.2865638733 18976692.556785583 0 18976692.556785583 36051846.308906555 0 0 0 0 19702405.742493868 7524183.8373336792 0 7524183.8373336792 33433230.323638916 0 0 0 0 3599865.2160584927 7210306.6520729065 0 7210306.6520729065 45865609.101226807 0 0 0 0 9743995.1150569916 4758066.0458831787 0 4758066.0458831787 60152484.520202637 0 0 0 0 -1974175.2941497564 15738065.9165802 0 15738065.9165802 35768906.368026733 0 0 0 0 -1665441.7198398113 13983728.461994171 0 13983728.461994171 33009811.371925354 0 0 0 0 28847604.267381668 15923014.548156738 0 15923014.548156738 16115139.381477356 0 0 0 0 29173937.716666222 9461442.4725646973 0 9461442.4725646973 19329802.564720154 0 0 0 0 37048698.290552855 14969876.448532104 0 14969876.448532104 12744307.255084991 0 0 0 0 38533733.34812665 18214257.814964294 0 18214257.814964294 24391687.204556465 0 0 0 0 38004101.030652285 18518449.041284561 0 18518449.041284561 24533887.575820923 0 0 0 0 35413990.617444038 5329397.3637084961 0 5329397.3637084961 28378981.366214752 0 0 0 0 48873148.524561748 23196207.018833637 0 23196207.018833637 48380798.978317261 0 0 0 0 44574792.816552877 -9357845.6066513062 0 -9357845.6066513062 44394308.199455261 0 0 0 0 25481965.495391846 -25058426.043403625 0 -25058426.043403625 62371457.288496017 0 0 0 0 34881075.856303811 8178796.2039051056 0 8178796.2039051056 15962241.076416016 0 0 0 0 27743582.990182877 -21112857.547477722 0 -21112857.547477722 15145353.462844849 0 0 0 0 29048259.907487154 -3487906.4143218994 0 -3487906.4143218994 30814467.543167114 0 0 0 0 33078361.185389519 -9632575.4557800293 0 -9632575.4557800293 6036647.2381973267 0 0 0 0 31830211.411187768 5317219.9605026245 0 5317219.9605026245 -16494857.025878906 0 0 0 0 29414775.224181905 -2147153.5310297012 0 -2147153.5310297012 -1153114.5540008545 0 0 0 0 21711776.785089493 10234705.174667358 0 10234705.174667358 10583509.034431458 0 0 0 0 29291969.294578999 9234683.6812257767 0 9234683.6812257767 5543412.5336303711 0 0 0 0 5595126.7700326443 24481223.111106873 0 24481223.111106873 7207329.6936187744 0 0 0 0 23953221.134967923 11682617.553226471 0 11682617.553226471 -5589265.459564209 0 0 0 0 21028238.511296988 15410139.224872589 0 15410139.224872589 6944813.7656707764 0 0 0 0 26982562.377999783 21075590.917121887 0 21075590.917121887 8684268.3733730316 0 0 0 0 4636001.0982530117 21799993.951179504 0 21799993.951179504 -259861.65400886536 0 0 0 0 -6881726.171079278 25495121.871284485 0 25495121.871284485 -16857.135459899902 0 0 0 0 14902621.538880527 22730347.842716217 0 22730347.842716217 -17391688.225357056 0 0 0 0 22648043.365941286 4101188.6654052734 0 4101188.6654052734 -9712322.3345832825 0 0 0 0 7207525.5700109601 22808183.756496429 0 22808183.756496429 -20459889.044036865 0 0 0 0 -13401093.118845403 41121372.342568398 0 41121372.342568398 -20636825.039901733 0 0 0 0 107235007.45925689 31335721.24307251 0 31335721.24307251 -81004031.927261353 0 0 0 0 1899013.9332159758 10662279.381713867 0 10662279.381713867 -46058946.541786194 0 0 0 0 -90978113.887305558 74867188.134550095 0 74867188.134550095 37725989.730297089 0 0 0 0 -88332417.72619915 167886428.90177155 0 167886428.90177155 -103299027.34137726 0 0 0 0 8518008.870956013 7830221.8047759086 0 7830221.8047759086 6518899.3876343668 0 0 0 0 -97740969.971764565 132251869.03049469 0 132251869.03049469 -128543883.40171814 0 0 0 0 -109452853.22555733 151104775.21601868 0 151104775.21601868 10064279.264251709 0 0 0 0 -2606351.07011839 16882267.385472707 0 16882267.385472707 50415535.261940539 0 0 0 0 -123938662.43220234 31132354.507446289 0 31132354.507446289 -37424522.661148071 0 0 0 0 17508215.191550493 -7587836.7356109619 0 -7587836.7356109619 55822971.062225342 0 0 0 0 -130714632.58913231 67879252.571998596 0 67879252.571998596 13766643.498271465 0 0 0 0 -114224393.36968517 81407437.627937317 0 81407437.627937317 -19359567.590065002 0 0 0 0 -114883179.60396814 91820639.110996246 0 91820639.110996246 -100297623.43586731 0 0 0 0 -71418929.237585068 26714270.203277588 0 26714270.203277588 -103648486.73329163 0 0 0 0 5123264.6705162628 3064119.3683779761 0 3064119.3683779761 -1236285.9685700238 0 0 0 0 11327751.685305376 11639611.272031203 0 11639611.272031203 11393131.157064214 0 0 0 0 -137389186.73282528 60684258.295024872 0 60684258.295024872 7192898.0628204346 0 0 0 0 -17474263.4215765 10918632.610733032 0 10918632.610733032 -101283504.15483093 0 0 0 0 -114400587.90498829 -8835391.0101013184 0 -8835391.0101013184 -62067539.822967529 0 0 0 0 -128959447.78140545 18978394.249992371 0 18978394.249992371 -63892713.372970581 0 0 0 0 106672280.85589027 29754206.241172791 0 29754206.241172791 -160834119.51737213 0 0 0 0 28403714.458169937 229440466.12078381 0 229440466.12078381 127981793.14370728 0 0 0 0 -107992259.72970581 125588772.83703613 0 125588772.83703613 214666267.45381927 0 0 0 0 3647591.2194705009 3328745.2202377319 0 3328745.2202377319 65352327.608325958 0 0 0 0 16826319.85838604 17013557.181808472 0 17013557.181808472 48904152.601165771 0 0 0 0 9591111.8987312317 430816.8629989624 0 430816.8629989624 47734870.333908081 0 0 0 0 1138329.8242411613 12988485.975948334 0 12988485.975948334 34132249.500208855 0 0 0 0 8470486.6046233177 8338427.0998191833 0 8338427.0998191833 33664804.285720825 0 0 0 0 6877849.7045936584 13999024.244918823 0 13999024.244918823 48073759.166589379 0 0 0 0 11337776.106003523 6271695.0817079544 0 6271695.0817079544 35083089.666481018 0 0 0 0 12674223.445312977 12535219.489982605 0 12535219.489982605 34475454.358428478 0 0 0 0 8148673.6012978554 7051217.2587336302 0 7051217.2587336302 28403055.90410614 0 0 0 0 8575807.6135483831 15331464.048632145 0 15331464.048632145 22616519.664291382 0 0 0 0 13942600.139353275 556198.32130813599 0 556198.32130813599 27719891.095298767 0 0 0 0 -7371106.3539509783 14616859.83353243 0 14616859.83353243 38612042.084956229 0 0 0 0 18357486.235880852 4637814.8388404846 0 4637814.8388404846 31242861.888244629 0 0 0 0 -40521208.694316864 23708866.404945374 0 23708866.404945374 88512981.181640625 0 0 0 0 -70114056.891784668 201640540.1096344 0 201640540.1096344 105416620.42214966 0 0 0 0 2111884.6033524368 5836993.4524006769 0 5836993.4524006769 -6791871.3380645961 0 0 0 0 -88946545.411006927 84090856.235748291 0 84090856.235748291 194680212.15834808 0 0 0 0 -27668672.73585844 21861531.439825058 0 21861531.439825058 -44289823.904907227 0 0 0 0 -138476311.82037735 90859211.404525757 0 90859211.404525757 -73686710.729156494 0 0 0 0 -15388739.554937363 2549546.9725532532 0 2549546.9725532532 -144705706.21942139 0 0 0 0 -96166421.772434235 148566359.22171021 0 148566359.22171021 63803285.653701782 0 0 0 0 -51509901.892448425 59175989.836456299 0 59175989.836456299 43268040.49899292 0 0 0 0 -83828459.258308411 107991301.15974426 0 107991301.15974426 57010301.600646973 0 0 0 0 -75030556.63217926 84104532.696060181 0 84104532.696060181 103662165.10061646 0 0 0 0 -49485694.868228912 111026473.80578613 0 111026473.80578613 -267790.59350585938 0 0 0 0 -21876177.06136322 93441981.936630249 0 93441981.936630249 -12957601.447662354 0 0 0 0 -51961738.811049581 71147570.171377659 0 71147570.171377659 -28104840.507507324 0 0 0 0 23122997.31816864 126022206.54489136 0 126022206.54489136 -20545975.125587463 0 0 0 0 -48858520.853794098 32556602.722808838 0 32556602.722808838 55063806.072199821 0 0 0 0 69340719.43088913 -937242.21019744873 0 -937242.21019744873 -231780836.90571594 0 0 0 0 105287642.26990891 50605644.905342102 0 50605644.905342102 -236338200.89988708 0 0 0 0 185831285.81584549 141793934.73843384 0 141793934.73843384 -185089905.614151 0 0 0 0 -3863507.8018100709 442810.28984612226 0 442810.28984612226 13044873.536739387 0 0 0 0 31299634.307594299 67613369.659576416 0 67613369.659576416 -69140466.225028992 0 0 0 0 -9706044.7517547607 86634310.667007446 0 86634310.667007446 -64145425.774414062 0 0 0 0 -71274188.075857162 62077865.08934021 0 62077865.08934021 33552924.38494873 0 0 0 0 -59049626.492660522 50304814.465057373 0 50304814.465057373 27592951.052005768 0 0 0 0 -47218798.478904724 25239512.724281311 0 25239512.724281311 7335401.3239898682 0 0 0 0 33076406.343731046 45718360.370706558 0 45718360.370706558 8671375.5118713379 0 0 0 0 -34344639.731580734 44074547.910552979 0 44074547.910552979 -66158964.08732605 0 0 0 0 21278863.81021237 23056508.357997738 0 23056508.357997738 21996243.485873356 0 0 0 0 -180103629.59452438 -73573475.443862915 0 -73573475.443862915 307444667.6680603 0 0 0 0 -95468438.366855621 -81776916.894210815 0 -81776916.894210815 -47530505.266996384 0 0 0 0 -36266746.095623016 49892540.72252655 0 49892540.72252655 16981214.766511917 0 0 0 0 -85458271.133901596 66038356.391471863 0 66038356.391471863 156388219.21194458 0 0 0 0 -101938131.7871933 144890965.16595459 0 144890965.16595459 278941200.79960346 0 0 0 0 23063230.21816349 19606946.06855011 0 19606946.06855011 2424732.1395511627 0 0 0 0 -1873145.8295646906 21090631.448100567 0 21090631.448100567 16365930.166625977 0 0 0 0 140820864.97058105 31044699.742393494 0 31044699.742393494 -58944770.80821228 0 0 0 0 16254389.743841784 15178321.580183163 0 15178321.580183163 14599266.99015066 0 0 0 0 604113.69969201088 33099407.318996429 0 33099407.318996429 3286488.0557861328 0 0 0 0 6240310.0156980604 4356336.0312453546 0 4356336.0312453546 -1413930.7814750671 0 0 0 0 -123465183.1456337 146449328.7660675 0 146449328.7660675 89415840.393341064 0 0 0 0 -115144511.04182816 145028289.41598511 0 145028289.41598511 163355386.14849091 0 0 0 0 -1891.8621481181508 -1246074.2447128296 0 -1246074.2447128296 2633255.8403511047 0 0 0 0 -2874772.3429435203 -1916799.5337756276 0 -1916799.5337756276 7903990.8838500977 0 0 0 0 -12605969.096889002 1912117.5835762024 0 1912117.5835762024 15129925.626716614 0 0 0 0 -2838185.1683374047 2564774.1037902832 0 2564774.1037902832 6035079.006439209 0 0 0 0 -5689631.7602530122 -1428054.783706665 0 -1428054.783706665 -267661.48767852783 0 0 0 0 -12052517.598250315 -1261091.8152925968 0 -1261091.8152925968 5432289.9965515137 0 0 0 0 -5346105.551783422 -5702309.4628334045 0 -5702309.4628334045 -843736.66086578369 0 0 0 0 -2054.3548634752178 -7637337.5541419983 0 -7637337.5541419983 13324071.538894653 0 0 0 0 -5690533.3261342254 4523810.2712478638 0 4523810.2712478638 -11606868.995559692 0 0 0 0 -7597105.2154327221 3194259.6097593307 0 3194259.6097593307 22867527.216171265 0 0 0 0 -3638497.2104163431 -9826103.7424316406 0 -9826103.7424316406 25145653.13760376 0 0 0 0 -1004741.8748079687 -11468401.630645752 0 -11468401.630645752 -4271987.5084991455 0 0 0 0 -22023981.962740604 7598389.2213363647 0 7598389.2213363647 10177582.941421509 0 0 0 0 -13998907.379662964 -9071757.6432647705 0 -9071757.6432647705 25401209.152542114 0 0 0 0 -143143.13586923835 -44161.274758324027 0 -44161.274758324027 18926.329279080033 0 0 0 0 8073258.2080412582 -1261278.599395752 0 -1261278.599395752 8080574.6606521606 0 0 0 0 -2431548.2278306112 -10511039.328392029 0 -10511039.328392029 28406139.442718506 0 0 0 0 -5959028.5135411546 -1868193.1871118546 0 -1868193.1871118546 32847602.660964966 0 0 0 0 -4362556.1810982227 -13034154.510950089 0 -13034154.510950089 39921508.091445923 0 0 0 0 -4806459.3153056353 1400185.5902175903 0 1400185.5902175903 25421229.747268677 0 0 0 0 -8569142.139149338 -317331.2594871521 0 -317331.2594871521 43206002.994384766 0 0 0 0 5052547.336753428 -7951469.9534454346 0 -7951469.9534454346 40285006.085083008 0 0 0 0 -421086.61186381226 -23459.869054794312 0 -23459.869054794312 18082.487291514874 0 0 0 0 -833144.56175269186 -989166.32830047607 0 -989166.32830047607 7699027.8947410583 0 0 0 0 353993.6424478665 -2333528.6050491333 0 -2333528.6050491333 9127887.5968399048 0 0 0 0 1405957.9438158423 -5507884.6473236084 0 -5507884.6473236084 17063022.613052368 0 0 0 0 2214887.9838576615 -3538824.0469636917 0 -3538824.0469636917 5238249.4014129639 0 0 0 0 -176597.71759279654 22553.581844940782 0 22553.581844940782 -200741.86004538834 0 0 0 0 2547785.515100494 -2241107.6500930786 0 -2241107.6500930786 8172167.470993042 0 0 0 0 -10668129.718981761 12223511.084548712 0 12223511.084548712 -3938971.3219833374 0 0 0 0 891389.45733133703 3495202.3156204224 0 3495202.3156204224 -3425102.3680057526 0 0 0 0 -5027518.9769435227 2735055.2625045776 0 2735055.2625045776 6812926.9607543945 0 0 0 0 -6190187.8761354312 154409.41946792603 0 154409.41946792603 6759947.2770843506 0 0 0 0 -4582191.5213458389 -1759662.3486480713 0 -1759662.3486480713 4635747.8580474854 0 0 0 0 -506391.24348317087 -4649593.6337966919 0 -4649593.6337966919 5720411.7959365845 0 0 0 0 -352999.67036433372 -607915.13591483235 0 -607915.13591483235 1118554.556282863 0 0 0 0 -3515818.0959146321 2431443.8690414429 0 2431443.8690414429 3446206.4267120361 0 0 0 0 137613.50971673056 -4748641.6600112915 0 -4748641.6600112915 3931729.5417633057 0 0 0 0 -4868095.9282416813 -1280090.5344026461 0 -1280090.5344026461 21165041.840177476 0 0 0 0 92860.199000177905 -2027483.194309976 0 -2027483.194309976 2507065.7104516625 0 0 0 0 -3255746.135862112 -3997540.8555412292 0 -3997540.8555412292 1562649.4185333252 0 0 0 0 -7093344.7230018452 -24573671.530564308 0 -24573671.530564308 -10917311.016799927 0 0 0 0 -4468461.8634300362 -4705461.0402835906 0 -4705461.0402835906 12724987.549820542 0 0 0 0 -3187176.0142837167 11577777.876739502 0 11577777.876739502 -1555245.9728927612 0 0 0 0 179884.07875242829 -3421604.2015533447 0 -3421604.2015533447 2565565.9901351929 0 0 0 0 -1671071.2974087596 -425200.23155212402 0 -425200.23155212402 3187230.5092716217 0 0 0 0 -275014.98183643818 -3168723.2638092041 0 -3168723.2638092041 5666412.3292326927 0 0 0 0 -190571.53616783768 -777401.1190032959 0 -777401.1190032959 2543359.536239624 0 0 0 0 11637854.265664816 -5923285.1677093506 0 -5923285.1677093506 30863406.972412109 0 0 0 0 -850328.11906733306 -75787.519389405847 0 -75787.519389405847 218271.51717971265 0 0 0 0 -1415136.0368608236 -1135146.8806533813 0 -1135146.8806533813 2618316.9988174438 0 0 0 0 -2957936.7506608069 -12693834.183507919 0 -12693834.183507919 46469507.3722229 0 0 0 0 3675849.7003437877 -10509981.456970215 0 -10509981.456970215 46515636.314201355 0 0 0 0 5770488.077477945 -19434748.148431778 0 -19434748.148431778 51771258.43371582 0 0 0 0 22113359.442327082 -20656435.036170959 0 -20656435.036170959 44980398.299346924 0 0 0 0 43443644.740867615 -29196682.756462097 0 -29196682.756462097 46179349.673551559 0 0 0 0 -14937921.746814728 27430705.914596558 0 27430705.914596558 68904277.137720108 0 0 0 0 11259213.280669719 -28006317.657823563 0 -28006317.657823563 72977373.29699707 0 0 0 0 37219789.106027514 -11318433.537675858 0 -11318433.537675858 45477168.190597534 0 0 0 0 384628.17294044711 -1134165.6088352185 0 -1134165.6088352185 1275778.6994597614 0 0 0 0 38308313.679950148 -61366952.003339767 0 -61366952.003339767 96688947.989654541 0 0 0 0 23562570.207082152 17282891.937255859 0 17282891.937255859 18556975.891326904 0 0 0 0 321821.00274066604 -314842.74777129292 0 -314842.74777129292 99722.143029153347 0 0 0 0 20016836.485150695 3672472.2956085205 0 3672472.2956085205 -8906507.8840942383 0 0 0 0 -2627711.6416446269 -887751.02828979492 0 -887751.02828979492 3298114.8590698242 0 0 0 0 -75965.470075680147 -67861.238635523245 0 -67861.238635523245 117031.82528451085 0 0 0 0 -62698130.279221058 -79146534.457374573 0 -79146534.457374573 12741069.710647583 0 0 0 0 53945074.713833109 -92585623.840244293 0 -92585623.840244293 -722240.21026611328 0 0 0 0 -4907242.8386949589 -3440121.0331946388 0 -3440121.0331946388 23674974.174373597 0 0 0 0 45916826.096901178 -13544727.293434143 0 -13544727.293434143 31396694.039642334 0 0 0 0 54667621.80066061 -57198459.401222229 0 -57198459.401222229 95428148.101287842 0 0 0 0 -49207116.198039174 32792279.041858673 0 32792279.041858673 36675586.41343689 0 0 0 0 32279175.855977535 -19746364.899780273 0 -19746364.899780273 37791140.42049408 0 0 0 0 8913910.1481950283 19762709.137916565 0 19762709.137916565 26037355.080184937 0 0 0 0 -4785596.7038298743 -3887611.1513600871 0 -3887611.1513600871 24861236.221249342 0 0 0 0 -96717005.501452148 -47046113.218666077 0 -47046113.218666077 44731979.752056122 0 0 0 0 30466799.892152309 -168308264.33197403 0 -168308264.33197403 355208950.956604 0 0 0 0 -31857710.044610798 -16563510.120807648 0 -16563510.120807648 8962659.2753753662 0 0 0 0 -81506525.723900318 33611739.14853096 0 33611739.14853096 123488136.3788147 0 0 0 0 -43767889.688700676 -67451904.68359375 0 -67451904.68359375 112225287.25800323 0 0 0 0 -44761439.652517855 -77367740.356825829 0 -77367740.356825829 43729982.390808105 0 0 0 0 40652273.708786964 167417387.70772171 0 167417387.70772171 -137470260.83737183 0 0 0 0 -60418471.134079933 -49357086.214477539 0 -49357086.214477539 156616757.97216034 0 0 0 0 9186.3270145594142 -856591.8915546611 0 -856591.8915546611 1294728.4262049794 0 0 0 0 -36927102.700887203 -65567296.989906311 0 -65567296.989906311 82217843.261291504 0 0 0 0 -15829062.774552822 -43736848.026107788 0 -43736848.026107788 54225812.652046204 0 0 0 0 7208554.8483419418 -8817834.4337844849 0 -8817834.4337844849 9669485.7994613647 0 0 0 0 -7472342.9615244865 -3025018.6933898926 0 -3025018.6933898926 34575262.146743774 0 0 0 0 -4996813.7527036667 15019717.295677185 0 15019717.295677185 -44634412.522384644 0 0 0 0 -12900121.581954777 -55077217.241344452 0 -55077217.241344452 -26146195.553482056 0 0 0 0 131857858.77376938 -39983963.398017883 0 -39983963.398017883 55872297.234771729 0 0 0 0 1700595.9092599833 604937.1182153821 0 604937.1182153821 6558120.4049846828 0 0 0 0 -72735236.458426952 22620893.217155457 0 22620893.217155457 35468801.195602417 0 0 0 0 44450882.438107967 35076507.029212952 0 35076507.029212952 25182531.877105713 0 0 0 0 -29518165.671706676 -2109095.2078094482 0 -2109095.2078094482 48873466.592021942 0 0 0 0 -50297211.454130173 -8952581.6232910156 0 -8952581.6232910156 42192424.625671387 0 0 0 0 -12704487.065803051 57718797.500747681 0 57718797.500747681 40247422.181915283 0 0 0 0 -13553310.590565681 23685178.934844971 0 23685178.934844971 46559701.505783081 0 0 0 0 -61359844.554174423 10179655.655067444 0 10179655.655067444 44519352.22051239 0 0 0 0 -5117391.2741289139 32590349.907791138 0 32590349.907791138 33152340.460250854 0 0 0 0 -28773600.116994381 36208342.061843872 0 36208342.061843872 84043201.069484711 0 0 0 0 22244485.016755298 14742248.664440393 0 14742248.664440393 19119822.640609741 0 0 0 0 -34533831.549429893 11693283.515892029 0 11693283.515892029 75614020.255435944 0 0 0 0 3400426.251683712 9753198.7505187988 0 9753198.7505187988 6762122.1352844238 0 0 0 0 526945.38507944345 -194036.26685839891 0 -194036.26685839891 174835.53496302664 0 0 0 0 -2855437.7421278954 9497101.6041717529 0 9497101.6041717529 15392211.025619507 0 0 0 0 -11511162.887904167 22975753.308597565 0 22975753.308597565 1992516.3526239395 0 0 0 0 -9316159.7338113785 15009040.941440582 0 15009040.941440582 19584084.092895508 0 0 0 0 -6408265.3276538849 -7830402.0276794434 0 -7830402.0276794434 -4436921.7888336182 0 0 0 0 -18388769.124125481 -523451.66722869873 0 -523451.66722869873 26104705.741249084 0 0 0 0 -302959.06760859489 -5009165.0703020096 0 -5009165.0703020096 17680407.043426514 0 0 0 0 -82624612.906526566 109802416.45748901 0 109802416.45748901 3557866.4982242584 0 0 0 0 -2874410.7617509542 1109579.7185800225 0 1109579.7185800225 5965467.3959797919 0 0 0 0 1359579.3525850566 4567768.0808532853 0 4567768.0808532853 1255564.3117796779 0 0 0 0 -10119786.539248466 -9979117.4139175415 0 -9979117.4139175415 -29561643.988494873 0 0 0 0 8308434.0849353261 11857615.573191673 0 11857615.573191673 16173221.516794026 0 0 0 0 -27502241.702704906 9342088.667848587 0 9342088.667848587 26903549.596817017 0 0 0 0 -837381.25063493138 5025328.8484758288 0 5025328.8484758288 25955697.433528036 0 0 0 0 -6667037.8969311714 5417379.2288780212 0 5417379.2288780212 26536060.677947998 0 0 0 0 -3615344.094189167 10974884.807243347 0 10974884.807243347 21932838.003005981 0 0 0 0 -1632546.859369278 14820802.16053009 0 14820802.16053009 20324577.75561142 0 0 0 0 -3859660.6199166775 14090281.886188507 0 14090281.886188507 29743527.091575623 0 0 0 0 -4386155.7882027626 15941994.949180603 0 15941994.949180603 23266035.236438751 0 0 0 0 -11388180.91728878 11958364.717689514 0 11958364.717689514 32237801.00831604 0 0 0 0 -3478510.8770878315 12309761.161764145 0 12309761.161764145 31797382.030395508 0 0 0 0 -5111081.8482954502 14195496.089267731 0 14195496.089267731 35568780.162521362 0 0 0 0 -2819483.4162187576 13223197.807624817 0 13223197.807624817 35097112.70479393 0 0 0 0 -3235912.2055405378 10706235.236075401 0 10706235.236075401 37897614.507400513 0 0 0 0 1988066.4684477448 8664217.1539773941 0 8664217.1539773941 36285250.035583496 0 0 0 0 3064058.8998794556 2626100.1214904785 0 2626100.1214904785 27531400.564933777 0 0 0 0 2258841.6960024834 8160601.4986114502 0 8160601.4986114502 30190847.246896267 0 0 0 0 -3270232.1814546585 14810968.023323059 0 14810968.023323059 36487528.013759613 0 0 0 0 -1071396.1469356418 5303122.5829916 0 5303122.5829916 28472333.427947998 0 0 0 0 243386.36292197928 1256612.6975598484 0 1256612.6975598484 7310923.281534344 0 0 0 0 -7098749.8970952034 7100017.9935932159 0 7100017.9935932159 30710513.972900391 0 0 0 0 -2611504.8583145589 2531864.7795353904 0 2531864.7795353904 28203433.7135607 0 0 0 0 -56570602.673823237 -46333474.706558228 0 -46333474.706558228 47763397.260284424 0 0 0 0 -108504673.20665008 -38839916.485847473 0 -38839916.485847473 127798409.26074219 0 0 0 0 -49419006.555259824 52722509.436309814 0 52722509.436309814 137534127.9146347 0 0 0 0 151924648.61819923 6557302.5018615723 0 6557302.5018615723 -43423949.178466797 0 0 0 0 138591833.70136887 77490314.96661377 0 77490314.96661377 53627400.960250854 0 0 0 0 74661199.045158252 139823767.7587738 0 139823767.7587738 189001659.03857422 0 0 0 0 -49358642.959145918 -48562606.484653473 0 -48562606.484653473 -112007926.44361877 0 0 0 0 -124430239.58429691 -52798355.256721497 0 -52798355.256721497 236567272.26060486 0 0 0 0 -3941159.8649521554 -2227978.7738274932 0 -2227978.7738274932 12355955.896886922 0 0 0 0 -3153680.8034722805 14212614.570281982 0 14212614.570281982 3149583.3303527832 0 0 0 0 -1074609.5249694195 4180560.9431303144 0 4180560.9431303144 12420498.606859103 0 0 0 0 -2908904.6097354889 2644492.800743103 0 2644492.800743103 15267144.91607666 0 0 0 0 -1430385.6340342176 1238137.665510159 0 1238137.665510159 17411864.781690836 0 0 0 0 125670247.69104148 138983649.6553688 0 138983649.6553688 123355472.33106995 0 0 0 0 -553796.03066063148 -838108.08265323937 0 -838108.08265323937 1471986.0777144693 0 0 0 0 20690566.31554091 -12315736.92326355 0 -12315736.92326355 33573098.163684845 0 0 0 0 -239244.21118170355 -519709.65774515271 0 -519709.65774515271 1537767.515318498 0 0 0 0 19009707.983097464 6241651.3543624878 0 6241651.3543624878 10812725.876144409 0 0 0 0 237914369.51870674 119325651.86692047 0 119325651.86692047 30221664.935150146 0 0 0 0 34249.866941556706 272563.19651858509 0 272563.19651858509 1731669.0403516591 0 0 0 0 9855147.0362749249 -54613961.176475525 0 -54613961.176475525 61793648.231948853 0 0 0 0 54470589.843103968 -36279210.742370605 0 -36279210.742370605 18453139.757766724 0 0 0 0 8731344.1478903517 -15795796.007261276 0 -15795796.007261276 11266578.756942749 0 0 0 0 -8523930.80180455 -334416.79490375519 0 -334416.79490375519 9575832.3610839844 0 0 0 0 5371961.3396974802 -8740103.9046401978 0 -8740103.9046401978 3008732.9537506104 0 0 0 0 197930.53695377155 62554.802233103663 0 62554.802233103663 5202650.141236335 0 0 0 0 -4240430.1328529865 -1873259.2639484406 0 -1873259.2639484406 17572151.24041748 0 0 0 0 795262.96535888314 -10087067.478233337 0 -10087067.478233337 18581102.538711548 0 0 0 0 -3097197.301930517 -1121702.7897567749 0 -1121702.7897567749 9437837.9502716064 0 0 0 0 -8542536.8171344995 -691663.2336807251 0 -691663.2336807251 12229830.914657593 0 0 0 0 -2414440.1679876223 -1365986.877494812 0 -1365986.877494812 5212318.6074829102 0 0 0 0 80834082.722469091 112755388.479599 0 112755388.479599 -752891.23573303223 0 0 0 0 -30555316.271463469 27766272.567385674 0 27766272.567385674 56922378.997940063 0 0 0 0 -21329489.683277607 8715200.790145874 0 8715200.790145874 62082500.215995789 0 0 0 0 -144519.29736036941 455466.47840525955 0 455466.47840525955 287191.75209078193 0 0 0 0 43635748.04956387 13278477.993896484 0 13278477.993896484 -3823377.2845001221 0 0 0 0 37089319.902839303 80766171.595001221 0 80766171.595001221 78123651.478256226 0 0 0 0 56095285.464794874 48007170.673080444 0 48007170.673080444 -51430591.576126099 0 0 0 0 81302273.256871939 89962556.533187866 0 89962556.533187866 -18257280.824630737 0 0 0 0 3934257.7341308594 18704767.528137207 0 18704767.528137207 19398745.467437744 0 0 0 0 1886865.5269745979 5271533.060528256 0 5271533.060528256 4271768.1470153034 0 0 0 0 29099761.880883276 23706296.542385101 0 23706296.542385101 1294207.3588867188 0 0 0 0 2722038.8462020159 11026163.904129028 0 11026163.904129028 19246560.877593994 0 0 0 0 8889660.499550622 8616503.859997496 0 8616503.859997496 14669049.290577278 0 0 0 0 12204407.772925138 10359569.070518494 0 10359569.070518494 16547645.278541565 0 0 0 0 1071077.579166349 1802585.0261129215 0 1802585.0261129215 5338204.6500653923 0 0 0 0 -1235612.608057119 -235879.04775196686 0 -235879.04775196686 6418679.47024858 0 0 0 0 12874650.250944138 18791325.52583313 0 18791325.52583313 17267394.997924805 0 0 0 0 -3400513.3083136678 1236379.2558021545 0 1236379.2558021545 8979522.7511177063 0 0 0 0 -4719013.4840468653 5634.9419822692871 0 5634.9419822692871 6561921.9467163086 0 0 0 0 -2610597.7090644538 -77177.302953720093 0 -77177.302953720093 6239868.6588897705 0 0 0 0 -4115480.0867704004 1934364.3882141113 0 1934364.3882141113 8865195.3422241211 0 0 0 0 -6813792.1119201779 -770920.39080810547 0 -770920.39080810547 10351601.592376709 0 0 0 0 -5054590.0079628229 329095.12371826172 0 329095.12371826172 7540006.7523803711 0 0 0 0 -9127665.5689984262 -3713468.1756210327 0 -3713468.1756210327 6897093.1338806152 0 0 0 0 -735182.33443030494 1135799.7057487443 0 1135799.7057487443 1669407.3108030856 0 0 0 0 -3670564.4577647001 -5507311.6513214111 0 -5507311.6513214111 18223095.918869019 0 0 0 0 -4225694.6314234734 945194.81884002686 0 945194.81884002686 12178625.300567627 0 0 0 0 -319741.5005633533 -1211323.0236358643 0 -1211323.0236358643 10971404.283115387 0 0 0 0 -3094737.7770145684 1286913.3325042725 0 1286913.3325042725 7173548.2617492676 0 0 0 0 -6336987.0968820117 -367197.63672828674 0 -367197.63672828674 15619150.352470398 0 0 0 0 -6779111.6432391144 2451109.7482795715 0 2451109.7482795715 8015086.2304649353 0 0 0 0 -9206189.0508900154 -6873110.6552400589 0 -6873110.6552400589 11982885.219772339 0 0 0 0 -9160133.2673039082 3877447.7430515289 0 3877447.7430515289 42537002.352485657 0 0 0 0 -9047203.8366849124 -876819.9302520752 0 -876819.9302520752 23198784.40983963 0 0 0 0 -7197863.620545648 -14317089.949531555 0 -14317089.949531555 48752153.610542297 0 0 0 0 -43604613.578721076 -19912869.744232178 0 -19912869.744232178 48136784.200588226 0 0 0 0 -17694477.347801417 8179995.0648231506 0 8179995.0648231506 78116782.566398621 0 0 0 0 1429997.7111966647 28444073.328166962 0 28444073.328166962 64089676.980636597 0 0 0 0 413021.58363176096 -847635.01463672519 0 -847635.01463672519 273675.50111127645 0 0 0 0 -4625870.8599574957 17385210.651340485 0 17385210.651340485 45153622.208770752 0 0 0 0 -4743864.1244840529 13021023.324274063 0 13021023.324274063 54176989.702735901 0 0 0 0 -10524578.38906242 4445395.7312774658 0 4445395.7312774658 42439894.858695984 0 0 0 0 -851459.20386638865 3260850.9318008423 0 3260850.9318008423 42305423.680171013 0 0 0 0 -2488248.272761371 2768259.3138885498 0 2768259.3138885498 48621376.918815613 0 0 0 0 -11337.109622595834 8458192.7106200233 0 8458192.7106200233 54616610.76890564 0 0 0 0 17567.713531479229 6929622.6233863831 0 6929622.6233863831 42024027.191940308 0 0 0 0 -6405.4553720013282 -4412.5229734927416 0 -4412.5229734927416 64934.420223653316 0 0 0 0 -3093514.4744884176 4968256.2121810913 0 4968256.2121810913 40790417.311656952 0 0 0 0 -3865669.9214520296 1850082.4579143524 0 1850082.4579143524 14693337.489242554 0 0 0 0 -4063163.0816931007 9069188.5175857544 0 9069188.5175857544 40065090.960069656 0 0 0 0 4141.5542488169558 -10578.309446454048 0 -10578.309446454048 38397.100326597691 0 0 0 0 2557281.6872063885 9584797.6396865845 0 9584797.6396865845 13004563.584280014 0 0 0 0 -594.18296743920746 439949.53100204468 0 439949.53100204468 5902337.0474395752 0 0 0 0 -951233.521293981 702450.30738162994 0 702450.30738162994 6493354.8218841553 0 0 0 0 -16382990.261238992 10614102.716926575 0 10614102.716926575 119064098.23899078 0 0 0 0 7900211.2091521323 40441565.209922791 0 40441565.209922791 9308456.4096221924 0 0 0 0 -17729592.968569577 16539351.270267487 0 16539351.270267487 204407286.69665527 0 0 0 0 -5381244.7951249778 12815146.797859192 0 12815146.797859192 117655531.52157974 0 0 0 0 51607877.496076465 -12705127.071533203 0 -12705127.071533203 -63859508.428123474 0 0 0 0 33659369.989224911 107192367.46463013 0 107192367.46463013 351914893.99642944 0 0 0 0 24743742.088631749 21112931.049041748 0 21112931.049041748 121093070.40811157 0 0 0 0 113754173.61312914 -6056442.8577880859 0 -6056442.8577880859 201081106.12501526 0 0 0 0 19178199.383736014 1634330.3697509766 0 1634330.3697509766 204699672.07946014 0 0 0 0 153367161.58075547 80422129.259353638 0 80422129.259353638 172750592.21313477 0 0 0 0 75128786.213320851 84498620.294616699 0 84498620.294616699 177147166.4389801 0 0 0 0 13469578.639894158 3282497.915561676 0 3282497.915561676 118148320.80319214 0 0 0 0 9281209.702613771 71358637.38785553 0 71358637.38785553 78495244.859680176 0 0 0 0 2372425.4876825809 -9072352.1494293213 0 -9072352.1494293213 111663246.56413651 0 0 0 0 -1617127.1661203639 1000436.3799586594 0 1000436.3799586594 2936821.497485131 0 0 0 0 64884289.303439021 -148572929.74031067 0 -148572929.74031067 227604889.64254379 0 0 0 0 -47581190.309972942 21481686.265888214 0 21481686.265888214 2933180.3720970154 0 0 0 0 -19224631.86209549 126473913.26870346 0 126473913.26870346 -92967240.232154846 0 0 0 0 5548453.5841347426 -5055890.2675437927 0 -5055890.2675437927 -58170523.233001709 0 0 0 0 -5186.4296264296863 41824510.192041449 0 41824510.192041449 14497105.316452026 0 0 0 0 84572160.715234041 -228687393.03411102 0 -228687393.03411102 459699241.52809089 0 0 0 0 -25828.131769007057 44902558.27469556 0 44902558.27469556 -89484743.448883057 0 0 0 0 -440778.60646462074 259243.20862494409 0 259243.20862494409 1373190.1779888868 0 0 0 0 693925.96327984624 -69681735.757828131 0 -69681735.757828131 457412738.71496582 0 0 0 0 63890989.631289363 -106792668.28873825 0 -106792668.28873825 404625421.92333603 0 0 0 0 285343.35506708443 -486754.06953595579 0 -486754.06953595579 561568.56590729952 0 0 0 0 -45229132.750923045 -10537300.834438324 0 -10537300.834438324 325522436.06755829 0 0 0 0 35160032.299007118 -108139427.76624298 0 -108139427.76624298 235218414.83157253 0 0 0 0 123910278.98674768 -155695461.16417027 0 -155695461.16417027 259706359.98342896 0 0 0 0 29369810.791025396 -65958895.452769756 0 -65958895.452769756 181871115.15875244 0 0 0 0 24195337.539384604 -22760455.699092865 0 -22760455.699092865 117684237.0940609 0 0 0 0 -4804117.1386481151 -899136.90084075928 0 -899136.90084075928 82729680.040328979 0 0 0 0 -15650699.164505608 -22459397.36151886 0 -22459397.36151886 177033223.20781708 0 0 0 0 17979995.522242576 -77673749.913238525 0 -77673749.913238525 169840249.75376987 0 0 0 0 421166.12411350012 -56047016.245960236 0 -56047016.245960236 157993144.97390747 0 0 0 0 -5506160.7805462778 -62947510.534908295 0 -62947510.534908295 181568088.37605286 0 0 0 0 23397024.721489146 -81493584.88129425 0 -81493584.88129425 170114171.70691299 0 0 0 0 33904573.553325638 -73503455.229980469 0 -73503455.229980469 149216028.99632263 0 0 0 0 8251752.1896818876 -63759201.545578003 0 -63759201.545578003 150089993.57290649 0 0 0 0 78783855.477115989 -113119306.60206604 0 -113119306.60206604 178667119.48421717 0 0 0 0 -92211313.187109947 -88785398.76260376 0 -88785398.76260376 24555077.389787674 0 0 0 0 849337.37357877125 -174394.55832487345 0 -174394.55832487345 727832.23709629476 0 0 0 0 -24613253.890317559 155618540.88050842 0 155618540.88050842 327782617.94070053 0 0 0 0 -43494779.182988644 88371198.644720078 0 88371198.644720078 60838317.272720337 0 0 0 0 -144282380.96893632 -46736491.476894379 0 -46736491.476894379 207614816.77269745 0 0 0 0 -80404466.230405688 95908318.879489899 0 95908318.879489899 324847898.77836609 0 0 0 0 -3677167.1785627562 767413.58670860529 0 767413.58670860529 3650334.8285690844 0 0 0 0 29318107.511500537 -78248436.193332672 0 -78248436.193332672 149842688.88025475 0 0 0 0 30014390.007799022 -77442236.449853897 0 -77442236.449853897 137279093.85540771 0 0 0 0 10684983.205730528 -57578607.169372559 0 -57578607.169372559 143687785.39434814 0 0 0 0 28072915.531338215 -56150124.064994812 0 -56150124.064994812 81990320.817939639 0 0 0 0 2846924.6796258688 -58713965.240730286 0 -58713965.240730286 159908195.59883118 0 0 0 0 14511947.359644115 -41027825.790222168 0 -41027825.790222168 102498651.78347778 0 0 0 0 43080476.148081779 -80516381.712547302 0 -80516381.712547302 145430148.25773621 0 0 0 0 17359053.721404821 -63698046.158237457 0 -63698046.158237457 149109084.69474792 0 0 0 0 66498810.574473858 -39575989.126159668 0 -39575989.126159668 154959596.3910675 0 0 0 0 51748563.26855278 -48761813.210617065 0 -48761813.210617065 152984266.28637695 0 0 0 0 4026901.9737263918 -56435361.989021301 0 -56435361.989021301 185193422.29275513 0 0 0 0 20738191.007991299 -60476456.923099518 0 -60476456.923099518 140946707.14576721 0 0 0 0 7119578.7675303221 -62072491.592605591 0 -62072491.592605591 167436565.94536591 0 0 0 0 -2156047.5240519643 -59929713.616149902 0 -59929713.616149902 168954839.62149048 0 0 0 0 -1370802.3404955864 -59934034.78944397 0 -59934034.78944397 163326332.74266052 0 0 0 0 4455924.8343451023 -57175640.458641052 0 -57175640.458641052 163803980.47512817 0 0 0 0 13476062.678202391 -57554901.456314087 0 -57554901.456314087 134212772.56872559 0 0 0 0 14186716.332880616 -58004552.696891785 0 -58004552.696891785 134039979.54768372 0 0 0 0 1666546.3307749629 -62657325.163543701 0 -62657325.163543701 146622658.85064697 0 0 0 0 12089739.827887833 -31471987.507385254 0 -31471987.507385254 76265745.102355957 0 0 0 0 1127015.3123813868 -11784932.214225769 0 -11784932.214225769 56592825.305145264 0 0 0 0 -4929163.8512455225 -31553227.059074402 0 -31553227.059074402 150215941.06057358 0 0 0 0 25967004.43332541 -38258640.807090759 0 -38258640.807090759 66601232.038017273 0 0 0 0 13984604.370703936 -20528443.251930237 0 -20528443.251930237 56788695.080566406 0 0 0 0 -20893590.837352991 6248041.2614517212 0 6248041.2614517212 42506465.36618042 0 0 0 0 1251531.6943573277 4069406.3984612264 0 4069406.3984612264 8948173.258990258 0 0 0 0 -7386310.9165740609 12897824.89462471 0 12897824.89462471 38817143.907165527 0 0 0 0 -5167401.3027431965 16215949.447566986 0 16215949.447566986 23161681.887634277 0 0 0 0 28315618.217003822 -16551116.018569946 0 -16551116.018569946 33020218.087169647 0 0 0 0 39268300.805142403 -62709144.325698853 0 -62709144.325698853 67162240.170864105 0 0 0 0 81996577.821862698 -27291498.461380005 0 -27291498.461380005 -21142671.548599243 0 0 0 0 112410192.02008486 -92219448.079803467 0 -92219448.079803467 51728487.540374756 0 0 0 0 1018230.0326640011 562561.68550773337 0 562561.68550773337 723666.30293884873 0 0 0 0 -26056528.533435136 53877607.066616058 0 53877607.066616058 100489207.40182495 0 0 0 0 35085958.097966552 -53471011.769622803 0 -53471011.769622803 75216512.612640381 0 0 0 0 68497768.98439312 -120611898.38777161 0 -120611898.38777161 128781757.16888428 0 0 0 0 25918664.472867727 -49226935.101997375 0 -49226935.101997375 237711355.73080444 0 0 0 0 19661140.717813492 -70992619.842838287 0 -70992619.842838287 163103157.4375 0 0 0 0 56323691.364971831 -80127543.431377411 0 -80127543.431377411 143282426.18656921 0 0 0 0 18598859.751292408 -31316277.974983215 0 -31316277.974983215 48950002.592636108 0 0 0 0 -11360752.996739864 -33306768.369415283 0 -33306768.369415283 176170983.16252136 0 0 0 0 42838732.001423001 3471972.2375259399 0 3471972.2375259399 6419917.4475097656 0 0 0 0 2601576.4143356672 7936438.8426153958 0 7936438.8426153958 8566379.062489152 0 0 0 0 2590449.1249932251 3340272.8125776201 0 3340272.8125776201 2413884.1225351691 0 0 0 0 1689304.3700173497 4267208.8780837059 0 4267208.8780837059 3841510.4819259644 0 0 0 0 4560497.1613473892 11196995.012012482 0 11196995.012012482 25489266.02677536 0 0 0 0 2023017.2061969638 14054575.502880096 0 14054575.502880096 24898641.721755981 0 0 0 0 2381478.2156990999 11492712.680768147 0 11492712.680768147 -252272.54840248451 0 0 0 0 3180270.4556713104 11380855.885967255 0 11380855.885967255 30365865.17272377 0 0 0 0 751170.80479206517 889836.55899809301 0 889836.55899809301 -2511055.9626608044 0 0 0 0 18355394.60433045 12748193.27759552 0 12748193.27759552 66626767.41027832 0 0 0 0 -3401344.4691855311 -32544662.137565613 0 -32544662.137565613 104369539.06057739 0 0 0 0 63442839.140506148 -64016392.324752808 0 -64016392.324752808 116918058.41873932 0 0 0 0 48086324.341686219 -21737312.102645874 0 -21737312.102645874 82467728.379684448 0 0 0 0 33100812.617615819 -36222640.954048157 0 -36222640.954048157 96102535.770893097 0 0 0 0 47327030.445410132 -77846311.411071777 0 -77846311.411071777 133755259.6390419 0 0 0 0 23018847.406777978 -66057167.60899353 0 -66057167.60899353 141189456.39711761 0 0 0 0 100924295.07276332 -123650684.33669281 0 -123650684.33669281 152130490.32774544 0 0 0 0 37476925.610559225 -68783611.202220917 0 -68783611.202220917 133887619.95910645 0 0 0 0 79054447.772779703 -63833865.326129913 0 -63833865.326129913 126800677.84364319 0 0 0 0 75680768.823715568 -75469338.103630066 0 -75469338.103630066 102443574.3651886 0 0 0 0 86389433.636294901 -142890785.97415924 0 -142890785.97415924 164666627.06363678 0 0 0 0 77166729.322306156 -126753548.01876831 0 -126753548.01876831 136432306.77647114 0 0 0 0 63096184.511550993 -75731989.866291046 0 -75731989.866291046 -122363255.02232361 0 0 0 0 4487070.7817106843 -68072598.00787735 0 -68072598.00787735 304786549.97924042 0 0 0 0 519240.17227361281 -101931.60780280828 0 -101931.60780280828 86452.632396027446 0 0 0 0 -45601332.96172744 -4150881.6503143311 0 -4150881.6503143311 62391660.495666504 0 0 0 0 75597478.995476961 -140534490.44227219 0 -140534490.44227219 58798725.817077637 0 0 0 0 -7148206.9267398547 -15953911.186541855 0 -15953911.186541855 141380340.86590576 0 0 0 0 -6477041.1758647729 -45473408.493474841 0 -45473408.493474841 92319417.537368774 0 0 0 0 42807194.362410069 -54578920.29214859 0 -54578920.29214859 169942871.90907288 0 0 0 0 48377600.532671988 -25947050.81191206 0 -25947050.81191206 232753246.89445496 0 0 0 0 -40506740.666922629 40321243.523283005 0 40321243.523283005 479604310.86325836 0 0 0 0 45533495.114180624 145453471.45966339 0 145453471.45966339 415346364.79895401 0 0 0 0 -27456087.71735394 40661280.096867561 0 40661280.096867561 168407727.75400543 0 0 0 0 -21868571.78306824 69818918.701290131 0 69818918.701290131 320404256.59426117 0 0 0 0 -19200352.564776957 23041039.102416992 0 23041039.102416992 130037764.67459106 0 0 0 0 -19855975.259792194 107185661.2617321 0 107185661.2617321 487478626.68067551 0 0 0 0 -83074.304905657889 612644.5935292989 0 612644.5935292989 577915.28188061714 0 0 0 0 -19519.893420476699 1061452.5205949992 0 1061452.5205949992 581591.00559859723 0 0 0 0 3084978.0013320893 -12486961.391607285 0 -12486961.391607285 151129306.63890076 0 0 0 0 -11143281.138075508 -2418786.3935089111 0 -2418786.3935089111 188015067.72911072 0 0 0 0 -15222811.177131534 5136399.3779449463 0 5136399.3779449463 148743857.79135799 0 0 0 0 8994601.2173559889 -5050228.7678127289 0 -5050228.7678127289 99163851.683776855 0 0 0 0 3278501.8263777494 8014739.2184753418 0 8014739.2184753418 70465812.515228271 0 0 0 0 -55174638.557716846 -21275891.248558044 0 -21275891.248558044 186354753.39118004 0 0 0 0 -32408811.633502185 -20663650.698043823 0 -20663650.698043823 120009853.79824829 0 0 0 0 -27003277.605063856 -6716654.3200721741 0 -6716654.3200721741 92026455.050613403 0 0 0 0 303153.16305088694 -1381085.8202195764 0 -1381085.8202195764 1156373.0854434296 0 0 0 0 -5966604.868408978 -17826045.257705688 0 -17826045.257705688 -19153825.86088562 0 0 0 0 15445824.637693167 -43294512.913070679 0 -43294512.913070679 87298613.175994873 0 0 0 0 840939.76304026938 -823186.34640468657 0 -823186.34640468657 741198.3581315428 0 0 0 0 -43272614.642840981 -59597671.170555115 0 -59597671.170555115 53857334.608016968 0 0 0 0 -4051892.1018623412 -25848552.347681046 0 -25848552.347681046 116608903.1787262 0 0 0 0 5901233.5318246372 -2443113.9464826435 0 -2443113.9464826435 774995.00459173322 0 0 0 0 -5086720.4047322758 -1073535.4001950473 0 -1073535.4001950473 3233095.6426666677 0 0 0 0 12470715.496688843 -18489621.730117798 0 -18489621.730117798 81952617.730776206 0 0 0 0 268951.0814332366 -37537520.817352295 0 -37537520.817352295 109395071.36813354 0 0 0 0 -11599058.629864573 -23299094.458854675 0 -23299094.458854675 -3019951.8910713196 0 0 0 0 1486392.3607120514 -32391446.147079468 0 -32391446.147079468 -54902198.344341278 0 0 0 0 -50888861.882652879 -85917215.346343994 0 -85917215.346343994 -105125735.85365295 0 0 0 0 -80705510.619013727 -93400598.352050781 0 -93400598.352050781 -82157310.835868835 0 0 0 0 -94905947.180994332 -64800012.485359192 0 -64800012.485359192 -80710610.983428955 0 0 0 0 2072377.4579595854 -471094.92786690593 0 -471094.92786690593 169271.74640016258 0 0 0 0 -90530367.89399907 -97567497.559577942 0 -97567497.559577942 -108451045.51342773 0 0 0 0 -4511659.9582598358 3981518.6926727295 0 3981518.6926727295 206667904.62509918 0 0 0 0 17128887.217726782 798808.78310012817 0 798808.78310012817 101114533.14969635 0 0 0 0 784315.75434342027 13549737.017116547 0 13549737.017116547 155306816.2302475 0 0 0 0 32180801.589230955 -6775756.50440979 0 -6775756.50440979 151423349.19888306 0 0 0 0 -1783936.8450673968 112059992.25847626 0 112059992.25847626 209960464.46040726 0 0 0 0 15278535.146319985 117866230.42828369 0 117866230.42828369 -87094479.495063782 0 0 0 0 53234994.015265837 94796762.191364288 0 94796762.191364288 -76645375.562965393 0 0 0 0 -22881790.302190118 45960047.452667236 0 45960047.452667236 132161538.08120537 0 0 0 0 63425.616270521423 440700.30379937589 0 440700.30379937589 203139.82989633083 0 0 0 0 16974296.982715733 -18390744.329652786 0 -18390744.329652786 173604510.60652924 0 0 0 0 -113126043.65617579 8911230.3088607788 0 8911230.3088607788 238875042.06590271 0 0 0 0 -225971376.21565247 -61296656.274475098 0 -61296656.274475098 92813413.802711487 0 0 0 0 -345573.42936289741 -523909.61971955746 0 -523909.61971955746 8100308.7635001242 0 0 0 0 -205511422.90961725 104120147.60781097 0 104120147.60781097 169226991.65190125 0 0 0 0 -171105330.45093614 14128603.410087585 0 14128603.410087585 -74022544.286819458 0 0 0 0 -35348401.861707598 90055387.256225586 0 90055387.256225586 -38709316.735244751 0 0 0 0 -39438752.002995461 56353668.314826965 0 56353668.314826965 58939033.276777267 0 0 0 0 -116184492.67990208 27286194.741874695 0 27286194.741874695 56564885.808509827 0 0 0 0 -409288.0119678778 237404.69125577807 0 237404.69125577807 6803716.8652119637 0 0 0 0 8381.8881746740572 7521503.5130195618 0 7521503.5130195618 -129859.82213592529 0 0 0 0 -7423.7079940366893 3030511.767490387 0 3030511.767490387 2725745.2731208801 0 0 0 0 -11749036.584581412 3246227.1509876251 0 3246227.1509876251 6007374.5080718994 0 0 0 0 -8690093.507145429 7339980.8978652954 0 7339980.8978652954 834429.7946395874 0 0 0 0 -5715271.963008523 -1386935.2939186096 0 -1386935.2939186096 8191159.9010848999 0 0 0 0 -64279279.640529752 -35967765.102104187 0 -35967765.102104187 185231812.91115952 0 0 0 0 70338087.332029879 79238916.382835388 0 79238916.382835388 -299611965.98492432 0 0 0 0 -129181041.27827719 -94567888.807495117 0 -94567888.807495117 -75809701.534759521 0 0 0 0 -149200426.2967034 -143994194.21363831 0 -143994194.21363831 -14372917.166320801 0 0 0 0 -30113218.783779263 -294288208.95846558 0 -294288208.95846558 147485887.38790894 0 0 0 0 -122928731.85306498 -63777245.001533508 0 -63777245.001533508 -76638894.968795776 0 0 0 0 -163192647.27815038 -122336459.65665436 0 -122336459.65665436 -27663116.936126709 0 0 0 0 167332.53387904022 -1234142.0030282661 0 -1234142.0030282661 5927135.9135798812 0 0 0 0 -122956845.00517905 -81567612.165237427 0 -81567612.165237427 -81885845.087265015 0 0 0 0 -154505350.59487617 -75561993.7396698 0 -75561993.7396698 -67502708.31552124 0 0 0 0 -116028289.26977059 -94278126.937988281 0 -94278126.937988281 -58885705.230957031 0 0 0 0 209778.39103435594 -355619.79158613086 0 -355619.79158613086 46761.005262374878 0 0 0 0 29122588.282846153 55362517.994812012 0 55362517.994812012 178892101.56386566 0 0 0 0 48395892.985398412 153779968.91540527 0 153779968.91540527 393239739.21514893 0 0 0 0 20019.85305167186 52763531.147518158 0 52763531.147518158 164607726.30308533 0 0 0 0 277053.87991322554 281685.87370403111 0 281685.87370403111 408942.54210081697 0 0 0 0 -2007958.7159725458 1078600.2754955292 0 1078600.2754955292 9823106.0340423584 0 0 0 0 -6167715.7078727493 51758690.891544342 0 51758690.891544342 180210181.26818466 0 0 0 0 94142402.752453566 11106117.717763901 0 11106117.717763901 86866765.758781433 0 0 0 0 67162466.526362062 12606263.554550171 0 12606263.554550171 28923331.589491844 0 0 0 0 141450347.12393036 35559066.100521088 0 35559066.100521088 31538001.94278717 0 0 0 0 117944936.43192494 -983031.60294342041 0 -983031.60294342041 14333056.128324509 0 0 0 0 55736387.522650599 -21284344.726421356 0 -21284344.726421356 26763109.018218994 0 0 0 0 158525838.35067171 -429023.98641586304 0 -429023.98641586304 87501538.04940033 0 0 0 0 145581773.06866044 70121074.352958679 0 70121074.352958679 158799008.24240112 0 0 0 0 160261700.48938745 54857212.079492569 0 54857212.079492569 60615533.25239563 0 0 0 0 138760625.24887431 16751535.846122742 0 16751535.846122742 89595329.358451843 0 0 0 0 117574773.36087275 82921807.193740845 0 82921807.193740845 124339479.49554062 0 0 0 0 86303120.003520966 60081957.738574982 0 60081957.738574982 120792397.57894897 0 0 0 0 127682644.71323788 43807356.968917847 0 43807356.968917847 153866697.06143951 0 0 0 0 90042773.271315515 86007232.923023224 0 86007232.923023224 197432124.67468262 0 0 0 0 120185411.35556674 62083085.35622406 0 62083085.35622406 33377939.178207397 0 0 0 0 57074233.695453644 72599711.938087463 0 72599711.938087463 120643087.04496765 0 0 0 0 87379027.433318496 83784858.039108276 0 83784858.039108276 35647493.247450829 0 0 0 0 104025638.76994038 103258703.76413727 0 103258703.76413727 -8529582.8948745728 0 0 0 0 102839309.54150212 35992344.099693298 0 35992344.099693298 84702146.785758972 0 0 0 0 116618955.8551296 79188354.38470459 0 79188354.38470459 49854310.22183609 0 0 0 0 113129375.4924795 67295306.867359161 0 67295306.867359161 36656953.398239136 0 0 0 0 104371168.47105271 42247771.048528671 0 42247771.048528671 15213686.588394165 0 0 0 0 70847750.202386618 85722293.125833511 0 85722293.125833511 28629282.786636353 0 0 0 0 54986205.876391411 86446790.803440094 0 86446790.803440094 4492434.8312835693 0 0 0 0 16822711.662693918 36778452.333814621 0 36778452.333814621 15066260.980209351 0 0 0 0 89890876.825372279 135007730.06172621 0 135007730.06172621 21939914.024505615 0 0 0 0 69170259.665377855 74539595.724227905 0 74539595.724227905 14450314.67124939 0 0 0 0 65017895.481715322 99379676.544261932 0 99379676.544261932 59868196.785427094 0 0 0 0 15527421.987010956 111763410.04637146 0 111763410.04637146 171537936.07208252 0 0 0 0 165918428.36973614 -5115159.0064926147 0 -5115159.0064926147 -97812221.302947998 0 0 0 0 -104313624.52635467 18093619.533325195 0 18093619.533325195 138080145.74900055 0 0 0 0 -239763.72967887484 118453.16254966706 0 118453.16254966706 779136.0651614368 0 0 0 0 -76244765.239354134 75628249.305370331 0 75628249.305370331 15358870.296508789 0 0 0 0 -39760297.197784424 83765143.56401825 0 83765143.56401825 5541736.8520736694 0 0 0 0 22865462.852436066 33615591.18662262 0 33615591.18662262 -11582990.691177368 0 0 0 0 -65143798.272071198 15641639.279430389 0 15641639.279430389 -9279561.2465515137 0 0 0 0 38062534.398288488 4688245.6611175537 0 4688245.6611175537 -23993347.448612213 0 0 0 0 31620274.995368719 -5966769.4296646118 0 -5966769.4296646118 -6160447.0422668457 0 0 0 0 54853794.034424424 -2953906.1601486206 0 -2953906.1601486206 -8526521.1728668213 0 0 0 0 5877925.3991727233 15296264.175045013 0 15296264.175045013 -4541673.7698059082 0 0 0 0 57674011.614229679 17965143.504554749 0 17965143.504554749 -4697929.2250270844 0 0 0 0 88185227.401769042 11700119.416370392 0 11700119.416370392 8671180.7398605347 0 0 0 0 41154864.370502114 -4968082.5712947845 0 -4968082.5712947845 2890814.6529388428 0 0 0 0 75956259.210505843 -29164710.729511261 0 -29164710.729511261 3592886.1531524658 0 0 0 0 49420924.888415098 -21861398.293754578 0 -21861398.293754578 2722083.7872085571 0 0 0 0 48641032.520724058 -24215832.440864563 0 -24215832.440864563 155977.72666931152 0 0 0 0 38250155.033484876 -17268581.100406647 0 -17268581.100406647 -4482925.2514038086 0 0 0 0 36706329.029585302 -22685740.966397285 0 -22685740.966397285 12866433.649856567 0 0 0 0 29822643.179323673 -31690066.910682678 0 -31690066.910682678 5599906.1323776245 0 0 0 0 29721318.982429266 -32155039.422122955 0 -32155039.422122955 3578945.1518554688 0 0 0 0 15643666.314208508 -26533726.375465393 0 -26533726.375465393 14023689.617034912 0 0 0 0 30574585.393908501 -34753945.04725647 0 -34753945.04725647 17926380.724212646 0 0 0 0 28242573.104644358 -18224026.597072601 0 -18224026.597072601 31810467.646102905 0 0 0 0 52535831.474281311 -23462802.056957245 0 -23462802.056957245 22858887.578323364 0 0 0 0 14040672.752597809 -2347687.4627380371 0 -2347687.4627380371 17486038.400756836 0 0 0 0 38074209.107739806 -15140148.479148865 0 -15140148.479148865 6774743.3604431152 0 0 0 0 496082.73113586631 3540026.1276714159 0 3540026.1276714159 726315.13586112857 0 0 0 0 11723063.492174596 33432202.92122364 0 33432202.92122364 33557644.053878784 0 0 0 0 18242.047995984554 230511.42836770415 0 230511.42836770415 1829736.572605921 0 0 0 0 14104441.92280674 -6796180.5030670166 0 -6796180.5030670166 5044961.4102172852 0 0 0 0 10883891.184890747 -11784610.211700439 0 -11784610.211700439 -2381991.4912109375 0 0 0 0 -792253.94437519787 -372720.66680954304 0 -372720.66680954304 23198148.666456163 0 0 0 0 -39612804.807139754 -18606282.816070557 0 -18606282.816070557 21879601.195602417 0 0 0 0 -7324904.1721237898 -45778346.379098892 0 -45778346.379098892 10052482.109291077 0 0 0 0 -46341872.162445068 25752518.99565506 0 25752518.99565506 40241266.394180298 0 0 0 0 57672134.50616999 -32773542.677886963 0 -32773542.677886963 1085596.1719818115 0 0 0 0 49350074.318251207 -32825530.635163963 0 -32825530.635163963 -162864.70977783203 0 0 0 0 25599581.114439964 -38947882.957771301 0 -38947882.957771301 7846793.3369026184 0 0 0 0 12844178.584432602 -23108231.492881775 0 -23108231.492881775 5757621.6425170898 0 0 0 0 -3978842.9667937756 18478791.324562073 0 18478791.324562073 32275469.969152451 0 0 0 0 15254294.635719776 15250670.513282776 0 15250670.513282776 10638272.681686401 0 0 0 0 -71108.857882991433 11213699.423944309 0 11213699.423944309 -285924.2273969315 0 0 0 0 -11528150.674507856 26952802.817810059 0 26952802.817810059 -72844.070715904236 0 0 0 0 -3816047.5366340987 11157322.636328757 0 11157322.636328757 31616371.954803467 0 0 0 0 28610150.01763773 -2004152.8282356262 0 -2004152.8282356262 -22699625.528697014 0 0 0 0 13964435.592761397 53170854.057022095 0 53170854.057022095 26738702.985679626 0 0 0 0 55982987.223771572 -16759746.678344727 0 -16759746.678344727 82736524.499576569 0 0 0 0 43707987.551230311 11510947.628875732 0 11510947.628875732 21678282.286590576 0 0 0 0 -10504106.593762159 -3895837.1223106384 0 -3895837.1223106384 76082151.306388855 0 0 0 0 -94717634.235731125 -3400723.0582771301 0 -3400723.0582771301 64227625.849090576 0 0 0 0 -15522642.945831716 16391976.800380707 0 16391976.800380707 4361332.4034118652 0 0 0 0 25382981.756915689 13787392.447776794 0 13787392.447776794 -8139177.6863670349 0 0 0 0 49556583.009148717 -54474430.190635681 0 -54474430.190635681 67326052.385932922 0 0 0 0 59808725.671220481 -41530916.795516014 0 -41530916.795516014 83375869.81817627 0 0 0 0 7463777.4315080643 -34003924.864917755 0 -34003924.864917755 32230930.424293518 0 0 0 0 -114053217.59189409 -47784608.005130768 0 -47784608.005130768 53374604.609687805 0 0 0 0 -56373.05791500528 -1417722.4425220378 0 -1417722.4425220378 20566475.518892705 0 0 0 0 7561358.5820822716 -18991882.827728271 0 -18991882.827728271 -5742607.1425590515 0 0 0 0 44786279.562453985 -23026681.887744904 0 -23026681.887744904 -28920240.364891052 0 0 0 0 50256611.253821731 41923590.082519531 0 41923590.082519531 100242204.92827797 0 0 0 0 76290094.230793059 -48083390.095901489 0 -48083390.095901489 20879215.489311218 0 0 0 0 -124176.06587931956 -727445.53459171113 0 -727445.53459171113 16187374.01715821 0 0 0 0 -163657047.01341307 -21166818.688781738 0 -21166818.688781738 133124502.3197937 0 0 0 0 178915364.18309617 101814938.95692825 0 101814938.95692825 -60761982.640068054 0 0 0 0 222136306.40229023 392711629.68254852 0 392711629.68254852 434887384.91337585 0 0 0 0 251555.36373766122 -125479.87395738624 0 -125479.87395738624 6675402.0752273202 0 0 0 0 56551999.799817145 173744120.30989456 0 173744120.30989456 444395527.75169373 0 0 0 0 88013249.445344597 178893173.79078674 0 178893173.79078674 245239393.289711 0 0 0 0 110607575.73244321 -117407638.62368774 0 -117407638.62368774 64339634.186789513 0 0 0 0 -76197390.59541896 -28267525.667334795 0 -28267525.667334795 77960547.221534729 0 0 0 0 217490100.5454905 -282379448.47180557 0 -282379448.47180557 311623378.4425354 0 0 0 0 186493146.45650744 -43416271.038650513 0 -43416271.038650513 -61601330.383872986 0 0 0 0 110902982.99979869 -176889398.28170204 0 -176889398.28170204 259403595.75572205 0 0 0 0 52024661.350907326 -76211279.519134521 0 -76211279.519134521 332079219.19335938 0 0 0 0 64959636.766236067 -34382191.577716827 0 -34382191.577716827 343769470.17094994 0 0 0 0 3023148.938251853 -166125090.75738144 0 -166125090.75738144 836840206.44350433 0 0 0 0 186704164.81608868 281546298.1731205 0 281546298.1731205 652721138.70503235 0 0 0 0 392907802.64411521 145729175.365448 0 145729175.365448 417344284.12617838 0 0 0 0 65451775.305973053 114146206.68091965 0 114146206.68091965 464069895.3509717 0 0 0 0 -10045534.932495743 222919108.02588463 0 222919108.02588463 635796676.68062592 0 0 0 0 24841253.78124702 234585813.84616852 0 234585813.84616852 432340850.8491497 0 0 0 0 -61891262.390974641 139595207.87276077 0 139595207.87276077 718349861.97504044 0 0 0 0 428383.41984045506 295173790.40139389 0 295173790.40139389 886485438.59339905 0 0 0 0 164349929.14751333 -46268724.403358459 0 -46268724.403358459 829208256.74265289 0 0 0 0 79933914.52957347 117645312.22703743 0 117645312.22703743 602182666.25183105 0 0 0 0 -6357410.1936795227 135743138.7521705 0 135743138.7521705 579849516.39500427 0 0 0 0 -62927986.44855319 189944906.87624741 0 189944906.87624741 685729629.83018494 0 0 0 0 -37030183.843538553 144744763.22258759 0 144744763.22258759 752809153.34874725 0 0 0 0 3413335.1395342015 305413412.7326088 0 305413412.7326088 632011628.60262299 0 0 0 0 -56002978.322288871 156646718.58847809 0 156646718.58847809 832949675.61216736 0 0 0 0 9425692.3031335175 88368040.494932175 0 88368040.494932175 604682017.91900635 0 0 0 0 101293719.10384905 -74103325.915142059 0 -74103325.915142059 890467842.26570129 0 0 0 0 -50346146.753296137 117856277.28091431 0 117856277.28091431 749585066.20674896 0 0 0 0 59426384.288069606 84434691.436851501 0 84434691.436851501 468190571.17999268 0 0 0 0 62571495.940558136 116048709.103302 0 116048709.103302 410459668.01890564 0 0 0 0 108352940.60565025 -4863904.189453125 0 -4863904.189453125 607295258.34839511 0 0 0 0 148627517.80003244 76728729.458204269 0 76728729.458204269 436586617.59510803 0 0 0 0 194436781.54306954 8485119.8418655396 0 8485119.8418655396 362909441.21429443 0 0 0 0 152065218.05176607 78754028.768203497 0 78754028.768203497 279682432.92390442 0 0 0 0 153481051.24337751 -6613951.6884063482 0 -6613951.6884063482 301068248.19308472 0 0 0 0 109616508.27123094 72491698.75177002 0 72491698.75177002 210024866.70726776 0 0 0 0 105698306.30285078 -7018637.6946411133 0 -7018637.6946411133 143446061.82371521 0 0 0 0 100554294.98880786 113795050.61155319 0 113795050.61155319 359681248.59394836 0 0 0 0 152008953.37174022 74326154.07699585 0 74326154.07699585 279392489.03002119 0 0 0 0 101174305.69245851 94421785.843379974 0 94421785.843379974 290270820.26725769 0 0 0 0 57271461.693176568 92943931.962039948 0 92943931.962039948 290284598.11732483 0 0 0 0 109810964.3922224 84149518.713428497 0 84149518.713428497 278936916.44052124 0 0 0 0 116417836.45551211 70332289.020477295 0 70332289.020477295 200362838.80606079 0 0 0 0 161185566.65546763 83737887.893722534 0 83737887.893722534 181224634.02313995 0 0 0 0 192157882.02437097 22685968.422744751 0 22685968.422744751 183246437.60375977 0 0 0 0 134437532.42031109 64656797.056728363 0 64656797.056728363 261336337.68515015 0 0 0 0 140512623.98176953 90758365.704891205 0 90758365.704891205 373341288.65562439 0 0 0 0 203840282.85618579 53869088.993286133 0 53869088.993286133 262976675.37166214 0 0 0 0 210182721.29669788 74659223.647953033 0 74659223.647953033 373514078.40423584 0 0 0 0 179743177.38149276 80138838.635375977 0 80138838.635375977 361693135.43637085 0 0 0 0 248475031.5710637 22954320.090316772 0 22954320.090316772 408991404.58680725 0 0 0 0 170200519.77535158 3544680.6431236267 0 3544680.6431236267 586557268.3812561 0 0 0 0 209780964.10248339 117606845.34143829 0 117606845.34143829 516316550.69691467 0 0 0 0 179197294.37748164 164758790.66121674 0 164758790.66121674 479543954.22309875 0 0 0 0 86731862.464640498 154248173.37969208 0 154248173.37969208 568666686.07554626 0 0 0 0 138780094.55453286 96231200.21598053 0 96231200.21598053 363498942.11952209 0 0 0 0 70073567.073162794 116756312.71115398 0 116756312.71115398 418562541.05282593 0 0 0 0 68235978.574247301 118697304.05308533 0 118697304.05308533 516635388.09092712 0 0 0 0 191303877.96647936 215356416.52263069 0 215356416.52263069 822873558.15930176 0 0 0 0 165570010.52801198 133646587.35004425 0 133646587.35004425 564208881.74696445 0 0 0 0 29188378.484375596 84844778.434688568 0 84844778.434688568 802704615.75275421 0 0 0 0 305728595.67593867 4828957.5293273926 0 4828957.5293273926 586411184.63142681 0 0 0 0 388500818.88901258 88989593.850448608 0 88989593.850448608 520357094.86956024 0 0 0 0 669429128.87836063 -52281396.763778687 0 -52281396.763778687 709144922.23704529 0 0 0 0 275456083.34036231 -24471.368701934814 0 -24471.368701934814 703246274.01869202 0 0 0 0 160970771.90601435 -337572718.61867142 0 -337572718.61867142 908338321.4745636 0 0 0 0 107178992.27371073 -150222343.38398361 0 -150222343.38398361 1379796583.4290009 0 0 0 0 258274701.49292707 215409964.68469429 0 215409964.68469429 1431133163.8320618 0 0 0 0 -27609705.223700404 473586731.37245941 0 473586731.37245941 897565944.32361603 0 0 0 0 15049570.946660101 9244772.0460205078 0 9244772.0460205078 945848028.68275452 0 0 0 0 166944023.53430864 -12997969.352115631 0 -12997969.352115631 885742033.44137955 0 0 0 0 148963552.46518654 59955007.663208008 0 59955007.663208008 737379617.80147552 0 0 0 0 77154355.288096666 -315395130.43395233 0 -315395130.43395233 933588397.72663879 0 0 0 0 34504193.571475625 -175308687.34395599 0 -175308687.34395599 610609973.57308197 0 0 0 0 -55737587.354247808 -52298758.432121277 0 -52298758.432121277 708313039.44355774 0 0 0 0 25228360.044601321 -196668546.5524559 0 -196668546.5524559 588077018.90028381 0 0 0 0 8898820.0886172056 -33082996.461636543 0 -33082996.461636543 655705633.36480713 0 0 0 0 -96551354.029402971 54815605.060707092 0 54815605.060707092 579808475.01066113 0 0 0 0 -53977550.477651417 -38592214.365169525 0 -38592214.365169525 526233181.23957825 0 0 0 0 -76843592.452329397 20446071.916475296 0 20446071.916475296 468530561.9778595 0 0 0 0 -81588288.873668671 5062352.754737854 0 5062352.754737854 431993238.10674477 0 0 0 0 -122720930.30202448 81469832.666744232 0 81469832.666744232 471973599.44060516 0 0 0 0 -83720429.572712183 -42644656.960868835 0 -42644656.960868835 566915904.00704956 0 0 0 0 -110963109.50795746 43404828.18572998 0 43404828.18572998 573968864.79431152 0 0 0 0 -153478000.99711514 83218445.860305786 0 83218445.860305786 563810700.54389191 0 0 0 0 -124810379.96360564 96326381.153068542 0 96326381.153068542 565298301.52430725 0 0 0 0 -81671217.011833191 73639592.90152359 0 73639592.90152359 539138991.09968567 0 0 0 0 -64641885.619666815 111977158.43299866 0 111977158.43299866 625163480.85865974 0 0 0 0 -22878806.343690634 67649459.096637726 0 67649459.096637726 580534855.34461975 0 0 0 0 28047036.659731906 111124648.78844237 0 111124648.78844237 612887357.41716003 0 0 0 0 -59572562.854412436 60728294.481666565 0 60728294.481666565 746759997.34082794 0 0 0 0 -66160150.680986404 27192514.876316071 0 27192514.876316071 595657108.19975281 0 0 0 0 31231227.993724853 134034818.33572769 0 134034818.33572769 317831288.62469482 0 0 0 0 17257169.176435471 207547280.03017426 0 207547280.03017426 314761441.7738986 0 0 0 0 -156425466.20615983 103659247.36763 0 103659247.36763 544220639.86890411 0 0 0 0 -165790745.42941165 162726660.6718359 0 162726660.6718359 570307516.64129639 0 0 0 0 -152082031.92951083 88637275.955768585 0 88637275.955768585 557771676.58306885 0 0 0 0 -135949989.91653395 252336677.45186615 0 252336677.45186615 754910735.25000763 0 0 0 0 65004575.930674076 322630782.25214386 0 322630782.25214386 500039686.56700134 0 0 0 0 69209666.822450265 218600899.80060613 0 218600899.80060613 197458462.49972534 0 0 0 0 -206177325.53072155 222368853.53014565 0 222368853.53014565 1197601956.3009033 0 0 0 0 -273031765.18340921 18760188.467708588 0 18760188.467708588 672568445.2251358 0 0 0 0 -126093933.79699039 16863699.165260315 0 16863699.165260315 468944940.13191891 0 0 0 0 -158398050.37984848 44821914.972076416 0 44821914.972076416 471724427.48322296 0 0 0 0 -165073199.29463196 47599391.399814606 0 47599391.399814606 518186647.03096008 0 0 0 0 -116151267.27827358 39475955.326271057 0 39475955.326271057 301559200.51589966 0 0 0 0 -112541020.74093318 109237380.8739624 0 109237380.8739624 269766402.06495667 0 0 0 0 -57534649.401730299 72493896.790775299 0 72493896.790775299 186104229.15577698 0 0 0 0 -82229997.160452843 113515660.3234787 0 113515660.3234787 197652090.92685795 0 0 0 0 -42660853.820681691 59589210.354048967 0 59589210.354048967 81328459.782936096 0 0 0 0 -38432926.434531689 -46490278.436260223 0 -46490278.436260223 216460739.31983948 0 0 0 0 -51444000.037939072 106723339.04203033 0 106723339.04203033 441837664.13932037 0 0 0 0 -45637733.256172061 109589405.94053268 0 109589405.94053268 386181862.83263397 0 0 0 0 -10504298.182450056 145147287.68589401 0 145147287.68589401 561314236.44252014 0 0 0 0 -28472328.130592346 97641642.487670898 0 97641642.487670898 436573060.11320877 0 0 0 0 -94030398.846294165 115137451.90475845 0 115137451.90475845 566167135.82128906 0 0 0 0 -103247431.44228315 85443901.464427948 0 85443901.464427948 484781250.41169739 0 0 0 0 -106504328.66212106 87768196.844276428 0 87768196.844276428 441869892.96575928 0 0 0 0 -128874905.93792486 83349112.49281311 0 83349112.49281311 486209900.96400452 0 0 0 0 -84943842.790226281 68184052.639269114 0 68184052.639269114 348663163.74061584 0 0 0 0 -82371523.112092972 108778849.58921814 0 108778849.58921814 313718070.49701691 0 0 0 0 -136466739.19699621 54971945.172149658 0 54971945.172149658 428015785.24411392 0 0 0 0 -118310520.05690289 124034185.62695312 0 124034185.62695312 234176411.24249268 0 0 0 0 -95082520.301688075 66562307.008384705 0 66562307.008384705 267502214.9672699 0 0 0 0 -38410349.969044924 108992937.84122467 0 108992937.84122467 270268608.58703613 0 0 0 0 -19455130.472477704 64439962.269435883 0 64439962.269435883 239279040.12805176 0 0 0 0 18783016.232244849 109424528.52372742 0 109424528.52372742 418823474.60473251 0 0 0 0 17073503.750607729 88033994.206558228 0 88033994.206558228 324501526.59437561 0 0 0 0 56281926.630225122 71762026.549442291 0 71762026.549442291 216109740.0194397 0 0 0 0 -5998054.4665598869 102549645.60001373 0 102549645.60001373 325619049.15083361 0 0 0 0 21299538.66205287 78774207.84324646 0 78774207.84324646 216531483.5394268 0 0 0 0 20931753.010909796 62921366.234939575 0 62921366.234939575 142826212.50852966 0 0 0 0 -43351903.593224764 85512236.225257874 0 85512236.225257874 234517541.8070755 0 0 0 0 -36927280.667950869 87379864.241474152 0 87379864.241474152 172445901.50848389 0 0 0 0 -25783381.923491597 62042579.855648041 0 62042579.855648041 71877974.503067017 0 0 0 0 53821831.133325517 53760518.047546387 0 53760518.047546387 34947516.389755249 0 0 0 0 -33641635.663323879 63639465.418693542 0 63639465.418693542 142889585.96092224 0 0 0 0 88566179.87964274 85932004.533031464 0 85932004.533031464 -53603781.105819702 0 0 0 0 16415623.917090893 54317485.411514282 0 54317485.411514282 37378069.20059967 0 0 0 0 14501762.398381233 41271167.497327805 0 41271167.497327805 -39396347.584869385 0 0 0 0 -129899721.33285189 51094632.627998352 0 51094632.627998352 70728451.047607422 0 0 0 0 69957738.887812138 69513611.992385864 0 69513611.992385864 -137034974.56819153 0 0 0 0 -67994726.938342333 25075039.670730591 0 25075039.670730591 -40754043.628677368 0 0 0 0 -82127299.207516193 -23455946.538030624 0 -23455946.538030624 -139847930.32775879 0 0 0 0 -30988119.546727657 39072169.327468872 0 39072169.327468872 -141857309.5553627 0 0 0 0 -28226719.737432957 9110045.5074157715 0 9110045.5074157715 -174148896.81994629 0 0 0 0 71733425.384837389 96773405.758598328 0 96773405.758598328 -36267265.418609619 0 0 0 0 -234468788.0932214 122610780.11852264 0 122610780.11852264 -73987615.149871826 0 0 0 0 -264035966.83055997 209639786.1347847 0 209639786.1347847 -51344974.791687012 0 0 0 0 -110298251.92816544 202504749.40962219 0 202504749.40962219 -194465758.73162842 0 0 0 0 -160014325.82568836 202382348.58261108 0 202382348.58261108 -193893664.71649551 0 0 0 0 -588183382.43944061 264808611.07801056 0 264808611.07801056 -118289316.36356354 0 0 0 0 -203983982.40333891 158940840.18945312 0 158940840.18945312 -44775955.644241333 0 0 0 0 -109964716.19370747 48901394.815536499 0 48901394.815536499 18627013.166765213 0 0 0 0 -308743317.25582457 44054873.407012939 0 44054873.407012939 18512395.250350952 0 0 0 0 -215512381.33448887 109582868.33831024 0 109582868.33831024 90496468.003463745 0 0 0 0 -145877391.6418376 157084356.95617676 0 157084356.95617676 24477367.742164612 0 0 0 0 -233130940.66646051 137266601.01477814 0 137266601.01477814 19978132.048141479 0 0 0 0 -141351714.34450817 176155935.66242218 0 176155935.66242218 -47152981.316070557 0 0 0 0 -145057251.22271824 120562215.1996994 0 120562215.1996994 75907411.359024048 0 0 0 0 -107507173.01142842 126392724.81753635 0 126392724.81753635 121476033.80036926 0 0 0 0 -145927553.61472213 152163066.06052399 0 152163066.06052399 113101659.57861328 0 0 0 0 -108490387.54579091 55595994.293403625 0 55595994.293403625 158958145.1335144 0 0 0 0 -102769975.38745761 112277273.22921753 0 112277273.22921753 128109105.45228577 0 0 0 0 -132085117.57348788 81027132.636678696 0 81027132.636678696 97914793.900695801 0 0 0 0 -88990328.216807604 70636834.072311401 0 70636834.072311401 245727089.69537354 0 0 0 0 -73288552.946070194 100126078.91462326 0 100126078.91462326 202996331.88665771 0 0 0 0 -120362656.42118454 81856933.220878601 0 81856933.220878601 197251299.89526367 0 0 0 0 -98324172.046951056 88957001.427978516 0 88957001.427978516 195499771.20587158 0 0 0 0 -97875263.564233065 152152402.36465454 0 152152402.36465454 125234813.77631378 0 0 0 0 -70530538.285196304 123824733.36495209 0 123824733.36495209 94045065.886711121 0 0 0 0 -45042395.40751195 144805833.27261734 0 144805833.27261734 17855646.934829712 0 0 0 0 -58831888.798755169 75631120.603485107 0 75631120.603485107 65809683.971710205 0 0 0 0 -56187661.12893343 130832229.6872139 0 130832229.6872139 78855248.495661736 0 0 0 0 -22507934.087217629 46712341.951398373 0 46712341.951398373 80285408.518699646 0 0 0 0 -28937713.640002728 106535937.29283905 0 106535937.29283905 -26526779.383132935 0 0 0 0 -25791489.021142006 83804431.836608887 0 83804431.836608887 -6738814.9605560303 0 0 0 0 -103884179.11887479 172475143.59132004 0 172475143.59132004 11930888.284729004 0 0 0 0 -44007330.210943699 146609453.39569092 0 146609453.39569092 -26744706.148605347 0 0 0 0 -110511489.14957762 177329204.54417801 0 177329204.54417801 43627614.899703979 0 0 0 0 -152521845.75442171 182627934.32266235 0 182627934.32266235 10204861.263320923 0 0 0 0 -43885442.823329926 149917484.70975494 0 149917484.70975494 16055430.582305908 0 0 0 0 -73574163.124597073 184932887.78845215 0 184932887.78845215 -76037112.926116943 0 0 0 0 -110444760.9975214 189784343.25448608 0 189784343.25448608 -76586009.611175537 0 0 0 0 -10769316.248775482 97098992.588226318 0 97098992.588226318 -140432891.34469604 0 0 0 0 35501359.033062935 74713620.314971924 0 74713620.314971924 -204188075.73468018 0 0 0 0 -79112327.989943743 221507685.7022934 0 221507685.7022934 -349114106.24261475 0 0 0 0 -22461384.84787941 115721204.74334717 0 115721204.74334717 -154526480.484375 0 0 0 0 36232267.788938761 110977723.27858734 0 110977723.27858734 -350708928.67660522 0 0 0 0 42769677.224204063 101035178.79815674 0 101035178.79815674 -351155486.87548828 0 0 0 0 -4549393.3338088756 42411455.831809483 0 42411455.831809483 13893070.456755465 0 0 0 0 -10748421.094538093 69906707.680570602 0 69906707.680570602 25655304.635585785 0 0 0 0 -26090400.833871663 47551424.019209862 0 47551424.019209862 74573572.602981567 0 0 0 0 -25262121.522825003 46678314.77558136 0 46678314.77558136 68244824.428779602 0 0 0 0 -20865003.823725268 38330647.553120136 0 38330647.553120136 87908491.668281555 0 0 0 0 -32995019.861624174 83610086.03459549 0 83610086.03459549 80873021.907432556 0 0 0 0 -18367994.354290545 33717771.449359894 0 33717771.449359894 112089792.79177094 0 0 0 0 -39087078.089251518 47928244.522193909 0 47928244.522193909 122898860.97985077 0 0 0 0 -30193998.405769452 31104291.517000198 0 31104291.517000198 191281159.16373444 0 0 0 0 -29557858.186781168 52505815.721658707 0 52505815.721658707 85223372.160621643 0 0 0 0 -28726335.628779411 54584947.112960815 0 54584947.112960815 74016978.277929306 0 0 0 0 -20651551.591855884 26547030.276447296 0 26547030.276447296 99194099.901792526 0 0 0 0 -18619082.412947059 31746311.392990112 0 31746311.392990112 56107226.294908524 0 0 0 0 -24219242.565877974 51526381.571412086 0 51526381.571412086 73715634.514625549 0 0 0 0 -115396386.20103729 56460099.8320961 0 56460099.8320961 -163728627.66952419 0 0 0 0 -98995810.717941895 143919935.78605461 0 143919935.78605461 -153672380.89372253 0 0 0 0 -78065076.750460386 106160394.04592896 0 106160394.04592896 306289667.60110474 0 0 0 0 3423697.6883085123 2843777.9120840281 0 2843777.9120840281 1952334.8139116168 0 0 0 0 -37204016.783822775 183003758.45531464 0 183003758.45531464 92521212.799133301 0 0 0 0 -14347672.918040276 303516816.48614502 0 303516816.48614502 362291000.44736099 0 0 0 0 107736859.11694121 256273095.3170166 0 256273095.3170166 66513855.26745224 0 0 0 0 90201592.171495274 142088040.56739473 0 142088040.56739473 -75110394.673660278 0 0 0 0 216092901.81495142 458396551.28559113 0 458396551.28559113 73062409.948852539 0 0 0 0 134368139.26796997 204103035.44641685 0 204103035.44641685 -297105713.94277954 0 0 0 0 338769759.61063528 175356182.1476841 0 175356182.1476841 -666320695.19760132 0 0 0 0 -476309346.44098258 -239058666.70207214 0 -239058666.70207214 -257666903.17300415 0 0 0 0 1195186.1079232562 30059975.753661856 0 30059975.753661856 61621430.135843605 0 0 0 0 -205278433.65082181 310835964.00022507 0 310835964.00022507 274453745.96539307 0 0 0 0 -509463399.22604215 -148553183.82493591 0 -148553183.82493591 -70156714.836074829 0 0 0 0 -266720018.79154396 341908226.03903198 0 341908226.03903198 -376231154.30511475 0 0 0 0 -102460080.44591999 266235478.34841919 0 266235478.34841919 -483112082.68024445 0 0 0 0 -4407142.2967727995 1831800.8957178146 0 1831800.8957178146 18093820.574978661 0 0 0 0 -65425050.488045692 57779180.337055206 0 57779180.337055206 527102464.47375107 0 0 0 0 -137581861.91736507 275098114.91181564 0 275098114.91181564 351248009.04236221 0 0 0 0 45930708.599363327 -672762812.3559761 0 -672762812.3559761 -41073267.587787628 0 0 0 0 219048587.63857269 162384315.80809021 0 162384315.80809021 -205403196.40955257 0 0 0 0 234327681.89056015 216956543.53665924 0 216956543.53665924 -19603414.394389868 0 0 0 0 190345881.70420837 39062690.191791534 0 39062690.191791534 115848088.26690292 0 0 0 0 148098693.78167725 -37640353.453102112 0 -37640353.453102112 -10095985.143361807 0 0 0 0 139993591.33968163 -78526835.614040375 0 -78526835.614040375 -164577941.85266113 0 0 0 0 -58315222.732697487 -15430182.02217865 0 -15430182.02217865 216600549.73854828 0 0 0 0 200232737.70271778 84892492.042499542 0 84892492.042499542 118852828.70226669 0 0 0 0 165577388.64642048 -26395678.136327744 0 -26395678.136327744 130528926.29896164 0 0 0 0 153849676.55607796 -20525918.446863174 0 -20525918.446863174 140773792.42003632 0 0 0 0 253459838.29253721 54266502.577925682 0 54266502.577925682 116040830.884655 0 0 0 0 551191938.86295652 293303894.80177689 0 293303894.80177689 1925293.4884490967 0 0 0 0 144032384.80727872 259288476.00363356 0 259288476.00363356 88631642.493789673 0 0 0 0 143465624.47264957 97844267.597877502 0 97844267.597877502 150162431.48683929 0 0 0 0 -282915596.83844757 520964370.52624512 0 520964370.52624512 222883661.1732254 0 0 0 0 107028151.53197384 292938113.54653168 0 292938113.54653168 61223421.568206787 0 0 0 0 210830681.31885242 574449460.88253784 0 574449460.88253784 -25340644.624969482 0 0 0 0 313486140.48759842 483533132.13872528 0 483533132.13872528 8593411.4609794617 0 0 0 0 276487551.93183231 455339160.49726105 0 455339160.49726105 14286977.750709534 0 0 0 0 776795680.51738358 519350562.39702988 0 519350562.39702988 16087955.060382843 0 0 0 0 3895946.2703981604 4985976.649168022 0 4985976.649168022 5361876.04080832 0 0 0 0 22854508.454026282 277445335.71051407 0 277445335.71051407 28852178.53899765 0 0 0 0 226334418.28387046 -262871322.61286926 0 -262871322.61286926 144007379.70654297 0 0 0 0 -55947771.864421606 797814553.61126709 0 797814553.61126709 -302304534.20451355 0 0 0 0 -152794511.95968536 794382307.69259644 0 794382307.69259644 57175976.329589844 0 0 0 0 198397007.48236737 599911224.02498245 0 599911224.02498245 -377957674.3525238 0 0 0 0 208795166.89297765 710168994.94311523 0 710168994.94311523 49231259.278915405 0 0 0 0 32036672.934200287 73979674.19606781 0 73979674.19606781 -872119474.79066086 0 0 0 0 6344267.2477817535 18491798.127887726 0 18491798.127887726 179322592.8605423 0 0 0 0 2305603.1948291063 27335101.749938965 0 27335101.749938965 347340753.47079468 0 0 0 0 215580888.94973883 -162788752.46441054 0 -162788752.46441054 253362631.47346497 0 0 0 0 31787084.197407126 97304707.489852905 0 97304707.489852905 259620054.10944366 0 0 0 0 33969651.137469292 106730322.06160355 0 106730322.06160355 134564866.20755386 0 0 0 0 85008265.372485399 75161348.004735947 0 75161348.004735947 -45477456.408035278 0 0 0 0 -1572153.1348006399 7154831.3912131973 0 7154831.3912131973 1498620.5137667656 0 0 0 0 -9902806.4596084077 41546700.665157512 0 41546700.665157512 17405411.701970149 0 0 0 0 84905192.64108032 108318130.35894203 0 108318130.35894203 100024065.80197906 0 0 0 0 322292282.14361596 666650893.39001083 0 666650893.39001083 -459555161.68306732 0 0 0 0 -221150828.54568827 -246248601.44958115 0 -246248601.44958115 587480007.57732773 0 0 0 0 37191221.696741581 2191944.1196041107 0 2191944.1196041107 49902531.736206055 0 0 0 0 -45731719.949706554 21693065.917549133 0 21693065.917549133 163861670.11785889 0 0 0 0 -7522678.0999878105 688641.51034364104 0 688641.51034364104 9693219.5061892495 0 0 0 0 -79135404.739979744 83741127.577892303 0 83741127.577892303 56764306.520748138 0 0 0 0 -6705121.5598404119 8523773.1110956576 0 8523773.1110956576 69574529.539103657 0 0 0 0 -298053855.40461159 49724638.383087158 0 49724638.383087158 116167798.16603851 0 0 0 0 -91888513.638737202 77524438.395280838 0 77524438.395280838 53765454.622367859 0 0 0 0 145708085.50293827 130648221.68412018 0 130648221.68412018 73782128.838172913 0 0 0 0 246205485.69457579 229666661.1338501 0 229666661.1338501 167978800.56459045 0 0 0 0 61545075.38000989 172980812.81362534 0 172980812.81362534 262847109.4572525 0 0 0 0 165909391.5981636 185141851.27172089 0 185141851.27172089 315018141.36987305 0 0 0 0 121467939.27379131 250125917.52337646 0 250125917.52337646 273417191.32361984 0 0 0 0 299873558.2599802 272030910.42109299 0 272030910.42109299 298462337.40354156 0 0 0 0 98942435.149684906 238040738.86165047 0 238040738.86165047 303292907.04866791 0 0 0 0 392931747.60995007 -120915059.99313354 0 -120915059.99313354 -877600014.12210464 0 0 0 0 -68312561.099930763 71697547.219226837 0 71697547.219226837 378661837.86378098 0 0 0 0 611913.48418670706 -2954125.8011816517 0 -2954125.8011816517 -1569865.6487919465 0 0 0 0 162513329.92591 159598443.59964752 0 159598443.59964752 258324170.25123978 0 0 0 0 125641352.4849453 212692546.01704788 0 212692546.01704788 455698983.87164688 0 0 0 0 131911747.42225218 227871621.37947464 0 227871621.37947464 395504592.94500732 0 0 0 0 352706980.1658144 58503135.56829834 0 58503135.56829834 104008110.51741028 0 0 0 0 278325696.57339287 261322640.49084473 0 261322640.49084473 385803283.61746216 0 0 0 0 378452285.73878288 178666602.76688004 0 178666602.76688004 425957708.64278412 0 0 0 0 -143474722.71235847 133559878.25553131 0 133559878.25553131 145327017.05854034 0 0 0 0 -40399307.553219125 -10799056.557737246 0 -10799056.557737246 163665660.422185 0 0 0 0 401699030.05003548 310452390.06170273 0 310452390.06170273 272356537.54193115 0 0 0 0 -72487772.929389834 20227057.466694236 0 20227057.466694236 100965780.04795837 0 0 0 0 278193507.99694252 282543321.43205643 0 282543321.43205643 392337211.38666534 0 0 0 0 -367021168.83431244 12101885.277399063 0 12101885.277399063 189681402.29559326 0 0 0 0 -236598320.99492264 -503763453.65999746 0 -503763453.65999746 -358501726.51392221 0 0 0 0 -1737514.1022567749 102770377.88901615 0 102770377.88901615 -34261278.409561157 0 0 0 0 -394933524.95032549 159682890.94382524 0 159682890.94382524 289385166.92105103 0 0 0 0 308721970.10276961 86047371.57196331 0 86047371.57196331 284137060.94981384 0 0 0 0 124013569.85580955 268713681.99975014 0 268713681.99975014 330797479.24632263 0 0 0 0 -50061347.654966235 323090098.50170135 0 323090098.50170135 365140776.61655426 0 0 0 0 -103441704.86260368 302758147.8412962 0 302758147.8412962 360215412.71879578 0 0 0 0 -44774202.294014931 89736732.437309265 0 89736732.437309265 284332632.99237108 0 0 0 0 -284348826.89486122 168027477.93215942 0 168027477.93215942 382071323.82681274 0 0 0 0 -394833455.15229797 -441490897.79491806 0 -441490897.79491806 92280507.042312622 0 0 0 0 -113887517.96921539 -24271159.998058319 0 -24271159.998058319 424016446.23861313 0 0 0 0 -1710329.7901689261 -2141452.7573011098 0 -2141452.7573011098 5213819.5700515807 0 0 0 0 -38357196.38574861 -17546339.373234533 0 -17546339.373234533 178749197.7610786 0 0 0 0 -386014425.68117094 387657715.16061401 0 387657715.16061401 347735458.03741455 0 0 0 0 -352189109.38386559 328950610.79477692 0 328950610.79477692 446993514.76760864 0 0 0 0 -302758563.36228377 531808159.38319397 0 531808159.38319397 72360929.649902344 0 0 0 0 99501965.67086792 -204462836.85807037 0 -204462836.85807037 320390849.97685242 0 0 0 0 111747758.0695343 146449219.74618149 0 146449219.74618149 -349043248.00879288 0 0 0 0 -106040999.05836487 -127469572.40779686 0 -127469572.40779686 497382029.99574471 0 0 0 0 -123553590.02344894 -68698463.144859314 0 -68698463.144859314 372773554.91947556 0 0 0 0 -105768388.358181 -16971343.970632553 0 -16971343.970632553 367671501.81871796 0 0 0 0 -128480176.00190735 -79235006.018384933 0 -79235006.018384933 411941214.49922848 0 0 0 0 -125279826.07804489 -94764327.068329811 0 -94764327.068329811 462903211.26870155 0 0 0 0 -40052953.163874626 -121841520.45000362 0 -121841520.45000362 390202530.5968132 0 0 0 0 -123758461.40164757 55113866.549748421 0 55113866.549748421 183835411.37350082 0 0 0 0 -86133.929139577784 2202951.7157498822 0 2202951.7157498822 43835190.025726885 0 0 0 0 -153014520.37642813 132518428.58550072 0 132518428.58550072 124027732.89044952 0 0 0 0 151412500.79504168 261070849.37857819 0 261070849.37857819 201626608.79029083 0 0 0 0 528901530.81246042 296108758.57880402 0 296108758.57880402 198423119.1313076 0 0 0 0 146275645.00153911 263561325.9848175 0 263561325.9848175 239361653.70156002 0 0 0 0 -162476383.62105608 422808239.98986435 0 422808239.98986435 529916517.23823547 0 0 0 0 48875337.620525956 593603083.86081696 0 593603083.86081696 420480402.74568176 0 0 0 0 -131016148.00875041 362732836.07697296 0 362732836.07697296 236790104.54084778 0 0 0 0 -57973253.784348488 -365556962.91337585 0 -365556962.91337585 -323586841.97555733 0 0 0 0 129095980.74623156 213340268.46768951 0 213340268.46768951 305930268.20135498 0 0 0 0 -89982219.453425705 219757182.09739685 0 219757182.09739685 -410808739.46139526 0 0 0 0 -114455627.54732788 262275812.93551064 0 262275812.93551064 364702996.57171631 0 0 0 0 -182020527.51633787 -441134346.71199799 0 -441134346.71199799 151984107.91487122 0 0 0 0 105216451.03758812 760025980.91345406 0 760025980.91345406 1554629746.2177124 0 0 0 0 376090796.05059576 487486164.80447388 0 487486164.80447388 548614504.55800629 0 0 0 0 1439199842.1878424 863652911.95928192 0 863652911.95928192 342337913.16254425 0 0 0 0 -223472757.1985116 -336677866.63714981 0 -336677866.63714981 528357703.92300415 0 0 0 0 239007.91122629703 2827026.5252890829 0 2827026.5252890829 15711452.816415131 0 0 0 0 513715972.47478485 732654890.66365814 0 732654890.66365814 756487737.8399353 0 0 0 0 75684719.711397171 -547361137.05325317 0 -547361137.05325317 1906705225.4169941 0 0 0 0 125567220.40400934 380370082.19295502 0 380370082.19295502 -90093674.201316833 0 0 0 0 934510916.89589024 -99741940.839618683 0 -99741940.839618683 175683317.20193481 0 0 0 0 -250085611.79730225 7457012.2306747437 0 7457012.2306747437 226646869.43854904 0 0 0 0 -564223802.80449247 -745447794.86016464 0 -745447794.86016464 406965995.3963623 0 0 0 0 -715799870.35766077 -411074111.96841431 0 -411074111.96841431 405985951.40209961 0 0 0 0 -35109209.542227365 -25321847.225082655 0 -25321847.225082655 183732252.48029763 0 0 0 0 -765756574.21682835 -368210153.23079681 0 -368210153.23079681 693682730.59986877 0 0 0 0 -553656449.47036362 -120685761.75088501 0 -120685761.75088501 833044369.34248352 0 0 0 0 6040701.6929769516 -200928481.93482208 0 -200928481.93482208 674773959.53952026 0 0 0 0 -609659212.90628707 -621563322.72820568 0 -621563322.72820568 816173672.6343689 0 0 0 0 -216024947.34384537 -257014263.73413086 0 -257014263.73413086 1171949922.9570999 0 0 0 0 -174454310.08705211 -587091898.06395721 0 -587091898.06395721 721992654.61239624 0 0 0 0 -204558993.43631744 10865750.58165741 0 10865750.58165741 170784730.88549232 0 0 0 0 -184950050.93291473 53434896.718455315 0 53434896.718455315 122106935.80429459 0 0 0 0 -688067777.62755513 -241866102.65237999 0 -241866102.65237999 -1417902168.3084717 0 0 0 0 -626079354.43604851 -217837709.9343605 0 -217837709.9343605 197926794.01663971 0 0 0 0 -47214420.027899787 -16922323.846557438 0 -16922323.846557438 63391280.751356542 0 0 0 0 -5858194.7468889393 -16524131.417998344 0 -16524131.417998344 141842556.8649587 0 0 0 0 -200530038.04409504 -244181592.00613403 0 -244181592.00613403 59052735.575775146 0 0 0 0 -27539863.312540054 -306634296.92528534 0 -306634296.92528534 -433000519.21686935 0 0 0 0 9311591.1080911756 -48314772.959598303 0 -48314772.959598303 26980113.248687744 0 0 0 0 237296436.2677474 185414855.50086975 0 185414855.50086975 192089660.6530838 0 0 0 0 -121165317.21475601 -16294920.437911034 0 -16294920.437911034 296777743.33328915 0 0 0 0 -77893090.559308052 3943681.9686303139 0 3943681.9686303139 396691574.23147964 0 0 0 0 -79138118.609703064 -42263569.902376175 0 -42263569.902376175 282225578.45164204 0 0 0 0 -75566001.887504578 -83714521.087511063 0 -83714521.087511063 366424442.10345221 0 0 0 0 -88178271.149733543 -6535395.28966856 0 -6535395.28966856 258939503.78265381 0 0 0 0 -116223096.21820068 20642532.506160736 0 20642532.506160736 196969878.71161652 0 0 0 0 -271038849.23221588 111512696.86346626 0 111512696.86346626 235883868.76495361 0 0 0 0 -155815292.78393555 2831437.6382064819 0 2831437.6382064819 258978817.73398209 0 0 0 0 -138092873.45956421 28615077.136470795 0 28615077.136470795 195687738.16851044 0 0 0 0 -202296434.89007568 42646193.875591278 0 42646193.875591278 245368751.59497452 0 0 0 0 -148642078.6747551 15042262.123482704 0 15042262.123482704 283098044.38183022 0 0 0 0 -192292576.46798992 90690799.511173725 0 90690799.511173725 165589734.6107254 0 0 0 0 -187232274.38508606 96152125.845531464 0 96152125.845531464 141850774.8090477 0 0 0 0 -170797267.46171665 20812773.218602061 0 20812773.218602061 176651555.10180187 0 0 0 0 -186530010.71743393 46032377.656931877 0 46032377.656931877 218962814.48645401 0 0 0 0 -109800176.08761024 68897519.357889175 0 68897519.357889175 214527779.9755373 0 0 0 0 -86333523.607468843 -33051741.612558305 0 -33051741.612558305 294960736.64047813 0 0 0 0 -13241752.991559029 12229569.765725613 0 12229569.765725613 313898307.38278484 0 0 0 0 -37353717.515087605 -55662078.402131319 0 -55662078.402131319 346977469.90233803 0 0 0 0 102164005.33665371 68613930.487363815 0 68613930.487363815 390507024.76683712 0 0 0 0 245114326.22245216 126312994.24267483 0 126312994.24267483 284831869.91323376 0 0 0 0 -37400373.013798237 34304560.520056248 0 34304560.520056248 410235657.49944496 0 0 0 0 386535479.57750702 510866888.12513733 0 510866888.12513733 580112818.28894997 0 0 0 0 150677498.93377256 222592838.08616376 0 222592838.08616376 283198997.33543205 0 0 0 0 695170065.32659149 398693650.95756531 0 398693650.95756531 41179910.582036972 0 0 0 0 13811307.281454563 61237674.536290169 0 61237674.536290169 84181996.270847321 0 0 0 0 3067774.8880525446 3625449.5530210305 0 3625449.5530210305 3851402.3398370929 0 0 0 0 17807541.578492641 -229624897.27382421 0 -229624897.27382421 842867964.55600929 0 0 0 0 8971542.345202446 394268213.77173519 0 394268213.77173519 1042973341.4324241 0 0 0 0 797933345.76096821 149547070.58260727 0 149547070.58260727 356372609.06449223 0 0 0 0 -35969697.352468491 85381280.507399559 0 85381280.507399559 853070849.64136648 0 0 0 0 309898340.6854043 -92159223.622996807 0 -92159223.622996807 -31713819.453517914 0 0 0 0 3014313.9424554482 -2564163.9735058472 0 -2564163.9735058472 1613824.3706561234 0 0 0 0 -56993106.923190832 137652750.53914595 0 137652750.53914595 379807438.72132683 0 0 0 0 9383099.2092990875 81569644.087789536 0 81569644.087789536 241366487.51872921 0 0 0 0 -15394391.018099785 66311847.018092155 0 66311847.018092155 242168149.24672127 0 0 0 0 -19048019.872718811 -81151897.789969444 0 -81151897.789969444 92646512.226509094 0 0 0 0 49976461.724988937 27287952.242517948 0 27287952.242517948 11611364.458440781 0 0 0 0 -124543917.28727913 -191321098.15672302 0 -191321098.15672302 -104736666.23233175 0 0 0 0 -186059929.40812683 -26346931.167889595 0 -26346931.167889595 87405235.732578278 0 0 0 0 5501918.0692005157 -9379256.4945328236 0 -9379256.4945328236 115072511.51298904 0 0 0 0 -93044854.11774826 56660124.370819569 0 56660124.370819569 277035353.48425102 0 0 0 0 -30791828.746178627 -62843361.709009171 0 -62843361.709009171 334469901.82222748 0 0 0 0 177189.06831113994 -2436723.7024829201 0 -2436723.7024829201 1943869.5967261028 0 0 0 0 -146638860.31673622 30920310.142102242 0 30920310.142102242 435770757.15822887 0 0 0 0 162110806.60056031 50745334.706423759 0 50745334.706423759 172997208.41504478 0 0 0 0 217110035.55367112 -80566363.59210968 0 -80566363.59210968 18090621.308021545 0 0 0 0 38874508.394931316 -1725551.476418972 0 -1725551.476418972 255383990.31836891 0 0 0 0 946968.74169919267 -1517190.9084608424 0 -1517190.9084608424 947564.11586870253 0 0 0 0 139251307.77224654 87569629.016002893 0 87569629.016002893 60654641.013763428 0 0 0 0 164116355.51496875 73275607.952528 0 73275607.952528 299515090.21226311 0 0 0 0 108668499.19418383 149160450.77756596 0 149160450.77756596 359495774.29463482 0 0 0 0 -25487350.398323536 93283547.662974358 0 93283547.662974358 376586774.75901461 0 0 0 0 9711134.0468006134 70345392.529999256 0 70345392.529999256 171116804.16382599 0 0 0 0 -18834993.571298122 65835964.445389271 0 65835964.445389271 77230780.982652664 0 0 0 0 53097419.47895813 -103511393.18989563 0 -103511393.18989563 130099501.56039858 0 0 0 0 -14562532.069399834 256428672.24809933 0 256428672.24809933 506565265.65984535 0 0 0 0 -37441599.707036495 663929.5818400383 0 663929.5818400383 648940190.19452095 0 0 0 0 90293568.316519976 273291174.02509546 0 273291174.02509546 412354944.628088 0 0 0 0 3493464.0834149495 -1613368.6162483655 0 -1613368.6162483655 1222221.3446525168 0 0 0 0 249589161.38486814 171171757.76488066 0 171171757.76488066 94937926.000754356 0 0 0 0 1022088.1877859998 -957168.51502085105 0 -957168.51502085105 1218684.2360794432 0 0 0 0 136708768.03741431 325399657.2170825 0 325399657.2170825 470810093.23288345 0 0 0 0 17998314.785951614 230383869.335783 0 230383869.335783 440816295.24547482 0 0 0 0 92272643.495212674 117247808.94342613 0 117247808.94342613 298098691.41440392 0 0 0 0 255437443.82780027 227622735.7723999 0 227622735.7723999 291877767.17583972 0 0 0 0 200021626.7178756 172306692.2801199 0 172306692.2801199 203853147.46684837 0 0 0 0 180501064.80076933 170935700.51249886 0 170935700.51249886 340205894.31783676 0 0 0 0 160018071.10514307 256474095.87106895 0 256474095.87106895 397730575.35203552 0 0 0 0 191660281.42960513 247733574.10380459 0 247733574.10380459 348705669.13031864 0 0 0 0 339153174.88149232 265961481.00745678 0 265961481.00745678 350107358.6433754 0 0 0 0 198640424.33297837 253494933.73049784 0 253494933.73049784 332416928.2363472 0 0 0 0 129239243.82042742 117657234.64365101 0 117657234.64365101 232540265.00389481 0 0 0 0 -21526144.300061584 150932129.01878738 0 150932129.01878738 370929020.16184616 0 0 0 0 35659365.454267025 73206322.195062637 0 73206322.195062637 220239365.76643753 0 0 0 0 33028925.680389166 77525839.748691082 0 77525839.748691082 219524073.04227448 0 0 0 0 -62446653.412719727 31631605.449025154 0 31631605.449025154 263829939.82833958 0 0 0 0 -47913634.725914955 43163258.175762177 0 43163258.175762177 272770397.58445358 0 0 0 0 -146495327.08160806 24094563.755931139 0 24094563.755931139 315798636.39951324 0 0 0 0 -205491184.03052044 -159346054.61075974 0 -159346054.61075974 106327098.31899261 0 0 0 0 -231339441.17033577 2517079.5520267487 0 2517079.5520267487 238489772.25617695 0 0 0 0 -83133902.484812975 -111251832.80529165 0 -111251832.80529165 33261174.609394073 0 0 0 0 -49014394.127779961 -27272406.648612976 0 -27272406.648612976 168383726.40162659 0 0 0 0 -83075413.861706734 -671695.29103660583 0 -671695.29103660583 224682017.6936121 0 0 0 0 -122309869.01768088 17936906.830853462 0 17936906.830853462 354158175.75928879 0 0 0 0 -13424935.235324383 147827954.60523415 0 147827954.60523415 472004057.18349266 0 0 0 0 137163772.95695901 180451231.82167149 0 180451231.82167149 316275801.83548927 0 0 0 0 -52209020.814892769 -139479967.79043388 0 -139479967.79043388 378789547.61365747 0 0 0 0 89992328.065408468 -226897078.14386606 0 -226897078.14386606 886826087.3752327 0 0 0 0 152441806.45530987 261885398.56554604 0 261885398.56554604 512389184.74719429 0 0 0 0 410582943.74468529 399334769.30443907 0 399334769.30443907 560921017.71815872 0 0 0 0 -15769914.527547836 299155383.40455818 0 299155383.40455818 402172167.12386227 0 0 0 0 -115399185.46088219 -222918764.73748112 0 -222918764.73748112 -77045322.790359497 0 0 0 0 -1871840.8164755106 -1123114.6061172141 0 -1123114.6061172141 4509605.1251187399 0 0 0 0 -323953488.28559113 -115356278.20293427 0 -115356278.20293427 296268065.33445358 0 0 0 0 -48437134.99533844 -29589373.458999634 0 -29589373.458999634 103091282.69301605 0 0 0 0 9049944.0031585693 -4747377.4703102112 0 -4747377.4703102112 111858818.38125229 0 0 0 0 62386136.225574493 -23403762.980888367 0 -23403762.980888367 62170415.750049591 0 0 0 0 -239599907.87078667 -113830227.84961224 0 -113830227.84961224 98369366.5248909 0 0 0 0 -1980378.3100364581 -3327132.6747874469 0 -3327132.6747874469 8131275.287949726 0 0 0 0 -25515157.89907074 -79994768.642894745 0 -79994768.642894745 27001701.262508392 0 0 0 0 25720391.162822723 -58375968.993373871 0 -58375968.993373871 32923336.657966614 0 0 0 0 -74875983.761155009 -57650284.085009515 0 -57650284.085009515 77289173.199394226 0 0 0 0 -61100070.760900497 58985426.405408859 0 58985426.405408859 17625607.733444214 0 0 0 0 44994674.355248451 57651876.736735344 0 57651876.736735344 116647771.03800011 0 0 0 0 -39826112.844482422 -68222187.398237228 0 -68222187.398237228 145575712.54463911 0 0 0 0 -22326336.694090366 -21260779.907727242 0 -21260779.907727242 247457270.55716324 0 0 0 0 -64538181.950114727 -70886094.055523872 0 -70886094.055523872 234950049.38770676 0 0 0 0 30300393.428659439 -24801490.520496368 0 -24801490.520496368 250395618.6082449 0 0 0 0 -65876680.178622246 -88705084.456654549 0 -88705084.456654549 251304151.36688614 0 0 0 0 -55212093.573263168 -11041764.21068573 0 -11041764.21068573 243680985.27728415 0 0 0 0 -100523145.49112606 -39203506.428512573 0 -39203506.428512573 252980834.5803895 0 0 0 0 -119372613.36774516 -59712444.510971785 0 -59712444.510971785 230703355.39910507 0 0 0 0 -39057816.014329433 -90779772.197245598 0 -90779772.197245598 -66235807.882804871 0 0 0 0 -127564839.91775703 -44753440.942710876 0 -44753440.942710876 224140629.12999725 0 0 0 0 -88941503.771307945 -88221366.367712975 0 -88221366.367712975 103877811.44950867 0 0 0 0 -12064432.692831039 -10609192.534784317 0 -10609192.534784317 78324163.279482841 0 0 0 0 10713748.290203094 6434007.9529323578 0 6434007.9529323578 104927315.47016525 0 0 0 0 1243876.7022887133 -10875161.2921018 0 -10875161.2921018 -9477861.551499337 0 0 0 0 -7769940.4926261902 -26945946.246860504 0 -26945946.246860504 86720363.659580231 0 0 0 0 141337966.64082932 -4019320.8613812923 0 -4019320.8613812923 115532116.64693069 0 0 0 0 -44330644.47607851 -9690428.6786943991 0 -9690428.6786943991 130661845.40920137 0 0 0 0 -12362212.086696625 -17000998.004891872 0 -17000998.004891872 447022273.5884552 0 0 0 0 -138650469.38468742 -511090441.38825226 0 -511090441.38825226 232217870.23941612 0 0 0 0 -297906861.93608093 -228438804.86987686 0 -228438804.86987686 -136313863.09435844 0 0 0 0 -520307.49716031551 -2262754.1946881302 0 -2262754.1946881302 2799790.4033212662 0 0 0 0 -136181339.37532425 12292952.149822235 0 12292952.149822235 555569270.40162849 0 0 0 0 156317097.95895004 -245401704.7439003 0 -245401704.7439003 291442607.59756088 0 0 0 0 291059919.47696304 -44442145.725857735 0 -44442145.725857735 -541699383.29530334 0 0 0 0 -142405955.53914261 124179523.5518074 0 124179523.5518074 270660459.98044586 0 0 0 0 140328831.80401325 -151016327.11501312 0 -151016327.11501312 217614978.77174377 0 0 0 0 -42248254.337696031 -5478846.4423666671 0 -5478846.4423666671 155102501.95717719 0 0 0 0 357612783.71019208 221616647.00425285 0 221616647.00425285 74704295.541954041 0 0 0 0 -417881876.82643509 -89343102.807249069 0 -89343102.807249069 332487290.24365234 0 0 0 0 -468208693.30393982 200340608.75685883 0 200340608.75685883 283689711.76815414 0 0 0 0 153800552.96211433 66099236.135738373 0 66099236.135738373 259008095.7507782 0 0 0 0 142007749.28004265 -10101323.490440369 0 -10101323.490440369 163266357.4649353 0 0 0 0 118365361.37705803 2898612.8437614441 0 2898612.8437614441 129493940.10416889 0 0 0 0 136460037.29149055 24884630.175643921 0 24884630.175643921 116574161.45556498 0 0 0 0 164666578.68045616 -15777528.319889069 0 -15777528.319889069 134641928.78429413 0 0 0 0 163156381.27519608 14012856.997714996 0 14012856.997714996 114662616.17838287 0 0 0 0 155620249.80058861 11714366.363039017 0 11714366.363039017 82832483.877588272 0 0 0 0 34887471.470180973 4583582.1673805714 0 4583582.1673805714 13728861.705583017 0 0 0 0 -115552152.10859859 36997084.150087357 0 36997084.150087357 506947596.70092392 0 0 0 0 -74096347.990558386 -18378229.238071442 0 -18378229.238071442 578625497.92171049 0 0 0 0 40290933.666144848 -176403910.23909378 0 -176403910.23909378 404701387.83359146 0 0 0 0 -1599057.2482244968 6032779.3165073395 0 6032779.3165073395 381904909.17246628 0 0 0 0 -29775698.416538239 -42302403.820095062 0 -42302403.820095062 584308202.3215189 0 0 0 0 210937033.43518138 -518961903.3558979 0 -518961903.3558979 842784629.89320946 0 0 0 0 707558.33968112036 1468929.2431879174 0 1468929.2431879174 5650419.2185495645 0 0 0 0 -242149050.36274076 251868775.74694347 0 251868775.74694347 1420312804.3367119 0 0 0 0 117174496.63030475 553290247.35194588 0 553290247.35194588 98003042.31420517 0 0 0 0 24618853.962152362 699685818.94742489 0 699685818.94742489 1094012890.5982819 0 0 0 0 -63040506.653277874 46823934.747940063 0 46823934.747940063 -75365957.721127272 0 0 0 0 -107143868.53082466 -44600747.530240059 0 -44600747.530240059 -83159528.16293335 0 0 0 0 -42814148.610641934 -57664868.610892959 0 -57664868.610892959 35722353.142597042 0 0 0 0 -1858174.7102320753 -1712102.1566905081 0 -1712102.1566905081 15523886.580949148 0 0 0 0 -151815447.63904476 -26948982.350423813 0 -26948982.350423813 114615628.20903945 0 0 0 0 35634080.195809156 -287084663.25879109 0 -287084663.25879109 117585222.40531349 0 0 0 0 -25380018.16504902 -55708692.345563516 0 -55708692.345563516 65763971.754532397 0 0 0 0 -40314324.670671463 104540659.26664162 0 104540659.26664162 52403847.94919014 0 0 0 0 -144416687.44493926 -123298123.4179039 0 -123298123.4179039 856834622.00679779 0 0 0 0 3721666.9817860522 -5992055.6424390171 0 -5992055.6424390171 1753897.8129982278 0 0 0 0 575240938.17324209 -27483617.23072052 0 -27483617.23072052 1448660652.6710968 0 0 0 0 300379079.71288943 489834991.26098061 0 489834991.26098061 559014294.17560768 0 0 0 0 112454634.69662976 -173262287.81655502 0 -173262287.81655502 124523195.35317612 0 0 0 0 214208693.72383565 -80507285.096759796 0 -80507285.096759796 -84632070.166366577 0 0 0 0 460317614.35955274 333968463.04085064 0 333968463.04085064 198160674.87901688 0 0 0 0 -33437836.531668186 14012502.97571373 0 14012502.97571373 55324425.656606674 0 0 0 0 -19685070.496733665 391665590.26455307 0 391665590.26455307 724409327.16362858 0 0 0 0 165135179.37065268 179969579.05676174 0 179969579.05676174 87334410.233903885 0 0 0 0 -177433650.94163752 119724043.90150261 0 119724043.90150261 420911878.6499958 0 0 0 0 -185629227.9482432 33041165.386151493 0 33041165.386151493 836271854.20101166 0 0 0 0 2131133.4651749711 -940103.80971944332 0 -940103.80971944332 97795.957366663963 0 0 0 0 -28719023.485730231 97838103.914122105 0 97838103.914122105 -53006186.010162354 0 0 0 0 35383884.9000597 62025877.11384201 0 62025877.11384201 -46400240.019797802 0 0 0 0 -646390.0756892846 2068609.909596622 0 2068609.909596622 2043764.4719928131 0 0 0 0 6440663.5180287361 1658538.8788723946 0 1658538.8788723946 -101717013.37680817 0 0 0 0 7696055.5771368146 4480094.8411519527 0 4480094.8411519527 14321158.205001831 0 0 0 0 -1850219.1363667427 -2022073.356045749 0 -2022073.356045749 3308554.4681074042 0 0 0 0 54889128.802181512 -37852673.414879322 0 -37852673.414879322 -74229496.114068985 0 0 0 0 -321335.77694892883 -12178326.733654022 0 -12178326.733654022 17066157.535709381 0 0 0 0 953251.75499279983 3544884.8728227876 0 3544884.8728227876 7133758.3449176028 0 0 0 0 -1122374.314385891 -3264922.634147644 0 -3264922.634147644 15151025.121798277 0 0 0 0 19159594.986155748 -50308833.77583313 0 -50308833.77583313 29717363.031019211 0 0 0 0 -1647363.9658132272 1890224.0387270506 0 1890224.0387270506 11168337.226863846 0 0 0 0 70952033.865218878 29001070.513343811 0 29001070.513343811 -36846962.244878769 0 0 0 0 -5742271.9903268814 -6091254.5342712402 0 -6091254.5342712402 30169024.456230164 0 0 0 0 -870251.32160932198 -919725.84275969118 0 -919725.84275969118 2913917.3885342926 0 0 0 0 -27088777.359554529 -5213956.7647409439 0 -5213956.7647409439 93464916.269073486 0 0 0 0 32343748.104063034 21696453.950604439 0 21696453.950604439 125231574.96389389 0 0 0 0 41188460.202576637 -73245796.099105835 0 -73245796.099105835 186990759.4413147 0 0 0 0 107794407.2227568 -72744368.198845863 0 -72744368.198845863 106780385.24670792 0 0 0 0 59092039.563047379 -41641587.50256443 0 -41641587.50256443 375237733.28570175 0 0 0 0 66870143.099870652 -18575579.519376755 0 -18575579.519376755 229539962.26179504 0 0 0 0 -384327.88732122432 2508581.91219474 0 2508581.91219474 13632095.427841365 0 0 0 0 -135810229.25552595 -73986936.563064575 0 -73986936.563064575 52830015.67042923 0 0 0 0 39550420.18022456 -99615482.147223771 0 -99615482.147223771 166294679.27859116 0 0 0 0 7920720.1315698624 23574249.883926392 0 23574249.883926392 127296597.36381245 0 0 0 0 -61352206.494235277 -2823990.7319002151 0 -2823990.7319002151 121471567.53453064 0 0 0 0 126999520.46091807 -167649062.74645472 0 -167649062.74645472 1410872.2501564026 0 0 0 0 -52585766.37436533 -91625152.947332382 0 -91625152.947332382 219686857.21429825 0 0 0 0 114161647.15815759 -56123838.125331879 0 -56123838.125331879 196311396.3768425 0 0 0 0 -1328525.9484447241 -167248862.07223511 0 -167248862.07223511 49690069.668884277 0 0 0 0 -187929766.03686476 -147331643.03870392 0 -147331643.03870392 57433314.111394882 0 0 0 0 -120168454.15588093 -262074305.05548668 0 -262074305.05548668 -19149937.469290257 0 0 0 0 63265382.778467894 -251168624.36881208 0 -251168624.36881208 324259780.89418983 0 0 0 0 -20288848.222979106 -50076329.109439105 0 -50076329.109439105 80979181.835872963 0 0 0 0 -97243472.452783346 -167717941.20824242 0 -167717941.20824242 188572.96938323975 0 0 0 0 -122838414.88197947 -168453672.33370018 0 -168453672.33370018 166718602.95035172 0 0 0 0 -146640160.30606079 -168530875.2391243 0 -168530875.2391243 59945189.611185074 0 0 0 0 -299335136.01245308 189732782.34688187 0 189732782.34688187 550584844.09117126 0 0 0 0 -61318396.037452698 190795410.34080696 0 190795410.34080696 549283133.14933538 0 0 0 0 -201093113.77779555 -7697121.5586204529 0 -7697121.5586204529 568083746.78801346 0 0 0 0 -175966687.40782118 161884892.98102665 0 161884892.98102665 669299474.95880127 0 0 0 0 925097.54194581322 131035.22814185545 0 131035.22814185545 1192713.9868969657 0 0 0 0 -116264186.12478113 117930157.34112358 0 117930157.34112358 -161618023.23710251 0 0 0 0 -49579335.133202076 -59970446.829726219 0 -59970446.829726219 171806935.79202652 0 0 0 0 -34769552.952440262 13539766.744238853 0 13539766.744238853 -14525492.160301208 0 0 0 0 73627093.367708683 1545564.1596717834 0 1545564.1596717834 -15809474.583411932 0 0 0 0 -783138.09755353769 56750.456038048491 0 56750.456038048491 7181446.1442549154 0 0 0 0 -69907670.285089254 -112596054.11887312 0 -112596054.11887312 37991509.915218353 0 0 0 0 807846661.05050087 -183525417.03514481 0 -183525417.03514481 233505846.47421265 0 0 0 0 191134720.20393896 615116665.99638033 0 615116665.99638033 361288891.46532679 0 0 0 0 -23642718.441570938 -47655980.699641436 0 -47655980.699641436 76085705.574456602 0 0 0 0 -48209164.076787591 -226674967.93345165 0 -226674967.93345165 -191342993.13108444 0 0 0 0 119135921.09562516 137533314.73631668 0 137533314.73631668 254424128.06025314 0 0 0 0 -44875745.579339266 -8032428.3924255371 0 -8032428.3924255371 -15007340.07765007 0 0 0 0 -132714629.85148644 -146245032.69867897 0 -146245032.69867897 17819578.77451992 0 0 0 0 77594889.795768738 32367913.820248604 0 32367913.820248604 72627373.678771973 0 0 0 0 85564746.575730324 25410812.473307133 0 25410812.473307133 26576539.430353165 0 0 0 0 78183342.609794617 67414845.698377609 0 67414845.698377609 55998572.45450592 0 0 0 0 62979424.77854681 54194584.137888432 0 54194584.137888432 159379178.06320381 0 0 0 0 96461287.395719528 80282665.927513599 0 80282665.927513599 153438345.25576591 0 0 0 0 87691438.07050693 39776274.881681085 0 39776274.881681085 174120559.64898682 0 0 0 0 68266393.937375486 53291250.497897029 0 53291250.497897029 166219062.09597492 0 0 0 0 334373.07093833061 -1719706.4346995 0 -1719706.4346995 18449665.660374381 0 0 0 0 94979991.3277843 77636722.99333334 0 77636722.99333334 83687769.35926342 0 0 0 0 -138685391.2712779 -61481576.240530968 0 -61481576.240530968 54892576.396755219 0 0 0 0 62216689.264156342 -6472411.2092466354 0 -6472411.2092466354 25954960.191207886 0 0 0 0 -69993229.874549866 -21719319.552497864 0 -21719319.552497864 -39139321.947132111 0 0 0 0 -66188841.37779808 3049278.535446167 0 3049278.535446167 -30849151.772384644 0 0 0 0 -58532767.275320053 16976240.928852081 0 16976240.928852081 -5834235.1095428467 0 0 0 0 -82595546.965831757 -26814828.831542969 0 -26814828.831542969 13584630.403652191 0 0 0 0 -79636698.285429001 -44675047.409980774 0 -44675047.409980774 -20101545.712192535 0 0 0 0 -88315704.783485413 -42757121.835460663 0 -42757121.835460663 -3726529.9258155823 0 0 0 0 -52228024.390342891 19178301.069952041 0 19178301.069952041 78945535.793087006 0 0 0 0 -94041954.176715851 -15433945.709651947 0 -15433945.709651947 47983808.111896515 0 0 0 0 -52687608.133546829 3550381.8839111328 0 3550381.8839111328 16136880.598266602 0 0 0 0 -67830661.032833099 22266760.272949219 0 22266760.272949219 49684514.692092896 0 0 0 0 -8041055.3907825947 31687315.389122963 0 31687315.389122963 78370594.527297974 0 0 0 0 -35273703.202999115 -6255570.6318359375 0 -6255570.6318359375 53265513.4666996 0 0 0 0 -65976953.573555946 -6594312.0457348824 0 -6594312.0457348824 77749875.656887054 0 0 0 0 -62380650.512598038 3872058.7091407776 0 3872058.7091407776 52302683.966369629 0 0 0 0 -54569467.432253838 -26439883.746074677 0 -26439883.746074677 52038461.073355183 0 0 0 0 -9898190.9946475029 2355423.6228084564 0 2355423.6228084564 -48119541.172214508 0 0 0 0 -155645701.20268857 16840087.329644918 0 16840087.329644918 66999917.518295288 0 0 0 0 -42687447.833639145 15393110.933013916 0 15393110.933013916 73449253.048721313 0 0 0 0 102660880.84848738 -27727396.611392975 0 -27727396.611392975 14740040.167762756 0 0 0 0 4870459.5686104298 -31912866.408399582 0 -31912866.408399582 30608439.977222443 0 0 0 0 78586791.981649607 90059995.793050289 0 90059995.793050289 111416177.64105606 0 0 0 0 228476.6325345668 576996.44804990478 0 576996.44804990478 824648.27003967762 0 0 0 0 -21295712.642976105 229338028.08651018 0 229338028.08651018 159047199.69464111 0 0 0 0 -49591385.517853498 10534091.691545486 0 10534091.691545486 98886218.366138458 0 0 0 0 -50551640.419406652 32423932.937345505 0 32423932.937345505 144944845.20443344 0 0 0 0 -102299990.77384186 14529718.565783501 0 14529718.565783501 -202974453.73986816 0 0 0 0 241718174.00527287 63540700.178089142 0 63540700.178089142 6358290.4609947205 0 0 0 0 638195.75715795951 1451408.5625920855 0 1451408.5625920855 943036.15590724349 0 0 0 0 82802445.25757885 137258790.4630661 0 137258790.4630661 128921862.85598278 0 0 0 0 102014783.37299156 6819303.246796608 0 6819303.246796608 12904673.237781525 0 0 0 0 60852165.619475961 12340501.424590826 0 12340501.424590826 -8205917.665599823 0 0 0 0 28613402.444392681 27172819.149734497 0 27172819.149734497 12329411.427822113 0 0 0 0 50871147.667666674 37067071.3086586 0 37067071.3086586 -20294510.445941925 0 0 0 0 -33643144.139734268 49688800.971725464 0 49688800.971725464 37327923.706933975 0 0 0 0 -30136689.350820065 63469472.047839165 0 63469472.047839165 57885448.878211975 0 0 0 0 43880526.341109991 98772178.014003277 0 98772178.014003277 72216086.410987854 0 0 0 0 -4566180.6935539246 51372990.233392715 0 51372990.233392715 35869063.277973175 0 0 0 0 -21529334.405812263 58974553.190200806 0 58974553.190200806 66306586.829193592 0 0 0 0 -1422478.2339615822 42910926.832582474 0 42910926.832582474 65746666.809677124 0 0 0 0 -39720718.220181942 31102387.860829353 0 31102387.860829353 40789066.34570694 0 0 0 0 -64245456.616592407 34816978.178852081 0 34816978.178852081 56107743.747718334 0 0 0 0 19354827.941348076 10489413.957980156 0 10489413.957980156 9732580.5788116455 0 0 0 0 2663943.8575793179 5094641.7266197372 0 5094641.7266197372 21978791.563830044 0 0 0 0 -64369887.935045958 30177712.068750381 0 30177712.068750381 38815222.835845947 0 0 0 0 -59940895.672546387 34090240.682405472 0 34090240.682405472 20657279.208480835 0 0 0 0 6907145.8016978344 -834807.30393650103 0 -834807.30393650103 10348195.443691749 0 0 0 0 26059612.46663475 -11861348.688767433 0 -11861348.688767433 38039829.649555206 0 0 0 0 24609514.98078987 7159957.4892353797 0 7159957.4892353797 14029303.178090651 0 0 0 0 -54952360.354393005 35528060.047128677 0 35528060.047128677 27898972.411094666 0 0 0 0 16920915.493557692 -12392484.070966661 0 -12392484.070966661 -121216519.89831519 0 0 0 0 31573722.80391264 26474144.538793445 0 26474144.538793445 -120690439.24104166 0 0 0 0 -30469934.12653625 57647979.776121378 0 57647979.776121378 33671773.409948349 0 0 0 0 16341930.853123032 21733016.823522981 0 21733016.823522981 27909395.713699218 0 0 0 0 51949172.094174862 23678570.880313277 0 23678570.880313277 35354352.24815774 0 0 0 0 5629278.581363311 5300860.6788042197 0 5300860.6788042197 1619793.9422400533 0 0 0 0 19984272.017825134 -7386920.3393240646 0 -7386920.3393240646 -4817506.5608274173 0 0 0 0 75267841.976016045 62162772.486516953 0 62162772.486516953 5559473.6435262561 0 0 0 0 21445863.781910069 -11214474.114744728 0 -11214474.114744728 1703972.8933583191 0 0 0 0 46964147.30002594 17268154.710128784 0 17268154.710128784 17142416.071863174 0 0 0 0 66575882.839424133 29263194.446753502 0 29263194.446753502 20919147.34423852 0 0 0 0 74962464.274448395 15634022.336335659 0 15634022.336335659 33358069.249975204 0 0 0 0 87096487.393478394 7391.6162605285645 0 7391.6162605285645 -3577719.1201810837 0 0 0 0 62704191.086519241 32097430.419460535 0 32097430.419460535 14579630.523945332 0 0 0 0 48302388.544203579 -5897261.816213131 0 -5897261.816213131 7750705.2182788849 0 0 0 0 21948297.084487438 30072025.090605259 0 30072025.090605259 42411261.269615173 0 0 0 0 8180923.5042951573 -2694072.4295409881 0 -2694072.4295409881 -3684162.7887768801 0 0 0 0 5032039.6800611019 1806349.4758291245 0 1806349.4758291245 -1446273.454120636 0 0 0 0 1415696.6241170375 6907659.1053154897 0 6907659.1053154897 18885983.450942673 0 0 0 0 -2789729.0308123827 -23304426.429123878 0 -23304426.429123878 50013716.404276848 0 0 0 0 -37370817.30409801 15285021.233204842 0 15285021.233204842 39935371.620200157 0 0 0 0 5925128.8135213852 -14924619.041385651 0 -14924619.041385651 -4169622.4424123764 0 0 0 0 -46809067.252516747 -20164008.27790451 0 -20164008.27790451 4422764.5219955444 0 0 0 0 17424492.137598842 13924457.998398304 0 13924457.998398304 19194411.511108398 0 0 0 0 -36363039.79698658 718617.53653335571 0 718617.53653335571 42898007.840955734 0 0 0 0 -4663585.142751297 -3094395.4232243896 0 -3094395.4232243896 2771856.4317321479 0 0 0 0 -24572433.277349532 -942085.58292913437 0 -942085.58292913437 28415464.153217316 0 0 0 0 -27530532.741627216 64782090.383148193 0 64782090.383148193 -17416694.386291504 0 0 0 0 28376413.678061962 -71783975.564543724 0 -71783975.564543724 91667284.177408457 0 0 0 0 -60694885.329832196 10930145.30149889 0 10930145.30149889 99991626.595802307 0 0 0 0 -67320071.008860111 20964198.008271217 0 20964198.008271217 212160012.16894341 0 0 0 0 -10370754.466119528 2491605.3629550934 0 2491605.3629550934 68937760.60259819 0 0 0 0 264087.76224579848 157121.86981695518 0 157121.86981695518 181545.70609602332 0 0 0 0 8360053.8779318333 -57119878.48754406 0 -57119878.48754406 75107585.251005173 0 0 0 0 -55477727.059509605 46285832.618457794 0 46285832.618457794 38524680.053516388 0 0 0 0 -15538701.739425182 8338066.4016437531 0 8338066.4016437531 36756637.060270309 0 0 0 0 -20591872.741168976 -25752496.697340012 0 -25752496.697340012 39478691.207083493 0 0 0 0 747235.9360944638 603921.7280524075 0 603921.7280524075 646070.24821106344 0 0 0 0 -45249678.945975751 -28785235.528496742 0 -28785235.528496742 53776775.381822586 0 0 0 0 5804017.2549592853 -53290373.934241772 0 -53290373.934241772 40216961.845647812 0 0 0 0 -9844866.0401160717 4769762.5921669006 0 4769762.5921669006 -6672466.6455802917 0 0 0 0 -4311184.1361603737 -24283830.942984581 0 -24283830.942984581 11899538.484004974 0 0 0 0 -184839919.67813778 24268226.986011505 0 24268226.986011505 21690551.54009819 0 0 0 0 -203178.62129605468 535780.15942266956 0 535780.15942266956 1832597.0265275538 0 0 0 0 -97753274.65739429 15267723.669035435 0 15267723.669035435 22690431.811149597 0 0 0 0 -216279111.43558025 40483028.584778786 0 40483028.584778786 75158497.242458344 0 0 0 0 725462.16957133228 2350836.2504991265 0 2350836.2504991265 4494219.0847694799 0 0 0 0 -59021605.088628173 -43033509.445462227 0 -43033509.445462227 -23517047.628356934 0 0 0 0 21364028.991247892 -5478752.9898481369 0 -5478752.9898481369 23643278.524240494 0 0 0 0 -58536892.467697442 -36569592.71115303 0 -36569592.71115303 17045106.980266571 0 0 0 0 -28101558.30896163 2687597.7619485855 0 2687597.7619485855 -13434213.760379791 0 0 0 0 956816.92845940171 1251326.1085554771 0 1251326.1085554771 2321461.1989122443 0 0 0 0 53059319.183014631 -65142323.984704494 0 -65142323.984704494 13684388.225503922 0 0 0 0 33875991.175852075 -21239033.259492636 0 -21239033.259492636 17352117.59945488 0 0 0 0 -11963078.153466523 625588.22147655487 0 625588.22147655487 19522800.063975334 0 0 0 0 -104875027.51095396 19742158.493041039 0 19742158.493041039 42696458.207775116 0 0 0 0 3098858.6697983211 6405989.9496244546 0 6405989.9496244546 12540688.494378693 0 0 0 0 -3986836.3553521633 66661014.118267059 0 66661014.118267059 -3830018.2789926529 0 0 0 0 22369151.879946321 121123903.02170706 0 121123903.02170706 65958402.337682724 0 0 0 0 163049623.4227916 122758332.33436203 0 122758332.33436203 -54994768.237827301 0 0 0 0 -25420307.283807397 104523509.53365803 0 104523509.53365803 64009575.515974045 0 0 0 0 -99758835.477246523 13013279.043783188 0 13013279.043783188 50511606.97102356 0 0 0 0 -33912982.911800027 88814846.096358299 0 88814846.096358299 134928587.53344345 0 0 0 0 -660848.45879306225 -1422296.038746506 0 -1422296.038746506 -1497070.6312056854 0 0 0 0 -214077398.32059753 -60185056.633296967 0 -60185056.633296967 165966061.36179733 0 0 0 0 -21911788.931028605 -71294869.968664169 0 -71294869.968664169 955485.91465759277 0 0 0 0 -77553929.819567859 -78954490.682618141 0 -78954490.682618141 7126153.6669769287 0 0 0 0 -27852653.534878217 21696881.616195679 0 21696881.616195679 -16203848.819839478 0 0 0 0 15879652.855317593 -276583450.00275421 0 -276583450.00275421 88141381.107046127 0 0 0 0 162564616.02995095 -137792100.48287773 0 -137792100.48287773 61851713.680541992 0 0 0 0 -72648505.453998089 -49510135.299365997 0 -49510135.299365997 19322114.383640289 0 0 0 0 -91312458.003961325 -147068.95380401611 0 -147068.95380401611 -3998023.8026313782 0 0 0 0 -147989332.00495559 -47430917.498125076 0 -47430917.498125076 30036464.465309143 0 0 0 0 130494.55732785212 -591732.19052123278 0 -591732.19052123278 -505700.87398752198 0 0 0 0 23926813.515757322 -6188893.8838510513 0 -6188893.8838510513 -9116934.7695922852 0 0 0 0 153649775.48932838 -149337153.64406204 0 -149337153.64406204 73240649.45071125 0 0 0 0 396167679.68093789 -26499647.466231346 0 -26499647.466231346 117492215.97532511 0 0 0 0 338029880.61736286 -265741441.01111507 0 -265741441.01111507 76837407.763835907 0 0 0 0 61206156.186139286 -187447023.91548967 0 -187447023.91548967 472508065.91876602 0 0 0 0 203511116.19031829 50754141.624814034 0 50754141.624814034 428741046.21261215 0 0 0 0 2235271.3964746878 2762692.8078349382 0 2762692.8078349382 4230131.4145262763 0 0 0 0 199477524.748137 -327130004.82915974 0 -327130004.82915974 719272506.09197235 0 0 0 0 182000781.27521038 292274364.35352182 0 292274364.35352182 -93733393.51763916 0 0 0 0 43031220.300808132 271356106.81240082 0 271356106.81240082 389593636.29888558 0 0 0 0 156582988.21132606 99443744.300644159 0 99443744.300644159 -138977204.62974358 0 0 0 0 4148475.5508021018 7699206.661910167 0 7699206.661910167 12541045.096679941 0 0 0 0 167979507.49339163 -196149886.89262676 0 -196149886.89262676 299176189.87077713 0 0 0 0 55722553.47062695 -116624001.34038067 0 -116624001.34038067 322530031.65773582 0 0 0 0 161637040.72920036 -162552918.99616909 0 -162552918.99616909 313169360.27013206 0 0 0 0 71768361.36217618 -113012251.4718132 0 -113012251.4718132 297627327.08404475 0 0 0 0 14409618.554127216 -47225481.753447533 0 -47225481.753447533 231580675.57360458 0 0 0 0 97785033.974482536 -99224030.745925903 0 -99224030.745925903 242969977.54661942 0 0 0 0 32985571.856314659 -26661318.854845047 0 -26661318.854845047 228755668.53175545 0 0 0 0 49561063.374632359 -56516512.945800781 0 -56516512.945800781 281899486.81860352 0 0 0 0 8777992.919220686 -55771616.217176437 0 -55771616.217176437 285612065.40056038 0 0 0 0 11294756.429617107 -7834705.5159549713 0 -7834705.5159549713 412207151.92761993 0 0 0 0 10846596.182250679 289524.26035118103 0 289524.26035118103 241087184.13773727 0 0 0 0 -6506936.3676464558 67592896.481777191 0 67592896.481777191 403548646.26640701 0 0 0 0 19211325.556871176 -4079516.1768093109 0 -4079516.1768093109 242586959.39071655 0 0 0 0 -6533788.4343467951 70348870.083457947 0 70348870.083457947 208490363.19345284 0 0 0 0 -9267095.7859503031 -14631586.214424133 0 -14631586.214424133 237057348.01537037 0 0 0 0 128096084.63561964 235989471.07751465 0 235989471.07751465 155651886.40534925 0 0 0 0 1268372.2918445372 1492814.5752275288 0 1492814.5752275288 -1773891.2959637418 0 0 0 0 -31073058.886832952 -503297635.24456406 0 -503297635.24456406 718210143.44145203 0 0 0 0 28573467.275205612 168187845.55209351 0 168187845.55209351 211787222.4254303 0 0 0 0 -65282526.853805125 -59694569.350772858 0 -59694569.350772858 73287304.335166931 0 0 0 0 -122137.73412540182 116314.49156145006 0 116314.49156145006 3739266.1630666442 0 0 0 0 -12292764.389403939 148334083.39702415 0 148334083.39702415 462035170.59059525 0 0 0 0 -71280597.010709286 -36385884.646167755 0 -36385884.646167755 -15828843.956283569 0 0 0 0 -602942.48811844364 8650132.9748409837 0 8650132.9748409837 17696603.662913322 0 0 0 0 -111662084.42878211 36816675.724367142 0 36816675.724367142 39203898.314861298 0 0 0 0 -114353067.10345602 27318029.970384598 0 27318029.970384598 133848077.77405167 0 0 0 0 -8474319.3591415882 20103726.013568878 0 20103726.013568878 16649859.12461853 0 0 0 0 -6260280.4837119877 28584949.368193865 0 28584949.368193865 6764120.250667572 0 0 0 0 1399412.3250266165 21122540.23079896 0 21122540.23079896 14338535.164619446 0 0 0 0 41503150.610407352 17624208.580766678 0 17624208.580766678 320687166.02462864 0 0 0 0 9186425.4206283092 -150714715.41131783 0 -150714715.41131783 419487421.75888062 0 0 0 0 -9825342.0529458523 -47794353.259586334 0 -47794353.259586334 288480800.53129864 0 0 0 0 -114435683.79433322 -54544436.795410156 0 -54544436.795410156 306907631.95684433 0 0 0 0 -155337816.69667935 19711611.270362854 0 19711611.270362854 150972838.00443745 0 0 0 0 42489846.725631118 -27708339.128559113 0 -27708339.128559113 114910231.05210114 0 0 0 0 -59385232.078579545 90124542.789232254 0 90124542.789232254 -55356413.214878082 0 0 0 0 108293719.69672918 -17788514.648715973 0 -17788514.648715973 130966314.96336174 0 0 0 0 167396512.01944023 -52799101.399850845 0 -52799101.399850845 138124352.77478409 0 0 0 0 58431568.335656762 -73528258.299117088 0 -73528258.299117088 72338535.242393494 0 0 0 0 82354355.822665691 -26446402.607349396 0 -26446402.607349396 67543272.766569138 0 0 0 0 -873833.72106417362 -341132.15315584466 0 -341132.15315584466 -72146.199774131179 0 0 0 0 -214121181.39996779 144586558.04122084 0 144586558.04122084 -21943390.554267883 0 0 0 0 1341586.1275138734 9682248.5483999252 0 9682248.5483999252 20529120.034834296 0 0 0 0 -14548966.738116741 26342136.083496094 0 26342136.083496094 23331923.922264099 0 0 0 0 -301455.55856251717 -5356467.1596927643 0 -5356467.1596927643 44441181.713214874 0 0 0 0 -577967.92708349228 10358006.2110672 0 10358006.2110672 16217353.242706299 0 0 0 0 -216280685.05091682 105013248.78164339 0 105013248.78164339 -91745190.910030365 0 0 0 0 -230971292.56982517 291689731.69153976 0 291689731.69153976 -64201004.690769911 0 0 0 0 3775591.2081593275 11821207.019332886 0 11821207.019332886 19161720.703033447 0 0 0 0 2687177.8281135559 9927151.3406295776 0 9927151.3406295776 28484951.76169014 0 0 0 0 -4072131.4328194857 15461674.970352173 0 15461674.970352173 30024884.866760254 0 0 0 0 -18733098.301495194 12401028.763463974 0 12401028.763463974 30590613.097991943 0 0 0 0 -4488320.3199563026 8734872.1374664307 0 8734872.1374664307 8012473.9543571472 0 0 0 0 -7078976.3337740898 7714638.8095321655 0 7714638.8095321655 48100228.873752594 0 0 0 0 -7786056.3934861422 5987613.3976631165 0 5987613.3976631165 46523071.718894958 0 0 0 0 -9018952.5807727575 7397056.9663391113 0 7397056.9663391113 44377812.089675903 0 0 0 0 -3379557.7923474312 12622911.7866745 0 12622911.7866745 27331835.710842133 0 0 0 0 2256280.1088290215 8906611.1481704712 0 8906611.1481704712 44300305.449724197 0 0 0 0 -701290.52295446396 3565388.1721248627 0 3565388.1721248627 53242214.291751862 0 0 0 0 -729028.2074406147 9643138.1445522308 0 9643138.1445522308 44860522.92565918 0 0 0 0 8933922.1518426239 9019989.6629731655 0 9019989.6629731655 42935371.785415649 0 0 0 0 19918393.204993725 10936495.70696187 0 10936495.70696187 55092110.142333984 0 0 0 0 -4423872.9594112635 10867677.192419052 0 10867677.192419052 71945625.239742279 0 0 0 0 -9049945.1040303707 3838308.4479103088 0 3838308.4479103088 61906779.070980072 0 0 0 0 -8244456.8848567009 4799038.3195571899 0 4799038.3195571899 62205681.981155396 0 0 0 0 -9509615.6363859177 -2230619.5953559875 0 -2230619.5953559875 60874184.487728119 0 0 0 0 -12019274.613246262 4369193.2867679596 0 4369193.2867679596 76132076.122940063 0 0 0 0 -7912358.3123450279 14603264.159265518 0 14603264.159265518 76125874.493595123 0 0 0 0 -19930178.660197616 7500003.1109771729 0 7500003.1109771729 75110375.965057373 0 0 0 0 924858.09266996197 22100314.764265995 0 22100314.764265995 57995398.618040025 0 0 0 0 -6839991.4619688988 7899488.0147800446 0 7899488.0147800446 71035811.94052124 0 0 0 0 -107225321.90245473 174145479.97130871 0 174145479.97130871 -117519100.19522858 0 0 0 0 3178461.160628824 10938347.049416892 0 10938347.049416892 20186967.022879303 0 0 0 0 -411036.71196991205 -153072.42851448059 0 -153072.42851448059 53922850.996803284 0 0 0 0 4252019.0269562006 -4983204.7773399353 0 -4983204.7773399353 51710281.824288368 0 0 0 0 -10482590.34722507 2933420.2424659729 0 2933420.2424659729 61622766.991916656 0 0 0 0 -1133530.4107294083 -14001695.483413696 0 -14001695.483413696 76983059.529067993 0 0 0 0 -28374752.720251173 18810079.55921936 0 18810079.55921936 91649627.009429932 0 0 0 0 -19110848.968305469 2827542.0250606537 0 2827542.0250606537 100786253.11183929 0 0 0 0 41834823.09961161 -56558377.613780975 0 -56558377.613780975 106784478.16952133 0 0 0 0 -24564133.850112438 5090083.6928634644 0 5090083.6928634644 141010832.83718681 0 0 0 0 -22425704.766255386 4824081.1844787598 0 4824081.1844787598 135812299.21029663 0 0 0 0 18316608.915897131 -40890074.566757202 0 -40890074.566757202 185422154.37445641 0 0 0 0 4649448.8504926087 10378249.810221083 0 10378249.810221083 16610709.744035058 0 0 0 0 26148200.57383661 -21390910.703990936 0 -21390910.703990936 223908448.41705227 0 0 0 0 39439145.644459225 -71572640.17559433 0 -71572640.17559433 181055489.39959717 0 0 0 0 -647834663.13277125 367802313.99596405 0 367802313.99596405 8353975.6354370117 0 0 0 0 25284948.656557083 444922316.83975029 0 444922316.83975029 -80962553.196320534 0 0 0 0 -947439.91774302768 -544691.6618950367 0 -544691.6618950367 57477.949265822768 0 0 0 0 -190195853.38408422 -118447901.21484387 0 -118447901.21484387 -10971913.817188263 0 0 0 0 717430998.79295671 -107973578.54973221 0 -107973578.54973221 -244283668.73646545 0 0 0 0 174472123.14614078 -424624831.5852623 0 -424624831.5852623 -94306548.754392624 0 0 0 0 1217008029.5552158 1106010207.7749405 0 1106010207.7749405 1355467088.0463867 0 0 0 0 1467830.6235158371 -423245.22776276991 0 -423245.22776276991 -1126183.1834173799 0 0 0 0 63303485.427258149 -344315557.98883617 0 -344315557.98883617 -165130730.54329681 0 0 0 0 -69074278.686752796 -387404627.37704659 0 -387404627.37704659 392738227.74056625 0 0 0 0 -358071038.12391758 -330097098.17893219 0 -330097098.17893219 159389329.09379578 0 0 0 0 -342479135.74416798 -383805230.782341 0 -383805230.782341 -270901532.41278076 0 0 0 0 33634429.733911812 239736110.83060074 0 239736110.83060074 -352153292.00585175 0 0 0 0 3747056.5697471499 277854513.18727112 0 277854513.18727112 156987550.26881599 0 0 0 0 -854879696.95296288 -1201213520.5189304 0 -1201213520.5189304 -343200104.10653687 0 0 0 0 167322953.55572128 545433441.99871826 0 545433441.99871826 499958508.08920288 0 0 0 0 609320062.85169101 -25362441.886608124 0 -25362441.886608124 131066022.9839592 0 0 0 0 12399062.997739207 -1391627.2736165002 0 -1391627.2736165002 -1071871.4695030842 0 0 0 0 69326212.806197643 302314620.8225193 0 302314620.8225193 984604248.76610422 0 0 0 0 -100227529.6770134 -245210745.52579117 0 -245210745.52579117 473294636.20111942 0 0 0 0 129651607.41420031 -29066781.435153961 0 -29066781.435153961 140054627.11048889 0 0 0 0 320376088.34708941 93980309.162611961 0 93980309.162611961 270486844.90445709 0 0 0 0 -81914866.863311827 43520748.181973696 0 43520748.181973696 615832699.0355072 0 0 0 0 91137773.019873857 139182800.47659302 0 139182800.47659302 572555981.78291321 0 0 0 0 760668278.30990124 453952950.91100502 0 453952950.91100502 372864371.25399017 0 0 0 0 280578542.24027884 -14024163.082439423 0 -14024163.082439423 110299780.86863804 0 0 0 0 236273462.65784121 -110831418.23443127 0 -110831418.23443127 72959092.548591614 0 0 0 0 438567998.5120213 -71593801.009376526 0 -71593801.009376526 42185631.457992554 0 0 0 0 162856036.54642206 -196914633.56696701 0 -196914633.56696701 45330847.606613159 0 0 0 0 191358698.87531114 2943363.3953399658 0 2943363.3953399658 167118228.3364563 0 0 0 0 175925671.88553643 -62900425.876998901 0 -62900425.876998901 141387507.52374268 0 0 0 0 122579593.39081407 -84795456.937362671 0 -84795456.937362671 150020287.83072662 0 0 0 0 130870605.84669805 -21871584.435447693 0 -21871584.435447693 171239644.14761686 0 0 0 0 117786917.13783956 -119864647.04736137 0 -119864647.04736137 72169258.69269371 0 0 0 0 94228307.879558474 -136481190.23513985 0 -136481190.23513985 68349594.640010834 0 0 0 0 123581034.13163972 -232341499.18937302 0 -232341499.18937302 58451696.924453378 0 0 0 0 173742804.89132851 -159366474.76925993 0 -159366474.76925993 72332725.647491455 0 0 0 0 165748615.34509534 -214719832.12723923 0 -214719832.12723923 51638916.594573975 0 0 0 0 29082455.591808319 -175345375.54154587 0 -175345375.54154587 78620970.053564072 0 0 0 0 69307178.80218628 -83120992.030899763 0 -83120992.030899763 70228377.982582092 0 0 0 0 207066130.66824573 -66946415.003734589 0 -66946415.003734589 67384259.75087738 0 0 0 0 -95379331.009090006 -56386262.830652237 0 -56386262.830652237 57979874.257781982 0 0 0 0 95590726.808435321 -97428796.237401962 0 -97428796.237401962 63423079.90819931 0 0 0 0 -140489953.60211712 -261201004.90118217 0 -261201004.90118217 96282156.908405304 0 0 0 0 146075743.34536031 -242931474.2378931 0 -242931474.2378931 75236523.274330139 0 0 0 0 175830643.45902348 -208595092.08535194 0 -208595092.08535194 50511796.153990269 0 0 0 0 
</DataArray>
<DataArray type="Float64" Name="cross_section_updated" format="ascii">
1 1 1 1 1 0.0097787126735690531 1 1 1 1 1 1 1 0.012157887375005401 1 1 1 1 0.015424514564684329 1 1 0.0098275949635619059 1 1 1 1 0.021599126518004115 1 1 1 1 0.0088046868150308787 1 1 1 1 1 1 1 1 1 1 1 1 1 0.010362530825436235 1 1 0.0099468917781056557 1 1 1 1 1 0.010625238849681688 1 1 1 1 1 1 1 0.01965079174648466 1 1 1 1 0.010510314904307445 1 1 1 1 1 1 1 1 1 0.010655031882952755 1 1 0.010076881711869223 1 1 0.011006055904015589 1 1 1 1 0.011444841987885979 1 1 1 1 1 1 1 0.0099444370234398061 0.0099951391194954553 0.010236761408899585 1 1 0.010113523102980242 1 1 1 1 1 0.0099971087604149907 1 1 1 1 1 1 1 1 1 1 1 1 1 0.010034477966034327 1 1 1 0.012613902357547552 1 1 1 1 1 1 0.011100711937357396 1 1 1 1 1 1 1 1 1 1 1 1 1 1 1 1 1 1 1 1 1 1 1 1 1 0.009963032347109109 1 1 1 0.011620478051575747 1 1 0.010968622340707852 1 1 1 1 1 1 1 1 1 1 1 0.010794485243239157 1 1 1 1 1 1 1 1 0.011696877913439742 1 1 1 1 1 1 1 1 0.011332185549111359 1 1 1 1 1 1 1 1 1 0.010606493163946315 1 1 1 1 1 1 1 1 1 1 1 1 1 1 1 1 1 1 1 1 1 1 1 0.0099988293477421848 1 1 1 0.017355426003767768 1 0.0099849808269207203 1 0.013725265571744673 1 1 0.011683934910821939 1 1 1 0.013401570526912973 1 0.010020745988018094 1 0.0093327360243063966 1 0.012696821936544991 0.0096678409816402591 1 0.0097074238655755589 1 1 0.010001078551598741 1 0.010442248281181725 1 1 1 0.013431723917586173 1 0.013227133031038701 0.010459215224955911 1 1 0.010379163540763171 1 1 1 0.012212503937892687 1 0.011659919303969167 0.01136227324974075 0.011621994888022145 1 0.0095695734634673301 1 1 1 0.010152699834803391 1 0.01166386361761574 0.011894330750105455 0.0098286224156059476 1 1 0.010516674062422411 0.011196432111292553 1 1 1 1 0.012197095792862662 1 0.009769916893149929 1 1 0.011734342182059236 1 1 1 0.010680052906475208 1 0.011589553862623116 0.011145274183190093 0.010744657980014767 1 1 1 0.010195284933968669 1 0.012156551380425443 0.012290986785001103 0.010245645161178263 0.010604917844593468 1 1 1 0.013505314147918439 0.010001225732691845 1 1 0.012000756446138738 0.01194909947014175 0.0096409517866393804 1 0.010092893612621036 1 1 1 1 0.010019942142076809 1 1 1 1 1 1 1 0.010916266860493705 1 1 1 1 1 1 0.011728750277611798 0.010002844191687494 1 1 1 0.010810150984147501 1 1 1 0.010133000601350533 1 0.0096779931768608135 1 0.0091899735188162232 0.014091735615823177 1 1 1 1 0.0095805789314933141 1 1 0.014013341446869885 1 1 1 1 0.010020900024189063 1 0.0099955524360453695 1 1 1 1 1 0.012357400414940078 0.012048084315028275 1 1 1 1 1 1 1 1 0.010452652093291005 1 1 1 0.009586493319114809 1 1 0.013959282565092877 1 0.0099943406521921553 1 1 1 1 1 1 1 1 1 1 1 0.012661668735342461 1 0.011955874084120788 1 0.012370320236708593 1 1 1 0.011280912409498229 1 0.01002606925706875 1 0.011821830451882323 1 1 1 1 1 1 0.013251067217228794 1 0.013901168274632371 1 1 1 0.01459163285672027 1 1 1 0.016870949634621147 1 0.013038531565662152 0.01068475621168246 1 1 1 1 0.015083427956440494 1 1 1 1 0.012028116253438803 0.011232111839902265 1 1 0.010128699207930695 1 0.014649120345202805 1 0.010536901359875008 0.011670832113872657 1 1 1 0.010201749959560082 1 1 1 1 0.014019795292760989 1 1 1 1 1 1 1 1 1 1 1 0.010011663712116677 1 1 1 1 0.011230494339845768 1 1 1 0.011493070289501963 1 0.011714445372163023 0.012632903533737944 0.0099966825460641329 1 1 1 0.012485578539143286 0.016530405122920498 1 0.016602482368607192 1 1 0.0096929645659790693 1 1 1 1 0.018144784971782332 1 1 1 1 1 1 1 1 1 1 1 0.019506792385347207 0.018407477017366378 1 1 0.011911393268530761 1 1 1 0.010067125333993877 1 1 1 1 1 1 0.020848263990079489 1 1 1 0.01005450487830517 1 1 1 0.01249707165662761 1 1 1 1 1 1 1 1 1 1 1 0.020684594476088506 1 1 1 0.020081327895149916 1 1 1 1 1 1 1 0.010605444388205506 1 1 1 1 1 0.011723601016355405 1 1 1 1 1 1 1 1 1 1 1 1 1 1 1 1 1 1 1 0.010044347925670341 1 1 1 1 0.010076681511875359 1 1 0.010030989804939066 1 1 1 1 1 1 1 0.010068040229358782 1 1 1 1 1 1 1 1 0.0099968098054864455 1 0.010194137638755894 1 1 0.010017503265770533 1 1 1 0.0098802628707076734 1 1 0.0099877168349794196 1 1 1 0.01228609379558324 1 0.012075247683994185 1 1 0.010005964749334149 1 0.0091638802363399816 1 1 1 1 1 1 1 1 1 1 1 1 1 1 1 1 1 1 1 1 1 1 0.010344169327683762 1 0.0098162953112657624 1 0.0099395862632517627 1 1 1 1 1 1 1 1 1 1 1 1 1 1 1 0.010170330492015066 1 1 1 1 1 1 1 1 1 0.010173838835668698 1 1 1 1 1 1 1 1 1 1 1 1 1 1 1 1 1 1 1 1 1 1 1 1 1 1 1 1 1 0.0099972934795342586 1 1 0.010000560352016272 1 1 1 0.00980871604541954 0.012206501077472029 1 0.011722769095367354 1 1 1 1 1 0.010204737660511831 1 1 1 1 1 0.010585528251657669 1 1 1 1 1 1 1 1 1 1 1 1 1 1 1 1 1 1 1 1 1 1 1 1 1 1 1 1 1 1 1 1 1 1 1 1 1 1 1 1 1 1 1 1 1 1 1 1 1 0.010034713956062494 1 1 1 1 1 1 1 1 1 1 1 1 1 1 1 0.011167402929725664 1 1 1 1 0.010432925439290903 1 1 1 1 1 1 1 1 1 1 1 1 1 1 1 1 1 1 1 1 1 1 1 1 1 1 1 0.012756926022551573 1 1 0.012170205739173231 1 0.012080908370750586 0.01067659529463403 0.0076721429606319558 0.019675334321773853 1 1 0.010065531183501494 1 1 1 1 1 1 1 1 1 1 1 1 1 1 1 1 1 0.012146052963920411 1 1 0.0078005432915691378 1 0.010480080601665599 1 1 1 1 0.014259480162874861 1 0.012068612641297124 1 1 1 1 0.010436195256392009 1 1 1 0.012186172616619598 1 1 1 1 1 0.010231312646282574 1 0.010052430026970392 1 1 0.012027825798270494 0.011105936684630516 1 0.009656727422563554 1 1 1 1 1 1 1 1 1 1 1 0.019094993828753806 1 1 1 0.0185438355221779 1 1 1 0.01164382848486753 1 1 0.018358274328951592 0.0097601535930146449 0.0099313185951823181 1 1 1 1 1 1 1 1 1 1 1 0.010101836484376535 1 1 1 1 1 1 1 1 0.018944492456579167 0.016233975706157637 0.01944896422913571 1 1 1 1 1 1 1 1 0.015468351300774777 0.010046877684994642 1 1 1 0.011206197980917354 1 1 0.01130047668319651 1 1 1 1 1 1 1 1 1 1 1 0.010440599252290092 1 1 1 1 1 1 1 1 0.010509695819007743 1 1 1 1 1 1 1 1 1 1 0.0099256319892729091 1 0.02088269351234015 0.0083444235628482282 0.014475265123161003 1 1 1 1 1 1 1 0.02010768151556494 0.01553201212077189 1 0.01420192343018528 1 1 1 1 1 0.01033614506579688 1 0.0099627971057795403 0.011030206938638938 1 1 1 0.010905781697710703 1 0.010693623852530719 1 1 1 1 0.010119839058193079 1 1 1 1 1 1 1 1 1 1 1 1 1 1 1 1 1 0.0094925361381799911 1 1 1 0.011032600822954222 1 1 1 1 1 0.009833161780749021 1 1 1 1 1 1 0.010815076681852706 1 0.010321974315890839 1 1 1 1 1 1 1 1 0.011620719493038159 1 1 1 0.022497383634504996 1 1 1 1 1 1 1 1 1 1 1 1 1 1 1 1 1 1 1 1 1 1 1 1 1 0.012878301873029512 0.012985514778741408 0.013895397797715547 1 1 1 1 0.012461711498490749 1 1 1 1 0.012713319884351516 1 1 1 1 1 1 1 0.010168321281070113 1 1 1 1 1 1 1 1 0.010444384149796844 1 1 1 1 1 1 1 1 1 1 1 1 0.011249127895705827 1 1 1 1 1 1 0.010214805086351759 1 1 1 1 1 1 1 1 0.014398579009526057 1 1 1 0.013057091234470724 1 1 1 1 1 1 1 1 1 1 1 1 0.010276062868726722 1 1 1 1 1 1 1 1 1 1 1 1 1 1 1 1 1 1 1 1 1 1 1 1 1 1 1 1 1 1 1 1 1 1 1 1 1 1 1 1 1 1 1 1 1 1 1 0.010422484725724088 1 1 1 1 1 1 1 1 1 1 1 1 1 1 1 1 1 1 1 1 1 1 1 1 0.010212877268161594 1 1 1 1 1 1 1 1 1 1 0.0099600585466629692 1 1 0.010576291678853784 1 1 1 1 1 1 1 1 1 0.0098755051869650855 1 0.009828731166258646 1 1 1 1 0.010816132309899825 1 1 0.0099812299170606907 1 0.010419311696768165 1 1 1 1 1 0.010922763424699264 1 1 1 1 1 1 1 1 0.009139766018273144 1 1 1 1 1 1 1 1 1 1 1 1 1 1 0.01103584855691233 1 0.010269380238186888 0.010214277445736624 1 1 1 1 1 0.010083421078426682 1 1 1 1 1 1 1 1 1 1 1 1 1 1 1 0.011180660642220466 1 1 1 1 1 1 1 1 1 1 1 1 1 1 1 1 0.01118876363947956 1 1 1 1 1 0.01310448362816815 0.010227469089400195 1 1 0.012932232019053642 1 1 1 1 1 1 1 1 1 1 0.010829733174490416 1 1 1 1 1 1 1 1 1 0.01127126748811293 1 0.021398559489321969 1 1 1 1 1 0.010134150282420349 1 1 1 1 0.022890892174511547 1 1 1 0.010305254970384266 1 1 1 0.021950578187658054 1 1 0.013195862519213916 1 1 1 1 1 1 1 1 1 1 1 1 1 1 1 1 0.010659306041656562 1 1 1 1 1 1 1 0.0095537407207544334 1 1 1 1 1 1 1 1 1 1 1 1 1 1 1 1 1 1 1 1 1 1 1 1 1 1 1 0.015192557717848689 1 1 1 1 0.011072282196073998 1 1 1 0.016557316723133059 1 1 1 1 1 1 1 1 1 0.018178418132555507 1 0.0099986287448853867 1 1 1 1 1 1 1 1 1 1 1 1 1 1 1 1 1 1 0.0099834681083965874 0.0138244955758542 1 1 1 0.010840823679396221 1 1 0.012688743134639573 1 1 0.009811421194505612 1 1 1 0.010855929162636462 1 1 0.0099839687690913576 1 1 1 1 1 1 1 1 1 1 1 1 1 1 1 1 1 1 1 1 0.012044692802116022 1 0.012145335854651055 1 1 1 1 1 1 1 1 1 1 1 0.015876543930261194 1 0.018863219846962358 1 1 1 0.028893068264936712 1 1 1 1 1 0.0098322780570480085 1 1 1 1 1 1 0.0086447942320624343 1 1 1 1 1 1 1 1 1 1 1 0.0076403161303471544 1 1 1 1 1 1 1 1 0.028523903414388669 1 1 1 0.023215707293267794 1 1 0.0066265579790970204 1 1 1 1 1 0.013871668530030688 1 1 1 1 1 1 1 1 1 0.010220644342081612 1 1 0.019356227081576312 1 0.015707980737019456 1 0.013708749546348138 0.015139908848171645 0.01213944456392351 1 0.0098979263361687574 1 1 1 1 1 1 0.021361486086531545 1 1 1 1 1 1 0.010514279677810471 1 1 1 1 1 1 1 0.019490750662005306 1 1 1 1 0.017753512427718214 1 1 1 1 1 0.02043015145323434 1 0.0099572306456183809 1 1 1 1 1 1 1 1 1 1 0.011362494476835971 1 1 1 1 1 1 1 0.012173221601891018 1 1 1 1 1 1 1 0.010007904556991132 1 0.011954528273648153 1 1 1 1 1 1 1 1 0.013896422436966189 1 1 1 0.013962836443474468 0.010046566270329916 1 1 1 1 1 0.013113765103698282 0.010117413968621524 1 0.012864166724054906 1 1 0.0093208575506209725 1 1 0.010942114049926274 1 1 1 1 1 1 1 1 0.014933869538355824 1 1 1 1 1 0.016991377011532787 1 1 1 1 0.015399665496305191 1 1 0.014848341449206319 1 1 1 1 1 1 1 1 1 1 1 1 1 1 1 1 1 1 1 1 1 1 1 1 1 1 1 1 1 1 1 1 1 1 1 1 1 1 1 1 1 0.010847125384736726 1 1 0.010243955911444868 1 1 1 1 1 0.010074052217863266 1 1 1 1 0.01112707754103468 1 1 1 1 1 1 1 1 1 1 1 1 1 1 1 1 1 1 1 1 1 1 1 1 0.010226529409809917 1 1 1 0.010137675244071467 1 1 1 1 1 1 0.010194038969228962 1 1 1 1 1 1 1 1 1 1 1 0.020925461789292551 1 0.011930361965101489 0.010176957021867196 1 1 0.015376839082437371 1 1 1 1 1 1 1 1 1 1 1 0.01841548240835144 1 1 0.011022543656932501 1 1 1 1 1 1 1 1 1 1 1 1 1 1 1 0.016407138059542581 1 1 1 1 1 1 1 0.0099731325749181053 1 0.010331628110404114 1 1 1 1 0.014791096387934575 1 0.010611961446456371 1 1 1 1 1 1 1 1 1 0.010132268106596412 1 1 1 1 1 1 1 1 1 1 1 1 1 1 1 1 1 0.012764906948911333 1 1 1 1 1 1 1 1 1 1 1 1 1 1 1 1 1 1 1 1 1 1 1 1 1 0.010108441633328602 0.0099103814556461868 1 1 1 1 1 1 1 1 1 1 1 0.010115053342531212 1 1 1 1 0.010528472352607347 1 1 1 1 0.010327691712150141 1 1 1 1 1 1 1 1 0.0087169663799723414 1 1 1 1 1 1 1 1 1 0.0095722613133004467 1 1 1 1 1 1 1 1 1 1 1 1 1 1 1 1 1 1 1 1 0.015704683040455001 1 1 1 1 1 1 1 1 1 1 1 1 1 1 0.021391608226399988 1 0.010265397241525209 1 1 1 1 1 1 1 1 0.02111252862935753 1 1 0.010459436210754172 1 1 1 1 1 1 1 1 1 1 1 1 1 1 1 1 1 1 1 1 1 1 1 1 1 1 1 1 1 1 1 1 1 1 1 1 0.010516758674488435 1 1 0.010053263822710214 1 1 1 1 0.01140946853983826 1 0.009758947622276349 1 1 0.010168922314544401 1 0.011094329040799267 1 1 1 1 1 0.01051145179405465 1 1 1 1 1 1 1 1 1 1 1 1 0.010879001092235529 1 1 1 0.012636230255708758 1 1 1 1 1 1 1 1 1 0.013249492623102925 1 1 1 1 0.012541218363029832 0.01391740759092024 1 1 1 1 1 1 1 1 0.010268526728261763 1 1 1 1 1 0.014743858222973034 1 1 1 0.014452954714867041 1 1 1 0.013629947201673275 1 1 1 1 0.02130372075850813 1 1 1 1 1 1 1 1 1 1 1 1 1 1 0.01357277531688536 1 1 1 1 1 1 0.015312780561392283 1 0.015344746803908474 0.010013633300702702 1 0.023196737816791272 1 0.0093329947623345781 1 1 1 1 0.010420824787648992 1 1 1 1 0.011032007638102647 1 1 1 1 1 1 1 1 1 0.010410671631161496 1 1 1 1 1 1 1 1 1 1 1 1 1 1 0.010993548877906118 1 1 1 0.010316135926947939 1 1 1 0.010831558696029663 1 0.010031291829946314 1 1 1 1 1 1 1 1 1 1 1 1 1 1 1 1 0.010281172704308479 1 1 1 1 1 1 0.010868580098893943 1 1 1 1 1 1 1 1 1 1 1 1 1 1 1 1 1 1 0.012127913287979243 1 1 1 1 1 1 1 1 1 1 1 1 1 1 1 1 1 1 1 1 1 1 1 1 1 1 1 1 1 1 1 1 1 1 0.0097717277517506088 1 1 1 1 0.0099023767560345241 1 1 1 1 1 1 1 0.011744594481452222 1 1 1 1 1 1 1 1 1 0.010588061197085025 1 1 0.012976400840065199 1 1 1 1 1 0.0099862470271757965 1 1 1 0.01044993275194577 1 1 0.012053301864182984 1 1 1 1 1 1 1 1 1 1 1 1 1 1 1 1 1 1 1 1 0.0097369019378339815 1 1 1 1 1 1 1 1 1 1 0.013270448579607675 0.00832354701538493 1 0.0120886246112835 1 1 1 1 1 0.01210307262715896 1 1 1 1 0.012260283765189549 1 1 1 1 1 0.0099997140734091328 1 0.010013967286205516 1 1 0.0093631315461303096 1 1 1 1 1 1 1 1 0.0098163223353896802 1 1 1 1 1 1 0.010019147608778577 1 1 1 1 1 1 0.0099384032848474409 1 1 1 1 0.0090267999251378069 1 1 0.011751722735336574 1 0.0090392846020839537 1 1 0.010515457805749771 1 1 1 1 1 1 0.010871171775490938 1 1 1 1 0.010231607590633338 1 1 1 1 1 1 1 1 0.015543550638516557 0.008421933902070293 1 1 1 1 1 1 1 1 0.013073479417961663 1 1 1 1 1 1 0.011452772422953001 1 1 1 1 1 1 1 0.0095389522152864743 1 1 1 0.010794050981793877 1 1 1 1 1 1 1 1 1 1 1 1 0.012081315342271658 1 1 1 1 0.01340167891248248 1 1 0.010927008269583954 1 1 1 1 0.012448293014967016 1 1 1 0.010057358767266118 0.013262308338830558 1 1 1 0.010891526719796899 1 1 1 0.013291405580091386 1 1 1 1 1 1 1 1 1 0.015455527911362767 1 1 1 0.0099948376114344373 1 1 1 1 1 1 1 1 1 1 1 1 0.012811912996437283 1 0.010036239691138791 1 1 0.011495591241398033 1 1 0.010724606991027577 1 1 1 1 1 1 1 0.0099961503317218606 1 1 1 1 1 0.010121413558415263 1 0.011303860189417238 1 1 1 0.01081036373630823 0.009892445487472706 1 0.012697153464949248 0.012368583519404383 1 0.011019078508165159 1 1 1 1 1 1 0.010662637288321203 1 0.016904004850649364 1 1 1 1 1 1 1 1 1 1 1 1 1 0.010149035233637062 1 1 0.012359429564385094 1 0.012069751872881057 1 1 0.014510288481695784 1 1 1 0.012225704831048848 0.009621485992757358 1 1 0.015824795814090742 1 1 1 1 1 1 1 1 1 1 1 1 1 1 1 1 1 1 1 1 1 1 1 0.011126955070004059 0.010064464365912053 1 0.0096212844724320352 1 0.010344291089134351 1 1 0.010008211991833025 0.013096708859833698 1 1 0.0099939843721288044 1 1 0.011234410292199029 1 1 0.013672058008965642 1 0.01115743672908342 1 1 1 1 0.010030216110035843 1 1 1 1 0.010502860478353859 1 0.011785399201132259 0.013723014467528355 1 0.013176227554891531 1 1 0.011197881677717908 0.011230511990202323 1 1 1 0.010663218207371173 1 1 1 1 0.012832092709076162 0.010565792201490088 1 1 1 1 1 0.01076564696834037 1 1 1 1 1 1 1 1 1 1 1 0.01162645183455966 1 0.010980833220490965 1 0.013412750490484245 1 1 0.010002566509226625 1 0.012934575854887657 1 1 1 1 1 1 1 1 0.010967267316252747 1 1 0.011551653709338446 1 1 1 1 0.010161504590899375 1 1 1 1 1 1 1 1 1 1 1 1 0.010835645202248473 1 1 1 1 1 1 1 1 1 1 1 0.010028198429257631 1 1 1 1 1 1 0.011035919156173008 1 0.011223324659573618 1 1 0.010268533463423751 1 1 1 1 1 1 1 1 1 1 1 1 1 1 1 1 1 0.010642005317276201 0.011796947037471269 1 1 1 0.0097921784990480341 1 1 0.011463435824978351 1 1 1 1 1 1 1 1 1 1 1 1 1 1 1 1 1 1 1 1 1 1 1 1 1 0.0099617623188220268 0.01071793215810965 1 1 1 1 1 1 1 1 1 1 1 0.0091077446925192096 1 1 1 1 1 1 1 1 1 1 1 1 1 1 1 1 1 1 1 1 1 1 1 1 1 1 1 1 1 1 1 1 1 0.010210665670141412 1 1 1 1 1 0.0098567960397271948 1 1 0.011282239020193879 1 1 0.0096423329214165125 0.019371103270856116 1 1 1 1 1 1 1 1 1 1 1 1 1 0.019646101266145438 1 1 0.010427806292138285 1 1 1 1 1 1 0.010001344421261963 1 1 0.018890162982221109 1 1 1 1 1 1 1 1 1 1 1 1 1 0.014070445153097879 1 1 1 1 1 1 1 0.010049791499556827 1 1 1 1 1 1 1 1 1 1 1 1 0.012016663149778941 1 1 0.01098074399360594 1 1 1 1 1 1 1 1 1 1 1 1 1 1 1 1 1 1 1 1 0.012779317638401119 1 1 0.012304549151373302 1 0.012919364524956333 1 1 1 0.0096717373021314463 1 1 0.011303265644810013 1 0.0099916661229635193 1 1 1 0.011820795101019696 1 1 1 1 0.010069585403993983 1 1 1 1 1 1 1 0.010247694422624375 1 1 1 0.009756769800901571 1 1 1 1 1 1 1 1 1 1 1 1 0.011175439040232465 1 1 1 1 1 1 1 1 0.0095707899975732234 1 1 1 1 1 1 1 1 1 1 1 0.010036618854985932 1 1 1 1 1 1 1 1 1 1 1 1 1 1 1 1 1 1 1 0.0087081740017484616 0.010916741312611149 1 1 1 0.010342098737800211 1 1 1 1 1 1 1 1 1 1 1 1 0.010220574957693405 1 1 1 1 1 1 1 1 1 0.010550805741067138 1 1 1 1 1 1 1 1 1 1 1 1 1 1 1 1 0.010370595537265263 1 0.010318905652262431 1 1 1 1 1 0.010554235232215964 1 1 1 1 0.0099922132007662715 1 1 1 0.0099796764767769424 1 1 1 0.010657567132321235 1 1 1 1 1 1 1 1 1 0.010211003566515232 1 1 1 0.01050651427335568 1 1 0.010081759418511497 1 1 1 1 1 1 0.010047520763561437 1 1 1 1 1 1 1 1 0.010074887194597985 1 1 1 0.010062542875182996 1 1 1 1 1 1 1 1 1 1 1 1 1 1 1 1 1 1 1 1 1 1 1 1 1 1 1 0.010539851565697202 1 1 1 1 1 1 1 0.010202152224919301 1 1 1 1 1 1 1 1 1 1 1 1 1 1 1 1 1 1 1 1 1 1 1 1 1 0.011273011137792915 1 0.010424130990534016 1 1 1 1 1 1 0.012056340737740236 1 1 1 0.010958119833450932 1 1 0.012745064128149585 1 1 1 1 1 1 1 1 1 1 1 1 0.018133940977380469 1 1 1 1 1 0.017586035577502573 1 1 1 1 1 1 1 1 1 1 1 1 1 0.011207460590481338 1 1 1 0.010670379975147607 1 1 1 1 1 1 1 1 1 1 1 1 0.011894948977680788 0.013431918599563705 1 1 1 1 0.015808542963490383 1 1 1 1 1 1 1 1 1 0.010244885575069834 0.0096725681669799675 1 1 1 1 1 0.0087541480276500383 1 1 1 1 1 0.0098945828049848868 1 1 1 1 1 0.010042861098135342 1 0.014312604393146806 1 1 1 1 0.0089949311028999224 1 0.011324107569075165 1 0.014117280441066098 0.0099750279337788485 1 1 1 1 1 1 1 0.010021569310100415 0.0095627339443717062 1 1 1 1 1 1 0.0099998869487956492 0.0096313731760048708 0.010850362332909282 1 0.010434670805864642 0.011685682116823769 1 1 1 0.012364250259163354 1 1 1 1 1 0.011318177896779053 0.0099874416744593249 0.010002491442816569 1 0.012782556952469543 1 1 1 0.0099535972457018909 1 0.0092791300121309959 0.010308404054409807 1 1 1 1 1 1 1 0.0094546881590462685 0.012930288692720121 1 1 0.010357463205631797 0.0098460510018778154 0.01212403783357993 1 1 1 1 1 1 1 1 1 1 1 1 1 1 1 1 1 1 1 1 1 1 1 1 1 1 1 1 1 1 1 1 1 1 1 1 1 1 1 1 0.0100641064999558 1 1 1 1 1 1 1 1 1 1 0.01061192706587042 1 1 1 1 1 1 0.01182813766089872 1 1 0.012961840434455155 1 1 1 1 1 1 1 1 1 1 1 1 1 0.011957776884117033 1 0.01466207232541172 1 1 1 1 0.0098404805820071217 1 1 1 0.010119010181401605 1 1 0.0097576615986981891 1 1 1 0.010001099493382307 1 1 0.013661131666412632 1 1 1 1 1 0.013186832031736035 1 1 1 1 1 1 1 0.01139460682722351 1 1 1 1 1 1 1 0.010539706324591825 1 1 0.010954932061832403 1 1 1 1 0.01028330531837518 1 0.010755966286046692 1 1 1 1 1 0.010768906998667562 1 1 1 1 0.010617875329882467 1 1 1 1 1 1 0.011780260612139166 0.0094249863534500468 1 1 1 1 1 0.013309372508911999 1 1 0.014042534188345245 1 1 1 1 1 1 1 1 1 1 0.0098724888180336864 1 1 1 1 1 1 1 1 1 1 1 1 1 1 1 1 1 1 0.0099404053663777955 1 1 1 1 1 1 0.010101547524284969 1 1 1 1 1 1 1 0.015432809990377808 0.010411002524397152 1 1 1 1 0.010010735504683685 1 1 1 1 1 1 1 0.012738143968038448 1 1 0.010301690559653184 1 0.0098893779647795388 0.011272466546089259 0.0098438061185757708 1 1 1 1 1 1 0.010202881317088981 1 1 1 1 1 0.010003014871974723 1 1 1 1 0.010253579663785211 1 1 1 0.011998558450220088 1 1 1 0.011279574589202642 1 1 1 1 1 1 1 1 1 1 1 1 1 1 1 1 1 1 1 1 1 1 1 1 1 0.01460965546171451 1 1 1 1 1 1 1 0.012388752933566567 1 0.014460302549486104 1 1 1 1 1 1 0.011844888176754222 1 1 0.0103777823328402 1 1 1 0.0099719523947328428 1 1 0.013849119059895649 1 1 1 1 1 0.0089446756607561122 1 1 1 0.0097085956200639728 0.01174045379302872 1 1 1 1 1 1 1 1 1 1 1 1 0.010700753312030901 1 1 1 1 1 1 1 1 1 0.011620901575985942 1 1 1 1 1 0.010027430920544431 0.010985580510106348 1 1 1 1 1 1 1 1 1 0.010036979518530364 1 1 1 1 1 1 1 1 0.011196115081119727 1 1 1 1 1 1 1 1 1 1 1 1 1 1 1 1 1 1 0.0098442772977955402 1 1 1 1 0.0096010470986971127 1 0.010571136358979667 1 0.010736303477058352 1 1 1 1 1 1 1 1 1 1 1 1 1 1 1 1 1 0.011416761419551677 1 1 1 1 1 0.010077179409265729 1 1 1 0.011319810539239092 0.010074662828637577 1 1 1 1 1 0.010118576019292874 1 1 1 1 0.010246817907130314 1 1 1 1 1 1 1 1 0.011006336426713944 1 1 1 1 1 1 1 0.010816502637569045 1 1 1 1 1 1 1 1 1 0.0099909772381312489 1 1 1 1 1 1 1 1 1 1 1 1 1 1 1 1 1 1 0.010412404152861619 1 1 1 1 1 1 1 1 1 1 1 1 1 0.0096853103899215889 1 1 1 1 1 1 0.010172428180568446 1 1 0.01001234431941499 1 1 0.010388779005934932 1 1 1 1 1 1 1 1 1 1 1 1 1 1 1 1 1 1 1 1 1 1 1 1 1 1 0.010111065671861368 1 0.009226468217981702 1 0.010000128772101276 0.011057985106725642 1 1 1 0.0091852794137338833 1 1 1 1 1 1 1 1 1 0.011224135237055913 0.0090340811198242801 1 0.018806845936458143 1 1 1 1 1 1 1 1 1 1 1 1 1 1 0.009993410218714277 1 0.014475451350659245 0.011444288172340639 1 0.013381860311370971 1 1 1 1 1 1 1 1 1 0.018937846626644814 0.0096364791908091565 1 1 1 1 1 1 1 1 1 1 1 1 1 1 1 1 1 1 1 1 1 1 0.011078322209095236 1 1 1 1 1 0.010188152805985534 1 1 1 1 1 0.010568190342652047 1 1 1 0.013145237566020998 1 1 1 1 1 1 1 1 1 0.010755331935703409 1 1 1 1 0.017971282349747139 1 1 1 1 1 1 0.018090016134786488 1 1 1 1 1 1 1 0.010349666168601807 1 1 1 1 0.017186885726901802 1 1 1 1 1 1 1 1 1 1 0.010250820719642902 1 1 1 1 0.012787550753071636 1 1 1 0.013523260766370677 1 1 1 1 1 0.010501462704671477 1 1 1 1 1 1 1 1 1 1 1 1 1 1 0.011112620054923299 0.015677114519765938 1 1 0.014668965782001973 1 1 1 1 1 1 1 0.010484862564582066 1 1 1 1 1 1 0.010444424882702388 1 1 1 1 1 1 1 1 1 1 1 1 1 1 1 1 1 1 1 1 1 1 1 0.010902221445510771 1 1 1 1 1 1 1 1 0.010431788054306675 1 1 1 1 0.011166791308803388 1 1 1 1 1 0.010879056818100743 1 0.010046848485329128 1 0.013135217365747277 1 1 1 1 1 1 1 0.010087123420978429 1 1 1 0.0087378894658217861 1 1 1 1 1 0.010612510773971018 1 1 1 1 1 0.010187964763071017 1 0.010001242556811727 1 1 0.0099944248299282876 1 0.011541677918042798 1 1 1 1 1 0.010415871328781794 1 1 1 0.010889101010796987 1 1 1 1 1 1 1 1 1 1 0.010118148765862207 1 1 1 1 1 1 1 1 1 1 1 1 1 1 1 1 1 1 1 1 1 1 0.010408229464558306 1 1 1 1 1 1 1 1 1 1 1 1 1 1 1 1 1 1 0.01088216373030626 1 1 1 0.010906992394283617 1 1 1 1 1 1 0.0090236409456029357 1 1 1 0.0093412311237747996 0.01135815149838388 1 0.0085189646471373111 1 0.011368215227667046 0.0094785167529560128 1 0.0089841585387122579 1 1 0.00998716579075885 1 1 0.010398987089403129 0.0099310682793158512 1 1 1 1 1 1 1 1 0.009978010466264349 1 0.0099943394394736013 1 1 1 1 1 1 1 1 1 1 1 1 1 1 1 1 1 1 1 1 1 1 0.013580147543381889 1 1 1 1 1 1 1 1 0.013891374289977644 1 1 0.010149896550515573 1 1 0.013991229046868212 0.01009665341911666 1 1 0.010043729767342869 1 1 1 1 1 1 1 1 1 1 1 1 1 1 1 1 1 1 1 1 1 1 1 1 1 1 1 1 1 1 1 1 1 1 1 1 1 1 1 0.010206026598752764 1 0.0096509962003463491 1 1 1 1 1 1 1 1 1 1 1 1 1 1 1 1 1 1 1 1 1 1 1 1 1 1 1 1 1 1 1 1 1 1 1 1 1 1 1 1 0.01028811414590565 1 1 0.010105037422783408 1 1 1 1 1 0.010443004548594682 1 0.010495728772679375 1 1 0.012934368710234116 1 1 1 1 1 1 0.014646132164554446 1 1 1 1 1 1 1 1 1 1 1 0.0098665516307883325 1 1 0.014846178888980724 0.0098417350284993443 1 0.011161332123440365 1 1 0.013662826892331975 1 1 1 1 0.010685301288422881 1 1 1 1 1 1 1 1 1 0.010007297920566326 1 0.017335853029309012 1 1 1 1 1 1 1 0.0098983524155622001 1 0.017149821809604004 1 1 1 1 1 1 1 1 1 0.010931851050815735 1 0.018648941532111812 1 1 1 1 1 1 1 1 1 1 0.012828265451011482 1 1 1 0.015544959578051744 1 1 0.010002736398163396 1 1 0.0096468930064277942 1 1 1 1 0.0098230204320097735 1 1 1 0.010216350825366481 1 1 1 1 1 1 1 1 1 1 1 1 1 1 0.0099509272847362329 1 1 1 1 1 1 0.0095001539427651965 1 0.01071966709302196 1 0.011468293070198187 1 1 1 0.01005330214420414 1 1 1 1 1 1 1 1 0.011399610515997223 1 1 1 1 1 0.0099828014477032958 1 1 0.011577235256545344 1 1 1 1 1 1 1 1 1 0.011182442598183776 1 1 1 0.010587524747272446 1 1 1 1 1 1 0.011193936797094512 1 1 1 1 1 1 1 1 1 1 1 1 1 1 1 1 1 1 1 1 1 1 1 1 1 1 1 1 1 1 1 0.010777122916380426 1 1 1 1 1 0.0097837704427146295 1 1 0.010130434990421298 0.010129307777360649 1 1 1 1 0.0094710856287214297 1 1 1 1 1 0.0099225447907516327 1 1 1 1 1 1 1 1 1 1 1 1 1 1 1 1 0.010206108583336163 1 1 1 1 1 1 1 1 0.010774382331663314 0.011875441681467994 1 1 1 1 1 1 0.012085079618833483 1 1 1 1 0.01029852386287094 1 1 1 1 1 1 1 1 1 1 1 1 1 1 1 1 1 1 1 1 1 1 1 1 0.011254240650455532 1 1 0.010683226317411261 1 1 1 1 1 1 1 1 1 1 1 1 1 1 1 1 1 1 1 1 1 1 1 1 1 1 1 0.010122740957611783 1 0.01037584942188626 1 1 1 1 1 0.010749497256124018 1 1 1 1 1 1 1 1 1 1 1 1 1 1 1 1 1 1 1 1 0.010440225600664248 0.010800492577627288 1 0.010488194841222131 1 1 1 1 1 1 1 1 1 1 1 1 1 1 1 1 0.010378200411728487 1 1 1 0.010140510038736701 1 1 1 1 1 1 1 1 1 1 1 1 1 0.010373647834237762 1 1 1 1 1 1 1 1 1 1 1 1 1 1 1 1 1 1 1 1 1 1 0.0083503244251336289 1 1 1 1 1 1 1 1 1 1 1 1 1 0.011195079506622909 1 0.012108951610321135 1 1 0.0096301512316013752 0.016550444976691323 1 1 1 1 1 1 1 1 1 1 1 1 1 1 1 1 1 1 1 1 0.013663560017889136 1 1 0.019276089686423286 1 1 1 0.010392895729776048 1 1 1 1 1 1 0.016702532152908692 1 1 1 0.0097171832068656677 1 1 1 1 1 1 1 1 0.00999951257933023 1 1 0.010727681972052587 1 1 0.013131603669290479 1 0.014023587872756534 1 1 1 1 0.008315373792597924 0.0067691237082869509 1 1 0.013634235743299932 0.0077079460478448351 1 1 0.0087465081975278587 1 1 1 1 0.011651362984125758 1 1 0.010768098047666772 0.01420454581520196 1 0.010000025798270213 1 1 1 1 1 1 1 1 1 1 1 1 1 1 1 1 1 1 1 1 0.01171324751201182 1 1 1 1 0.010543153395891656 1 1 1 1 0.010249859323559447 0.012351643408361437 1 1 1 1 1 1 1 1 1 1 1 1 0.010790752059877432 1 1 1 0.01689193339328857 1 1 1 1 1 1 1 0.013704015408922335 1 1 1 0.014403057840507667 1 1 0.010606590998454726 0.012792084276189488 1 1 1 0.012593829320930509 1 1 1 0.010920182324496744 1 1 1 1 1 1 1 1 1 1 1 1 1 1 1 1 1 1 0.009953473600600839 1 1 1 1 1 1 1 1 1 1 1 1 1 1 1 1 1 1 0.01016291080032861 0.0098091038451730162 1 1 1 1 1 0.0096432512566073051 0.010462819441565992 1 0.0095444107005405038 1 1 1 1 1 1 1 1 1 0.011017389026442202 1 1 1 0.010575204393653757 1 1 1 1 1 1 1 1 1 1 1 1 1 1 0.011204760632189018 1 1 1 1 1 1 1 0.0098632870779451418 1 1 0.010180365898262675 1 1 1 1 1 1 0.016332644817849629 1 1 1 1 0.016705136319493046 1 1 1 1 1 1 0.012483160938080757 1 1 1 1 1 1 1 1 0.010061713455317237 0.015604970282999842 1 1 1 0.0093387922253341995 0.014207744644490792 1 1 1 1 1 0.0097720841084807716 1 1 1 1 1 1 0.011951835535369298 1 1 1 1 0.0097864768934142581 1 1 1 1 1 0.010631264737324338 1 1 1 1 0.013489994938854895 1 1 1 1 1 1 1 1 1 1 1 1 1 1 1 1 1 1 1 1 1 1 1 1 1 0.010420920610817428 1 1 1 1 0.010645679531881449 1 0.012390977080026844 1 0.0075251751290338308 1 1 0.01446903781912301 1 1 0.012980234705041177 1 1 0.0096156969759895461 1 1 1 1 1 1 0.016988761639599462 1 1 0.016220800217884739 1 0.0085033668433814411 0.012353333847416397 0.013481443752567509 1 1 0.0094485704100589936 1 0.009539208393192309 0.0099276343490386863 1 1 1 0.011545310849858223 1 0.010045412629239088 1 1 1 1 1 1 0.0097312462903227249 1 1 1 0.0099889453329151875 1 1 1 1 1 1 1 0.011353945090494279 1 1 1 0.0087745851407448807 1 0.023637687648628069 0.023028819324468396 1 1 1 1 1 1 1 0.010505628132301874 1 1 1 1 1 1 1 1 0.010273358085328121 0.008833000087800455 1 1 1 1 0.0076028909268755652 1 1 0.0076693260288769856 1 1 1 0.010003714974641862 1 1 1 0.0094590975756136345 0.0096410552443804698 1 1 1 1 0.010070582639809152 1 1 1 1 1 0.0095160964029966759 0.0090515011614350372 1 1 1 1 1 1 1 1 1 1 1 1 1 1 1 1 1 1 1 1 1 1 1 1 1 1 1 1 1 1 1 0.011021098555537373 1 1 1 0.0098684286999404878 1 1 1 1 1 1 1 1 1 1 1 1 1 1 1 0.0098327488865057842 1 0.010371001520260967 0.010764438999551802 1 1 0.0095728567498482402 1 1 1 1 1 1 1 1 1 1 1 1 1 1 1 1 1 1 1 1 1 1 1 0.010968476700652761 1 1 0.0081879307695354384 0.0099184923699221928 1 1 1 1 1 1 1 0.0086850682728488917 1 1 1 0.011876958493863308 1 1 1 1 0.010878660391290321 0.010292353964974389 1 1 1 1 1 1 1 0.0081594429527401275 1 1 1 1 0.0091528703505272847 1 1 1 1 0.0096818333276860145 1 1 1 1 1 1 1 1 1 1 1 1 1 1 1 1 1 1 1 0.010938983056493972 1 1 1 1 1 1 1 1 1 1 1 1 1 1 1 1 0.012453026700507767 1 1 1 0.010887805611735409 1 1 1 1 1 1 1 1 1 0.0098204087999701241 1 1 1 1 1 1 1 1 1 1 1 1 1 1 1 1 1 1 1 1 1 0.0099329867011175733 1 1 1 1 1 1 1 1 1 1 1 1 1 1 1 1 1 0.0097961970444732129 1 1 1 1 1 0.01004789962928865 1 1 1 1 1 1 1 1 1 1 1 1 1 1 1 1 1 1 1 1 1 1 1 1 1 1 1 0.01013524747619785 1 1 0.015681390546026137 1 1 1 0.015881343858510019 1 1 1 1 1 1 1 1 1 1 1 1 1 1 1 0.020521098884981891 1 0.0083947174716128507 1 1 1 1 1 1 1 1 1 0.018841114983431197 1 1 1 1 1 1 1 1 1 0.011652662464909263 0.015765939717731832 1 1 1 1 1 1 1 1 1 1 1 1 1 1 1 1 1 1 1 1 1 1 1 1 1 1 1 1 1 1 1 1 1 1 1 1 1 1 1 1 1 1 1 1 1 1 1 1 1 1 1 1 1 1 1 1 1 1 1 1 1 1 1 1 1 1 1 1 1 1 1 0.011995858013759478 1 1 1 1 1 1 0.014954297987336501 1 1 1 1 1 1 1 1 1 0.011921049209304615 1 0.014611102438486285 1 1 1 1 1 1 1 1 1 1 1 1 1 1 1 1 1 1 1 1 1 1 1 1 1 1 1 1 1 1 1 1 1 1 0.009837374077187433 1 1 1 0.010175264000524804 0.01001544803835913 1 1 1 1 1 1 1 1 1 1 1 1 1 1 1 1 1 1 1 1 1 1 0.009872372521849972 0.0094912731663165661 1 1 1 1 1 1 1 1 0.010493277122151267 1 1 1 1 1 1 0.010412727028140917 1 1 1 1 1 0.010911727812896781 1 1 1 1 0.010314345665690037 1 1 1 0.021938908181859972 1 1 1 0.019768681128255916 1 1 0.016016903310756864 1 1 1 1 1 1 1 1 1 1 1 1 1 0.010103645454237324 1 1 1 1 1 1 1 1 0.01112261787529004 1 1 1 1 1 1 1 1 1 1 1 0.013651096495507461 1 1 1 0.011309270839689058 1 1 1 1 0.0089288591535745358 1 1 1 1 1 1 1 1 0.0075804101624751367 1 0.01697476025703043 1 1 0.0079676929303538323 1 1 1 1 1 0.01639532944189754 1 1 1 1 1 1 1 1 1 1 1 1 0.010766195409767372 1 1 1 1 1 1 1 1 1 0.0092928687724827003 1 1 1 1 1 1 0.011872845998331273 1 1 1 1 1 1 1 0.011218622901758069 1 1 1 1 1 0.01198481831152544 1 1 1 1 1 1 1 1 1 1 1 1 1 1 1 1 1 1 1 1 1 1 1 1 1 1 1 1 1 1 1 1 1 1 1 1 1 1 1 1 1 1 1 1 1 1 1 0.011949257440486047 1 0.014948441440769317 1 1 1 1 1 1 1 1 1 1 1 1 1 1 0.0098770185629184215 1 1 1 1 1 1 1 1 1 1 1 1 1 1 1 0.010124303727919696 1 1 0.011193008809530412 1 0.01238731961560006 1 1 1 1 1 0.013607403172807576 1 1 1 1 1 1 1 1 1 1 1 1 1 1 1 1 1 1 1 1 0.012274328394208375 1 1 1 1 1 1 1 1 1 1 1 0.0131338528640935 1 0.010202432369043906 1 1 0.013615493570565839 1 0.0086163439604885709 1 1 1 1 1 1 1 0.010280399059308569 1 0.017882058787962531 1 1 1 1 0.020338112092338448 1 1 1 1 0.010613547125115278 0.011325738387651009 1 1 0.015380394533968698 1 1 1 1 1 1 1 1 1 1 1 1 1 1 1 1 0.010838009339945798 1 1 1 1 1 1 1 1 1 1 1 1 1 1 0.012371106372420049 1 0.010113115327285659 1 1 1 1 1 1 1 0.016913511328264824 1 0.020522363493281494 1 1 1 1 1 1 1 1 1 0.010216189757935803 0.014060272340359085 1 1 1 0.013515592459464076 1 1 1 1 0.0086408402788095418 1 0.011178769453722842 1 1 0.012592134514075723 1 0.0042849020059035677 0.0073440027533655874 0.010922003436617062 1 1 0.010000122553065031 1 1 1 0.009661648518115757 0.011600124560426889 0.015020765448328198 1 1 1 1 1 1 1 1 1 1 1 0.014550360051794138 1 1 1 1 1 1 0.016383067062366849 1 1 1 0.010294897986168599 1 1 1 1 1 1 1 1 0.013416020515907384 1 1 1 0.011302888807027381 1 1 1 1 1 1 1 1 1 1 1 1 1 1 1 1 1 1 1 1 1 1 1 1 1 1 1 1 1 1 1 1 1 1 1 1 1 1 1 1 1 1 1 1 1 1 1 1 1 1 1 1 1 1 1 1 1 1 1 1 0.010470307323175592 1 1 1 1 1 0.010773838244793268 1 1 1 1 0.010009006149757518 1 1 1 0.0096834064047089195 1 1 1 1 1 1 1 1 1 1 1 1 1 1 1 1 1 1 1 1 1 1 1 1 1 1 1 1 1 1 1 1 1 1 1 1 1 1 1 1 0.011607740032525005 1 1 0.013724391022135725 1 1 1 1 1 1 1 0.0098594692272021417 1 1 1 1 1 1 1 1 1 1 1 0.0095671089550412088 1 1 0.010075436882661021 1 0.0093931015344403106 1 1 1 0.014436457840875778 1 1 1 1 1 1 1 1 0.0099740939102626255 1 1 1 1 0.0099713908408431539 1 1 1 1 0.014138364964408593 1 0.0094253945151053543 1 1 1 1 1 1 1 1 1 1 1 1 0.012516527295672207 1 0.013462874821421694 1 1 1 1 1 1 1 1 1 1 1 1 1 0.010150878148481941 1 1 1 1 1 1 1 1 1 0.010460198329771454 1 1 1 0.010309320181289536 1 1 1 1 1 1 1 1 1 1 1 1 1 1 1 1 1 1 1 1 1 1 1 1 1 1 1 1 1 1 1 1 1 1 1 0.010242366387459654 1 1 0.0099652465661838729 1 1 1 1 0.010316908549481432 1 1 1 1 1 1 1 1 1 1 1 1 1 1 1 0.010195607066296105 1 1 1 1 1 1 1 1 1 0.010616989742988171 1 0.0100462635175505 1 1 1 1 1 1 1 0.0097664771418399139 1 1 1 1 1 1 1 1 1 1 1 1 1 1 0.01177919214779409 1 1 1 1 1 1 1 1 1 1 1 0.014456031094979956 1 1 1 1 1 1 1 1 1 1 1 1 1 1 1 1 1 1 1 1 1 1 1 0.0097332818922891123 1 0.010200641261145839 1 1 1 1 1 1 0.0092167232185562577 1 0.012781625786098642 1 1 1 0.0079019111101043937 1 1 1 0.017289434588887882 1 1 1 0.0066319105151626707 1 1 0.014545768534651674 1 1 1 1 1 1 1 0.011573272710566228 1 1 1 1 1 1 1 0.013871175018771073 1 1 1 1 1 1 1 1 1 1 1 1 1 0.0090762624269156104 1 1 1 1 1 1 1 1 0.010666556071248468 1 1 1 1 1 1 1 1 1 1 1 1 1 1 1 1 1 1 1 1 0.015495691248296686 1 1 1 1 1 1 1 1 1 1 1 1 1 1 1 1 1 1 1 1 1 1 1 1 1 1 1 1 1 1 1 1 1 1 1 1 1 1 1 1 1 1 1 1 1 1 1 1 1 1 0.0099565732426074392 1 0.0074031523212020169 1 1 1 0.01419665489746344 1 1 0.0098064933406392003 0.0060976852396919965 1 0.0099257340585819226 1 1 1 1 1 1 1 1 1 1 1 1 1 1 1 1 1 1 1 1 1 1 1 1 1 1 1 1 1 1 1 1 1 1 1 0.014112709250931124 1 1 1 1 0.010276833585912958 1 1 1.5612511283791264e-17 1 1 1 0.056778599249107713 1 1 1 1 0.016431492327706951 1 0.010004779573309907 0.0065675318578015448 1 1 1 1 0.01185988612544815 1 1 1 -1.7347234759768071e-17 1 1 1 0.011183231599189849 1 1 1 1 1 1 0.011237650478514251 1 1 1 1 1 1 1 1 1 1 1 1 1 1 1 1 1 1 1 1 0.012729614484808936 1 1 1 1 1 1 1 1 1 1 1 1 1 1 1 1 1 1 0.010232368833308407 1 1 0.01057805377234846 1 1 0.0066668207223783589 1 1 1 1 1 1 1 1 1 1 1 0.01077374606093532 1 1 1 1 0.010472814610821869 1 1 1 1 0.0085484474556280724 1 1 1 0.0095553267648036087 1 1 1 1 1 1 1 1 1 1 1 1 1 1 1 1 1 1 1 1 1 1 1 1 1 0.0078941034227663701 1 1 1 1 1 1 1 1 0.0095555666827461232 1 1 1 0.0061004161741805389 1 1 1 1 1 1 1 1 1 1 1 1 1 1 1 1 1 1 1 1 1 1 1 1 0.019081447495724831 1 1 1 0.0030610657009252293 1 1 1 1 1 1 1 1 0.016910860606970626 1 1 0.01287755062670169 1 1 1 1 0.011149118356236318 1 1 1 1 1 1 1 0.010645760002028543 1 0.010047028687124688 1 1 0.0097122371758632912 1 1 0.010238137034130498 0.0099667896608561096 1 1 1 1 1 1 1 1 1 1 1 1 1 1 1 1 1 1 1 1 1 0.011303088269401608 1 1 1 1 0.011038280879163342 1 1 1 1 1 1 1 1 1 1 1 1 1 0.010175214202783646 1 1 0.010170138864980166 1 1 1 1 1 1 1 1 1 1 1 1 1 1 1 1 1 1 1 1 1 1 1 1 1 1 1 1 1 1 1 1 1 1 1 1 1 1 1 1 1 1 1 1 1 1 1 1 1 1 1 1 1 1 1 1 1 1 1 1 1 1 1 1 1 1 1 1 1 1 1 1 1 1 1 1 1 1 1 1 1 1 1 1 1 1 1 1 1 1 1 1 1 1 1 1 1 1 1 1 1 1 1 1 1 1 1 1 1 1 1 1 1 1 1 1 1 1 1 1 1 1 1 1 1 1 1 1 0.009982935047554025 1 1 1 1 1 1 1 0.011730590329617346 1 1 1 1 1 1 1 1 1 0.014396526201126398 1 0.0074343907424187904 1 1 1 0.0091511382067100376 1 1 0.0096142333535882037 1 1 1 1 1 1 1 1 1 1 1 1 1 1 1 1 1 1 1 1 1 1 1 1 1 1 1 1 1 1 1 1 1 1 1 1 1 0.011136749305359753 1 1 0.0088443923760767457 0.015748652496653644 1 1 0.010116651325477731 1 1 0.010720325386522424 1 1 1 0.011292426692795954 1 1 1 1 1 1 1 1 1 0.012846187975254152 1 1 1 1 1 1 0.010775100300981569 1 1 1 1 1 1 1 1 1 1 1 1 1 1 1 1 1 1 1 1 1 1 1 1 1 1 1 1 1 1 1 0.010127742790867174 1 1 1 1 1 1 1 1 1 1 1 1 1 1 1 1 1 1 1 1 1 1 1 1 1 1 1 1 1 1 1 1 1 1 1 1 1 1 1 1 1 1 1 1 1 1 0.013871393767056359 1 0.013660387853607585 1 1 1 1 0.010602119224440978 1 1 1 1 0.01715423222822951 1 1 1 1 0.0099192339181860996 1 1 1 1 1 1 1 1 0.016250448859135118 1 1 0.011692238093038567 1 0.0097863605619664066 1 1 1 1 0.0086140717988155216 1 1 0.017758481320102822 0.0070664286673687744 1 1 1 1 1 1 0.01033657177351795 1 1 1 1 1 1 1 1 1 1 0.018312301594529672 0.010476415180734441 1 1 1 1 1 0.010654846740763382 1 1 0.01737641401789685 1 1 1 1 0.01381157840903768 1 1 0.010913070056692382 1 1 1 1 1 1 1 1 1 1 1 1 1 1 1 1 1 1 1 1 1 1 1 1 1 1 1 1 1 0.015380366162833656 1 0.012243598131106821 1 1 1 1 1 1 1 1 1 1 1 1 1 0.010002843491182219 1 1 1 1 0.011022624966002138 0.0097633892169469196 1 1 1 1 1 1 1 1 1 1 1 1 1 1 1 1 1 1 1 1 1 1 1 1 1 1 1 1 1 1 1 1 1 1 1 1 1 1 1 1 1 1 0.010003232807380011 1 1 1 0.010000389316197773 1 1 1 1 1 1 1 1 1 1 1 1 1 1 1 1 1 1 1 1 0.011636933045163148 1 1 0.011379395986481911 1 1 1 1 1 1 1 1 1 0.011630164918662625 1 1 1 1 1 0.013927448181480921 1 1 1 1 1 0.010041012621172787 1 0.0099843405233434514 1 1 1 1 1 1 1 1 1 1 1 1 1 0.0095441577704077959 1 1 1 0.0098310015706010306 0.012943241931777184 1 1 1 1 1 1 1 1 0.013900986655988873 1 1 0.011945567885597821 1 1 0.0099546401080084831 0.011136694242027415 1 1 1 1 1 0.010980249254822723 1 1 1 1 1 1 1 0.010431261473199397 1 1 0.010816242770469145 0.01110427287637502 1 1 1 1 1 1 0.009894413950447517 0.010119185657804224 1 1 1 0.0099752015044979672 1 1 1 1 1 1 1 0.0099772074838250548 1 1 1 1 1 1 1 1 1 1 1 1 1 1 1 1 1 1 1 1 1 1 1 1 1 1 0.025441112647794792 1 1 1 1 1 1 1 0.0098462640596022472 1 1 1 1 1 1 1 1 1 1 1 0.021959389317783427 1 1 1 1 1 1 1 1 0.0094914535433777876 1 1 1 1 1 1 1 1 1 1 1 1 1 1 1 1 0.01071699815387674 1 1 1 0.0096959332904448178 1 1 1 1 1 0.012095045804827419 1 1 1 1 1 1 1 1 1 1 1 1 1 1 0.011304833438068179 1 1 1 1 0.013533138630887873 1 1 0.01508203329277874 1 1 1 1 1 0.0099608522780911431 1 1 1 1 1 1 1 1 1 1 1 1 1 1 0.0098266204680450293 1 0.0067828298773968624 1 1 1 0.015630119684221983 1 0.015889971526826412 1 0.0065821523121139596 1 1 1 1 1 1 0.0100350681331431 0.026369427692021712 1 1 1 1 1 1 0.02602893231481871 1 0.0099634985623698637 1 1 1 1 1 1 1 1 1 1 1 1 1 1 1 1 1 0.0072813719411318114 1 1 1 0.010000136773293554 0.0085152576313893696 1 1 1 1 1 0.0094704328625951472 1 1 0.010000423430950783 0.0098544498919613099 1 1 1 1 1 1 1 1 1 1 1 1 1 1 1 1 1 1 1 1 1 1 1 1 1 1 1 1 1 1 1 1 1 1 1 1 1 1 1 1 1 1 1 1 0.01847023830335711 1 1 0.0074981791922256544 0.0093781786830764227 0.011629546130956209 1 1 1 1 1 1 0.0098634398393869557 1 1 1 1 1 1 1 1 1 0.010552430942881535 1 1 1 0.018379430696440283 1 1 1 1 1 1 1 1 1 1 1 1 1 1 1 1 1 1 1 1 0.016468870071924126 1 1 1 1 0.012427364897623401 1 1 1 1 1 1 1 1 1 1 1 1 1 1 1 1 1 1 1 1 1 1 1 1 1 1 1 1 1 1 1 1 1 1 0.011352594295364721 1 0.010748681365301523 1 1 1 1 1 1 1 1 0.011950423071704077 1 1 1 0.014029263604802503 1 0.011201741706402549 1 1 1 1 1 1 1 1 0.017319521845066875 1 1 1 1 0.012362081927205022 1 1 1 1 0.016479659762040681 1 1 1 1 1 1 1 0.016870925974736002 1 1 1 1 0.0130679355221331 1 1 1 1 1 1 1 1 1 1 1 1 1 1 1 1 1 1 1 1 1 1 1 1 1 1 1 1 1 1 1 1 1 1 1 1 1 1 1 1 1 1 1 1 1 1 0.012226774768655472 1 1 1 1 0.012035306265428147 0.013432039565359197 1 1 0.013987570915323606 0.012081487736524196 1 1 1 1 1 1 1 1 1 1 1 1 1 1 1 1 1 1 1 0.010944831836466308 1 1 1 0.011526356017624346 0.011125768293675752 1 1 1 1 1 1 1 1 1 1 1 1 1 1 1 1 1 1 1 1 1 1 1 1 1 1 1 0.010709601300507597 1 1 1 1 1 1 1 0.010988825905498597 1 1 1 1 1 1 1 1 1 1 1 1 1 1 1 0.011401223816432226 1 1 1 1 1 1 1 1 0.010793935775678021 1 0.010199961997569462 0.012016697064680497 1 1 1 1 1 1 1 1 1 1 1 1 0.0097955202529329682 1 1 1 1 1 1 1 1 1 1 1 1 1 1 1 1 1 1 0.0078535354803881356 1 1 1 0.0070872235753603316 1 1 1 1 1 1 1 1 0.0089429989409096529 1 1 1 1 1 1 1 1 1 1 1 1 1 1 1 0.010500688489984224 1 1 1 0.010360179860011505 1 1 1 1 1 1 1 1 1 1 1 1 1 1 1 1 1 1 1 1 1 1 1 1 1 1 1 1 1 1 1 1 1 0.011217716047487909 1 0.010508900767816583 1 1 1 1 1 1 1 1 0.0098502879780833601 1 1 1 1 1 1 1 1 1 0.011523472631219975 1 1 0.0081185815445568646 1 1 1 1 1 0.0091312290620018163 1 1 1 1 0.01022059043905215 1 1 1 1 0.0083686474621382564 1 1 1 0.0083936887525458276 1 0.016444841309146824 1 1 0.017551808251023846 1 1 1 1 1 1 1 1 1 1 1 1 1 1 0.0098862271146615121 1 1 0.011274559772096626 1 0.0097565625976622165 1 1 1 0.013468444781638417 1 1 0.01253024390596633 1 1 1 1 0.015905348743027636 1 0.0084487796909589515 1 1 1 1 1 1 0.0094780620853203382 1 0.010007420385252487 1 1 1 1 1 0.010540711580051043 1 1 1 1 0.016611754837213184 1 1 1 1 1 1 0.010424870219894381 1 1 1 1 1 1 1 1 1 1 1 1 1 1 1 1 1 1 1 1 1 1 1 1 1 1 1 1 1 1 1 1 1 0.010411204915024126 0.0099782788793517287 1 1 1 1 1 1 1 1 1 1 0.0085415439136669533 1 1 0.017094093310581523 0.010133466636186252 1 0.01002967571569912 1 1 1 1 1 1 1 0.0082380342197012398 1 1 1 1 1 1 1 1 1 1 1 1 0.011938001236742261 1 1 1 1 0.010682282405024935 1 1 1 1 1 1 1 1 1 1 1 1 0.012691718866857229 1 1 1 1 1 1 1 1 1 1 1 1 1 1 1 1 1 0.011922634763163771 1 1 1 1 1 0.010462404621839588 1 1 1 0.013303434003463097 1 1 1 1 1 1 0.012584282462253816 1 0.013181066767724729 1 1 1 0.011658859972519697 1 1 1 1 1 1 1 1 1 0.014577422995333017 1 1 0.0098472261709097626 1 1 1 1 1 1 1 0.011022108021639327 1 1 1 1 1 1 1 1 1 1 1 1 1 0.0097544570683177484 1 1 0.011482099437755324 1 1 1 1 1 1 0.01011694953614244 1 1 1 1 1 1 0.013808502213862392 1 1 1 1 1 1 1 0.015561837106752937 1 1 1 1 1 1 1 1 1 1 1 1 1 1 1 1 1 1 1 1 1 1 0.010970882240456689 1 1 1 1 1 1 1 1 1 1 0.0081656284678480531 1 1 1 1 0.0076111842838259107 0.015479984362954675 1 1 1 1 0.014676841023506054 1 1 1 1 1 1 1 1 1 0.013807345785833891 1 1 1 1 1 1 1 1 1 1 1 0.012363699901488816 1 1 1 0.0098262896728173177 1 1 1 0.010879353868814038 1 1 1 1 1 1 1 1 1 1 1 1 0.0090853648153549314 1 1 1 1 1 0.0099981727603537397 1 1 0.010025590319885879 1 1 1 1 1 1 1 1 1 1 1 1 1 1 0.010806492210560074 1 1 1 1 1 1 1 0.011572351348298827 1 1 1 0.010811553366736663 1 1 1 1 1 0.010065418333877717 1 1 1 1 1 1 1 1 1 0.010038000774345576 1 1 1 1 1 1 1 1 0.0093876115625448602 1 1 1 1 1 0.010195491368915606 1 1 1 1 1 1 1 0.01008347324051009 1 1 1 1 1 1 1 1 1 1 1 1 1 1 1 1 1 1 1 1 1 1 1 1 1 1 1 1 1 1 1 1 1 1 1 1 1 1 1 1 1 1 1 1 1 1 1 1 0.011741259562848608 1 1 1 1 1 1 1 0.011850623009441263 1 1 1 1 1 1 1 1 1 1 1 1 1 1 1 1 1 1 1 1 1 1 0.013808956678737383 0.0097400519098823132 1 1 0.014998053097671965 0.007906205462055494 1 1 1 1 1 1 1 0.0097828815485845929 1 1 1 1 1 1 1 1 1 1 1 1 1 1 0.013791654949306986 1 1 1 1 1 1 1 1 0.011746264473461833 1 1 0.010232153616354685 1 1 1 0.01023765124679437 1 1 1 1 1 1 1 1 1 1 1 1 1 1 1 1 1 1 1 1 1 1 1 1 1 1 1 1 0.012859466267111484 1 1 1 1 1 1 1 1 0.01012535561365384 1 1 1 1 1 1 0.01757791941382901 0.0099429018293890753 1 1 1 1 0.0096604719356994662 1 1 0.015502207955717169 1 1 0.014309591596657338 1 1 1 1 1 1 0.010228423708139209 1 1 1 1 1 1 1 1 0.010313275457349039 1 1 1 1 1 1 1 1 1 1 1 0.01071706131909788 1 1 0.010404310180657418 1 1 1 1 1 1 1 0.011167312583528601 1 1 1 0.010391763710137107 1 0.011431447261347418 1 0.010749137874917054 1 1 1 1 1 1 1 1 1 1 1 1 1 1 1 1 1 0.016078840561575873 1 0.0099973123452265084 1 1 1 1 1 1 1 1 1 1 0.01401311467365003 1 1 1 1 1 1 1 0.010389703541399209 1 1 1 0.009979553345244304 1 0.0099275177637291809 0.0085744918786578861 1 1 0.0066548728066347287 1 1 1 1 0.014905242444879261 1 1 1 0.0071451845657877341 1 1 1 0.0095092632865039668 1 0.01048695695360314 0.017278791477424067 1 1 1 1 1 1 0.01134597587350215 1 1 1 1 1 1 1 1 0.017347910437612166 0.010011954090558096 0.01802317212047231 1 0.024448982296174916 1 1 0.0085537932692612249 0.010005128941676742 1 1 0.0079165254603883618 1 1 1 1 1 1 1 1 1 1 1 0.010127363868432883 1 1 1 1 1 1 1 1 1 1 1 1 1 0.015611845335483975 0.015899061436548456 1 1 1 1 0.015941079035173472 1 1 1 0.0102770371962022 1 1 1 1 1 0.014611528521371988 0.010005316538727414 1 1 1 0.0091899089772590932 1 1 1 1 1 1 1 1 1 1 1 1 1 1 1 0.010178174238655052 1 1 1 0.011978174878492835 1 1 1 0.010106642443025584 1 1 1 1 1 1 0.014476962072320861 1 1 1 1 1 0.014206203082157967 1 1 1 1 1 1 1 1 0.012204375714394044 1 1 1 1 1 1 1 1 1 0.010588147571197129 1 1 1 1 0.014931335688565979 1 0.0098819542450748372 1 1 0.013778161121990085 1 0.010653619380401599 1 1 1 1 1 1 0.010922091935626259 1 0.0099872809117129199 0.017581437636590203 1 1 1 1 1 1 1 1 0.008318821862148322 1 0.0099394737678271828 1 0.010022909005957426 1 0.016156506997240305 1 1 1 1 1 1 1 1 1 1 1 0.01019012584961905 1 1 1 0.010466828523290183 1 1 1 1 1 1 1 1 0.010276702673671123 1 1 1 1 1 1 1 1 1 0.010071689283471425 1 1 1 1 0.0098811637989198262 1 1 0.0097048715168598452 1 1 1 1 1 1 1 1 1 0.010169272305190566 1 1 1 0.0097587034942705052 1 1 1 1 1 1 1 1 1 1 1 1 1 1 1 1 1 1 1 0.010805209916175793 1 1 1 1 1 1 1 1 1 1 0.010346355922735036 1 1 1 1 1 1 1 1 1 1 1 1 1 1 1 1 1 1 1 1 1 1 1 1 1 1 1 1 1 1 1 1 1 1 1 1 1 1 1 1 1 1 1 1 1 0.020934706759886436 0.0097059319681619301 1 1 1 1 1 1 1 1 1 1 1 1 1 0.02615049700357629 0.0099015780647749348 1 1 1 0.011662561125099322 1 1 0.013926173637306721 1 1 1 0.01670499056718398 1 1 1 0.021061966761250946 1 1 1 1 1 1 1 1 0.0097240215000671034 1 1 0.012558834336395886 1 0.01437160908762793 0.015134920717014026 1 1 1 1 1 1 0.015887675409359942 1 0.010267059833016349 0.0134564190759542 0.010639850995913802 1 1 0.015506567172805357 1 1 0.012776676403464795 0.014660726162213547 1 1 1 1 1 1 1 1 1 1 1 1 1 1 1 1 1 1 1 1 1 0.011379008432202579 1 1 1 1 1 1 1 1 1 0.011716755675184919 1 1 1 1 1 1 1 0.0088560733981149133 0.01141409329726608 1 1 1 1 1 1 1 1 1 1 1 1 1 1 1 1 1 1 1 1 1 1 1 0.011539072141250217 1 0.0099277068008864489 1 1 1 1 1 1 1 0.010934604060860418 1 1 1 0.011700677406767997 0.010074707555697782 1 1 0.0095296073264997932 1 1 1 1 0.012975918436217357 1 1 1 0.012922439546286675 1 1 1 0.025900331705057143 1 1 1 1 1 1 1 1 1 0.029042060456555337 0.00660692399825283 1 1 1 1 1 0.011297392922324543 1 1 0.0094569425674726829 0.022044161813472053 0.028103248614144406 1 1 1 1 1 0.009529069718517828 1 1 1 1 1 1 1 1 1 0.0092939662509676814 1 0.0097036497249279839 1 1 1 1 1 1 1 1 1 1 1 1 1 1 1 1 1 1 1 1 1 1 1 1 0.0094740755727324901 1 1 1 1 0.008701919874215213 0.0084420161563367856 1 1 1 0.0093258371869923175 1 1 1 1 1 1 1 1 1 1 1 1 1 1 1 1 0.017007384120449612 1 1 1 0.010058316971627944 1 1 0.0040612992230560519 1 1 1 1 1 1 1 1 1 1 1 1 1 0.0075844269494286399 1 1 0.016058834574837186 1 1 1 0.0058105733833801118 1 0.02249121546930935 1 0.010025514480970752 1 0.013276022460863362 0.015119112870096096 0.010023591584639816 1 1 1 1 1 1 1 1 0.0098645466759622238 1 1 1 1 1 1 1 1 0.015882680535694992 1 1 0.012569884454119853 1 1 1 1 1 1 1 1 1 1 1 1 1 1 1 1 1 1 1 1 1 0.010614633679278533 1 1 1 1 1 1 1 1 1 1 0.010337887780260839 1 0.010968454415266636 1 1 0.013176006152165924 1 0.010448255695187423 1 0.010016232662350005 1 1 0.010071924686355323 1 0.01368931831524076 1 1 0.012249190629231001 1 1 1 0.010036198867673263 1 1 1 1 1 1 1 1 1 1 1 1 1 1 1 1 1 1 1 1 1 1 1 1 1 1 1 1 1 1 1 1 1 1 1 1 1 1 1 1 1 1 1 1 1 1 1 1 1 1 1 1 1 1 1 1 1 1 1 1 1 0.012438056184521123 1 1 0.017523185990576874 1 1 1 1 1 1 0.010389065797099861 0.013650617222409601 1 1 1 1 1 1 1 1 1 1 1 1 1 1 1 1 1 1 0.015709536893823775 1 1 1 0.010315559445177501 1 1 1 1 1 1 1 1 1 1 1 1 1 1 1 1 0.0098065215839127709 1 1 1 1 1 1 1 0.017093387777442702 1 1 1 1 1 1 1 1 0.014859323113709277 1 0.01056438077327549 1 1 1 1 1 1 1 1 1 1 1 1 1 1 1 1 0.009979081380729166 1 1 1 1 1 1 1 0.0099347703490943063 1 1 1 1 0.0099740708458450882 1 1 1 1 1 1 1 0.0099137759635552509 1 1 0.012408665973883383 0.010487955192952099 1 1 0.009244187039670464 1 1 1 1 1 1 0.0098695802472161479 1 1 1 1 1 1 1 1 1 0.010254636221912555 1 1 0.010061389884854516 1 1 0.010021154016181248 1 1 0.013002044032570159 1 1 1 1 1 0.01320740046383078 1 1 1 1 1 1 1 1 0.010273443230360949 1 1 1 1 1 1 1 0.010817101429327961 1 1 1 1 1 1 1 1 1 1 1 1 0.010097281560446671 1 1 1 1 1 1 1 0.0099705865305470837 0.010000805763512428 1 0.013087118599550571 1 0.013819730203753822 1 1 1 1 1 1 1 1 1 1 1 1 1 1 1 0.010004979911717921 1 0.014272804853807976 1 1 1 1 1 1 1 1 0.0095304368950387998 1 0.011075841192922438 1 0.012652584386602946 1 0.0099570663977043387 1 0.0099706995728875477 1 1 0.010254926343409604 1 1 1 1 1 0.010803342350386484 1 1 1 1 1 1 1 1 0.0099754404461433153 1 1 1 1 1 0.0099458794020141038 1 1 0.012698106388811669 1 0.010406549732773759 0.011000714198370495 1 1 1 1 1 1 1 1 0.0099996042380270656 1 1 1 1 1 1 1 1 1 1 1 1 1 0.010103727243843065 1 1 1 1 1 1 1 0.010004806232828864 1 1 1 0.010004790176792665 1 1 1 1 1 1 1 1 1 1 1 1 1 1 1 1 1 0.010183305933444324 1 1 1 1 1 1 1 0.010083694704861446 1 1 0.010068401379195274 1 1 1 1 1 1 1 1 1 1 1 1 1 1 1 0.01015255140947811 1 1 1 1 0.0099936258247972434 1 1 1 1 1 1 1 1 1 1 1 1 1 1 1 1 1 1 1 1 1 1 1 1 1 0.011219816988457296 1 1 1 1 1 1 0.010091278870863848 1 1 1 1 1 1 1 1 1 0.011848260783696482 0.010320974007955097 1 1 1 0.010065302795265768 1 0.0100939766604113 1 1 1 1 1 1 1 1 1 1 1 1 1 1 1 0.010086025244893713 1 1 1 1 1 1 1 1 1 1 1 1 0.010004724950512326 0.010027261918642076 1 1 1 1 1 1 1 1 0.01015409706943996 1 1 0.0099995502160826893 1 1 0.011067752345071499 0.0095463742385970638 1 1 1 1 1 1 1 0.010346441000665906 1 1 1 1 1 1 1 1 1 0.010022536968129745 1 1 1 0.011269779577811681 1 1 1 1 1 0.011026572465923909 1 1 1 1 1 1 1 1 1 1 1 1 0.010980787125492331 1 1 1 0.010028949495825459 1 1 1 0.01001351370273724 1 1 1 1 1 1 1 1 1 1 1 1 1 1 1 1 1 1 1 1 1 1 1 1 1 1 1 1 1 1 1 1 0.010106802085482248 1 1 1 1 1 1 1 1 1 1 1 1 1 1 1 1 1 1 1 1 1 1 1 1 0.010054023662378675 1 0.0099987709919032199 1 1 0.013677374482383549 1 1 1 1 1 1 1 1 1 0.0096863077467664455 1 1 1 1 1 1 1 1 1 1 1 1 1 1 0.013279289206063548 1 1 1 1 0.012574301378815871 1 1 1 0.011058726837862291 1 1 1 1 1 1 1 1 1 1 1 1 1 1 1 1 1 1 1 1 1 1 1 1 1 1 1 1 1 1 1 1 1 1 1 1 1 1 1 1 1 1 1 1 1 1 1 1 1 1 1 1 1 1 1 1 1 1 1 1 1 1 1 1 1 1 1 1 1 1 1 1 1 1 1 1 1 1 1 1 1 1 1 1 1 1 1 1 1 1 1 1 1 1 1 1 1 1 1 1 1 1 1 1 1 1 1 1 1 1 1 1 1 1 1 1 1 1 1 1 1 1 1 1 1 1 1 1 1 1 1 1 1 1 1 1 1 1 1 1 1 1 1 1 1 1 1 1 1 1 1 1 1 1 1 1 1 1 1 1 1 1 1 1 1 1 1 1 1 1 1 1 1 1 1 1 1 1 1 1 1 1 1 1 1 1 1 1 1 0.010522184768330429 1 1 1 1 1 1 1 1 1 1 1 1 1 1 1 1 0.010879388013813813 1 1 1 1 1 1 1 1 0.020886920301866445 1 1 1 1 0.0093827230502527437 1 1 1 1 1 1 1 1 1 1 1 1 1 1 1 1 1 1 1 1 1 1 0.011534630678737614 1 1 1 1 1 1 1 1 1 1 1 1 1 0.010068340613172359 0.0096592121038169797 1 1 1 1 1 0.0088483615333536398 1 0.020779032484049963 1 1 1 1 1 1 1 1 1 1 1 0.01000927877993762 1 1 1 1 1 1 1 0.029514752675999928 1 1 1 1 1 1 1 1 1 1 1 1 1 1 1 0.0106408350267586 0.032322976392204272 1 1 1 1 1 1 1 1 1 1 1 1 0.016868739161235075 1 1 1 1 1 1 1 1 1 1 1 1 1 1 1 1 0.012414608592240049 1 1 1 1 1 1 1 0.034108194955155366 1 1 1 1 1 1 1 1 1 1 0.0097928089942709833 0.029025218298815346 1 1 1 1 1 1 1 1 1 1 1 1 1 1 1 1 1 1 1 1 1 1 1 1 1 1 1 1 1 1 0.011054029348072706 1 1 1 1 1 0.010691484187608184 1 1 1 1 1 1 1 1 1 1 0.01027484748582936 1 1 1 1 0.010337718761899536 1 1 1 1 1 1 1 1 1 1 0.010668676530183262 1 0.010252039828404431 1 1 1 1 1 1 1 1 1 1 1 1 1 1 1 1 1 1 1 1 1 1 1 1 1 1 1 1 1 1 1 0.010408813432031164 1 1 1 1 1 0.011049648458789762 1 1 1 1 1 1 1 1 1 1 1 1 1 1 1 1 1 1 0.011263253656865285 1 1 0.025255646728086535 1 1 1 0.010421285253875551 1 1 1 1 1 0.027690236583081982 1 1 1 1 1 1 1 1 1 1 0.015627444467451266 1 1 1 1 1 1 0.010959840430894537 1 1 1 1 1 0.0019082962811520585 0.0096799463139390189 1 1 0.0188546468190832 1 1 0.011173169367078585 1 1 1 1 1 1 1 1 1 1 0.010247040339214253 1 1 0.010257844860708791 1 1 0.009602582306564687 1 1 0.010820662084405725 1 1 0.011799031709482771 1 1 0.0098286354350932623 1 1 1 1 1 1 0.012224063266984017 1 1 1 1 1 1 1 1 1 1 1 0.019343091178585313 1 1 1 1 1 1 1 0.010172809664006001 1 1 1 1 0.010992747953672494 1 1 1 0.018374005428981311 1 1 1 1 1 1 1 1 1 1 1 0.012778828058515986 1 1 1 1 1 1 1 1 1 1 1 1 1 1 1 1 1 1 1 1 1 1 1 1 0.010183412896507968 1 1 1 1 1 0.010245421252958957 1 1 1 1 1 1 1 1 1 1 1 1 1 1 0.012635697996663458 1 1 0.01158963085592587 1 0.014272080705700288 1 1 1 1 0.016868312649548314 1 0.0097978099418889377 0.011608322801979848 1 0.012951920533445117 1 1 1 1 1 1 1 0.010013148885130507 1 0.013342735525044435 1 1 1 1 1 1 0.0091088365326152752 1 1 1 1 1 1 0.010060252081927266 1 1 1 1 0.010206369981071056 1 1 1 1 1 0.010300362432650407 1 1 0.01084372017300685 1 1 1 1 0.010459702413552511 1 1 1 1 0.012367796747554421 1 1 1 1 1 1 0.0096820570522229248 1 1 1 1 1 1 1 1 1 0.0099695335178934062 1 1 1 1 1 1 0.01096965885175267 1 1 1 1 0.012628710915839282 1 1 1 1 1 1 1 1 1 1 1 1 1 1 1 1 0.010156196119299573 1 1 1 0.010074640609983247 1 1 0.012939746469412872 1 1 1 1 1 1 1 1 1 1 1 1 1 1 1 1 0.009867373384295006 1 0.013491704620017095 1 1 1 1 1 1 1 1 1 1 1 1 1 1 1 1 1 1 1 1 1 1 1 1 1 1 0.019289588700565241 1 1 0.013780242660630746 1 1 1 1 1 1 1 1 1 1 0.013462753976468483 1 1 1 1 0.0098386739364853728 1 1 1 1 0.0099713005521903618 1 1 1 1 1 1 1 1 1 0.011923184917926674 1 1 1 1 1 1 1 1 1 1 1 1 1 1 1 1 1 1 1 1 1 1 1 1 1 1 1 1 
</DataArray>
</CellData>
</Piece>
</UnstructuredGrid>
</VTKFile>
